<?xml version="1.0"?>
<VTKFile type="UnstructuredGrid" version="0.1" byte_order="LittleEndian">
<UnstructuredGrid>
<Piece NumberOfPoints="30881" NumberOfCells="10862">
<Points>
<DataArray type="Float64" NumberOfComponents="3" format="ascii">
-0.49999999999999828 -0.48677703703187492 0 -0.5 -0.5 0 -0.48129281494584059 -0.49338851851593718 0 -0.5 -0.5 0 -0.48129281494584059 -0.49338851851593718 0 -0.46258562989168328 -0.5 0 -0.49999999999999828 -0.48677703703187492 0 -0.48129281494584059 -0.49338851851593718 0 -0.49999999999999828 -0.48677703703187492 0 -0.4824545428279598 -0.47451624516148783 0 -0.48129281494584059 -0.49338851851593718 0 -0.49999999999999828 -0.48677703703187492 0 -0.4824545428279598 -0.47451624516148783 0 -0.5 -0.46599539173150673 0 -0.4824545428279598 -0.47451624516148783 0 -0.46853075243710779 -0.48354990242643758 0 -0.46411508256092049 -0.46598235294430129 0 -0.4824545428279598 -0.47451624516148783 0 -0.48129281494584059 -0.49338851851593718 0 -0.46853075243710779 -0.48354990242643758 0 -0.48129281494584059 -0.49338851851593718 0 -0.46258562989168328 -0.5 0 -0.48129281494584059 -0.49338851851593718 0 -0.46258562989168328 -0.5 0 -0.46853075243710779 -0.48354990242643758 0 -0.46258562989168328 -0.5 0 -0.46853075243710779 -0.48354990242643758 0 -0.45147378687733691 -0.48362213557840178 0 -0.46853075243710779 -0.48354990242643758 0 -0.45147378687733691 -0.48362213557840178 0 -0.46411508256092049 -0.46598235294430129 0 -0.4457251648104853 -0.47020164095208389 0 -0.45147378687733691 -0.48362213557840178 0 -0.46411508256092049 -0.46598235294430129 0 -0.4457251648104853 -0.47020164095208389 0 -0.45147378687733691 -0.48362213557840178 0 -0.43513446131126993 -0.48199891714758791 0 -0.45147378687733691 -0.48362213557840178 0 -0.43275163025255442 -0.5 0 -0.43513446131126993 -0.48199891714758791 0 -0.46258562989168328 -0.5 0 -0.45147378687733691 -0.48362213557840178 0 -0.43275163025255442 -0.5 0 -0.4467190029717853 -0.45478934699519452 0 -0.4422915115958943 -0.43555510214664611 0 -0.43246707723660932 -0.44794326854796312 0 -0.4457251648104853 -0.47020164095208389 0 -0.4467190029717853 -0.45478934699519452 0 -0.46411508256092049 -0.46598235294430129 0 -0.4457251648104853 -0.47020164095208389 0 -0.4467190029717853 -0.45478934699519452 0 -0.43016578207734568 -0.46313500011938619 0 -0.4467190029717853 -0.45478934699519452 0 -0.46411508256092049 -0.46598235294430129 0 -0.47114575579794699 -0.4403844242888923 0 -0.4467190029717853 -0.45478934699519452 0 -0.47114575579794699 -0.4403844242888923 0 -0.4422915115958943 -0.43555510214664611 0 -0.47114575579794699 -0.4403844242888923 0 -0.4422915115958943 -0.43555510214664611 0 -0.46411508256092049 -0.46598235294430129 0 -0.47114575579794699 -0.4403844242888923 0 -0.48354307623736548 -0.45841843211146538 0 -0.4824545428279598 -0.47451624516148783 0 -0.46411508256092049 -0.46598235294430129 0 -0.48354307623736548 -0.45841843211146538 0 -0.4824545428279598 -0.47451624516148783 0 -0.48354307623736548 -0.45841843211146538 0 -0.5 -0.46599539173150673 0 -0.48354307623736548 -0.45841843211146538 0 -0.5 -0.46599539173150673 0 -0.49999999999999972 -0.44521374643113848 0 -0.47114575579794699 -0.4403844242888923 0 -0.49999999999999972 -0.44521374643113848 0 -0.47114575579794699 -0.4403844242888923 0 -0.49999999999999972 -0.44521374643113848 0 -0.48704432221743971 -0.42935617662229603 0 -0.47114575579794699 -0.4403844242888923 0 -0.48354307623736548 -0.45841843211146538 0 -0.49999999999999972 -0.44521374643113848 0 -0.49999999999999972 -0.44521374643113848 0 -0.48704432221743971 -0.42935617662229603 0 -0.5 -0.41591957503128979 0 -0.48704432221743971 -0.42935617662229603 0 -0.5 -0.41591957503128979 0 -0.47703153307181151 -0.41590696073786332 0 -0.5 -0.41591957503128979 0 -0.47703153307181151 -0.41590696073786332 0 -0.48817838912021821 -0.4022119694541284 0 -0.47114575579794699 -0.4403844242888923 0 -0.48704432221743971 -0.42935617662229603 0 -0.47703153307181151 -0.41590696073786332 0 -0.5 -0.38662540363144121 0 -0.47568202340906118 -0.39039593841591919 0 -0.4947615751445838 -0.37332156409002909 0 -0.47568202340906118 -0.39039593841591919 0 -0.4947615751445838 -0.37332156409002909 0 -0.5 -0.38662540363144121 0 -0.48817838912021821 -0.4022119694541284 0 -0.47568202340906118 -0.39039593841591919 0 -0.5 -0.41591957503128979 0 -0.5 -0.38662540363144121 0 -0.48817838912021821 -0.4022119694541284 0 -0.47703153307181151 -0.41590696073786332 0 -0.48817838912021821 -0.4022119694541284 0 -0.47568202340906118 -0.39039593841591919 0 -0.47703153307181151 -0.41590696073786332 0 -0.47568202340906118 -0.39039593841591919 0 -0.45660247167353862 -0.40747031274180939 0 -0.47568202340906118 -0.39039593841591919 0 -0.48030931097003587 -0.37191064435083931 0 -0.46669490250066459 -0.37481721741951951 0 -0.47568202340906118 -0.39039593841591919 0 -0.4947615751445838 -0.37332156409002909 0 -0.48030931097003587 -0.37191064435083931 0 -0.45332061783919553 -0.38729481725706361 0 -0.46669490250066459 -0.37481721741951951 0 -0.45095991715087752 -0.36968037302039969 0 -0.47568202340906118 -0.39039593841591919 0 -0.45332061783919553 -0.38729481725706361 0 -0.46669490250066459 -0.37481721741951951 0 -0.47568202340906118 -0.39039593841591919 0 -0.45660247167353862 -0.40747031274180939 0 -0.47568202340906118 -0.39039593841591919 0 -0.45332061783919553 -0.38729481725706361 0 -0.45660247167353862 -0.40747031274180939 0 -0.44332653075004852 -0.401690115615219 0 -0.44646247228389868 -0.41654464256061052 0 -0.42870657106664078 -0.39987574649354879 0 -0.45332061783919553 -0.38729481725706361 0 -0.44332653075004852 -0.401690115615219 0 -0.43479631603355468 -0.39077639303142497 0 -0.45332061783919553 -0.38729481725706361 0 -0.44332653075004852 -0.401690115615219 0 -0.45660247167353862 -0.40747031274180939 0 -0.45332061783919553 -0.38729481725706361 0 -0.43421362475025049 -0.37527491429266319 0 -0.43479631603355468 -0.39077639303142497 0 -0.45332061783919553 -0.38729481725706361 0 -0.43421362475025049 -0.37527491429266319 0 -0.45095991715087752 -0.36968037302039969 0 -0.47114575579794699 -0.4403844242888923 0 -0.45663439814062529 -0.42533932462455271 0 -0.4422915115958943 -0.43555510214664611 0 -0.47114575579794699 -0.4403844242888923 0 -0.47703153307181151 -0.41590696073786332 0 -0.45663439814062529 -0.42533932462455271 0 -0.45663439814062529 -0.42533932462455271 0 -0.45660247167353862 -0.40747031274180939 0 -0.44646247228389868 -0.41654464256061052 0 -0.47703153307181151 -0.41590696073786332 0 -0.45663439814062529 -0.42533932462455271 0 -0.45660247167353862 -0.40747031274180939 0 -0.44332653075004852 -0.401690115615219 0 -0.45660247167353862 -0.40747031274180939 0 -0.44646247228389868 -0.41654464256061052 0 -0.45660247167353862 -0.40747031274180939 0 -0.44646247228389868 -0.41654464256061052 0 -0.44646247228389868 -0.41654464256061052 0 -0.4375229199380159 -0.42454468706769971 0 -0.45663439814062529 -0.42533932462455271 0 -0.4375229199380159 -0.42454468706769971 0 -0.4422915115958943 -0.43555510214664611 0 -0.45663439814062529 -0.42533932462455271 0 -0.44646247228389868 -0.41654464256061052 0 -0.4375229199380159 -0.42454468706769971 0 -0.4375229199380159 -0.42454468706769971 0 -0.4422915115958943 -0.43555510214664611 0 -0.43077617074680319 -0.43406335077952207 0 -0.43077617074680319 -0.43406335077952207 0 -0.42550232634077589 -0.42345940056268039 0 -0.41950844772475421 -0.43888456563633732 0 -0.4375229199380159 -0.42454468706769971 0 -0.43077617074680319 -0.43406335077952207 0 -0.42550232634077589 -0.42345940056268039 0 -0.44646247228389868 -0.41654464256061052 0 -0.41657232816672918 -0.41306671883907142 0 -0.42870657106664078 -0.39987574649354879 0 -0.44646247228389868 -0.41654464256061052 0 -0.4375229199380159 -0.42454468706769971 0 -0.42550232634077589 -0.42345940056268039 0 -0.44646247228389868 -0.41654464256061052 0 -0.42550232634077589 -0.42345940056268039 0 -0.41657232816672918 -0.41306671883907142 0 -0.44646247228389868 -0.41654464256061052 0 -0.41657232816672918 -0.41306671883907142 0 -0.42550232634077589 -0.42345940056268039 0 -0.41657232816672918 -0.41306671883907142 0 -0.41333489101611293 -0.42699700567040988 0 -0.41657232816672918 -0.41306671883907142 0 -0.41333489101611293 -0.42699700567040988 0 -0.39893236021425188 -0.42931692235905211 0 -0.41333489101611293 -0.42699700567040988 0 -0.39893236021425188 -0.42931692235905211 0 -0.41950844772475421 -0.43888456563633732 0 -0.42550232634077589 -0.42345940056268039 0 -0.41333489101611293 -0.42699700567040988 0 -0.41950844772475421 -0.43888456563633732 0 -0.43421362475025049 -0.37527491429266319 0 -0.42478231784314502 -0.38643128255249681 0 -0.41656514696884139 -0.37636588688318029 0 -0.43421362475025049 -0.37527491429266319 0 -0.42478231784314502 -0.38643128255249681 0 -0.43479631603355468 -0.39077639303142497 0 -0.42478231784314502 -0.38643128255249681 0 -0.43479631603355468 -0.39077639303142497 0 -0.42870657106664078 -0.39987574649354879 0 -0.44332653075004852 -0.401690115615219 0 -0.43479631603355468 -0.39077639303142497 0 -0.42870657106664078 -0.39987574649354879 0 -0.41657232816672918 -0.41306671883907142 0 -0.40962993039643741 -0.3898634720616666 0 -0.3946356370269814 -0.39577424904278191 0 -0.42478231784314502 -0.38643128255249681 0 -0.42870657106664078 -0.39987574649354879 0 -0.40962993039643741 -0.3898634720616666 0 -0.41657232816672918 -0.41306671883907142 0 -0.42870657106664078 -0.39987574649354879 0 -0.40962993039643741 -0.3898634720616666 0 -0.42478231784314502 -0.38643128255249681 0 -0.40962993039643741 -0.3898634720616666 0 -0.41656514696884139 -0.37636588688318029 0 -0.40962993039643741 -0.3898634720616666 0 -0.41656514696884139 -0.37636588688318029 0 -0.40465459864295228 -0.37650109000307358 0 -0.39431275766669582 -0.38061373190328529 0 -0.40465459864295228 -0.37650109000307358 0 -0.3968495855878465 -0.36923685638487008 0 -0.40962993039643741 -0.3898634720616666 0 -0.39431275766669582 -0.38061373190328529 0 -0.40465459864295228 -0.37650109000307358 0 -0.40962993039643741 -0.3898634720616666 0 -0.39431275766669582 -0.38061373190328529 0 -0.3946356370269814 -0.39577424904278191 0 -0.3946356370269814 -0.39577424904278191 0 -0.38704143117499401 -0.40999023144455299 0 -0.37464038230528551 -0.396492613407532 0 -0.3946356370269814 -0.39577424904278191 0 -0.37522403377147279 -0.38060127254172499 0 -0.37464038230528551 -0.396492613407532 0 -0.39431275766669582 -0.38061373190328529 0 -0.3946356370269814 -0.39577424904278191 0 -0.37522403377147279 -0.38060127254172499 0 -0.39431275766669582 -0.38061373190328529 0 -0.37522403377147279 -0.38060127254172499 0 -0.38569326772338258 -0.37053454129240582 0 -0.41657232816672918 -0.41306671883907142 0 -0.39893236021425188 -0.42931692235905211 0 -0.38704143117499401 -0.40999023144455299 0 -0.41657232816672918 -0.41306671883907142 0 -0.3946356370269814 -0.39577424904278191 0 -0.38704143117499401 -0.40999023144455299 0 -0.41657232816672918 -0.41306671883907142 0 -0.38704143117499401 -0.40999023144455299 0 -0.38704143117499401 -0.40999023144455299 0 -0.38131756488089769 -0.42670085612339947 0 -0.36377437909963828 -0.41972983174959272 0 -0.38131756488089769 -0.42670085612339947 0 -0.38339996822118783 -0.44368928783448319 0 -0.36866352395763108 -0.4313760290561211 0 -0.39893236021425188 -0.42931692235905211 0 -0.38131756488089769 -0.42670085612339947 0 -0.38339996822118783 -0.44368928783448319 0 -0.39893236021425188 -0.42931692235905211 0 -0.38704143117499401 -0.40999023144455299 0 -0.38131756488089769 -0.42670085612339947 0 -0.38339996822118783 -0.44368928783448319 0 -0.40446438048225181 -0.45117017211807442 0 -0.3895931593355052 -0.46351353191466821 0 -0.39893236021425188 -0.42931692235905211 0 -0.38339996822118783 -0.44368928783448319 0 -0.40446438048225181 -0.45117017211807442 0 -0.40446438048225181 -0.45117017211807442 0 -0.3895931593355052 -0.46351353191466821 0 -0.40280611050484572 -0.47090640128894168 0 -0.38339996822118783 -0.44368928783448319 0 -0.3895931593355052 -0.46351353191466821 0 -0.37415472949075129 -0.45946062715310632 0 -0.3895931593355052 -0.46351353191466821 0 -0.38039451612360919 -0.47713749807852829 0 -0.37415472949075129 -0.45946062715310632 0 -0.38039451612360919 -0.47713749807852829 0 -0.39198476482648659 -0.49312537606366408 0 -0.39366244928105898 -0.47747566409097131 0 -0.3895931593355052 -0.46351353191466821 0 -0.38039451612360919 -0.47713749807852829 0 -0.39366244928105898 -0.47747566409097131 0 -0.39198476482648659 -0.49312537606366408 0 -0.37055643484088358 -0.49425936316784103 0 -0.39198476482648659 -0.49312537606366408 0 -0.40291763061342539 -0.5 0 -0.37308363097429631 -0.50000000000000244 0 -0.39198476482648659 -0.49312537606366408 0 -0.37055643484088358 -0.49425936316784103 0 -0.37308363097429631 -0.50000000000000244 0 -0.38039451612360919 -0.47713749807852829 0 -0.39198476482648659 -0.49312537606366408 0 -0.37055643484088358 -0.49425936316784103 0 -0.39198476482648659 -0.49312537606366408 0 -0.41341309481208982 -0.49199138895948757 0 -0.39198476482648659 -0.49312537606366408 0 -0.39366244928105898 -0.47747566409097131 0 -0.40353369561484831 -0.48269551310905429 0 -0.39198476482648659 -0.49312537606366408 0 -0.40291763061342539 -0.5 0 -0.41341309481208982 -0.49199138895948757 0 -0.39198476482648659 -0.49312537606366408 0 -0.40353369561484831 -0.48269551310905429 0 -0.41341309481208982 -0.49199138895948757 0 -0.3895931593355052 -0.46351353191466821 0 -0.39366244928105898 -0.47747566409097131 0 -0.40280611050484572 -0.47090640128894168 0 -0.39366244928105898 -0.47747566409097131 0 -0.40353369561484831 -0.48269551310905429 0 -0.40280611050484572 -0.47090640128894168 0 -0.40280611050484572 -0.47090640128894168 0 -0.41792735015940108 -0.47619959015896091 0 -0.41524515795200517 -0.46243146669528151 0 -0.40353369561484831 -0.48269551310905429 0 -0.41792735015940108 -0.47619959015896091 0 -0.41341309481208982 -0.49199138895948757 0 -0.40353369561484831 -0.48269551310905429 0 -0.40280611050484572 -0.47090640128894168 0 -0.41792735015940108 -0.47619959015896091 0 -0.41792735015940108 -0.47619959015896091 0 -0.41341309481208982 -0.49199138895948757 0 -0.42480663413382869 -0.48754747406650911 0 -0.40291763061342539 -0.5 0 -0.41341309481208982 -0.49199138895948757 0 -0.43275163025255442 -0.5 0 -0.41341309481208982 -0.49199138895948757 0 -0.42480663413382869 -0.48754747406650911 0 -0.43275163025255442 -0.5 0 -0.42480663413382869 -0.48754747406650911 0 -0.43275163025255442 -0.5 0 -0.43513446131126993 -0.48199891714758791 0 -0.4457251648104853 -0.47020164095208389 0 -0.43513446131126993 -0.48199891714758791 0 -0.43016578207734568 -0.46313500011938619 0 -0.41792735015940108 -0.47619959015896091 0 -0.43513446131126993 -0.48199891714758791 0 -0.43016578207734568 -0.46313500011938619 0 -0.41792735015940108 -0.47619959015896091 0 -0.42480663413382869 -0.48754747406650911 0 -0.43513446131126993 -0.48199891714758791 0 -0.4467190029717853 -0.45478934699519452 0 -0.43016578207734568 -0.46313500011938619 0 -0.43246707723660932 -0.44794326854796312 0 -0.43016578207734568 -0.46313500011938619 0 -0.42051073979218989 -0.45215097324273301 0 -0.41524515795200517 -0.46243146669528151 0 -0.43016578207734568 -0.46313500011938619 0 -0.43246707723660932 -0.44794326854796312 0 -0.42051073979218989 -0.45215097324273301 0 -0.4422915115958943 -0.43555510214664611 0 -0.43077617074680319 -0.43406335077952207 0 -0.43246707723660932 -0.44794326854796312 0 -0.43077617074680319 -0.43406335077952207 0 -0.43246707723660932 -0.44794326854796312 0 -0.41950844772475421 -0.43888456563633732 0 -0.43246707723660932 -0.44794326854796312 0 -0.42051073979218989 -0.45215097324273301 0 -0.41950844772475421 -0.43888456563633732 0 -0.39893236021425188 -0.42931692235905211 0 -0.40446438048225181 -0.45117017211807442 0 -0.41950844772475421 -0.43888456563633732 0 -0.40446438048225181 -0.45117017211807442 0 -0.42051073979218989 -0.45215097324273301 0 -0.41950844772475421 -0.43888456563633732 0 -0.40446438048225181 -0.45117017211807442 0 -0.42051073979218989 -0.45215097324273301 0 -0.41524515795200517 -0.46243146669528151 0 -0.40446438048225181 -0.45117017211807442 0 -0.40280611050484572 -0.47090640128894168 0 -0.41524515795200517 -0.46243146669528151 0 -0.41792735015940108 -0.47619959015896091 0 -0.43016578207734568 -0.46313500011938619 0 -0.41524515795200517 -0.46243146669528151 0 -0.45018232007011222 -0.256765034028549 0 -0.429874989515865 -0.26165756953837482 0 -0.43598079583492633 -0.24721882136819351 0 -0.45018232007011222 -0.256765034028549 0 -0.43765198640052377 -0.27443700488157741 0 -0.429874989515865 -0.26165756953837482 0 -0.45018232007011222 -0.256765034028549 0 -0.43598079583492633 -0.24721882136819351 0 -0.45139902778349827 -0.24711062934306771 0 -0.45018232007011222 -0.256765034028549 0 -0.43765198640052377 -0.27443700488157741 0 -0.46196722525855399 -0.27174391220054139 0 -0.43765198640052377 -0.27443700488157741 0 -0.46196722525855399 -0.27174391220054139 0 -0.4476129789611048 -0.29283803371489903 0 -0.46196722525855399 -0.27174391220054139 0 -0.48050148842732221 -0.25523221810557922 0 -0.46267023581878858 -0.24817136713935201 0 -0.45018232007011222 -0.256765034028549 0 -0.46196722525855399 -0.27174391220054139 0 -0.46267023581878858 -0.24817136713935201 0 -0.45018232007011222 -0.256765034028549 0 -0.46267023581878858 -0.24817136713935201 0 -0.45139902778349827 -0.24711062934306771 0 -0.48050148842732221 -0.25523221810557922 0 -0.5 -0.26944871803204617 0 -0.5 -0.2401545466321974 0 -0.48050148842732221 -0.25523221810557922 0 -0.5 -0.26944871803204617 0 -0.48245797385404121 -0.28063059353633901 0 -0.46196722525855399 -0.27174391220054139 0 -0.48050148842732221 -0.25523221810557922 0 -0.48245797385404121 -0.28063059353633901 0 -0.46196722525855399 -0.27174391220054139 0 -0.48245797385404121 -0.28063059353633901 0 -0.46937090116945868 -0.29821258941183898 0 -0.48245797385404121 -0.28063059353633901 0 -0.5 -0.29874288943189498 0 -0.46937090116945868 -0.29821258941183898 0 -0.5 -0.26944871803204617 0 -0.48245797385404121 -0.28063059353633901 0 -0.5 -0.29874288943189498 0 -0.5 -0.29874288943189498 0 -0.46937090116945868 -0.29821258941183898 0 -0.47623524987602139 -0.32201367690444971 0 -0.46937090116945868 -0.29821258941183898 0 -0.4476129789611048 -0.29283803371489903 0 -0.45018982867155483 -0.32180400573951162 0 -0.46196722525855399 -0.27174391220054139 0 -0.46937090116945868 -0.29821258941183898 0 -0.4476129789611048 -0.29283803371489903 0 -0.43765198640052377 -0.27443700488157741 0 -0.4476129789611048 -0.29283803371489903 0 -0.43236213870239748 -0.29002705800971151 0 -0.4476129789611048 -0.29283803371489903 0 -0.45018982867155483 -0.32180400573951162 0 -0.4314578060398388 -0.3048790663939604 0 -0.45018982867155483 -0.32180400573951162 0 -0.4314578060398388 -0.3048790663939604 0 -0.45018982867155483 -0.32180400573951162 0 -0.46157657978994598 -0.34139555482026068 0 -0.43521386225128428 -0.33802231259611382 0 -0.46157657978994598 -0.34139555482026068 0 -0.43521386225128428 -0.33802231259611382 0 -0.45018982867155483 -0.32180400573951162 0 -0.46157657978994598 -0.34139555482026068 0 -0.47623524987602139 -0.32201367690444971 0 -0.46937090116945868 -0.29821258941183898 0 -0.45018982867155483 -0.32180400573951162 0 -0.47623524987602139 -0.32201367690444971 0 -0.5 -0.29874288943189498 0 -0.47623524987602139 -0.32201367690444971 0 -0.5 -0.32803706083174372 0 -0.47623524987602139 -0.32201367690444971 0 -0.5 -0.32803706083174372 0 -0.48561656391384522 -0.34384835974822991 0 -0.5 -0.32803706083174372 0 -0.5 -0.35733123223159241 0 -0.48561656391384522 -0.34384835974822991 0 -0.46157657978994598 -0.34139555482026068 0 -0.47623524987602139 -0.32201367690444971 0 -0.48561656391384522 -0.34384835974822991 0 -0.46157657978994598 -0.34139555482026068 0 -0.47568148196104371 -0.35852722048879659 0 -0.48561656391384522 -0.34384835974822991 0 -0.47568148196104371 -0.35852722048879659 0 -0.48561656391384522 -0.34384835974822991 0 -0.48768886795130861 -0.36141736908419309 0 -0.5 -0.35733123223159241 0 -0.48561656391384522 -0.34384835974822991 0 -0.48768886795130861 -0.36141736908419309 0 -0.5 -0.35733123223159241 0 -0.4947615751445838 -0.37332156409002909 0 -0.48768886795130861 -0.36141736908419309 0 -0.5 -0.38662540363144121 0 -0.5 -0.35733123223159241 0 -0.4947615751445838 -0.37332156409002909 0 -0.4947615751445838 -0.37332156409002909 0 -0.48768886795130861 -0.36141736908419309 0 -0.48030931097003587 -0.37191064435083931 0 -0.47568148196104371 -0.35852722048879659 0 -0.48030931097003587 -0.37191064435083931 0 -0.46669490250066459 -0.37481721741951951 0 -0.47568148196104371 -0.35852722048879659 0 -0.48768886795130861 -0.36141736908419309 0 -0.48030931097003587 -0.37191064435083931 0 -0.46669490250066459 -0.37481721741951951 0 -0.45985290530711531 -0.35919053618658509 0 -0.45095991715087752 -0.36968037302039969 0 -0.47568148196104371 -0.35852722048879659 0 -0.46669490250066459 -0.37481721741951951 0 -0.45985290530711531 -0.35919053618658509 0 -0.46157657978994598 -0.34139555482026068 0 -0.47568148196104371 -0.35852722048879659 0 -0.45985290530711531 -0.35919053618658509 0 -0.46157657978994598 -0.34139555482026068 0 -0.45985290530711531 -0.35919053618658509 0 -0.44091292170358748 -0.35617636658334351 0 -0.46157657978994598 -0.34139555482026068 0 -0.44091292170358748 -0.35617636658334351 0 -0.43521386225128428 -0.33802231259611382 0 -0.43421362475025049 -0.37527491429266319 0 -0.44091292170358748 -0.35617636658334351 0 -0.45095991715087752 -0.36968037302039969 0 -0.45985290530711531 -0.35919053618658509 0 -0.44091292170358748 -0.35617636658334351 0 -0.45095991715087752 -0.36968037302039969 0 -0.43421362475025049 -0.37527491429266319 0 -0.41656514696884139 -0.37636588688318029 0 -0.42218579342164808 -0.36334977441807748 0 -0.43421362475025049 -0.37527491429266319 0 -0.44091292170358748 -0.35617636658334351 0 -0.42218579342164808 -0.36334977441807748 0 -0.44091292170358748 -0.35617636658334351 0 -0.42218579342164808 -0.36334977441807748 0 -0.42066840753926321 -0.34864312644900147 0 -0.44091292170358748 -0.35617636658334351 0 -0.42066840753926321 -0.34864312644900147 0 -0.43521386225128428 -0.33802231259611382 0 -0.42218579342164808 -0.36334977441807748 0 -0.42066840753926321 -0.34864312644900147 0 -0.40690054455725883 -0.35815659477868023 0 -0.40690054455725883 -0.35815659477868023 0 -0.40885114471262263 -0.334649070371968 0 -0.42066840753926321 -0.34864312644900147 0 -0.40690054455725883 -0.35815659477868023 0 -0.40885114471262263 -0.334649070371968 0 -0.42218579342164808 -0.36334977441807748 0 -0.40690054455725883 -0.35815659477868023 0 -0.40625971269279348 -0.36587953617857771 0 -0.40690054455725883 -0.35815659477868023 0 -0.40625971269279348 -0.36587953617857771 0 -0.41656514696884139 -0.37636588688318029 0 -0.42218579342164808 -0.36334977441807748 0 -0.40625971269279348 -0.36587953617857771 0 -0.42218579342164808 -0.36334977441807748 0 -0.40690054455725883 -0.35815659477868023 0 -0.41656514696884139 -0.37636588688318029 0 -0.40465459864295228 -0.37650109000307358 0 -0.40625971269279348 -0.36587953617857771 0 -0.40465459864295228 -0.37650109000307358 0 -0.40625971269279348 -0.36587953617857771 0 -0.3968495855878465 -0.36923685638487008 0 -0.40690054455725883 -0.35815659477868023 0 -0.40029228617445223 -0.36350286704594809 0 -0.3911593018599101 -0.36073848084166482 0 -0.40625971269279348 -0.36587953617857771 0 -0.40029228617445223 -0.36350286704594809 0 -0.3968495855878465 -0.36923685638487008 0 -0.40690054455725883 -0.35815659477868023 0 -0.40625971269279348 -0.36587953617857771 0 -0.40029228617445223 -0.36350286704594809 0 -0.3911593018599101 -0.36073848084166482 0 -0.3968495855878465 -0.36923685638487008 0 -0.38569326772338258 -0.37053454129240582 0 -0.40029228617445223 -0.36350286704594809 0 -0.3911593018599101 -0.36073848084166482 0 -0.3968495855878465 -0.36923685638487008 0 -0.39431275766669582 -0.38061373190328529 0 -0.3968495855878465 -0.36923685638487008 0 -0.38569326772338258 -0.37053454129240582 0 -0.3911593018599101 -0.36073848084166482 0 -0.38569326772338258 -0.37053454129240582 0 -0.37568472164775779 -0.36524225821647011 0 -0.37522403377147279 -0.38060127254172499 0 -0.38569326772338258 -0.37053454129240582 0 -0.37568472164775779 -0.36524225821647011 0 -0.3911593018599101 -0.36073848084166482 0 -0.37568472164775779 -0.36524225821647011 0 -0.38024887903539811 -0.3491016629308506 0 -0.40690054455725883 -0.35815659477868023 0 -0.3911593018599101 -0.36073848084166482 0 -0.38024887903539811 -0.3491016629308506 0 -0.40690054455725883 -0.35815659477868023 0 -0.38024887903539811 -0.3491016629308506 0 -0.39533213247953691 -0.34338662223350158 0 -0.40690054455725883 -0.35815659477868023 0 -0.39533213247953691 -0.34338662223350158 0 -0.40885114471262263 -0.334649070371968 0 -0.40690054455725883 -0.35815659477868023 0 -0.38024887903539811 -0.3491016629308506 0 -0.39533213247953691 -0.34338662223350158 0 -0.38532796161286798 -0.33163916085250739 0 -0.40885114471262263 -0.334649070371968 0 -0.38532796161286798 -0.33163916085250739 0 -0.40885114471262263 -0.334649070371968 0 -0.38024887903539811 -0.3491016629308506 0 -0.39533213247953691 -0.34338662223350158 0 -0.38532796161286798 -0.33163916085250739 0 -0.38024887903539811 -0.3491016629308506 0 -0.38532796161286798 -0.33163916085250739 0 -0.37024470816872912 -0.33735420154985679 0 -0.38532796161286798 -0.33163916085250739 0 -0.37601492727600683 -0.3197696392392384 0 -0.39293033406270472 -0.31505081143976649 0 -0.37601492727600683 -0.3197696392392384 0 -0.39293033406270472 -0.31505081143976649 0 -0.37651642550459341 -0.307078797330949 0 -0.38532796161286798 -0.33163916085250739 0 -0.39293033406270472 -0.31505081143976649 0 -0.40885114471262263 -0.334649070371968 0 -0.39293033406270472 -0.31505081143976649 0 -0.40885114471262263 -0.334649070371968 0 -0.41078846406037228 -0.3113015987101887 0 -0.40885114471262263 -0.334649070371968 0 -0.42554877913925399 -0.3223331804902434 0 -0.41078846406037228 -0.3113015987101887 0 -0.40885114471262263 -0.334649070371968 0 -0.41078846406037228 -0.3113015987101887 0 -0.42066840753926321 -0.34864312644900147 0 -0.40885114471262263 -0.334649070371968 0 -0.43521386225128428 -0.33802231259611382 0 -0.40885114471262263 -0.334649070371968 0 -0.43521386225128428 -0.33802231259611382 0 -0.40885114471262263 -0.334649070371968 0 -0.43521386225128428 -0.33802231259611382 0 -0.42554877913925399 -0.3223331804902434 0 -0.42554877913925399 -0.3223331804902434 0 -0.4314578060398388 -0.3048790663939604 0 -0.41078846406037228 -0.3113015987101887 0 -0.45018982867155483 -0.32180400573951162 0 -0.43521386225128428 -0.33802231259611382 0 -0.42554877913925399 -0.3223331804902434 0 -0.45018982867155483 -0.32180400573951162 0 -0.42554877913925399 -0.3223331804902434 0 -0.4314578060398388 -0.3048790663939604 0 -0.4476129789611048 -0.29283803371489903 0 -0.4314578060398388 -0.3048790663939604 0 -0.43236213870239748 -0.29002705800971151 0 -0.4314578060398388 -0.3048790663939604 0 -0.43236213870239748 -0.29002705800971151 0 -0.41272578340812272 -0.2879541270484095 0 -0.4314578060398388 -0.3048790663939604 0 -0.41272578340812272 -0.2879541270484095 0 -0.43765198640052377 -0.27443700488157741 0 -0.43236213870239748 -0.29002705800971151 0 -0.41272578340812272 -0.2879541270484095 0 -0.4314578060398388 -0.3048790663939604 0 -0.41272578340812272 -0.2879541270484095 0 -0.41078846406037228 -0.3113015987101887 0 -0.41272578340812272 -0.2879541270484095 0 -0.41078846406037228 -0.3113015987101887 0 -0.41272578340812272 -0.2879541270484095 0 -0.41078846406037228 -0.3113015987101887 0 -0.39233272698174793 -0.29435547039456872 0 -0.39293033406270472 -0.31505081143976649 0 -0.41078846406037228 -0.3113015987101887 0 -0.39233272698174793 -0.29435547039456872 0 -0.39293033406270472 -0.31505081143976649 0 -0.37651642550459341 -0.307078797330949 0 -0.39233272698174793 -0.29435547039456872 0 -0.39233272698174793 -0.29435547039456872 0 -0.39278725088820249 -0.26993907014966689 0 -0.37040839911066209 -0.28171057629616708 0 -0.37651642550459341 -0.307078797330949 0 -0.39233272698174793 -0.29435547039456872 0 -0.37040839911066209 -0.28171057629616708 0 -0.41272578340812272 -0.2879541270484095 0 -0.39233272698174793 -0.29435547039456872 0 -0.39278725088820249 -0.26993907014966689 0 -0.41272578340812272 -0.2879541270484095 0 -0.39278725088820249 -0.26993907014966689 0 -0.39278725088820249 -0.26993907014966689 0 -0.37040839911066209 -0.28171057629616708 0 -0.39278725088820249 -0.26993907014966689 0 -0.37533687834285862 -0.25417213976024849 0 -0.37040839911066209 -0.28171057629616708 0 -0.39278725088820249 -0.26993907014966689 0 -0.37533687834285862 -0.25417213976024849 0 -0.39826986996263802 -0.25360934065352753 0 -0.39278725088820249 -0.26993907014966689 0 -0.37533687834285862 -0.25417213976024849 0 -0.39278725088820249 -0.26993907014966689 0 -0.39826986996263802 -0.25360934065352753 0 -0.41519883225968468 -0.25815034790020708 0 -0.39278725088820249 -0.26993907014966689 0 -0.41519883225968468 -0.25815034790020708 0 -0.39826986996263802 -0.25360934065352753 0 -0.41519883225968468 -0.25815034790020708 0 -0.41615383063077721 -0.2466412503256647 0 -0.41519883225968468 -0.25815034790020708 0 -0.41615383063077721 -0.2466412503256647 0 -0.41272578340812272 -0.2879541270484095 0 -0.41519883225968468 -0.25815034790020708 0 -0.41272578340812272 -0.2879541270484095 0 -0.41519883225968468 -0.25815034790020708 0 -0.429874989515865 -0.26165756953837482 0 -0.41272578340812272 -0.2879541270484095 0 -0.39278725088820249 -0.26993907014966689 0 -0.41519883225968468 -0.25815034790020708 0 -0.43765198640052377 -0.27443700488157741 0 -0.41272578340812272 -0.2879541270484095 0 -0.429874989515865 -0.26165756953837482 0 -0.41519883225968468 -0.25815034790020708 0 -0.43598079583492633 -0.24721882136819351 0 -0.41519883225968468 -0.25815034790020708 0 -0.429874989515865 -0.26165756953837482 0 -0.43598079583492633 -0.24721882136819351 0 -0.41519883225968468 -0.25815034790020708 0 -0.43598079583492633 -0.24721882136819351 0 -0.41615383063077721 -0.2466412503256647 0 -0.31968345090478489 -0.25798973640781447 0 -0.33623326073948312 -0.25365348176558788 0 -0.32213598881581812 -0.2442700999577708 0 -0.31968345090478489 -0.25798973640781447 0 -0.31319680135340772 -0.27337899374224139 0 -0.30564385326437488 -0.26015983685037081 0 -0.31968345090478489 -0.25798973640781447 0 -0.31319680135340772 -0.27337899374224139 0 -0.33256675641106698 -0.27199424518209242 0 -0.31319680135340772 -0.27337899374224139 0 -0.33256675641106698 -0.27199424518209242 0 -0.3219330120753135 -0.28752383142540722 0 -0.33256675641106698 -0.27199424518209242 0 -0.33623326073948312 -0.25365348176558788 0 -0.35329637777243872 -0.26495799818728782 0 -0.31968345090478489 -0.25798973640781447 0 -0.33256675641106698 -0.27199424518209242 0 -0.33623326073948312 -0.25365348176558788 0 -0.33623326073948312 -0.25365348176558788 0 -0.35329637777243872 -0.26495799818728782 0 -0.35305879752332059 -0.24486073726717009 0 -0.37533687834285862 -0.25417213976024849 0 -0.35329637777243872 -0.26495799818728782 0 -0.35305879752332059 -0.24486073726717009 0 -0.37533687834285862 -0.25417213976024849 0 -0.35329637777243872 -0.26495799818728782 0 -0.37040839911066209 -0.28171057629616708 0 -0.35329637777243872 -0.26495799818728782 0 -0.34802954733312141 -0.29348208244266671 0 -0.37040839911066209 -0.28171057629616708 0 -0.33256675641106698 -0.27199424518209242 0 -0.35329637777243872 -0.26495799818728782 0 -0.34802954733312141 -0.29348208244266671 0 -0.34802954733312141 -0.29348208244266671 0 -0.37040839911066209 -0.28171057629616708 0 -0.37651642550459341 -0.307078797330949 0 -0.37040839911066209 -0.28171057629616708 0 -0.36249180620921062 -0.30132401124355712 0 -0.34802954733312141 -0.29348208244266671 0 -0.37040839911066209 -0.28171057629616708 0 -0.36249180620921062 -0.30132401124355712 0 -0.37651642550459341 -0.307078797330949 0 -0.36249180620921062 -0.30132401124355712 0 -0.36514172279026702 -0.314674684486903 0 -0.36249180620921062 -0.30132401124355712 0 -0.35217384865543538 -0.31302074178168637 0 -0.36514172279026702 -0.314674684486903 0 -0.34802954733312141 -0.29348208244266671 0 -0.33894022777705518 -0.31261958861733652 0 -0.35217384865543538 -0.31302074178168637 0 -0.34802954733312141 -0.29348208244266671 0 -0.36249180620921062 -0.30132401124355712 0 -0.35217384865543538 -0.31302074178168637 0 -0.34802954733312141 -0.29348208244266671 0 -0.32565069555558063 -0.30525358858916618 0 -0.33894022777705518 -0.31261958861733652 0 -0.34802954733312141 -0.29348208244266671 0 -0.32565069555558063 -0.30525358858916618 0 -0.32565069555558063 -0.30525358858916618 0 -0.32940773276489932 -0.31652548782855527 0 -0.33894022777705518 -0.31261958861733652 0 -0.33256675641106698 -0.27199424518209242 0 -0.34802954733312141 -0.29348208244266671 0 -0.3219330120753135 -0.28752383142540722 0 -0.34802954733312141 -0.29348208244266671 0 -0.3219330120753135 -0.28752383142540722 0 -0.32565069555558063 -0.30525358858916618 0 -0.3219330120753135 -0.28752383142540722 0 -0.31228269981280887 -0.29918463989613459 0 -0.30483638085835207 -0.28788342401786787 0 -0.31319680135340772 -0.27337899374224139 0 -0.3219330120753135 -0.28752383142540722 0 -0.30483638085835207 -0.28788342401786787 0 -0.32565069555558063 -0.30525358858916618 0 -0.30327184377803978 -0.31702509473566581 0 -0.31228269981280887 -0.29918463989613459 0 -0.3219330120753135 -0.28752383142540722 0 -0.32565069555558063 -0.30525358858916618 0 -0.31228269981280887 -0.29918463989613459 0 -0.32565069555558063 -0.30525358858916618 0 -0.30327184377803978 -0.31702509473566581 0 -0.31475841231360341 -0.32260943229412947 0 -0.32694554799167658 -0.33099179923519167 0 -0.33828159541335823 -0.32561934181358893 0 -0.32565069555558063 -0.30525358858916618 0 -0.31475841231360341 -0.32260943229412947 0 -0.30327184377803978 -0.31702509473566581 0 -0.31475841231360341 -0.32260943229412947 0 -0.33828159541335823 -0.32561934181358893 0 -0.32940773276489932 -0.31652548782855527 0 -0.32565069555558063 -0.30525358858916618 0 -0.31475841231360341 -0.32260943229412947 0 -0.32940773276489932 -0.31652548782855527 0 -0.31475841231360341 -0.32260943229412947 0 -0.33828159541335823 -0.32561934181358893 0 -0.31475841231360341 -0.32260943229412947 0 -0.31372637242327511 -0.33497634201883658 0 -0.32694554799167658 -0.33099179923519167 0 -0.32694554799167658 -0.33099179923519167 0 -0.32737612656656928 -0.35021722948502532 0 -0.3170311031704231 -0.34491623006635341 0 -0.31372637242327511 -0.33497634201883658 0 -0.32694554799167658 -0.33099179923519167 0 -0.3170311031704231 -0.34491623006635341 0 -0.31372637242327511 -0.33497634201883658 0 -0.3170311031704231 -0.34491623006635341 0 -0.30849554643820359 -0.34481279163420842 0 -0.32694554799167658 -0.33099179923519167 0 -0.33828159541335823 -0.32561934181358893 0 -0.35359721351353718 -0.34004673108302108 0 -0.32694554799167658 -0.33099179923519167 0 -0.35359721351353718 -0.34004673108302108 0 -0.33765025977867152 -0.34480892108230998 0 -0.32694554799167658 -0.33099179923519167 0 -0.35359721351353718 -0.34004673108302108 0 -0.32694554799167658 -0.33099179923519167 0 -0.33765025977867152 -0.34480892108230998 0 -0.32737612656656928 -0.35021722948502532 0 -0.33828159541335823 -0.32561934181358893 0 -0.32940773276489932 -0.31652548782855527 0 -0.33894022777705518 -0.31261958861733652 0 -0.33828159541335823 -0.32561934181358893 0 -0.33894022777705518 -0.31261958861733652 0 -0.35217384865543538 -0.31302074178168637 0 -0.33828159541335823 -0.32561934181358893 0 -0.3618047785131131 -0.32862925133304821 0 -0.33828159541335823 -0.32561934181358893 0 -0.35217384865543538 -0.31302074178168637 0 -0.3618047785131131 -0.32862925133304821 0 -0.38532796161286798 -0.33163916085250739 0 -0.37601492727600683 -0.3197696392392384 0 -0.3618047785131131 -0.32862925133304821 0 -0.35217384865543538 -0.31302074178168637 0 -0.36514172279026702 -0.314674684486903 0 -0.3618047785131131 -0.32862925133304821 0 -0.37601492727600683 -0.3197696392392384 0 -0.36514172279026702 -0.314674684486903 0 -0.3618047785131131 -0.32862925133304821 0 -0.37601492727600683 -0.3197696392392384 0 -0.37651642550459341 -0.307078797330949 0 -0.36514172279026702 -0.314674684486903 0 -0.38532796161286798 -0.33163916085250739 0 -0.37024470816872912 -0.33735420154985679 0 -0.3618047785131131 -0.32862925133304821 0 -0.37024470816872912 -0.33735420154985679 0 -0.3618047785131131 -0.32862925133304821 0 -0.35359721351353718 -0.34004673108302108 0 -0.38532796161286798 -0.33163916085250739 0 -0.3618047785131131 -0.32862925133304821 0 -0.38024887903539811 -0.3491016629308506 0 -0.37024470816872912 -0.33735420154985679 0 -0.35359721351353718 -0.34004673108302108 0 -0.33828159541335823 -0.32561934181358893 0 -0.3618047785131131 -0.32862925133304821 0 -0.35359721351353718 -0.34004673108302108 0 -0.35359721351353718 -0.34004673108302108 0 -0.36247207576052709 -0.35740109745143939 0 -0.34268215104290278 -0.35797992452600158 0 -0.35359721351353718 -0.34004673108302108 0 -0.34268215104290278 -0.35797992452600158 0 -0.33765025977867152 -0.34480892108230998 0 -0.37568472164775779 -0.36524225821647011 0 -0.38024887903539811 -0.3491016629308506 0 -0.36247207576052709 -0.35740109745143939 0 -0.38024887903539811 -0.3491016629308506 0 -0.35359721351353718 -0.34004673108302108 0 -0.36247207576052709 -0.35740109745143939 0 -0.38024887903539811 -0.3491016629308506 0 -0.35359721351353718 -0.34004673108302108 0 -0.37522403377147279 -0.38060127254172499 0 -0.37568472164775779 -0.36524225821647011 0 -0.35964608014779109 -0.37334112637938882 0 -0.37568472164775779 -0.36524225821647011 0 -0.36247207576052709 -0.35740109745143939 0 -0.35964608014779109 -0.37334112637938882 0 -0.36247207576052709 -0.35740109745143939 0 -0.35964608014779109 -0.37334112637938882 0 -0.34268215104290278 -0.35797992452600158 0 -0.35964608014779109 -0.37334112637938882 0 -0.34268215104290278 -0.35797992452600158 0 -0.34254000635277743 -0.38197763020755832 0 -0.34268215104290278 -0.35797992452600158 0 -0.32737612656656928 -0.35021722948502532 0 -0.32270418411731933 -0.37181077970513959 0 -0.34268215104290278 -0.35797992452600158 0 -0.32270418411731933 -0.37181077970513959 0 -0.34254000635277743 -0.38197763020755832 0 -0.34268215104290278 -0.35797992452600158 0 -0.34254000635277743 -0.38197763020755832 0 -0.34268215104290278 -0.35797992452600158 0 -0.33765025977867152 -0.34480892108230998 0 -0.32737612656656928 -0.35021722948502532 0 -0.32737612656656928 -0.35021722948502532 0 -0.31662274924076123 -0.35606216629487569 0 -0.32270418411731933 -0.37181077970513959 0 -0.32737612656656928 -0.35021722948502532 0 -0.3170311031704231 -0.34491623006635341 0 -0.31662274924076123 -0.35606216629487569 0 -0.3170311031704231 -0.34491623006635341 0 -0.31662274924076123 -0.35606216629487569 0 -0.30902027636205309 -0.35243705172998302 0 -0.31662274924076123 -0.35606216629487569 0 -0.32270418411731933 -0.37181077970513959 0 -0.30796050174877349 -0.36016317053514468 0 -0.32270418411731933 -0.37181077970513959 0 -0.29719619905707523 -0.36594012765828582 0 -0.30796050174877349 -0.36016317053514468 0 -0.32270418411731933 -0.37181077970513959 0 -0.29719619905707523 -0.36594012765828582 0 -0.3103864423796594 -0.37828470113645102 0 -0.32270418411731933 -0.37181077970513959 0 -0.29719619905707523 -0.36594012765828582 0 -0.29719619905707523 -0.36594012765828582 0 -0.29943295026653399 -0.35953932364306618 0 -0.30796050174877349 -0.36016317053514468 0 -0.29719619905707523 -0.36594012765828582 0 -0.29584447723995128 -0.37444813956539807 0 -0.3103864423796594 -0.37828470113645102 0 -0.31662274924076123 -0.35606216629487569 0 -0.30796050174877349 -0.36016317053514468 0 -0.30902027636205309 -0.35243705172998302 0 -0.30796050174877349 -0.36016317053514468 0 -0.30902027636205309 -0.35243705172998302 0 -0.30278665144889838 -0.35518957417951802 0 -0.3170311031704231 -0.34491623006635341 0 -0.30902027636205309 -0.35243705172998302 0 -0.30849554643820359 -0.34481279163420842 0 -0.30902027636205309 -0.35243705172998302 0 -0.30849554643820359 -0.34481279163420842 0 -0.30076474035813339 -0.34759465108555682 0 -0.30849554643820359 -0.34481279163420842 0 -0.30076474035813339 -0.34759465108555682 0 -0.30398917998114899 -0.33934800480643368 0 -0.30902027636205309 -0.35243705172998302 0 -0.30076474035813339 -0.34759465108555682 0 -0.30278665144889838 -0.35518957417951802 0 -0.29943295026653399 -0.35953932364306618 0 -0.30796050174877349 -0.36016317053514468 0 -0.30278665144889838 -0.35518957417951802 0 -0.30076474035813339 -0.34759465108555682 0 -0.30278665144889838 -0.35518957417951802 0 -0.29719830368448108 -0.35301728683459582 0 -0.29943295026653399 -0.35953932364306618 0 -0.30278665144889838 -0.35518957417951802 0 -0.29719830368448108 -0.35301728683459582 0 -0.29943295026653399 -0.35953932364306618 0 -0.29719830368448108 -0.35301728683459582 0 -0.29016743694869812 -0.35649807524262711 0 -0.29016743694869812 -0.35649807524262711 0 -0.28284547851944208 -0.35047845284871731 0 -0.27168821399683141 -0.36006947561143121 0 -0.29719830368448108 -0.35301728683459582 0 -0.29016743694869812 -0.35649807524262711 0 -0.2925915294609488 -0.34919256188026188 0 -0.2925915294609488 -0.34919256188026188 0 -0.28611540962297188 -0.3426453659285974 0 -0.29619358151489988 -0.34015641309103278 0 -0.30076474035813339 -0.34759465108555682 0 -0.29719830368448108 -0.35301728683459582 0 -0.2925915294609488 -0.34919256188026188 0 -0.30076474035813339 -0.34759465108555682 0 -0.2925915294609488 -0.34919256188026188 0 -0.29619358151489988 -0.34015641309103278 0 -0.2925915294609488 -0.34919256188026188 0 -0.28284547851944208 -0.35047845284871731 0 -0.28611540962297188 -0.3426453659285974 0 -0.28284547851944208 -0.35047845284871731 0 -0.27676447355633299 -0.3457480812413124 0 -0.28611540962297188 -0.3426453659285974 0 -0.29016743694869812 -0.35649807524262711 0 -0.2925915294609488 -0.34919256188026188 0 -0.28284547851944208 -0.35047845284871731 0 -0.29202770366946113 -0.36668513997228358 0 -0.27168821399683141 -0.36006947561143121 0 -0.28307956849111848 -0.3828068929804474 0 -0.29719619905707523 -0.36594012765828582 0 -0.27168821399683141 -0.36006947561143121 0 -0.29202770366946113 -0.36668513997228358 0 -0.28307956849111848 -0.3828068929804474 0 -0.29202770366946113 -0.36668513997228358 0 -0.29584447723995128 -0.37444813956539807 0 -0.28307956849111848 -0.3828068929804474 0 -0.29719619905707523 -0.36594012765828582 0 -0.29016743694869812 -0.35649807524262711 0 -0.27168821399683141 -0.36006947561143121 0 -0.29719619905707523 -0.36594012765828582 0 -0.29202770366946113 -0.36668513997228358 0 -0.27168821399683141 -0.36006947561143121 0 -0.29719619905707523 -0.36594012765828582 0 -0.29943295026653399 -0.35953932364306618 0 -0.29016743694869812 -0.35649807524262711 0 -0.29719619905707523 -0.36594012765828582 0 -0.29202770366946113 -0.36668513997228358 0 -0.29584447723995128 -0.37444813956539807 0 -0.27168821399683141 -0.36006947561143121 0 -0.28307956849111848 -0.3828068929804474 0 -0.27168821399683141 -0.36006947561143121 0 -0.28307956849111848 -0.3828068929804474 0 -0.26050234447883253 -0.38027693877573482 0 -0.27168821399683141 -0.36006947561143121 0 -0.25721723303835431 -0.36623646057876708 0 -0.26050234447883253 -0.38027693877573482 0 -0.27168821399683141 -0.36006947561143121 0 -0.25721723303835431 -0.36623646057876708 0 -0.24850069890613241 -0.35473287875334369 0 -0.25721723303835431 -0.36623646057876708 0 -0.24817767477162081 -0.36986654917455902 0 -0.24850069890613241 -0.35473287875334369 0 -0.25721723303835431 -0.36623646057876708 0 -0.26050234447883253 -0.38027693877573482 0 -0.24817767477162081 -0.36986654917455902 0 -0.27168821399683141 -0.36006947561143121 0 -0.25445926970156468 -0.34270101061729968 0 -0.24850069890613241 -0.35473287875334369 0 -0.27168821399683141 -0.36006947561143121 0 -0.26120815563270988 -0.3391510272218049 0 -0.25445926970156468 -0.34270101061729968 0 -0.27168821399683141 -0.36006947561143121 0 -0.24850069890613241 -0.35473287875334369 0 -0.27168821399683141 -0.36006947561143121 0 -0.27676447355633299 -0.3457480812413124 0 -0.26120815563270988 -0.3391510272218049 0 -0.27168821399683141 -0.36006947561143121 0 -0.26120815563270988 -0.3391510272218049 0 -0.28284547851944208 -0.35047845284871731 0 -0.27168821399683141 -0.36006947561143121 0 -0.27676447355633299 -0.3457480812413124 0 -0.27676447355633299 -0.3457480812413124 0 -0.27858368134566353 -0.33798527866036399 0 -0.28611540962297188 -0.3426453659285974 0 -0.27676447355633299 -0.3457480812413124 0 -0.27858368134566353 -0.33798527866036399 0 -0.26120815563270988 -0.3391510272218049 0 -0.28089299200049878 -0.32879660088216478 0 -0.26120815563270988 -0.3391510272218049 0 -0.28089299200049878 -0.32879660088216478 0 -0.26120815563270988 -0.3391510272218049 0 -0.26730676106940449 -0.32685643845792262 0 -0.27858368134566353 -0.33798527866036399 0 -0.28089299200049878 -0.32879660088216478 0 -0.26120815563270988 -0.3391510272218049 0 -0.26120815563270988 -0.3391510272218049 0 -0.26057751607960811 -0.32279583566460812 0 -0.26730676106940449 -0.32685643845792262 0 -0.26120815563270988 -0.3391510272218049 0 -0.25273748935779161 -0.32224337373924072 0 -0.26120815563270988 -0.3391510272218049 0 -0.25207330520806498 -0.33378255792528982 0 -0.25273748935779161 -0.32224337373924072 0 -0.26120815563270988 -0.3391510272218049 0 -0.25445926970156468 -0.34270101061729968 0 -0.25207330520806498 -0.33378255792528982 0 -0.25445926970156468 -0.34270101061729968 0 -0.2460450098649074 -0.33743905859998191 0 -0.26120815563270988 -0.3391510272218049 0 -0.25207330520806498 -0.33378255792528982 0 -0.25445926970156468 -0.34270101061729968 0 -0.25273748935779161 -0.32224337373924072 0 -0.26050456352867191 -0.3149367065078193 0 -0.24426682308287331 -0.30533572025667649 0 -0.26120815563270988 -0.3391510272218049 0 -0.25273748935779161 -0.32224337373924072 0 -0.26057751607960811 -0.32279583566460812 0 -0.26057751607960811 -0.32279583566460812 0 -0.26050456352867191 -0.3149367065078193 0 -0.26730676106940449 -0.32685643845792262 0 -0.25273748935779161 -0.32224337373924072 0 -0.26057751607960811 -0.32279583566460812 0 -0.26050456352867191 -0.3149367065078193 0 -0.28089299200049878 -0.32879660088216478 0 -0.26050456352867191 -0.3149367065078193 0 -0.27445713665833338 -0.31633796571173628 0 -0.28089299200049878 -0.32879660088216478 0 -0.26050456352867191 -0.3149367065078193 0 -0.26050456352867191 -0.3149367065078193 0 -0.27445713665833338 -0.31633796571173628 0 -0.26793999894844561 -0.31004618489902153 0 -0.28089299200049878 -0.32879660088216478 0 -0.26050456352867191 -0.3149367065078193 0 -0.26730676106940449 -0.32685643845792262 0 -0.28089299200049878 -0.32879660088216478 0 -0.27445713665833338 -0.31633796571173628 0 -0.28125105682705043 -0.31976055402590231 0 -0.27445713665833338 -0.31633796571173628 0 -0.28252008875028978 -0.31254235777143202 0 -0.28125105682705043 -0.31976055402590231 0 -0.28252008875028978 -0.31254235777143202 0 -0.28823329624350208 -0.31711313423980658 0 -0.29327146190654751 -0.30876504511160502 0 -0.28089299200049878 -0.32879660088216478 0 -0.28823329624350208 -0.31711313423980658 0 -0.30327184377803978 -0.31702509473566581 0 -0.28089299200049878 -0.32879660088216478 0 -0.29457520052377689 -0.33013191680287202 0 -0.30327184377803978 -0.31702509473566581 0 -0.28089299200049878 -0.32879660088216478 0 -0.30327184377803978 -0.31702509473566581 0 -0.28252008875028978 -0.31254235777143202 0 -0.28125105682705043 -0.31976055402590231 0 -0.28823329624350208 -0.31711313423980658 0 -0.28823329624350208 -0.31711313423980658 0 -0.30327184377803978 -0.31702509473566581 0 -0.29327146190654751 -0.30876504511160502 0 -0.28089299200049878 -0.32879660088216478 0 -0.28125105682705043 -0.31976055402590231 0 -0.28823329624350208 -0.31711313423980658 0 -0.28089299200049878 -0.32879660088216478 0 -0.28793737591580382 -0.33358531802794061 0 -0.27858368134566353 -0.33798527866036399 0 -0.28089299200049878 -0.32879660088216478 0 -0.28793737591580382 -0.33358531802794061 0 -0.28089299200049878 -0.32879660088216478 0 -0.28793737591580382 -0.33358531802794061 0 -0.29457520052377689 -0.33013191680287202 0 -0.27858368134566353 -0.33798527866036399 0 -0.28793737591580382 -0.33358531802794061 0 -0.28611540962297188 -0.3426453659285974 0 -0.28793737591580382 -0.33358531802794061 0 -0.28611540962297188 -0.3426453659285974 0 -0.29619358151489988 -0.34015641309103278 0 -0.28793737591580382 -0.33358531802794061 0 -0.29619358151489988 -0.34015641309103278 0 -0.29457520052377689 -0.33013191680287202 0 -0.29619358151489988 -0.34015641309103278 0 -0.29457520052377689 -0.33013191680287202 0 -0.30458020940964259 -0.3310961572775562 0 -0.30076474035813339 -0.34759465108555682 0 -0.29619358151489988 -0.34015641309103278 0 -0.30398917998114899 -0.33934800480643368 0 -0.29619358151489988 -0.34015641309103278 0 -0.30458020940964259 -0.3310961572775562 0 -0.30398917998114899 -0.33934800480643368 0 -0.31372637242327511 -0.33497634201883658 0 -0.30849554643820359 -0.34481279163420842 0 -0.30398917998114899 -0.33934800480643368 0 -0.31475841231360341 -0.32260943229412947 0 -0.31372637242327511 -0.33497634201883658 0 -0.30458020940964259 -0.3310961572775562 0 -0.31372637242327511 -0.33497634201883658 0 -0.30458020940964259 -0.3310961572775562 0 -0.30398917998114899 -0.33934800480643368 0 -0.31475841231360341 -0.32260943229412947 0 -0.30458020940964259 -0.3310961572775562 0 -0.30327184377803978 -0.31702509473566581 0 -0.29457520052377689 -0.33013191680287202 0 -0.30458020940964259 -0.3310961572775562 0 -0.30327184377803978 -0.31702509473566581 0 -0.30327184377803978 -0.31702509473566581 0 -0.30068554560480582 -0.30112982209441241 0 -0.31228269981280887 -0.29918463989613459 0 -0.30327184377803978 -0.31702509473566581 0 -0.30068554560480582 -0.30112982209441241 0 -0.29327146190654751 -0.30876504511160502 0 -0.30068554560480582 -0.30112982209441241 0 -0.30483638085835207 -0.28788342401786787 0 -0.28888361246081401 -0.29493054457851903 0 -0.30068554560480582 -0.30112982209441241 0 -0.31228269981280887 -0.29918463989613459 0 -0.30483638085835207 -0.28788342401786787 0 -0.28888361246081401 -0.29493054457851903 0 -0.28078806465599399 -0.28300047521785149 0 -0.29451735460655398 -0.27472288856989607 0 -0.30483638085835207 -0.28788342401786787 0 -0.28888361246081401 -0.29493054457851903 0 -0.29451735460655398 -0.27472288856989607 0 -0.28888361246081401 -0.29493054457851903 0 -0.28295382644196537 -0.3038897035906043 0 -0.27388309143310768 -0.29511411685975181 0 -0.28888361246081401 -0.29493054457851903 0 -0.28295382644196537 -0.3038897035906043 0 -0.29327146190654751 -0.30876504511160502 0 -0.30068554560480582 -0.30112982209441241 0 -0.28888361246081401 -0.29493054457851903 0 -0.29327146190654751 -0.30876504511160502 0 -0.28252008875028978 -0.31254235777143202 0 -0.28295382644196537 -0.3038897035906043 0 -0.29327146190654751 -0.30876504511160502 0 -0.27445713665833338 -0.31633796571173628 0 -0.28252008875028978 -0.31254235777143202 0 -0.27524002690986649 -0.30828041126704497 0 -0.28252008875028978 -0.31254235777143202 0 -0.28295382644196537 -0.3038897035906043 0 -0.27524002690986649 -0.30828041126704497 0 -0.28295382644196537 -0.3038897035906043 0 -0.27524002690986649 -0.30828041126704497 0 -0.27388309143310768 -0.29511411685975181 0 -0.26808679199009749 -0.30362992927208171 0 -0.26252268864995981 -0.29761987486456531 0 -0.27388309143310768 -0.29511411685975181 0 -0.27524002690986649 -0.30828041126704497 0 -0.26808679199009749 -0.30362992927208171 0 -0.27388309143310768 -0.29511411685975181 0 -0.27445713665833338 -0.31633796571173628 0 -0.27524002690986649 -0.30828041126704497 0 -0.26793999894844561 -0.31004618489902153 0 -0.27524002690986649 -0.30828041126704497 0 -0.26808679199009749 -0.30362992927208171 0 -0.26793999894844561 -0.31004618489902153 0 -0.26808679199009749 -0.30362992927208171 0 -0.26793999894844561 -0.31004618489902153 0 -0.26278193746552841 -0.30551063084933561 0 -0.26050456352867191 -0.3149367065078193 0 -0.25485564421046719 -0.30132045870319019 0 -0.24011613505684479 -0.30107681213347393 0 -0.26050456352867191 -0.3149367065078193 0 -0.24011613505684479 -0.30107681213347393 0 -0.26050456352867191 -0.3149367065078193 0 -0.26278193746552841 -0.30551063084933561 0 -0.25485564421046719 -0.30132045870319019 0 -0.26050456352867191 -0.3149367065078193 0 -0.26793999894844561 -0.31004618489902153 0 -0.26278193746552841 -0.30551063084933561 0 -0.26278193746552841 -0.30551063084933561 0 -0.26252268864995981 -0.29761987486456531 0 -0.25485564421046719 -0.30132045870319019 0 -0.26252268864995981 -0.29761987486456531 0 -0.25485564421046719 -0.30132045870319019 0 -0.2567143935458242 -0.29223768812186002 0 -0.26808679199009749 -0.30362992927208171 0 -0.26278193746552841 -0.30551063084933561 0 -0.26252268864995981 -0.29761987486456531 0 -0.25608276685525683 -0.28295324223861612 0 -0.2567143935458242 -0.29223768812186002 0 -0.24732420154209239 -0.29033586459568173 0 -0.25485564421046719 -0.30132045870319019 0 -0.2567143935458242 -0.29223768812186002 0 -0.24732420154209239 -0.29033586459568173 0 -0.26252268864995981 -0.29761987486456531 0 -0.2567143935458242 -0.29223768812186002 0 -0.26350989061834318 -0.28909490770035701 0 -0.25608276685525683 -0.28295324223861612 0 -0.26350989061834318 -0.28909490770035701 0 -0.26907982973782107 -0.2804670883869903 0 -0.25608276685525683 -0.28295324223861612 0 -0.2567143935458242 -0.29223768812186002 0 -0.26350989061834318 -0.28909490770035701 0 -0.26350989061834318 -0.28909490770035701 0 -0.27388309143310768 -0.29511411685975181 0 -0.26907982973782107 -0.2804670883869903 0 -0.26252268864995981 -0.29761987486456531 0 -0.26350989061834318 -0.28909490770035701 0 -0.27388309143310768 -0.29511411685975181 0 -0.28888361246081401 -0.29493054457851903 0 -0.27388309143310768 -0.29511411685975181 0 -0.28078806465599399 -0.28300047521785149 0 -0.27388309143310768 -0.29511411685975181 0 -0.28078806465599399 -0.28300047521785149 0 -0.26907982973782107 -0.2804670883869903 0 -0.27772768471542669 -0.26767482265106679 0 -0.26907982973782107 -0.2804670883869903 0 -0.25958550566062261 -0.27102626557679149 0 -0.28078806465599399 -0.28300047521785149 0 -0.27772768471542669 -0.26767482265106679 0 -0.26907982973782107 -0.2804670883869903 0 -0.25608276685525683 -0.28295324223861612 0 -0.26907982973782107 -0.2804670883869903 0 -0.25958550566062261 -0.27102626557679149 0 -0.25608276685525683 -0.28295324223861612 0 -0.25958550566062261 -0.27102626557679149 0 -0.2444485511135471 -0.27534046621033159 0 -0.26398002587916253 -0.25656090854441049 0 -0.24465976002352091 -0.25387891845332877 0 -0.25992972331208369 -0.2410680052130979 0 -0.25958550566062261 -0.27102626557679149 0 -0.26398002587916253 -0.25656090854441049 0 -0.24465976002352091 -0.25387891845332877 0 -0.27772768471542669 -0.26767482265106679 0 -0.26398002587916253 -0.25656090854441049 0 -0.27722523139620658 -0.24922189107985179 0 -0.27772768471542669 -0.26767482265106679 0 -0.25958550566062261 -0.27102626557679149 0 -0.26398002587916253 -0.25656090854441049 0 -0.27772768471542669 -0.26767482265106679 0 -0.29131753467172561 -0.25675805269722002 0 -0.27722523139620658 -0.24922189107985179 0 -0.28078806465599399 -0.28300047521785149 0 -0.27772768471542669 -0.26767482265106679 0 -0.29451735460655398 -0.27472288856989607 0 -0.27772768471542669 -0.26767482265106679 0 -0.29131753467172561 -0.25675805269722002 0 -0.29451735460655398 -0.27472288856989607 0 -0.31319680135340772 -0.27337899374224139 0 -0.29451735460655398 -0.27472288856989607 0 -0.30564385326437488 -0.26015983685037081 0 -0.31319680135340772 -0.27337899374224139 0 -0.30483638085835207 -0.28788342401786787 0 -0.29451735460655398 -0.27472288856989607 0 -0.29131753467172561 -0.25675805269722002 0 -0.29451735460655398 -0.27472288856989607 0 -0.30564385326437488 -0.26015983685037081 0 -0.29131753467172561 -0.25675805269722002 0 -0.30564385326437488 -0.26015983685037081 0 -0.30769212114973271 -0.24578220261295139 0 -0.31968345090478489 -0.25798973640781447 0 -0.30564385326437488 -0.26015983685037081 0 -0.30769212114973271 -0.24578220261295139 0 -0.34207866423036198 -0.45986413066326443 0 -0.33141508850449702 -0.45187214799378478 0 -0.32594289259428999 -0.46085836632795257 0 -0.34207866423036198 -0.45986413066326443 0 -0.32594289259428999 -0.46085836632795257 0 -0.33264581849560632 -0.47431014716802089 0 -0.34207866423036198 -0.45986413066326443 0 -0.34225571697252682 -0.42997304157067162 0 -0.34207866423036198 -0.45986413066326443 0 -0.33358626016413989 -0.44229992863572659 0 -0.33141508850449702 -0.45187214799378478 0 -0.34207866423036198 -0.45986413066326443 0 -0.33358626016413989 -0.44229992863572659 0 -0.34225571697252682 -0.42997304157067162 0 -0.33358626016413989 -0.44229992863572659 0 -0.33141508850449702 -0.45187214799378478 0 -0.32300139100864811 -0.44723989508536771 0 -0.33358626016413989 -0.44229992863572659 0 -0.32300139100864811 -0.44723989508536771 0 -0.32413493920603592 -0.43586432580396972 0 -0.32300139100864811 -0.44723989508536771 0 -0.31385630152515048 -0.44199725430357722 0 -0.32413493920603592 -0.43586432580396972 0 -0.32300139100864811 -0.44723989508536771 0 -0.31385630152515048 -0.44199725430357722 0 -0.31044958537109257 -0.45255960714027171 0 -0.32594289259428999 -0.46085836632795257 0 -0.31333683559556219 -0.46686726284272168 0 -0.31044958537109257 -0.45255960714027171 0 -0.32594289259428999 -0.46085836632795257 0 -0.31333683559556219 -0.46686726284272168 0 -0.32224857144892449 -0.47649828689453749 0 -0.32300139100864811 -0.44723989508536771 0 -0.32594289259428999 -0.46085836632795257 0 -0.31044958537109257 -0.45255960714027171 0 -0.33141508850449702 -0.45187214799378478 0 -0.32300139100864811 -0.44723989508536771 0 -0.32594289259428999 -0.46085836632795257 0 -0.31333683559556219 -0.46686726284272168 0 -0.32224857144892449 -0.47649828689453749 0 -0.30503152439861497 -0.48190266549989857 0 -0.32224857144892449 -0.47649828689453749 0 -0.32279626626388608 -0.48781718170045291 0 -0.30503152439861497 -0.48190266549989857 0 -0.32594289259428999 -0.46085836632795257 0 -0.32224857144892449 -0.47649828689453749 0 -0.33264581849560632 -0.47431014716802089 0 -0.32224857144892449 -0.47649828689453749 0 -0.32279626626388608 -0.48781718170045291 0 -0.33105735271625752 -0.4845747321984929 0 -0.32006214434654462 -0.5 0 -0.32279626626388608 -0.48781718170045291 0 -0.30503152439861497 -0.48190266549989857 0 -0.32006214434654462 -0.5 0 -0.32279626626388608 -0.48781718170045291 0 -0.33558173840908911 -0.49611022390933512 0 -0.32006214434654462 -0.5 0 -0.33558173840908911 -0.49611022390933512 0 -0.34657288766042038 -0.5 0 -0.33558173840908911 -0.49611022390933512 0 -0.34190161148819742 -0.48975521975585701 0 -0.35306908662498632 -0.4951847935385878 0 -0.32279626626388608 -0.48781718170045291 0 -0.33558173840908911 -0.49611022390933512 0 -0.33105735271625752 -0.4845747321984929 0 -0.33558173840908911 -0.49611022390933512 0 -0.33105735271625752 -0.4845747321984929 0 -0.34190161148819742 -0.48975521975585701 0 -0.34207866423036198 -0.45986413066326443 0 -0.34190161148819742 -0.48975521975585701 0 -0.34207866423036198 -0.45986413066326443 0 -0.34190161148819742 -0.48975521975585701 0 -0.33264581849560632 -0.47431014716802089 0 -0.33105735271625752 -0.4845747321984929 0 -0.34190161148819742 -0.48975521975585701 0 -0.33264581849560632 -0.47431014716802089 0 -0.32224857144892449 -0.47649828689453749 0 -0.33105735271625752 -0.4845747321984929 0 -0.33264581849560632 -0.47431014716802089 0 -0.34190161148819742 -0.48975521975585701 0 -0.35001641252228072 -0.47142734906239081 0 -0.35328963507943428 -0.48328499015431992 0 -0.34207866423036198 -0.45986413066326443 0 -0.34190161148819742 -0.48975521975585701 0 -0.35001641252228072 -0.47142734906239081 0 -0.35328963507943428 -0.48328499015431992 0 -0.35950950469085041 -0.48638993404071668 0 -0.36112286221809747 -0.47283058930211808 0 -0.35001641252228072 -0.47142734906239081 0 -0.35328963507943428 -0.48328499015431992 0 -0.36112286221809747 -0.47283058930211808 0 -0.33558173840908911 -0.49611022390933512 0 -0.35306908662498632 -0.4951847935385878 0 -0.33558173840908911 -0.49611022390933512 0 -0.34657288766042038 -0.5 0 -0.35306908662498632 -0.4951847935385878 0 -0.34657288766042038 -0.5 0 -0.35306908662498632 -0.4951847935385878 0 -0.37308363097429631 -0.50000000000000244 0 -0.34190161148819742 -0.48975521975585701 0 -0.35328963507943428 -0.48328499015431992 0 -0.35306908662498632 -0.4951847935385878 0 -0.35328963507943428 -0.48328499015431992 0 -0.35306908662498632 -0.4951847935385878 0 -0.35950950469085041 -0.48638993404071668 0 -0.35306908662498632 -0.4951847935385878 0 -0.35950950469085041 -0.48638993404071668 0 -0.37055643484088358 -0.49425936316784103 0 -0.35306908662498632 -0.4951847935385878 0 -0.37055643484088358 -0.49425936316784103 0 -0.35950950469085041 -0.48638993404071668 0 -0.37055643484088358 -0.49425936316784103 0 -0.36112286221809747 -0.47283058930211808 0 -0.35306908662498632 -0.4951847935385878 0 -0.37055643484088358 -0.49425936316784103 0 -0.37308363097429631 -0.50000000000000244 0 -0.37055643484088358 -0.49425936316784103 0 -0.37308363097429631 -0.50000000000000244 0 -0.38039451612360919 -0.47713749807852829 0 -0.37055643484088358 -0.49425936316784103 0 -0.36112286221809747 -0.47283058930211808 0 -0.37055643484088358 -0.49425936316784103 0 -0.36112286221809747 -0.47283058930211808 0 -0.38039451612360919 -0.47713749807852829 0 -0.36112286221809747 -0.47283058930211808 0 -0.37415472949075129 -0.45946062715310632 0 -0.37415472949075129 -0.45946062715310632 0 -0.3629811744391212 -0.45722253899736259 0 -0.36406731613876331 -0.44506275929787698 0 -0.36112286221809747 -0.47283058930211808 0 -0.37415472949075129 -0.45946062715310632 0 -0.3629811744391212 -0.45722253899736259 0 -0.36112286221809747 -0.47283058930211808 0 -0.3629811744391212 -0.45722253899736259 0 -0.35168928959531232 -0.4514018154363949 0 -0.36112286221809747 -0.47283058930211808 0 -0.35168928959531232 -0.4514018154363949 0 -0.35001641252228072 -0.47142734906239081 0 -0.36112286221809747 -0.47283058930211808 0 -0.35168928959531232 -0.4514018154363949 0 -0.34207866423036198 -0.45986413066326443 0 -0.35001641252228072 -0.47142734906239081 0 -0.35168928959531232 -0.4514018154363949 0 -0.35168928959531232 -0.4514018154363949 0 -0.34225571697252682 -0.42997304157067162 0 -0.35168928959531232 -0.4514018154363949 0 -0.36406731613876331 -0.44506275929787698 0 -0.34225571697252682 -0.42997304157067162 0 -0.34207866423036198 -0.45986413066326443 0 -0.35168928959531232 -0.4514018154363949 0 -0.34225571697252682 -0.42997304157067162 0 -0.38339996822118783 -0.44368928783448319 0 -0.36406731613876331 -0.44506275929787698 0 -0.36866352395763108 -0.4313760290561211 0 -0.38339996822118783 -0.44368928783448319 0 -0.37415472949075129 -0.45946062715310632 0 -0.36406731613876331 -0.44506275929787698 0 -0.3629811744391212 -0.45722253899736259 0 -0.35168928959531232 -0.4514018154363949 0 -0.36406731613876331 -0.44506275929787698 0 -0.38131756488089769 -0.42670085612339947 0 -0.36866352395763108 -0.4313760290561211 0 -0.36377437909963828 -0.41972983174959272 0 -0.38704143117499401 -0.40999023144455299 0 -0.3575105341832589 -0.40691374405003478 0 -0.38704143117499401 -0.40999023144455299 0 -0.36377437909963828 -0.41972983174959272 0 -0.3575105341832589 -0.40691374405003478 0 -0.35062038894632092 -0.41624612172537079 0 -0.34239786166265201 -0.40597533588911489 0 -0.34225571697252682 -0.42997304157067162 0 -0.36377437909963828 -0.41972983174959272 0 -0.3575105341832589 -0.40691374405003478 0 -0.35062038894632092 -0.41624612172537079 0 -0.3575105341832589 -0.40691374405003478 0 -0.35062038894632092 -0.41624612172537079 0 -0.34239786166265201 -0.40597533588911489 0 -0.36406731613876331 -0.44506275929787698 0 -0.36866352395763108 -0.4313760290561211 0 -0.34225571697252682 -0.42997304157067162 0 -0.36866352395763108 -0.4313760290561211 0 -0.36377437909963828 -0.41972983174959272 0 -0.34225571697252682 -0.42997304157067162 0 -0.36377437909963828 -0.41972983174959272 0 -0.35062038894632092 -0.41624612172537079 0 -0.34225571697252682 -0.42997304157067162 0 -0.37522403377147279 -0.38060127254172499 0 -0.37464038230528551 -0.396492613407532 0 -0.35879027536972019 -0.3891835699585654 0 -0.37522403377147279 -0.38060127254172499 0 -0.35964608014779109 -0.37334112637938882 0 -0.35879027536972019 -0.3891835699585654 0 -0.38704143117499401 -0.40999023144455299 0 -0.3575105341832589 -0.40691374405003478 0 -0.37464038230528551 -0.396492613407532 0 -0.3575105341832589 -0.40691374405003478 0 -0.37464038230528551 -0.396492613407532 0 -0.35879027536972019 -0.3891835699585654 0 -0.3575105341832589 -0.40691374405003478 0 -0.35030966939210212 -0.39601257002631829 0 -0.35879027536972019 -0.3891835699585654 0 -0.35030966939210212 -0.39601257002631829 0 -0.34254000635277743 -0.38197763020755832 0 -0.34239786166265201 -0.40597533588911489 0 -0.3575105341832589 -0.40691374405003478 0 -0.35030966939210212 -0.39601257002631829 0 -0.34239786166265201 -0.40597533588911489 0 -0.35964608014779109 -0.37334112637938882 0 -0.35879027536972019 -0.3891835699585654 0 -0.34254000635277743 -0.38197763020755832 0 -0.35030966939210212 -0.39601257002631829 0 -0.35879027536972019 -0.3891835699585654 0 -0.34254000635277743 -0.38197763020755832 0 -0.32270418411731933 -0.37181077970513959 0 -0.34254000635277743 -0.38197763020755832 0 -0.32435131947256218 -0.38428518727128619 0 -0.34254000635277743 -0.38197763020755832 0 -0.33211028503505757 -0.39455092735479258 0 -0.32435131947256218 -0.38428518727128619 0 -0.34254000635277743 -0.38197763020755832 0 -0.33211028503505757 -0.39455092735479258 0 -0.34239786166265201 -0.40597533588911489 0 -0.34254000635277743 -0.38197763020755832 0 -0.34239786166265201 -0.40597533588911489 0 -0.33211028503505757 -0.39455092735479258 0 -0.32627218782356721 -0.40254155632103228 0 -0.33325599186729038 -0.40952977136485508 0 -0.33211028503505757 -0.39455092735479258 0 -0.34239786166265201 -0.40597533588911489 0 -0.33325599186729038 -0.40952977136485508 0 -0.32627218782356721 -0.40254155632103228 0 -0.31778611784491262 -0.39429551077659458 0 -0.31836523457261151 -0.40628576827473822 0 -0.31778611784491262 -0.39429551077659458 0 -0.31836523457261151 -0.40628576827473822 0 -0.30856762168503782 -0.40330407176644772 0 -0.33211028503505757 -0.39455092735479258 0 -0.32627218782356721 -0.40254155632103228 0 -0.31778611784491262 -0.39429551077659458 0 -0.33211028503505757 -0.39455092735479258 0 -0.31778611784491262 -0.39429551077659458 0 -0.32435131947256218 -0.38428518727128619 0 -0.31778611784491262 -0.39429551077659458 0 -0.32435131947256218 -0.38428518727128619 0 -0.3103864423796594 -0.37828470113645102 0 -0.32270418411731933 -0.37181077970513959 0 -0.32435131947256218 -0.38428518727128619 0 -0.3103864423796594 -0.37828470113645102 0 -0.34225571697252682 -0.42997304157067162 0 -0.32127707919304882 -0.42450406978857058 0 -0.32413493920603592 -0.43586432580396972 0 -0.33358626016413989 -0.44229992863572659 0 -0.34225571697252682 -0.42997304157067162 0 -0.32413493920603592 -0.43586432580396972 0 -0.34225571697252682 -0.42997304157067162 0 -0.32547848823970138 -0.41505510354763547 0 -0.32127707919304882 -0.42450406978857058 0 -0.34225571697252682 -0.42997304157067162 0 -0.33325599186729038 -0.40952977136485508 0 -0.34239786166265201 -0.40597533588911489 0 -0.34225571697252682 -0.42997304157067162 0 -0.34225571697252682 -0.42997304157067162 0 -0.33325599186729038 -0.40952977136485508 0 -0.32547848823970138 -0.41505510354763547 0 -0.34239786166265201 -0.40597533588911489 0 -0.34225571697252682 -0.42997304157067162 0 -0.33325599186729038 -0.40952977136485508 0 -0.32627218782356721 -0.40254155632103228 0 -0.33325599186729038 -0.40952977136485508 0 -0.32547848823970138 -0.41505510354763547 0 -0.32547848823970138 -0.41505510354763547 0 -0.3149711123139971 -0.41411215899080989 0 -0.32127707919304882 -0.42450406978857058 0 -0.32627218782356721 -0.40254155632103228 0 -0.32547848823970138 -0.41505510354763547 0 -0.31836523457261151 -0.40628576827473822 0 -0.32547848823970138 -0.41505510354763547 0 -0.31836523457261151 -0.40628576827473822 0 -0.3149711123139971 -0.41411215899080989 0 -0.31836523457261151 -0.40628576827473822 0 -0.3149711123139971 -0.41411215899080989 0 -0.30856762168503782 -0.40330407176644772 0 -0.3149711123139971 -0.41411215899080989 0 -0.32127707919304882 -0.42450406978857058 0 -0.31068047406536009 -0.42124040027518911 0 -0.32127707919304882 -0.42450406978857058 0 -0.31073004788055869 -0.43167813375356229 0 -0.31068047406536009 -0.42124040027518911 0 -0.32127707919304882 -0.42450406978857058 0 -0.32413493920603592 -0.43586432580396972 0 -0.31073004788055869 -0.43167813375356229 0 -0.31385630152515048 -0.44199725430357722 0 -0.32413493920603592 -0.43586432580396972 0 -0.31073004788055869 -0.43167813375356229 0 -0.31073004788055869 -0.43167813375356229 0 -0.29829421210859891 -0.43220714453990322 0 -0.30286215921622678 -0.44210958888768459 0 -0.31073004788055869 -0.43167813375356229 0 -0.29829421210859891 -0.43220714453990322 0 -0.30293836312512551 -0.42244552438862548 0 -0.29829421210859891 -0.43220714453990322 0 -0.30293836312512551 -0.42244552438862548 0 -0.29038846928103268 -0.42353273433611682 0 -0.31073004788055869 -0.43167813375356229 0 -0.30293836312512551 -0.42244552438862548 0 -0.31068047406536009 -0.42124040027518911 0 -0.3149711123139971 -0.41411215899080989 0 -0.31068047406536009 -0.42124040027518911 0 -0.30545777612822328 -0.41428354029227837 0 -0.30293836312512551 -0.42244552438862548 0 -0.31068047406536009 -0.42124040027518911 0 -0.30545777612822328 -0.41428354029227837 0 -0.3149711123139971 -0.41411215899080989 0 -0.30545777612822328 -0.41428354029227837 0 -0.30856762168503782 -0.40330407176644772 0 -0.30545777612822328 -0.41428354029227837 0 -0.30856762168503782 -0.40330407176644772 0 -0.30079847364115991 -0.40578130343003371 0 -0.30545777612822328 -0.41428354029227837 0 -0.2987732092282892 -0.41413177709842958 0 -0.30079847364115991 -0.40578130343003371 0 -0.30293836312512551 -0.42244552438862548 0 -0.2987732092282892 -0.41413177709842958 0 -0.29038846928103268 -0.42353273433611682 0 -0.30293836312512551 -0.42244552438862548 0 -0.2987732092282892 -0.41413177709842958 0 -0.30293836312512551 -0.42244552438862548 0 -0.30545777612822328 -0.41428354029227837 0 -0.2987732092282892 -0.41413177709842958 0 -0.30545777612822328 -0.41428354029227837 0 -0.2987732092282892 -0.41413177709842958 0 -0.2987732092282892 -0.41413177709842958 0 -0.29092638885970451 -0.39846933503943821 0 -0.2987732092282892 -0.41413177709842958 0 -0.28243901841779939 -0.41376093348156762 0 -0.29092638885970451 -0.39846933503943821 0 -0.2987732092282892 -0.41413177709842958 0 -0.28243901841779939 -0.41376093348156762 0 -0.29038846928103268 -0.42353273433611682 0 -0.2987732092282892 -0.41413177709842958 0 -0.28243901841779939 -0.41376093348156762 0 -0.28243901841779939 -0.41376093348156762 0 -0.29038846928103268 -0.42353273433611682 0 -0.27500508569675858 -0.42792788340523652 0 -0.29038846928103268 -0.42353273433611682 0 -0.27500508569675858 -0.42792788340523652 0 -0.28620792983366777 -0.44117103379144762 0 -0.29829421210859891 -0.43220714453990322 0 -0.29038846928103268 -0.42353273433611682 0 -0.28620792983366777 -0.44117103379144762 0 -0.31778611784491262 -0.39429551077659458 0 -0.3103864423796594 -0.37828470113645102 0 -0.30424293331838692 -0.39073887816822978 0 -0.29584447723995128 -0.37444813956539807 0 -0.29713407365637251 -0.38186722723828942 0 -0.3103864423796594 -0.37828470113645102 0 -0.29713407365637251 -0.38186722723828942 0 -0.30424293331838692 -0.39073887816822978 0 -0.29406976999373469 -0.38920344929064732 0 -0.29713407365637251 -0.38186722723828942 0 -0.3103864423796594 -0.37828470113645102 0 -0.30424293331838692 -0.39073887816822978 0 -0.29998863005712628 -0.39809616774203599 0 -0.30424293331838692 -0.39073887816822978 0 -0.30856762168503782 -0.40330407176644772 0 -0.29998863005712628 -0.39809616774203599 0 -0.30424293331838692 -0.39073887816822978 0 -0.29406976999373469 -0.38920344929064732 0 -0.31778611784491262 -0.39429551077659458 0 -0.30424293331838692 -0.39073887816822978 0 -0.30856762168503782 -0.40330407176644772 0 -0.29998863005712628 -0.39809616774203599 0 -0.30079847364115991 -0.40578130343003371 0 -0.29092638885970451 -0.39846933503943821 0 -0.29998863005712628 -0.39809616774203599 0 -0.30856762168503782 -0.40330407176644772 0 -0.30079847364115991 -0.40578130343003371 0 -0.2987732092282892 -0.41413177709842958 0 -0.30079847364115991 -0.40578130343003371 0 -0.29092638885970451 -0.39846933503943821 0 -0.29092638885970451 -0.39846933503943821 0 -0.28307956849111848 -0.3828068929804474 0 -0.29092638885970451 -0.39846933503943821 0 -0.28307956849111848 -0.3828068929804474 0 -0.27459219804921331 -0.39809849142257658 0 -0.28243901841779939 -0.41376093348156762 0 -0.29092638885970451 -0.39846933503943821 0 -0.27459219804921331 -0.39809849142257658 0 -0.29998863005712628 -0.39809616774203599 0 -0.29092638885970451 -0.39846933503943821 0 -0.29406976999373469 -0.38920344929064732 0 -0.29092638885970451 -0.39846933503943821 0 -0.29406976999373469 -0.38920344929064732 0 -0.28307956849111848 -0.3828068929804474 0 -0.29713407365637251 -0.38186722723828942 0 -0.29406976999373469 -0.38920344929064732 0 -0.28307956849111848 -0.3828068929804474 0 -0.29584447723995128 -0.37444813956539807 0 -0.29713407365637251 -0.38186722723828942 0 -0.28307956849111848 -0.3828068929804474 0 -0.28307956849111848 -0.3828068929804474 0 -0.27459219804921331 -0.39809849142257658 0 -0.26050234447883253 -0.38027693877573482 0 -0.28307956849111848 -0.3828068929804474 0 -0.27459219804921331 -0.39809849142257658 0 -0.27459219804921331 -0.39809849142257658 0 -0.26610482760730952 -0.4133900898647066 0 -0.27459219804921331 -0.39809849142257658 0 -0.26088670843651829 -0.40068536336094251 0 -0.26610482760730952 -0.4133900898647066 0 -0.26088670843651829 -0.40068536336094251 0 -0.26050234447883253 -0.38027693877573482 0 -0.2487824818667288 -0.3954643368039899 0 -0.27459219804921331 -0.39809849142257658 0 -0.26088670843651829 -0.40068536336094251 0 -0.26050234447883253 -0.38027693877573482 0 -0.26088670843651829 -0.40068536336094251 0 -0.24694430377570939 -0.41295507854145541 0 -0.2487824818667288 -0.3954643368039899 0 -0.27500508569675858 -0.42792788340523652 0 -0.25298523514652932 -0.43702750984159111 0 -0.27028712802556781 -0.44002206955302048 0 -0.27500508569675858 -0.42792788340523652 0 -0.27028712802556781 -0.44002206955302048 0 -0.28620792983366777 -0.44117103379144762 0 -0.28243901841779939 -0.41376093348156762 0 -0.27500508569675858 -0.42792788340523652 0 -0.26610482760730952 -0.4133900898647066 0 -0.28243901841779939 -0.41376093348156762 0 -0.27459219804921331 -0.39809849142257658 0 -0.26610482760730952 -0.4133900898647066 0 -0.28243901841779939 -0.41376093348156762 0 -0.26610482760730952 -0.4133900898647066 0 -0.26610482760730952 -0.4133900898647066 0 -0.24694430377570939 -0.41295507854145541 0 -0.26610482760730952 -0.4133900898647066 0 -0.25298523514652932 -0.43702750984159111 0 -0.24694430377570939 -0.41295507854145541 0 -0.26088670843651829 -0.40068536336094251 0 -0.26610482760730952 -0.4133900898647066 0 -0.24694430377570939 -0.41295507854145541 0 -0.27500508569675858 -0.42792788340523652 0 -0.26610482760730952 -0.4133900898647066 0 -0.25298523514652932 -0.43702750984159111 0 -0.26610482760730952 -0.4133900898647066 0 -0.25298523514652932 -0.43702750984159111 0 -0.25298523514652932 -0.43702750984159111 0 -0.25823473398406083 -0.46259190486934387 0 -0.27139768853026319 -0.45350369328431828 0 -0.25298523514652932 -0.43702750984159111 0 -0.27139768853026319 -0.45350369328431828 0 -0.27028712802556781 -0.44002206955302048 0 -0.25298523514652932 -0.43702750984159111 0 -0.25823473398406083 -0.46259190486934387 0 -0.2398656426857485 -0.46066492981847512 0 -0.27139768853026319 -0.45350369328431828 0 -0.28665438526504589 -0.45880473289459528 0 -0.27499686831673542 -0.4693274569635677 0 -0.25823473398406083 -0.46259190486934387 0 -0.27139768853026319 -0.45350369328431828 0 -0.27499686831673542 -0.4693274569635677 0 -0.27139768853026319 -0.45350369328431828 0 -0.27028712802556781 -0.44002206955302048 0 -0.28620792983366777 -0.44117103379144762 0 -0.28620792983366777 -0.44117103379144762 0 -0.29665932401628559 -0.4519210782245337 0 -0.28665438526504589 -0.45880473289459528 0 -0.28620792983366777 -0.44117103379144762 0 -0.29665932401628559 -0.4519210782245337 0 -0.30286215921622678 -0.44210958888768459 0 -0.27139768853026319 -0.45350369328431828 0 -0.28620792983366777 -0.44117103379144762 0 -0.28665438526504589 -0.45880473289459528 0 -0.29829421210859891 -0.43220714453990322 0 -0.28620792983366777 -0.44117103379144762 0 -0.30286215921622678 -0.44210958888768459 0 -0.28665438526504589 -0.45880473289459528 0 -0.28928475434474438 -0.47221518125428918 0 -0.27499686831673542 -0.4693274569635677 0 -0.28665438526504589 -0.45880473289459528 0 -0.30029558254474148 -0.46389675841394568 0 -0.28928475434474438 -0.47221518125428918 0 -0.29665932401628559 -0.4519210782245337 0 -0.28665438526504589 -0.45880473289459528 0 -0.30029558254474148 -0.46389675841394568 0 -0.29665932401628559 -0.4519210782245337 0 -0.30029558254474148 -0.46389675841394568 0 -0.31044958537109257 -0.45255960714027171 0 -0.31333683559556219 -0.46686726284272168 0 -0.30029558254474148 -0.46389675841394568 0 -0.31044958537109257 -0.45255960714027171 0 -0.31385630152515048 -0.44199725430357722 0 -0.31044958537109257 -0.45255960714027171 0 -0.30286215921622678 -0.44210958888768459 0 -0.31385630152515048 -0.44199725430357722 0 -0.31073004788055869 -0.43167813375356229 0 -0.30286215921622678 -0.44210958888768459 0 -0.29665932401628559 -0.4519210782245337 0 -0.31044958537109257 -0.45255960714027171 0 -0.30286215921622678 -0.44210958888768459 0 -0.32006214434654462 -0.5 0 -0.30503152439861497 -0.48190266549989857 0 -0.29355140103266869 -0.5 0 -0.30029558254474148 -0.46389675841394568 0 -0.30503152439861497 -0.48190266549989857 0 -0.28928475434474438 -0.47221518125428918 0 -0.31333683559556219 -0.46686726284272168 0 -0.30029558254474148 -0.46389675841394568 0 -0.30503152439861497 -0.48190266549989857 0 -0.30503152439861497 -0.48190266549989857 0 -0.28928475434474438 -0.47221518125428918 0 -0.27944541119858413 -0.48714429249943858 0 -0.30503152439861497 -0.48190266549989857 0 -0.29355140103266869 -0.5 0 -0.27944541119858413 -0.48714429249943858 0 -0.26704065771879287 -0.5 0 -0.27944541119858413 -0.48714429249943858 0 -0.26377894750559139 -0.4817410620592058 0 -0.29355140103266869 -0.5 0 -0.26704065771879287 -0.5 0 -0.27944541119858413 -0.48714429249943858 0 -0.27944541119858413 -0.48714429249943858 0 -0.27499686831673542 -0.4693274569635677 0 -0.26377894750559139 -0.4817410620592058 0 -0.28928475434474438 -0.47221518125428918 0 -0.27944541119858413 -0.48714429249943858 0 -0.27499686831673542 -0.4693274569635677 0 -0.25823473398406083 -0.46259190486934387 0 -0.27499686831673542 -0.4693274569635677 0 -0.26377894750559139 -0.4817410620592058 0 -0.25823473398406083 -0.46259190486934387 0 -0.26377894750559139 -0.4817410620592058 0 -0.24769273461092009 -0.47775775457152359 0 -0.26704065771879287 -0.5 0 -0.26377894750559139 -0.4817410620592058 0 -0.24052991440491719 -0.5 0 -0.26377894750559139 -0.4817410620592058 0 -0.24052991440491719 -0.5 0 -0.24769273461092009 -0.47775775457152359 0 -0.24052991440491719 -0.5 0 -0.24769273461092009 -0.47775775457152359 0 -0.2238647917587385 -0.47868470982513422 0 -0.24769273461092009 -0.47775775457152359 0 -0.2238647917587385 -0.47868470982513422 0 -0.2253613830811457 -0.45761053917550981 0 -0.24052991440491719 -0.5 0 -0.2238647917587385 -0.47868470982513422 0 -0.2140191710910414 -0.49999999999999972 0 -0.25298523514652932 -0.43702750984159111 0 -0.23591515519085041 -0.44398209369878189 0 -0.2398656426857485 -0.46066492981847512 0 -0.25298523514652932 -0.43702750984159111 0 -0.2398656426857485 -0.46066492981847512 0 -0.25823473398406083 -0.46259190486934387 0 -0.24769273461092009 -0.47775775457152359 0 -0.2398656426857485 -0.46066492981847512 0 -0.24769273461092009 -0.47775775457152359 0 -0.2398656426857485 -0.46066492981847512 0 -0.2253613830811457 -0.45761053917550981 0 -0.24769273461092009 -0.47775775457152359 0 -0.2253613830811457 -0.45761053917550981 0 -0.2238647917587385 -0.47868470982513422 0 -0.2253613830811457 -0.45761053917550981 0 -0.20999779143719291 -0.46083672605530768 0 -0.23591515519085041 -0.44398209369878189 0 -0.2398656426857485 -0.46066492981847512 0 -0.2253613830811457 -0.45761053917550981 0 -0.23591515519085041 -0.44398209369878189 0 -0.2253613830811457 -0.45761053917550981 0 -0.22549954629610269 -0.43500765649169948 0 -0.2253613830811457 -0.45761053917550981 0 -0.20999779143719291 -0.46083672605530768 0 -0.2030300315513712 -0.43746332377949593 0 -0.2253613830811457 -0.45761053917550981 0 -0.2030300315513712 -0.43746332377949593 0 -0.20999779143719291 -0.46083672605530768 0 -0.19715634076338631 -0.4518064782969281 0 -0.2030300315513712 -0.43746332377949593 0 -0.2253613830811457 -0.45761053917550981 0 -0.2030300315513712 -0.43746332377949593 0 -0.22549954629610269 -0.43500765649169948 0 -0.20999779143719291 -0.46083672605530768 0 -0.19715634076338631 -0.4518064782969281 0 -0.2055877559272139 -0.47590323914846377 0 -0.19715634076338631 -0.4518064782969281 0 -0.2055877559272139 -0.47590323914846377 0 -0.19179305986328829 -0.46711759196808689 0 -0.19715634076338631 -0.4518064782969281 0 -0.2055877559272139 -0.47590323914846377 0 -0.19179305986328829 -0.46711759196808689 0 -0.19715634076338631 -0.4518064782969281 0 -0.184822707974968 -0.45592422963236362 0 -0.19715634076338631 -0.4518064782969281 0 -0.2030300315513712 -0.43746332377949593 0 -0.18872492559955881 -0.42770971744539221 0 -0.19715634076338631 -0.4518064782969281 0 -0.18872492559955881 -0.42770971744539221 0 -0.19715634076338631 -0.4518064782969281 0 -0.1870173619903012 -0.44414077979923022 0 -0.18872492559955881 -0.42770971744539221 0 -0.19715634076338631 -0.4518064782969281 0 -0.184822707974968 -0.45592422963236362 0 -0.1870173619903012 -0.44414077979923022 0 -0.2140191710910414 -0.49999999999999972 0 -0.2055877559272139 -0.47590323914846377 0 -0.2140191710910414 -0.49999999999999972 0 -0.2055877559272139 -0.47590323914846377 0 -0.1915741566131953 -0.48274482478870012 0 -0.2238647917587385 -0.47868470982513422 0 -0.2140191710910414 -0.49999999999999972 0 -0.2055877559272139 -0.47590323914846377 0 -0.2238647917587385 -0.47868470982513422 0 -0.20999779143719291 -0.46083672605530768 0 -0.2055877559272139 -0.47590323914846377 0 -0.19179305986328829 -0.46711759196808689 0 -0.2055877559272139 -0.47590323914846377 0 -0.1915741566131953 -0.48274482478870012 0 -0.19179305986328829 -0.46711759196808689 0 -0.1915741566131953 -0.48274482478870012 0 -0.17982433803767831 -0.46920918797397909 0 -0.2140191710910414 -0.49999999999999972 0 -0.1915741566131953 -0.48274482478870012 0 -0.1841956238768391 -0.5 0 -0.1915741566131953 -0.48274482478870012 0 -0.1841956238768391 -0.5 0 -0.17247084166804699 -0.48396500267038112 0 -0.1841956238768391 -0.5 0 -0.17247084166804699 -0.48396500267038112 0 -0.15437207666263669 -0.50000000000000022 0 -0.15669106487963419 -0.47716915445828201 0 -0.17247084166804699 -0.48396500267038112 0 -0.15437207666263669 -0.50000000000000022 0 -0.15669106487963419 -0.47716915445828201 0 -0.17247084166804699 -0.48396500267038112 0 -0.1680230602922401 -0.4683158249620154 0 -0.17247084166804699 -0.48396500267038112 0 -0.17982433803767831 -0.46920918797397909 0 -0.1680230602922401 -0.4683158249620154 0 -0.1915741566131953 -0.48274482478870012 0 -0.17247084166804699 -0.48396500267038112 0 -0.17982433803767831 -0.46920918797397909 0 -0.19179305986328829 -0.46711759196808689 0 -0.17982433803767831 -0.46920918797397909 0 -0.184822707974968 -0.45592422963236362 0 -0.17982433803767831 -0.46920918797397909 0 -0.184822707974968 -0.45592422963236362 0 -0.17211900377920919 -0.45689747079087062 0 -0.17982433803767831 -0.46920918797397909 0 -0.17211900377920919 -0.45689747079087062 0 -0.1680230602922401 -0.4683158249620154 0 -0.1870173619903012 -0.44414077979923022 0 -0.17843006300647921 -0.44542980211747812 0 -0.1823118302108766 -0.43680876328769058 0 -0.184822707974968 -0.45592422963236362 0 -0.1870173619903012 -0.44414077979923022 0 -0.17843006300647921 -0.44542980211747812 0 -0.17211900377920919 -0.45689747079087062 0 -0.17843006300647921 -0.44542980211747812 0 -0.16919262628862339 -0.44362555979768409 0 -0.184822707974968 -0.45592422963236362 0 -0.17211900377920919 -0.45689747079087062 0 -0.17843006300647921 -0.44542980211747812 0 -0.17843006300647921 -0.44542980211747812 0 -0.16919262628862339 -0.44362555979768409 0 -0.17507497024716731 -0.42995475378866199 0 -0.1590100530966318 -0.45433830891656402 0 -0.148881704538534 -0.44296791951084241 0 -0.1613290413136293 -0.43150746337484569 0 -0.1590100530966318 -0.45433830891656402 0 -0.1613290413136293 -0.43150746337484569 0 -0.16919262628862339 -0.44362555979768409 0 -0.1590100530966318 -0.45433830891656402 0 -0.1613290413136293 -0.43150746337484569 0 -0.17211900377920919 -0.45689747079087062 0 -0.16919262628862339 -0.44362555979768409 0 -0.1590100530966318 -0.45433830891656402 0 -0.15669106487963419 -0.47716915445828201 0 -0.1680230602922401 -0.4683158249620154 0 -0.1590100530966318 -0.45433830891656402 0 -0.15669106487963419 -0.47716915445828201 0 -0.1590100530966318 -0.45433830891656402 0 -0.17211900377920919 -0.45689747079087062 0 -0.1680230602922401 -0.4683158249620154 0 -0.1590100530966318 -0.45433830891656402 0 -0.15669106487963419 -0.47716915445828201 0 -0.1590100530966318 -0.45433830891656402 0 -0.1472923250818238 -0.46077477567243558 0 -0.1590100530966318 -0.45433830891656402 0 -0.1472923250818238 -0.46077477567243558 0 -0.148881704538534 -0.44296791951084241 0 -0.1472923250818238 -0.46077477567243558 0 -0.148881704538534 -0.44296791951084241 0 -0.13194602454298601 -0.43962244526902572 0 -0.13194602454298601 -0.43962244526902572 0 -0.13077987840644981 -0.46069854066347632 0 -0.11615585050415531 -0.45102464773050138 0 -0.1472923250818238 -0.46077477567243558 0 -0.13194602454298601 -0.43962244526902572 0 -0.1472923250818238 -0.46077477567243558 0 -0.13077987840644981 -0.46069854066347632 0 -0.13742439756140509 -0.48004162281001828 0 -0.1472923250818238 -0.46077477567243558 0 -0.13194602454298601 -0.43962244526902572 0 -0.13077987840644981 -0.46069854066347632 0 -0.13742439756140509 -0.48004162281001828 0 -0.12108079434187891 -0.47202921183540031 0 -0.1206292342060253 -0.48641385964910883 0 -0.13077987840644981 -0.46069854066347632 0 -0.13742439756140509 -0.48004162281001828 0 -0.12108079434187891 -0.47202921183540031 0 -0.13742439756140509 -0.48004162281001828 0 -0.131118449396015 -0.5 0 -0.1206292342060253 -0.48641385964910883 0 -0.15669106487963419 -0.47716915445828201 0 -0.13742439756140509 -0.48004162281001828 0 -0.15437207666263669 -0.50000000000000022 0 -0.15669106487963419 -0.47716915445828201 0 -0.15437207666263669 -0.50000000000000022 0 -0.13742439756140509 -0.48004162281001828 0 -0.131118449396015 -0.5 0 -0.15437207666263669 -0.50000000000000022 0 -0.15669106487963419 -0.47716915445828201 0 -0.1472923250818238 -0.46077477567243558 0 -0.13742439756140509 -0.48004162281001828 0 -0.13678826443221431 -0.39755243580027871 0 -0.14931675495270949 -0.41057852288770358 0 -0.15761740849691311 -0.38818340141201402 0 -0.1369224961495438 -0.38192389563367207 0 -0.13678826443221431 -0.39755243580027871 0 -0.15761740849691311 -0.38818340141201402 0 -0.1369224961495438 -0.38192389563367207 0 -0.15761740849691311 -0.38818340141201402 0 -0.148308101659717 -0.36695316985008092 0 -0.1369224961495438 -0.38192389563367207 0 -0.12526638733901391 -0.39147447277512609 0 -0.13678826443221431 -0.39755243580027871 0 -0.1369224961495438 -0.38192389563367207 0 -0.1303219987982592 -0.3665496015062627 0 -0.12201267174342199 -0.37938718301114999 0 -0.1369224961495438 -0.38192389563367207 0 -0.12526638733901391 -0.39147447277512609 0 -0.12201267174342199 -0.37938718301114999 0 -0.12526638733901391 -0.39147447277512609 0 -0.13678826443221431 -0.39755243580027871 0 -0.12592730430259419 -0.40432488328170318 0 -0.13678826443221431 -0.39755243580027871 0 -0.12592730430259419 -0.40432488328170318 0 -0.1345256340888337 -0.41538851269275129 0 -0.13678826443221431 -0.39755243580027871 0 -0.1345256340888337 -0.41538851269275129 0 -0.14931675495270949 -0.41057852288770358 0 -0.12592730430259419 -0.40432488328170318 0 -0.1345256340888337 -0.41538851269275129 0 -0.1165997240041481 -0.41847011486561592 0 -0.13194602454298601 -0.43962244526902572 0 -0.1345256340888337 -0.41538851269275129 0 -0.14483107865759889 -0.42859660432134139 0 -0.13194602454298601 -0.43962244526902572 0 -0.1345256340888337 -0.41538851269275129 0 -0.1165997240041481 -0.41847011486561592 0 -0.148881704538534 -0.44296791951084241 0 -0.14483107865759889 -0.42859660432134139 0 -0.1613290413136293 -0.43150746337484569 0 -0.148881704538534 -0.44296791951084241 0 -0.13194602454298601 -0.43962244526902572 0 -0.14483107865759889 -0.42859660432134139 0 -0.14483107865759889 -0.42859660432134139 0 -0.14931675495270949 -0.41057852288770358 0 -0.1613290413136293 -0.43150746337484569 0 -0.1345256340888337 -0.41538851269275129 0 -0.14483107865759889 -0.42859660432134139 0 -0.14931675495270949 -0.41057852288770358 0 -0.16364802953062679 -0.40867661783312748 0 -0.1613290413136293 -0.43150746337484569 0 -0.14931675495270949 -0.41057852288770358 0 -0.16364802953062679 -0.40867661783312748 0 -0.1613290413136293 -0.43150746337484569 0 -0.16364802953062679 -0.40867661783312748 0 -0.1613290413136293 -0.43150746337484569 0 -0.17507497024716731 -0.42995475378866199 0 -0.16919262628862339 -0.44362555979768409 0 -0.1613290413136293 -0.43150746337484569 0 -0.17507497024716731 -0.42995475378866199 0 -0.1870173619903012 -0.44414077979923022 0 -0.1823118302108766 -0.43680876328769058 0 -0.18872492559955881 -0.42770971744539221 0 -0.17843006300647921 -0.44542980211747812 0 -0.17507497024716731 -0.42995475378866199 0 -0.1823118302108766 -0.43680876328769058 0 -0.17507497024716731 -0.42995475378866199 0 -0.1806986800215967 -0.4173161083834821 0 -0.18872492559955881 -0.42770971744539221 0 -0.17507497024716731 -0.42995475378866199 0 -0.1823118302108766 -0.43680876328769058 0 -0.18872492559955881 -0.42770971744539221 0 -0.1806986800215967 -0.4173161083834821 0 -0.18228064084688081 -0.39610998094782668 0 -0.19209360216251761 -0.40824625574224149 0 -0.16364802953062679 -0.40867661783312748 0 -0.17507497024716731 -0.42995475378866199 0 -0.1806986800215967 -0.4173161083834821 0 -0.16364802953062679 -0.40867661783312748 0 -0.1806986800215967 -0.4173161083834821 0 -0.18228064084688081 -0.39610998094782668 0 -0.16364802953062679 -0.40867661783312748 0 -0.18228064084688081 -0.39610998094782668 0 -0.15761740849691311 -0.38818340141201402 0 -0.14931675495270949 -0.41057852288770358 0 -0.16364802953062679 -0.40867661783312748 0 -0.15761740849691311 -0.38818340141201402 0 -0.15761740849691311 -0.38818340141201402 0 -0.183603859264966 -0.3766054584014627 0 -0.1661931572416451 -0.36889933283976362 0 -0.18228064084688081 -0.39610998094782668 0 -0.15761740849691311 -0.38818340141201402 0 -0.183603859264966 -0.3766054584014627 0 -0.18228064084688081 -0.39610998094782668 0 -0.183603859264966 -0.3766054584014627 0 -0.20216487974800659 -0.3829991661375407 0 -0.18228064084688081 -0.39610998094782668 0 -0.20343785588976751 -0.39944649130885712 0 -0.19209360216251761 -0.40824625574224149 0 -0.18228064084688081 -0.39610998094782668 0 -0.20216487974800659 -0.3829991661375407 0 -0.20343785588976751 -0.39944649130885712 0 -0.20343785588976751 -0.39944649130885712 0 -0.21350444502423929 -0.40864471589815532 0 -0.22035180610084079 -0.39356726900625483 0 -0.20216487974800659 -0.3829991661375407 0 -0.20343785588976751 -0.39944649130885712 0 -0.22035180610084079 -0.39356726900625483 0 -0.20216487974800659 -0.3829991661375407 0 -0.22035180610084079 -0.39356726900625483 0 -0.219169022554425 -0.37113875127287832 0 -0.1806986800215967 -0.4173161083834821 0 -0.2030300315513712 -0.43746332377949593 0 -0.18872492559955881 -0.42770971744539221 0 -0.1806986800215967 -0.4173161083834821 0 -0.2030300315513712 -0.43746332377949593 0 -0.2030300315513712 -0.43746332377949593 0 -0.19369636752838881 -0.41903658901391427 0 -0.2031687955665597 -0.42354741618771741 0 -0.1806986800215967 -0.4173161083834821 0 -0.2030300315513712 -0.43746332377949593 0 -0.19369636752838881 -0.41903658901391427 0 -0.19369636752838881 -0.41903658901391427 0 -0.20299923128825029 -0.41376529568937459 0 -0.2031687955665597 -0.42354741618771741 0 -0.1806986800215967 -0.4173161083834821 0 -0.19369636752838881 -0.41903658901391427 0 -0.19209360216251761 -0.40824625574224149 0 -0.19369636752838881 -0.41903658901391427 0 -0.19209360216251761 -0.40824625574224149 0 -0.20299923128825029 -0.41376529568937459 0 -0.20343785588976751 -0.39944649130885712 0 -0.19209360216251761 -0.40824625574224149 0 -0.20299923128825029 -0.41376529568937459 0 -0.20343785588976751 -0.39944649130885712 0 -0.20299923128825029 -0.41376529568937459 0 -0.21350444502423929 -0.40864471589815532 0 -0.21350444502423929 -0.40864471589815532 0 -0.21294955189822859 -0.42392445626808489 0 -0.2277837799441092 -0.41252006721820539 0 -0.20299923128825029 -0.41376529568937459 0 -0.2031687955665597 -0.42354741618771741 0 -0.21294955189822859 -0.42392445626808489 0 -0.20299923128825029 -0.41376529568937459 0 -0.21350444502423929 -0.40864471589815532 0 -0.21294955189822859 -0.42392445626808489 0 -0.2030300315513712 -0.43746332377949593 0 -0.21294955189822859 -0.42392445626808489 0 -0.22549954629610269 -0.43500765649169948 0 -0.2030300315513712 -0.43746332377949593 0 -0.2031687955665597 -0.42354741618771741 0 -0.21294955189822859 -0.42392445626808489 0 -0.23591515519085041 -0.44398209369878189 0 -0.22549954629610269 -0.43500765649169948 0 -0.23735783041644329 -0.42609093398936743 0 -0.22549954629610269 -0.43500765649169948 0 -0.2277837799441092 -0.41252006721820539 0 -0.23735783041644329 -0.42609093398936743 0 -0.21294955189822859 -0.42392445626808489 0 -0.22549954629610269 -0.43500765649169948 0 -0.2277837799441092 -0.41252006721820539 0 -0.2277837799441092 -0.41252006721820539 0 -0.24694430377570939 -0.41295507854145541 0 -0.2277837799441092 -0.41252006721820539 0 -0.24694430377570939 -0.41295507854145541 0 -0.23735783041644329 -0.42609093398936743 0 -0.2277837799441092 -0.41252006721820539 0 -0.24694430377570939 -0.41295507854145541 0 -0.2359891007147569 -0.39914414181493052 0 -0.25298523514652932 -0.43702750984159111 0 -0.24694430377570939 -0.41295507854145541 0 -0.23735783041644329 -0.42609093398936743 0 -0.25298523514652932 -0.43702750984159111 0 -0.23591515519085041 -0.44398209369878189 0 -0.23735783041644329 -0.42609093398936743 0 -0.22035180610084079 -0.39356726900625483 0 -0.23802591309349369 -0.38358476956933441 0 -0.219169022554425 -0.37113875127287832 0 -0.22035180610084079 -0.39356726900625483 0 -0.2359891007147569 -0.39914414181493052 0 -0.23802591309349369 -0.38358476956933441 0 -0.21350444502423929 -0.40864471589815532 0 -0.2277837799441092 -0.41252006721820539 0 -0.22035180610084079 -0.39356726900625483 0 -0.2277837799441092 -0.41252006721820539 0 -0.22035180610084079 -0.39356726900625483 0 -0.2359891007147569 -0.39914414181493052 0 -0.2359891007147569 -0.39914414181493052 0 -0.2487824818667288 -0.3954643368039899 0 -0.23802591309349369 -0.38358476956933441 0 -0.24694430377570939 -0.41295507854145541 0 -0.2359891007147569 -0.39914414181493052 0 -0.2487824818667288 -0.3954643368039899 0 -0.26050234447883253 -0.38027693877573482 0 -0.2487824818667288 -0.3954643368039899 0 -0.23802591309349369 -0.38358476956933441 0 -0.26050234447883253 -0.38027693877573482 0 -0.23802591309349369 -0.38358476956933441 0 -0.24817767477162081 -0.36986654917455902 0 -0.23802591309349369 -0.38358476956933441 0 -0.24817767477162081 -0.36986654917455902 0 -0.23583729862822109 -0.36574384613307409 0 -0.24817767477162081 -0.36986654917455902 0 -0.23583729862822109 -0.36574384613307409 0 -0.24850069890613241 -0.35473287875334369 0 -0.23583729862822109 -0.36574384613307409 0 -0.219169022554425 -0.37113875127287832 0 -0.22531318381543361 -0.34939628189525529 0 -0.23802591309349369 -0.38358476956933441 0 -0.23583729862822109 -0.36574384613307409 0 -0.219169022554425 -0.37113875127287832 0 -0.22531318381543361 -0.34939628189525529 0 -0.24850069890613241 -0.35473287875334369 0 -0.24219101746094579 -0.34438554910399921 0 -0.23583729862822109 -0.36574384613307409 0 -0.22531318381543361 -0.34939628189525529 0 -0.24850069890613241 -0.35473287875334369 0 -0.22531318381543361 -0.34939628189525529 0 -0.24850069890613241 -0.35473287875334369 0 -0.25445926970156468 -0.34270101061729968 0 -0.24850069890613241 -0.35473287875334369 0 -0.24219101746094579 -0.34438554910399921 0 -0.25445926970156468 -0.34270101061729968 0 -0.24219101746094579 -0.34438554910399921 0 -0.2460450098649074 -0.33743905859998191 0 -0.25207330520806498 -0.33378255792528982 0 -0.2460450098649074 -0.33743905859998191 0 -0.24306356592407591 -0.32787829483024122 0 -0.2348359590034956 -0.33686915078515089 0 -0.24306356592407591 -0.32787829483024122 0 -0.23163603200856511 -0.32708080208212859 0 -0.2460450098649074 -0.33743905859998191 0 -0.2348359590034956 -0.33686915078515089 0 -0.24306356592407591 -0.32787829483024122 0 -0.24219101746094579 -0.34438554910399921 0 -0.2460450098649074 -0.33743905859998191 0 -0.2348359590034956 -0.33686915078515089 0 -0.25273748935779161 -0.32224337373924072 0 -0.24326482791746179 -0.31394285089519419 0 -0.24426682308287331 -0.30533572025667649 0 -0.25273748935779161 -0.32224337373924072 0 -0.24426682308287331 -0.30533572025667649 0 -0.25273748935779161 -0.32224337373924072 0 -0.24326482791746179 -0.31394285089519419 0 -0.2440208243134171 -0.32058552998791068 0 -0.25273748935779161 -0.32224337373924072 0 -0.24306356592407591 -0.32787829483024122 0 -0.2440208243134171 -0.32058552998791068 0 -0.25207330520806498 -0.33378255792528982 0 -0.25273748935779161 -0.32224337373924072 0 -0.24306356592407591 -0.32787829483024122 0 -0.24306356592407591 -0.32787829483024122 0 -0.2440208243134171 -0.32058552998791068 0 -0.23701741405433899 -0.31827760048696663 0 -0.24306356592407591 -0.32787829483024122 0 -0.23701741405433899 -0.31827760048696663 0 -0.23163603200856511 -0.32708080208212859 0 -0.24326482791746179 -0.31394285089519419 0 -0.23701741405433899 -0.31827760048696663 0 -0.2384772558931193 -0.30928307653082621 0 -0.24326482791746179 -0.31394285089519419 0 -0.2440208243134171 -0.32058552998791068 0 -0.23701741405433899 -0.31827760048696663 0 -0.22244826701882919 -0.32070202864358233 0 -0.22802593536356699 -0.30882837184141948 0 -0.21110805984082151 -0.30983785689108939 0 -0.23701741405433899 -0.31827760048696663 0 -0.22244826701882919 -0.32070202864358233 0 -0.22802593536356699 -0.30882837184141948 0 -0.23701741405433899 -0.31827760048696663 0 -0.23163603200856511 -0.32708080208212859 0 -0.22244826701882919 -0.32070202864358233 0 -0.23163603200856511 -0.32708080208212859 0 -0.22244826701882919 -0.32070202864358233 0 -0.22079431421521131 -0.33353493235345111 0 -0.22531318381543361 -0.34939628189525529 0 -0.2348359590034956 -0.33686915078515089 0 -0.22079431421521131 -0.33353493235345111 0 -0.22531318381543361 -0.34939628189525529 0 -0.24219101746094579 -0.34438554910399921 0 -0.2348359590034956 -0.33686915078515089 0 -0.2348359590034956 -0.33686915078515089 0 -0.23163603200856511 -0.32708080208212859 0 -0.22079431421521131 -0.33353493235345111 0 -0.22079431421521131 -0.33353493235345111 0 -0.20839645480677241 -0.32403064402179738 0 -0.20212566872473489 -0.34405968503716688 0 -0.22531318381543361 -0.34939628189525529 0 -0.22079431421521131 -0.33353493235345111 0 -0.20212566872473489 -0.34405968503716688 0 -0.22244826701882919 -0.32070202864358233 0 -0.20839645480677241 -0.32403064402179738 0 -0.21110805984082151 -0.30983785689108939 0 -0.22244826701882919 -0.32070202864358233 0 -0.22079431421521131 -0.33353493235345111 0 -0.20839645480677241 -0.32403064402179738 0 -0.20839645480677241 -0.32403064402179738 0 -0.19575919956014079 -0.31702437624003538 0 -0.21110805984082151 -0.30983785689108939 0 -0.20839645480677241 -0.32403064402179738 0 -0.19575919956014079 -0.31702437624003538 0 -0.19562896033857519 -0.33020038185646122 0 -0.19575919956014079 -0.31702437624003538 0 -0.19562896033857519 -0.33020038185646122 0 -0.18477851095256179 -0.32477614194451959 0 -0.20212566872473489 -0.34405968503716688 0 -0.1789381536340362 -0.33872308817907848 0 -0.19562896033857519 -0.33020038185646122 0 -0.20212566872473489 -0.34405968503716688 0 -0.1789381536340362 -0.33872308817907848 0 -0.20839645480677241 -0.32403064402179738 0 -0.19562896033857519 -0.33020038185646122 0 -0.20212566872473489 -0.34405968503716688 0 -0.20212566872473489 -0.34405968503716688 0 -0.2037839996862793 -0.36234410805543599 0 -0.1863350517553729 -0.35962674217565882 0 -0.20212566872473489 -0.34405968503716688 0 -0.1863350517553729 -0.35962674217565882 0 -0.1789381536340362 -0.33872308817907848 0 -0.183603859264966 -0.3766054584014627 0 -0.20216487974800659 -0.3829991661375407 0 -0.2037839996862793 -0.36234410805543599 0 -0.183603859264966 -0.3766054584014627 0 -0.2037839996862793 -0.36234410805543599 0 -0.1863350517553729 -0.35962674217565882 0 -0.219169022554425 -0.37113875127287832 0 -0.22531318381543361 -0.34939628189525529 0 -0.2037839996862793 -0.36234410805543599 0 -0.20216487974800659 -0.3829991661375407 0 -0.219169022554425 -0.37113875127287832 0 -0.2037839996862793 -0.36234410805543599 0 -0.22531318381543361 -0.34939628189525529 0 -0.20212566872473489 -0.34405968503716688 0 -0.2037839996862793 -0.36234410805543599 0 -0.22531318381543361 -0.34939628189525529 0 -0.20212566872473489 -0.34405968503716688 0 -0.24465976002352091 -0.25387891845332877 0 -0.23199225124923151 -0.26692477658714647 0 -0.21854221021918649 -0.25236034283526498 0 -0.23199225124923151 -0.26692477658714647 0 -0.21864709985809599 -0.27150291036173302 0 -0.21854221021918649 -0.25236034283526498 0 -0.24465976002352091 -0.25387891845332877 0 -0.2444485511135471 -0.27534046621033159 0 -0.23199225124923151 -0.26692477658714647 0 -0.25958550566062261 -0.27102626557679149 0 -0.24465976002352091 -0.25387891845332877 0 -0.2444485511135471 -0.27534046621033159 0 -0.2444485511135471 -0.27534046621033159 0 -0.23199225124923151 -0.26692477658714647 0 -0.23366363503180709 -0.28154124507507411 0 -0.2197277065850177 -0.2872169177591285 0 -0.23366363503180709 -0.28154124507507411 0 -0.21864709985809599 -0.27150291036173302 0 -0.23199225124923151 -0.26692477658714647 0 -0.23366363503180709 -0.28154124507507411 0 -0.21864709985809599 -0.27150291036173302 0 -0.2197277065850177 -0.2872169177591285 0 -0.23366363503180709 -0.28154124507507411 0 -0.24011613505684479 -0.30107681213347393 0 -0.2197277065850177 -0.2872169177591285 0 -0.24011613505684479 -0.30107681213347393 0 -0.2197277065850177 -0.2872169177591285 0 -0.24011613505684479 -0.30107681213347393 0 -0.2201073871300871 -0.30044142834658671 0 -0.2444485511135471 -0.27534046621033159 0 -0.23366363503180709 -0.28154124507507411 0 -0.24732420154209239 -0.29033586459568173 0 -0.23366363503180709 -0.28154124507507411 0 -0.24732420154209239 -0.29033586459568173 0 -0.24011613505684479 -0.30107681213347393 0 -0.25608276685525683 -0.28295324223861612 0 -0.2444485511135471 -0.27534046621033159 0 -0.24732420154209239 -0.29033586459568173 0 -0.26050456352867191 -0.3149367065078193 0 -0.24011613505684479 -0.30107681213347393 0 -0.24426682308287331 -0.30533572025667649 0 -0.25485564421046719 -0.30132045870319019 0 -0.24732420154209239 -0.29033586459568173 0 -0.24011613505684479 -0.30107681213347393 0 -0.24011613505684479 -0.30107681213347393 0 -0.2384772558931193 -0.30928307653082621 0 -0.22802593536356699 -0.30882837184141948 0 -0.24326482791746179 -0.31394285089519419 0 -0.24426682308287331 -0.30533572025667649 0 -0.2384772558931193 -0.30928307653082621 0 -0.24011613505684479 -0.30107681213347393 0 -0.24426682308287331 -0.30533572025667649 0 -0.2384772558931193 -0.30928307653082621 0 -0.23701741405433899 -0.31827760048696663 0 -0.2384772558931193 -0.30928307653082621 0 -0.22802593536356699 -0.30882837184141948 0 -0.22802593536356699 -0.30882837184141948 0 -0.2201073871300871 -0.30044142834658671 0 -0.21110805984082151 -0.30983785689108939 0 -0.24011613505684479 -0.30107681213347393 0 -0.22802593536356699 -0.30882837184141948 0 -0.2201073871300871 -0.30044142834658671 0 -0.2201073871300871 -0.30044142834658671 0 -0.21110805984082151 -0.30983785689108939 0 -0.20155909880418441 -0.29524718310782239 0 -0.21110805984082151 -0.30983785689108939 0 -0.2000775247532616 -0.30687463122530689 0 -0.20155909880418441 -0.29524718310782239 0 -0.19575919956014079 -0.31702437624003538 0 -0.21110805984082151 -0.30983785689108939 0 -0.2000775247532616 -0.30687463122530689 0 -0.18961770926909149 -0.30481471110084102 0 -0.20155909880418441 -0.29524718310782239 0 -0.1798976030385912 -0.29461474791537873 0 -0.19575919956014079 -0.31702437624003538 0 -0.2000775247532616 -0.30687463122530689 0 -0.18961770926909149 -0.30481471110084102 0 -0.19575919956014079 -0.31702437624003538 0 -0.18961770926909149 -0.30481471110084102 0 -0.1803928959391416 -0.31521744924658562 0 -0.2000775247532616 -0.30687463122530689 0 -0.18961770926909149 -0.30481471110084102 0 -0.20155909880418441 -0.29524718310782239 0 -0.19933927811319041 -0.27335702338478318 0 -0.1798976030385912 -0.29461474791537873 0 -0.20155909880418441 -0.29524718310782239 0 -0.19933927811319041 -0.27335702338478318 0 -0.1798976030385912 -0.29461474791537873 0 -0.2197277065850177 -0.2872169177591285 0 -0.20155909880418441 -0.29524718310782239 0 -0.19933927811319041 -0.27335702338478318 0 -0.2197277065850177 -0.2872169177591285 0 -0.2201073871300871 -0.30044142834658671 0 -0.20155909880418441 -0.29524718310782239 0 -0.21864709985809599 -0.27150291036173302 0 -0.19933927811319041 -0.27335702338478318 0 -0.21854221021918649 -0.25236034283526498 0 -0.2197277065850177 -0.2872169177591285 0 -0.21864709985809599 -0.27150291036173302 0 -0.19933927811319041 -0.27335702338478318 0 -0.2197277065850177 -0.2872169177591285 0 -0.19933927811319041 -0.27335702338478318 0 -0.19672455084482071 -0.27157955221738023 0 -0.19563648814007639 -0.2627950405098789 0 -0.1773613401945949 -0.28300380337564962 0 -0.19672455084482071 -0.27157955221738023 0 -0.19933927811319041 -0.27335702338478318 0 -0.1773613401945949 -0.28300380337564962 0 -0.19672455084482071 -0.27157955221738023 0 -0.19933927811319041 -0.27335702338478318 0 -0.19563648814007639 -0.2627950405098789 0 -0.19672455084482071 -0.27157955221738023 0 -0.19933927811319041 -0.27335702338478318 0 -0.19933927811319041 -0.27335702338478318 0 -0.19563648814007639 -0.2627950405098789 0 -0.2024770003035091 -0.25628481747185139 0 -0.19563648814007639 -0.2627950405098789 0 -0.19160736129165659 -0.25262396586623759 0 -0.18182513936558051 -0.25739227955256888 0 -0.19563648814007639 -0.2627950405098789 0 -0.19160736129165659 -0.25262396586623759 0 -0.2024770003035091 -0.25628481747185139 0 -0.19160736129165659 -0.25262396586623759 0 -0.2024770003035091 -0.25628481747185139 0 -0.19988453840298659 -0.24176205441804 0 -0.19933927811319041 -0.27335702338478318 0 -0.2024770003035091 -0.25628481747185139 0 -0.21854221021918649 -0.25236034283526498 0 -0.2024770003035091 -0.25628481747185139 0 -0.21854221021918649 -0.25236034283526498 0 -0.19988453840298659 -0.24176205441804 0 -0.19933927811319041 -0.27335702338478318 0 -0.21854221021918649 -0.25236034283526498 0 -0.16270034237907721 -0.26451024010365409 0 -0.1689202540561075 -0.25519621835756329 0 -0.15263230708737521 -0.24356194903458239 0 -0.16270034237907721 -0.26451024010365409 0 -0.15585924966824549 -0.27338725763800159 0 -0.15263230708737521 -0.24356194903458239 0 -0.16270034237907721 -0.26451024010365409 0 -0.1689202540561075 -0.25519621835756329 0 -0.17291740387759841 -0.2648938158906885 0 -0.1689202540561075 -0.25519621835756329 0 -0.18182513936558051 -0.25739227955256888 0 -0.1745260775709061 -0.24562280720632229 0 -0.19160736129165659 -0.25262396586623759 0 -0.18182513936558051 -0.25739227955256888 0 -0.1745260775709061 -0.24562280720632229 0 -0.19563648814007639 -0.2627950405098789 0 -0.18182513936558051 -0.25739227955256888 0 -0.18269465011250469 -0.26841637399603913 0 -0.1689202540561075 -0.25519621835756329 0 -0.18182513936558051 -0.25739227955256888 0 -0.17291740387759841 -0.2648938158906885 0 -0.18182513936558051 -0.25739227955256888 0 -0.17291740387759841 -0.2648938158906885 0 -0.18269465011250469 -0.26841637399603913 0 -0.19563648814007639 -0.2627950405098789 0 -0.18269465011250469 -0.26841637399603913 0 -0.1773613401945949 -0.28300380337564962 0 -0.17291740387759841 -0.2648938158906885 0 -0.17526212336935321 -0.27297056277525461 0 -0.1680750992927145 -0.27556825783864097 0 -0.19563648814007639 -0.2627950405098789 0 -0.1773613401945949 -0.28300380337564962 0 -0.17291740387759841 -0.2648938158906885 0 -0.17526212336935321 -0.27297056277525461 0 -0.18269465011250469 -0.26841637399603913 0 -0.17526212336935321 -0.27297056277525461 0 -0.18269465011250469 -0.26841637399603913 0 -0.1773613401945949 -0.28300380337564962 0 -0.17526212336935321 -0.27297056277525461 0 -0.1680750992927145 -0.27556825783864097 0 -0.1773613401945949 -0.28300380337564962 0 -0.1680750992927145 -0.27556825783864097 0 -0.1682011228878135 -0.28257539269247411 0 -0.1773613401945949 -0.28300380337564962 0 -0.1680750992927145 -0.27556825783864097 0 -0.1622412594804854 -0.28273310688964581 0 -0.1682011228878135 -0.28257539269247411 0 -0.16270034237907721 -0.26451024010365409 0 -0.17291740387759841 -0.2648938158906885 0 -0.1680750992927145 -0.27556825783864097 0 -0.16270034237907721 -0.26451024010365409 0 -0.1680750992927145 -0.27556825783864097 0 -0.16179622859894191 -0.27503335760685149 0 -0.16270034237907721 -0.26451024010365409 0 -0.16179622859894191 -0.27503335760685149 0 -0.15585924966824549 -0.27338725763800159 0 -0.16179622859894191 -0.27503335760685149 0 -0.1622412594804854 -0.28273310688964581 0 -0.15585924966824549 -0.27338725763800159 0 -0.1680750992927145 -0.27556825783864097 0 -0.16179622859894191 -0.27503335760685149 0 -0.1622412594804854 -0.28273310688964581 0 -0.1622412594804854 -0.28273310688964581 0 -0.16512679258345911 -0.28899640266596011 0 -0.15908619224911419 -0.30321256624142101 0 -0.1622412594804854 -0.28273310688964581 0 -0.15908619224911419 -0.30321256624142101 0 -0.15585924966824549 -0.27338725763800159 0 -0.15908619224911419 -0.30321256624142101 0 -0.15585924966824549 -0.27338725763800159 0 -0.16512679258345911 -0.28899640266596011 0 -0.1773613401945949 -0.28300380337564962 0 -0.15908619224911419 -0.30321256624142101 0 -0.1773613401945949 -0.28300380337564962 0 -0.15908619224911419 -0.30321256624142101 0 -0.16512679258345911 -0.28899640266596011 0 -0.1682011228878135 -0.28257539269247411 0 -0.1773613401945949 -0.28300380337564962 0 -0.1622412594804854 -0.28273310688964581 0 -0.16512679258345911 -0.28899640266596011 0 -0.1682011228878135 -0.28257539269247411 0 -0.1773613401945949 -0.28300380337564962 0 -0.1798976030385912 -0.29461474791537873 0 -0.15908619224911419 -0.30321256624142101 0 -0.19933927811319041 -0.27335702338478318 0 -0.1773613401945949 -0.28300380337564962 0 -0.1798976030385912 -0.29461474791537873 0 -0.1798976030385912 -0.29461474791537873 0 -0.17759103405270391 -0.30762984517719472 0 -0.16045592796399111 -0.3158724724459735 0 -0.18961770926909149 -0.30481471110084102 0 -0.1798976030385912 -0.29461474791537873 0 -0.17759103405270391 -0.30762984517719472 0 -0.18961770926909149 -0.30481471110084102 0 -0.17759103405270391 -0.30762984517719472 0 -0.1803928959391416 -0.31521744924658562 0 -0.1798976030385912 -0.29461474791537873 0 -0.16045592796399111 -0.3158724724459735 0 -0.1798976030385912 -0.29461474791537873 0 -0.15908619224911419 -0.30321256624142101 0 -0.16045592796399111 -0.3158724724459735 0 -0.15908619224911419 -0.30321256624142101 0 -0.16045592796399111 -0.3158724724459735 0 -0.1471380549162328 -0.30532142906175452 0 -0.14032160831301491 -0.30752887986621158 0 -0.14130665940473261 -0.32287327510069419 0 -0.15908619224911419 -0.30321256624142101 0 -0.1471380549162328 -0.30532142906175452 0 -0.14130665940473261 -0.32287327510069419 0 -0.15908619224911419 -0.30321256624142101 0 -0.1471380549162328 -0.30532142906175452 0 -0.1510678287434867 -0.29559461902651829 0 -0.14390798587081549 -0.29739780507392732 0 -0.1471380549162328 -0.30532142906175452 0 -0.1510678287434867 -0.29559461902651829 0 -0.14390798587081549 -0.29739780507392732 0 -0.1471380549162328 -0.30532142906175452 0 -0.14032160831301491 -0.30752887986621158 0 -0.14032160831301491 -0.30752887986621158 0 -0.13439128381467691 -0.29991683468539793 0 -0.13033731665847181 -0.31286393971371201 0 -0.13439128381467691 -0.29991683468539793 0 -0.13033731665847181 -0.31286393971371201 0 -0.12304085188452731 -0.29931348820209958 0 -0.14390798587081549 -0.29739780507392732 0 -0.14032160831301491 -0.30752887986621158 0 -0.13439128381467691 -0.29991683468539793 0 -0.14390798587081549 -0.29739780507392732 0 -0.13439128381467691 -0.29991683468539793 0 -0.14011095662501261 -0.28947786809128212 0 -0.13439128381467691 -0.29991683468539793 0 -0.14011095662501261 -0.28947786809128212 0 -0.12994370463312691 -0.28995419054763111 0 -0.13439128381467691 -0.29991683468539793 0 -0.12994370463312691 -0.28995419054763111 0 -0.12304085188452731 -0.29931348820209958 0 -0.12994370463312691 -0.28995419054763111 0 -0.13687965345326569 -0.27993872332247433 0 -0.1257911728949061 -0.280427018304516 0 -0.12994370463312691 -0.28995419054763111 0 -0.1257911728949061 -0.280427018304516 0 -0.1194571486541455 -0.28746452468861589 0 -0.14011095662501261 -0.28947786809128212 0 -0.12994370463312691 -0.28995419054763111 0 -0.13687965345326569 -0.27993872332247433 0 -0.15908619224911419 -0.30321256624142101 0 -0.15162645984294551 -0.28670064183700439 0 -0.15585924966824549 -0.27338725763800159 0 -0.14011095662501261 -0.28947786809128212 0 -0.1458827091329962 -0.28225219708249882 0 -0.13687965345326569 -0.27993872332247433 0 -0.15908619224911419 -0.30321256624142101 0 -0.1510678287434867 -0.29559461902651829 0 -0.15162645984294551 -0.28670064183700439 0 -0.1458827091329962 -0.28225219708249882 0 -0.1468811506158991 -0.28912565090950809 0 -0.15162645984294551 -0.28670064183700439 0 -0.14011095662501261 -0.28947786809128212 0 -0.1458827091329962 -0.28225219708249882 0 -0.1468811506158991 -0.28912565090950809 0 -0.14390798587081549 -0.29739780507392732 0 -0.1468811506158991 -0.28912565090950809 0 -0.1510678287434867 -0.29559461902651829 0 -0.14390798587081549 -0.29739780507392732 0 -0.14011095662501261 -0.28947786809128212 0 -0.1468811506158991 -0.28912565090950809 0 -0.1468811506158991 -0.28912565090950809 0 -0.1510678287434867 -0.29559461902651829 0 -0.15162645984294551 -0.28670064183700439 0 -0.1458827091329962 -0.28225219708249882 0 -0.15162645984294551 -0.28670064183700439 0 -0.15098162864793119 -0.27663156012407891 0 -0.15162645984294551 -0.28670064183700439 0 -0.15098162864793119 -0.27663156012407891 0 -0.15585924966824549 -0.27338725763800159 0 -0.15098162864793119 -0.27663156012407891 0 -0.1522527558101047 -0.27366235468835692 0 -0.14903370440966179 -0.27344637702894548 0 -0.15098162864793119 -0.27663156012407891 0 -0.1522527558101047 -0.27366235468835692 0 -0.15585924966824549 -0.27338725763800159 0 -0.14903370440966179 -0.27344637702894548 0 -0.1531364405145805 -0.27118422396240138 0 -0.14385763015454139 -0.26954128824380802 0 -0.1522527558101047 -0.27366235468835692 0 -0.15585924966824549 -0.27338725763800159 0 -0.1531364405145805 -0.27118422396240138 0 -0.1522527558101047 -0.27366235468835692 0 -0.14903370440966179 -0.27344637702894548 0 -0.1531364405145805 -0.27118422396240138 0 -0.14903370440966179 -0.27344637702894548 0 -0.14385763015454139 -0.26954128824380802 0 -0.1442805510697899 -0.27562940435382949 0 -0.14385763015454139 -0.26954128824380802 0 -0.1442805510697899 -0.27562940435382949 0 -0.13835653564694769 -0.27242798417408381 0 -0.1458827091329962 -0.28225219708249882 0 -0.1442805510697899 -0.27562940435382949 0 -0.13687965345326569 -0.27993872332247433 0 -0.15098162864793119 -0.27663156012407891 0 -0.14903370440966179 -0.27344637702894548 0 -0.1442805510697899 -0.27562940435382949 0 -0.1458827091329962 -0.28225219708249882 0 -0.15098162864793119 -0.27663156012407891 0 -0.1442805510697899 -0.27562940435382949 0 -0.13687965345326569 -0.27993872332247433 0 -0.12970248462840331 -0.2717774759070859 0 -0.13835653564694769 -0.27242798417408381 0 -0.1442805510697899 -0.27562940435382949 0 -0.13687965345326569 -0.27993872332247433 0 -0.13835653564694769 -0.27242798417408381 0 -0.13687965345326569 -0.27993872332247433 0 -0.1257911728949061 -0.280427018304516 0 -0.12970248462840331 -0.2717774759070859 0 -0.12970248462840331 -0.2717774759070859 0 -0.13570208279224111 -0.26528350045903498 0 -0.12855037573501921 -0.26115248962005239 0 -0.14385763015454139 -0.26954128824380802 0 -0.13835653564694769 -0.27242798417408381 0 -0.13570208279224111 -0.26528350045903498 0 -0.12970248462840331 -0.2717774759070859 0 -0.13835653564694769 -0.27242798417408381 0 -0.13570208279224111 -0.26528350045903498 0 -0.13570208279224111 -0.26528350045903498 0 -0.12855037573501921 -0.26115248962005239 0 -0.1377523016625678 -0.25581657194563601 0 -0.14385763015454139 -0.26954128824380802 0 -0.13570208279224111 -0.26528350045903498 0 -0.1377523016625678 -0.25581657194563601 0 -0.12855037573501921 -0.26115248962005239 0 -0.1377523016625678 -0.25581657194563601 0 -0.1223681628105569 -0.24044891992886891 0 -0.1531364405145805 -0.27118422396240138 0 -0.1377523016625678 -0.25581657194563601 0 -0.15263230708737521 -0.24356194903458239 0 -0.15585924966824549 -0.27338725763800159 0 -0.1531364405145805 -0.27118422396240138 0 -0.15263230708737521 -0.24356194903458239 0 -0.15585924966824549 -0.27338725763800159 0 -0.15263230708737521 -0.24356194903458239 0 -0.1531364405145805 -0.27118422396240138 0 -0.1377523016625678 -0.25581657194563601 0 -0.1531364405145805 -0.27118422396240138 0 -0.14385763015454139 -0.26954128824380802 0 -0.1377523016625678 -0.25581657194563601 0 -0.1661931572416451 -0.36889933283976362 0 -0.1633245426028184 -0.34238590264286861 0 -0.15433175674287769 -0.35458729317269139 0 -0.1661931572416451 -0.36889933283976362 0 -0.1633245426028184 -0.34238590264286861 0 -0.1661931572416451 -0.36889933283976362 0 -0.17388048196752651 -0.3522733272046466 0 -0.1633245426028184 -0.34238590264286861 0 -0.1661931572416451 -0.36889933283976362 0 -0.15433175674287769 -0.35458729317269139 0 -0.148308101659717 -0.36695316985008092 0 -0.15761740849691311 -0.38818340141201402 0 -0.1661931572416451 -0.36889933283976362 0 -0.148308101659717 -0.36695316985008092 0 -0.183603859264966 -0.3766054584014627 0 -0.1661931572416451 -0.36889933283976362 0 -0.1863350517553729 -0.35962674217565882 0 -0.1661931572416451 -0.36889933283976362 0 -0.1863350517553729 -0.35962674217565882 0 -0.17388048196752651 -0.3522733272046466 0 -0.1863350517553729 -0.35962674217565882 0 -0.17388048196752651 -0.3522733272046466 0 -0.1789381536340362 -0.33872308817907848 0 -0.17388048196752651 -0.3522733272046466 0 -0.1789381536340362 -0.33872308817907848 0 -0.1633245426028184 -0.34238590264286861 0 -0.19562896033857519 -0.33020038185646122 0 -0.1789381536340362 -0.33872308817907848 0 -0.18477851095256179 -0.32477614194451959 0 -0.1789381536340362 -0.33872308817907848 0 -0.18477851095256179 -0.32477614194451959 0 -0.1735479853981102 -0.32728394705986258 0 -0.1789381536340362 -0.33872308817907848 0 -0.1735479853981102 -0.32728394705986258 0 -0.1633245426028184 -0.34238590264286861 0 -0.17759103405270391 -0.30762984517719472 0 -0.1803928959391416 -0.31521744924658562 0 -0.16045592796399111 -0.3158724724459735 0 -0.19575919956014079 -0.31702437624003538 0 -0.1803928959391416 -0.31521744924658562 0 -0.18477851095256179 -0.32477614194451959 0 -0.1803928959391416 -0.31521744924658562 0 -0.18477851095256179 -0.32477614194451959 0 -0.1735479853981102 -0.32728394705986258 0 -0.1803928959391416 -0.31521744924658562 0 -0.1735479853981102 -0.32728394705986258 0 -0.16045592796399111 -0.3158724724459735 0 -0.1735479853981102 -0.32728394705986258 0 -0.16045592796399111 -0.3158724724459735 0 -0.1633245426028184 -0.34238590264286861 0 -0.16045592796399111 -0.3158724724459735 0 -0.1633245426028184 -0.34238590264286861 0 -0.1476770575246594 -0.3298450188736391 0 -0.16045592796399111 -0.3158724724459735 0 -0.1633245426028184 -0.34238590264286861 0 -0.1633245426028184 -0.34238590264286861 0 -0.15030263560259111 -0.34285112818916452 0 -0.1476770575246594 -0.3298450188736391 0 -0.1476770575246594 -0.3298450188736391 0 -0.14130665940473261 -0.32287327510069419 0 -0.13989838249203351 -0.33226752099114382 0 -0.1476770575246594 -0.3298450188736391 0 -0.14096893258994439 -0.33934882548262568 0 -0.13989838249203351 -0.33226752099114382 0 -0.15030263560259111 -0.34285112818916452 0 -0.1476770575246594 -0.3298450188736391 0 -0.14096893258994439 -0.33934882548262568 0 -0.15908619224911419 -0.30321256624142101 0 -0.14130665940473261 -0.32287327510069419 0 -0.16045592796399111 -0.3158724724459735 0 -0.1476770575246594 -0.3298450188736391 0 -0.14130665940473261 -0.32287327510069419 0 -0.15908619224911419 -0.30321256624142101 0 -0.16045592796399111 -0.3158724724459735 0 -0.14130665940473261 -0.32287327510069419 0 -0.16045592796399111 -0.3158724724459735 0 -0.1476770575246594 -0.3298450188736391 0 -0.14130665940473261 -0.32287327510069419 0 -0.12766342535057629 -0.32481504462803062 0 -0.13033731665847181 -0.31286393971371201 0 -0.14032160831301491 -0.30752887986621158 0 -0.14130665940473261 -0.32287327510069419 0 -0.13033731665847181 -0.31286393971371201 0 -0.14130665940473261 -0.32287327510069419 0 -0.12766342535057629 -0.32481504462803062 0 -0.12902917457320359 -0.33644978787578289 0 -0.12766342535057629 -0.32481504462803062 0 -0.12902917457320359 -0.33644978787578289 0 -0.123033176677132 -0.34308019655903149 0 -0.14096893258994439 -0.33934882548262568 0 -0.12902917457320359 -0.33644978787578289 0 -0.13366226850604379 -0.34759248760944123 0 -0.14096893258994439 -0.33934882548262568 0 -0.13989838249203351 -0.33226752099114382 0 -0.12902917457320359 -0.33644978787578289 0 -0.14130665940473261 -0.32287327510069419 0 -0.12902917457320359 -0.33644978787578289 0 -0.14130665940473261 -0.32287327510069419 0 -0.13989838249203351 -0.33226752099114382 0 -0.12902917457320359 -0.33644978787578289 0 -0.12902917457320359 -0.33644978787578289 0 -0.123033176677132 -0.34308019655903149 0 -0.12902917457320359 -0.33644978787578289 0 -0.13366226850604379 -0.34759248760944123 0 -0.123033176677132 -0.34308019655903149 0 -0.13366226850604379 -0.34759248760944123 0 -0.1303219987982592 -0.3665496015062627 0 -0.123033176677132 -0.34308019655903149 0 -0.1303219987982592 -0.3665496015062627 0 -0.123033176677132 -0.34308019655903149 0 -0.13366226850604379 -0.34759248760944123 0 -0.1435303466076166 -0.35184693234157938 0 -0.1303219987982592 -0.3665496015062627 0 -0.14096893258994439 -0.33934882548262568 0 -0.13366226850604379 -0.34759248760944123 0 -0.1435303466076166 -0.35184693234157938 0 -0.15030263560259111 -0.34285112818916452 0 -0.14096893258994439 -0.33934882548262568 0 -0.1435303466076166 -0.35184693234157938 0 -0.1435303466076166 -0.35184693234157938 0 -0.15433175674287769 -0.35458729317269139 0 -0.148308101659717 -0.36695316985008092 0 -0.1633245426028184 -0.34238590264286861 0 -0.15030263560259111 -0.34285112818916452 0 -0.15433175674287769 -0.35458729317269139 0 -0.15030263560259111 -0.34285112818916452 0 -0.1435303466076166 -0.35184693234157938 0 -0.15433175674287769 -0.35458729317269139 0 -0.1435303466076166 -0.35184693234157938 0 -0.148308101659717 -0.36695316985008092 0 -0.1303219987982592 -0.3665496015062627 0 -0.1369224961495438 -0.38192389563367207 0 -0.148308101659717 -0.36695316985008092 0 -0.1303219987982592 -0.3665496015062627 0 -0.1303219987982592 -0.3665496015062627 0 -0.1159926709000937 -0.36685414663024191 0 -0.11895596668836859 -0.34683008488337108 0 -0.1303219987982592 -0.3665496015062627 0 -0.1159926709000937 -0.36685414663024191 0 -0.12201267174342199 -0.37938718301114999 0 -0.1024060606807759 -0.36205135125861898 0 -0.1016559479587178 -0.38500202459504551 0 -0.1159926709000937 -0.36685414663024191 0 -0.1024060606807759 -0.36205135125861898 0 -0.1094440337948836 -0.37923577087639421 0 -0.1024060606807759 -0.36205135125861898 0 -0.1016559479587178 -0.38500202459504551 0 -0.095426438310298192 -0.37780241062099151 0 -0.1024060606807759 -0.36205135125861898 0 -0.090139611558562177 -0.37333304007799939 0 -0.095426438310298192 -0.37780241062099151 0 -0.1024060606807759 -0.36205135125861898 0 -0.093943439343664059 -0.36410026383479388 0 -0.090139611558562177 -0.37333304007799939 0 -0.1024060606807759 -0.36205135125861898 0 -0.093943439343664059 -0.36410026383479388 0 -0.095626283443773746 -0.35612124291623848 0 -0.1024060606807759 -0.36205135125861898 0 -0.090139611558562177 -0.37333304007799939 0 -0.1024060606807759 -0.36205135125861898 0 -0.1029439411344124 -0.34559419992324319 0 -0.1024060606807759 -0.36205135125861898 0 -0.1029439411344124 -0.34559419992324319 0 -0.11895596668836859 -0.34683008488337108 0 -0.1024060606807759 -0.36205135125861898 0 -0.095626283443773746 -0.35612124291623848 0 -0.1029439411344124 -0.34559419992324319 0 -0.095626283443773746 -0.35612124291623848 0 -0.1029439411344124 -0.34559419992324319 0 -0.093212578299404075 -0.34130700998995739 0 -0.1159926709000937 -0.36685414663024191 0 -0.1024060606807759 -0.36205135125861898 0 -0.11895596668836859 -0.34683008488337108 0 -0.1024060606807759 -0.36205135125861898 0 -0.11895596668836859 -0.34683008488337108 0 -0.1303219987982592 -0.3665496015062627 0 -0.11895596668836859 -0.34683008488337108 0 -0.123033176677132 -0.34308019655903149 0 -0.1029439411344124 -0.34559419992324319 0 -0.11895596668836859 -0.34683008488337108 0 -0.123033176677132 -0.34308019655903149 0 -0.11895596668836859 -0.34683008488337108 0 -0.123033176677132 -0.34308019655903149 0 -0.1029439411344124 -0.34559419992324319 0 -0.1137910684918501 -0.33520612369310882 0 -0.123033176677132 -0.34308019655903149 0 -0.123033176677132 -0.34308019655903149 0 -0.1159692764993048 -0.31568518943543378 0 -0.1137910684918501 -0.33520612369310882 0 -0.123033176677132 -0.34308019655903149 0 -0.1159692764993048 -0.31568518943543378 0 -0.12766342535057629 -0.32481504462803062 0 -0.123033176677132 -0.34308019655903149 0 -0.1159692764993048 -0.31568518943543378 0 -0.1137910684918501 -0.33520612369310882 0 -0.1159692764993048 -0.31568518943543378 0 -0.1034818215880495 -0.3291370485878673 0 -0.12766342535057629 -0.32481504462803062 0 -0.13033731665847181 -0.31286393971371201 0 -0.1159692764993048 -0.31568518943543378 0 -0.1159692764993048 -0.31568518943543378 0 -0.10079975883819629 -0.31506063040533638 0 -0.1034818215880495 -0.3291370485878673 0 -0.10079975883819629 -0.31506063040533638 0 -0.093212578299404075 -0.34130700998995739 0 -0.10079975883819629 -0.31506063040533638 0 -0.093212578299404075 -0.34130700998995739 0 -0.087373844159168004 -0.3291061545470132 0 -0.10079975883819629 -0.31506063040533638 0 -0.1034818215880495 -0.3291370485878673 0 -0.093212578299404075 -0.34130700998995739 0 -0.1029439411344124 -0.34559419992324319 0 -0.1034818215880495 -0.3291370485878673 0 -0.1029439411344124 -0.34559419992324319 0 -0.1034818215880495 -0.3291370485878673 0 -0.093212578299404075 -0.34130700998995739 0 -0.1029439411344124 -0.34559419992324319 0 -0.1137910684918501 -0.33520612369310882 0 -0.1034818215880495 -0.3291370485878673 0 -0.093212578299404075 -0.34130700998995739 0 -0.087373844159168004 -0.3291061545470132 0 -0.080908772255243899 -0.33898270124258217 0 -0.087373844159168004 -0.3291061545470132 0 -0.080908772255243899 -0.33898270124258217 0 -0.077490532230771417 -0.32991328235931511 0 -0.093212578299404075 -0.34130700998995739 0 -0.080908772255243899 -0.33898270124258217 0 -0.080378844364046895 -0.35001101873094542 0 -0.10079975883819629 -0.31506063040533638 0 -0.085305929108392881 -0.31951846990187233 0 -0.091873739319295072 -0.31122357941036211 0 -0.10079975883819629 -0.31506063040533638 0 -0.087373844159168004 -0.3291061545470132 0 -0.085305929108392881 -0.31951846990187233 0 -0.085305929108392881 -0.31951846990187233 0 -0.076805788315873161 -0.32077910918615782 0 -0.077490532230771417 -0.32991328235931511 0 -0.087373844159168004 -0.3291061545470132 0 -0.085305929108392881 -0.31951846990187233 0 -0.077490532230771417 -0.32991328235931511 0 -0.085305929108392881 -0.31951846990187233 0 -0.076805788315873161 -0.32077910918615782 0 -0.078544889372492196 -0.31002595631180607 0 -0.085305929108392881 -0.31951846990187233 0 -0.091873739319295072 -0.31122357941036211 0 -0.078544889372492196 -0.31002595631180607 0 -0.066882954587322394 -0.32486941793266988 0 -0.078544889372492196 -0.31002595631180607 0 -0.05424539878688571 -0.319762651601179 0 -0.078544889372492196 -0.31002595631180607 0 -0.05424539878688571 -0.319762651601179 0 -0.076805788315873161 -0.32077910918615782 0 -0.066882954587322394 -0.32486941793266988 0 -0.078544889372492196 -0.31002595631180607 0 -0.076805788315873161 -0.32077910918615782 0 -0.066882954587322394 -0.32486941793266988 0 -0.077490532230771417 -0.32991328235931511 0 -0.066882954587322394 -0.32486941793266988 0 -0.070160141916437824 -0.34098238217286791 0 -0.054527031800802053 -0.34042178362413461 0 -0.066882954587322394 -0.32486941793266988 0 -0.077490532230771417 -0.32991328235931511 0 -0.070160141916437824 -0.34098238217286791 0 -0.080908772255243899 -0.33898270124258217 0 -0.077490532230771417 -0.32991328235931511 0 -0.070160141916437824 -0.34098238217286791 0 -0.080908772255243899 -0.33898270124258217 0 -0.070160141916437824 -0.34098238217286791 0 -0.080378844364046895 -0.35001101873094542 0 -0.070160141916437824 -0.34098238217286791 0 -0.066522813126512412 -0.35680227137673098 0 -0.054527031800802053 -0.34042178362413461 0 -0.070160141916437824 -0.34098238217286791 0 -0.066522813126512412 -0.35680227137673098 0 -0.080378844364046895 -0.35001101873094542 0 -0.066522813126512412 -0.35680227137673098 0 -0.076582500297099523 -0.36039923154202719 0 -0.080378844364046895 -0.35001101873094542 0 -0.066522813126512412 -0.35680227137673098 0 -0.073802945937226916 -0.36723024648585417 0 -0.058387822440418388 -0.36975607908058028 0 -0.073802945937226916 -0.36723024648585417 0 -0.058387822440418388 -0.36975607908058028 0 -0.08170780991661282 -0.38109255286014232 0 -0.066522813126512412 -0.35680227137673098 0 -0.073802945937226916 -0.36723024648585417 0 -0.076582500297099523 -0.36039923154202719 0 -0.073802945937226916 -0.36723024648585417 0 -0.076582500297099523 -0.36039923154202719 0 -0.085625397760611066 -0.36755338957457828 0 -0.085625397760611066 -0.36755338957457828 0 -0.087954911787112483 -0.37534235041220648 0 -0.08170780991661282 -0.38109255286014232 0 -0.073802945937226916 -0.36723024648585417 0 -0.085625397760611066 -0.36755338957457828 0 -0.08170780991661282 -0.38109255286014232 0 -0.085625397760611066 -0.36755338957457828 0 -0.08170780991661282 -0.38109255286014232 0 -0.093943439343664059 -0.36410026383479388 0 -0.085625397760611066 -0.36755338957457828 0 -0.090139611558562177 -0.37333304007799939 0 -0.093943439343664059 -0.36410026383479388 0 -0.090139611558562177 -0.37333304007799939 0 -0.085625397760611066 -0.36755338957457828 0 -0.090139611558562177 -0.37333304007799939 0 -0.087954911787112483 -0.37534235041220648 0 -0.085625397760611066 -0.36755338957457828 0 -0.087954911787112483 -0.37534235041220648 0 -0.090139611558562177 -0.37333304007799939 0 -0.087954911787112483 -0.37534235041220648 0 -0.093943439343664059 -0.36410026383479388 0 -0.095626283443773746 -0.35612124291623848 0 -0.085625397760611066 -0.36755338957457828 0 -0.093212578299404075 -0.34130700998995739 0 -0.085625397760611066 -0.36755338957457828 0 -0.076582500297099523 -0.36039923154202719 0 -0.085625397760611066 -0.36755338957457828 0 -0.080378844364046895 -0.35001101873094542 0 -0.093212578299404075 -0.34130700998995739 0 -0.085625397760611066 -0.36755338957457828 0 -0.080378844364046895 -0.35001101873094542 0 -0.085625397760611066 -0.36755338957457828 0 -0.080378844364046895 -0.35001101873094542 0 -0.095626283443773746 -0.35612124291623848 0 -0.093212578299404075 -0.34130700998995739 0 -0.085625397760611066 -0.36755338957457828 0 -0.10474757541744149 -0.26087495970427582 0 -0.090174700483665673 -0.26498018187443112 0 -0.1005321994236209 -0.2431127607729493 0 -0.10474757541744149 -0.26087495970427582 0 -0.11757885349586771 -0.25701660664448461 0 -0.1005321994236209 -0.2431127607729493 0 -0.12855037573501921 -0.26115248962005239 0 -0.11757885349586771 -0.25701660664448461 0 -0.1127895441811773 -0.27358429336009982 0 -0.12855037573501921 -0.26115248962005239 0 -0.11757885349586771 -0.25701660664448461 0 -0.1223681628105569 -0.24044891992886891 0 -0.10474757541744149 -0.26087495970427582 0 -0.11757885349586771 -0.25701660664448461 0 -0.1127895441811773 -0.27358429336009982 0 -0.11757885349586771 -0.25701660664448461 0 -0.1127895441811773 -0.27358429336009982 0 -0.1257911728949061 -0.280427018304516 0 -0.12970248462840331 -0.2717774759070859 0 -0.1127895441811773 -0.27358429336009982 0 -0.12855037573501921 -0.26115248962005239 0 -0.1127895441811773 -0.27358429336009982 0 -0.12970248462840331 -0.2717774759070859 0 -0.12855037573501921 -0.26115248962005239 0 -0.1127895441811773 -0.27358429336009982 0 -0.1257911728949061 -0.280427018304516 0 -0.1127895441811773 -0.27358429336009982 0 -0.1194571486541455 -0.28746452468861589 0 -0.1127895441811773 -0.27358429336009982 0 -0.1083869393769897 -0.28881425082071571 0 -0.1127895441811773 -0.27358429336009982 0 -0.093274829049746905 -0.28897707944045958 0 -0.090174700483665673 -0.26498018187443112 0 -0.10474757541744149 -0.26087495970427582 0 -0.1127895441811773 -0.27358429336009982 0 -0.090174700483665673 -0.26498018187443112 0 -0.1127895441811773 -0.27358429336009982 0 -0.1067008731150054 -0.28283902414649681 0 -0.093274829049746905 -0.28897707944045958 0 -0.1127895441811773 -0.27358429336009982 0 -0.093274829049746905 -0.28897707944045958 0 -0.1083869393769897 -0.28881425082071571 0 -0.102844379958099 -0.30028926102243358 0 -0.093274829049746905 -0.28897707944045958 0 -0.1127895441811773 -0.27358429336009982 0 -0.1083869393769897 -0.28881425082071571 0 -0.1067008731150054 -0.28283902414649681 0 -0.1083869393769897 -0.28881425082071571 0 -0.1067008731150054 -0.28283902414649681 0 -0.1083869393769897 -0.28881425082071571 0 -0.1067008731150054 -0.28283902414649681 0 -0.093274829049746905 -0.28897707944045958 0 -0.1127895441811773 -0.27358429336009982 0 -0.1083869393769897 -0.28881425082071571 0 -0.1194571486541455 -0.28746452468861589 0 -0.12994370463312691 -0.28995419054763111 0 -0.1194571486541455 -0.28746452468861589 0 -0.12304085188452731 -0.29931348820209958 0 -0.1083869393769897 -0.28881425082071571 0 -0.1194571486541455 -0.28746452468861589 0 -0.12304085188452731 -0.29931348820209958 0 -0.1159692764993048 -0.31568518943543378 0 -0.1083869393769897 -0.28881425082071571 0 -0.12304085188452731 -0.29931348820209958 0 -0.1159692764993048 -0.31568518943543378 0 -0.1083869393769897 -0.28881425082071571 0 -0.13033731665847181 -0.31286393971371201 0 -0.1159692764993048 -0.31568518943543378 0 -0.12304085188452731 -0.29931348820209958 0 -0.1159692764993048 -0.31568518943543378 0 -0.10079975883819629 -0.31506063040533638 0 -0.1083869393769897 -0.28881425082071571 0 -0.10079975883819629 -0.31506063040533638 0 -0.1083869393769897 -0.28881425082071571 0 -0.10079975883819629 -0.31506063040533638 0 -0.1083869393769897 -0.28881425082071571 0 -0.102844379958099 -0.30028926102243358 0 -0.10079975883819629 -0.31506063040533638 0 -0.102844379958099 -0.30028926102243358 0 -0.091873739319295072 -0.31122357941036211 0 -0.078544889372492196 -0.31002595631180607 0 -0.073760113918316481 -0.30436986552081963 0 -0.093274829049746905 -0.28897707944045958 0 -0.102844379958099 -0.30028926102243358 0 -0.078544889372492196 -0.31002595631180607 0 -0.093274829049746905 -0.28897707944045958 0 -0.102844379958099 -0.30028926102243358 0 -0.091873739319295072 -0.31122357941036211 0 -0.078544889372492196 -0.31002595631180607 0 -0.102844379958099 -0.30028926102243358 0 -0.078544889372492196 -0.31002595631180607 0 -0.078544889372492196 -0.31002595631180607 0 -0.073760113918316481 -0.30436986552081963 0 -0.05424539878688571 -0.319762651601179 0 -0.073760113918316481 -0.30436986552081963 0 -0.05424539878688571 -0.319762651601179 0 -0.073760113918316481 -0.30436986552081963 0 -0.071188273097670243 -0.28513602236808322 0 -0.055748641784298267 -0.30178875706485681 0 -0.073760113918316481 -0.30436986552081963 0 -0.071188273097670243 -0.28513602236808322 0 -0.093274829049746905 -0.28897707944045958 0 -0.073760113918316481 -0.30436986552081963 0 -0.093274829049746905 -0.28897707944045958 0 -0.071188273097670243 -0.28513602236808322 0 -0.093274829049746905 -0.28897707944045958 0 -0.090174700483665673 -0.26498018187443112 0 -0.071188273097670243 -0.28513602236808322 0 -0.063484538676239377 -0.26413124226689111 0 -0.090174700483665673 -0.26498018187443112 0 -0.063484538676239377 -0.26413124226689111 0 -0.076282262678724011 -0.24169347649274159 0 -0.063484538676239377 -0.26413124226689111 0 -0.090174700483665673 -0.26498018187443112 0 -0.076282262678724011 -0.24169347649274159 0 -0.036942597034766073 -0.27265489088473938 0 -0.050686814673754729 -0.28656900804104057 0 -0.0185119813334658 -0.28327625011988139 0 -0.038581934025118947 -0.25114857380685968 0 -0.038334603868346327 -0.2604973367990705 0 -0.03064478186574425 -0.25326356670072259 0 -0.038334603868346327 -0.2604973367990705 0 -0.029413390480137139 -0.26518294325465769 0 -0.03064478186574425 -0.25326356670072259 0 -0.038334603868346327 -0.2604973367990705 0 -0.046517308340487992 -0.25474718453952289 0 -0.048289188575406587 -0.26955092917192058 0 -0.038581934025118947 -0.25114857380685968 0 -0.038334603868346327 -0.2604973367990705 0 -0.046517308340487992 -0.25474718453952289 0 -0.063484538676239377 -0.26413124226689111 0 -0.046517308340487992 -0.25474718453952289 0 -0.0567919256119837 -0.24387644547435741 0 -0.063484538676239377 -0.26413124226689111 0 -0.046517308340487992 -0.25474718453952289 0 -0.048289188575406587 -0.26955092917192058 0 -0.063484538676239377 -0.26413124226689111 0 -0.050686814673754729 -0.28656900804104057 0 -0.071188273097670243 -0.28513602236808322 0 -0.063484538676239377 -0.26413124226689111 0 -0.050686814673754729 -0.28656900804104057 0 -0.063484538676239377 -0.26413124226689111 0 -0.048289188575406587 -0.26955092917192058 0 -0.050686814673754729 -0.28656900804104057 0 -0.048289188575406587 -0.26955092917192058 0 -0.036942597034766073 -0.27265489088473938 0 -0.050686814673754729 -0.28656900804104057 0 -0.038334603868346327 -0.2604973367990705 0 -0.048289188575406587 -0.26955092917192058 0 -0.036942597034766073 -0.27265489088473938 0 -0.038334603868346327 -0.2604973367990705 0 -0.036942597034766073 -0.27265489088473938 0 -0.029413390480137139 -0.26518294325465769 0 -0.050686814673754729 -0.28656900804104057 0 -0.037889090671270123 -0.30900677381518998 0 -0.0185119813334658 -0.28327625011988139 0 -0.071188273097670243 -0.28513602236808322 0 -0.050686814673754729 -0.28656900804104057 0 -0.055748641784298267 -0.30178875706485681 0 -0.073760113918316481 -0.30436986552081963 0 -0.055748641784298267 -0.30178875706485681 0 -0.05424539878688571 -0.319762651601179 0 -0.055748641784298267 -0.30178875706485681 0 -0.037889090671270123 -0.30900677381518998 0 -0.05424539878688571 -0.319762651601179 0 -0.050686814673754729 -0.28656900804104057 0 -0.055748641784298267 -0.30178875706485681 0 -0.037889090671270123 -0.30900677381518998 0 -0.050686814673754729 -0.28656900804104057 0 -0.037889090671270123 -0.30900677381518998 0 -0.037889090671270123 -0.30900677381518998 0 -0.014390974368570029 -0.31032982847088841 0 -0.0185119813334658 -0.28327625011988139 0 -0.014390974368570029 -0.31032982847088841 0 0.001904989571353899 -0.32214434476741449 0 0.0019518825097332619 -0.30029273945570772 0 -0.014390974368570029 -0.31032982847088841 0 -0.0185119813334658 -0.28327625011988139 0 0.0019518825097332619 -0.30029273945570772 0 -0.0185119813334658 -0.28327625011988139 0 -0.0020851015340006161 -0.28052611142458661 0 0.0019518825097332619 -0.30029273945570772 0 -0.014390974368570029 -0.31032982847088841 0 -0.0185119813334658 -0.28327625011988139 0 -0.036942597034766073 -0.27265489088473938 0 -0.0185119813334658 -0.28327625011988139 0 -0.029413390480137139 -0.26518294325465769 0 -0.0185119813334658 -0.28327625011988139 0 -0.02263298829836323 -0.25622267176887481 0 -0.029413390480137139 -0.26518294325465769 0 -0.0185119813334658 -0.28327625011988139 0 -0.02263298829836323 -0.25622267176887481 0 -0.0185119813334658 -0.28327625011988139 0 -0.0093077836028632385 -0.27105033158696179 0 -0.02263298829836323 -0.25622267176887481 0 -0.0185119813334658 -0.28327625011988139 0 -0.0020851015340006161 -0.28052611142458661 0 -0.0093077836028632385 -0.27105033158696179 0 -0.0020851015340006161 -0.28052611142458661 0 -0.0093077836028632385 -0.27105033158696179 0 0.0055944649301708496 -0.26664830233551728 0 -0.014059514610042069 -0.25416210053859828 0 -0.02263298829836323 -0.25622267176887481 0 0.0055944649301708496 -0.26664830233551728 0 -0.0093077836028632385 -0.27105033158696179 0 -0.02263298829836323 -0.25622267176887481 0 0.0055944649301708496 -0.26664830233551728 0 -0.02263298829836323 -0.25622267176887481 0 0.0055944649301708496 -0.26664830233551728 0 -0.014059514610042069 -0.25416210053859828 0 -0.0080727856436109482 -0.2481099565327444 0 0.0055944649301708496 -0.26664830233551728 0 -0.014059514610042069 -0.25416210053859828 0 -0.01887874476148543 -0.24814250919209771 0 -0.0080727856436109482 -0.2481099565327444 0 -0.014059514610042069 -0.25416210053859828 0 -0.02263298829836323 -0.25622267176887481 0 -0.02285766608625657 -0.25474770747244752 0 -0.014059514610042069 -0.25416210053859828 0 -0.02285766608625657 -0.25474770747244752 0 -0.01887874476148543 -0.24814250919209771 0 -0.02285766608625657 -0.25474770747244752 0 -0.026067501294639708 -0.24850247980592871 0 -0.01887874476148543 -0.24814250919209771 0 -0.02263298829836323 -0.25622267176887481 0 -0.02285766608625657 -0.25474770747244752 0 -0.02263298829836323 -0.25622267176887481 0 -0.029413390480137139 -0.26518294325465769 0 -0.03064478186574425 -0.25326356670072259 0 -0.02263298829836323 -0.25622267176887481 0 -0.03064478186574425 -0.25326356670072259 0 -0.02263298829836323 -0.25622267176887481 0 -0.02285766608625657 -0.25474770747244752 0 -0.03064478186574425 -0.25326356670072259 0 -0.02285766608625657 -0.25474770747244752 0 -0.03064478186574425 -0.25326356670072259 0 -0.026067501294639708 -0.24850247980592871 0 -0.040780788735907937 -0.34809370153295588 0 -0.035070660285960877 -0.35841379707961513 0 -0.051335308585544609 -0.35442186843706669 0 -0.040780788735907937 -0.34809370153295588 0 -0.033802973987086503 -0.33588719504380232 0 -0.029167969020145641 -0.35132386348016093 0 -0.040780788735907937 -0.34809370153295588 0 -0.035070660285960877 -0.35841379707961513 0 -0.029167969020145641 -0.35132386348016093 0 -0.035070660285960877 -0.35841379707961513 0 -0.040000350022935588 -0.37213681664196291 0 -0.021437446366364531 -0.36359117576668931 0 -0.035070660285960877 -0.35841379707961513 0 -0.058387822440418388 -0.36975607908058028 0 -0.035070660285960877 -0.35841379707961513 0 -0.040000350022935588 -0.37213681664196291 0 -0.058387822440418388 -0.36975607908058028 0 -0.040000350022935588 -0.37213681664196291 0 -0.058387822440418388 -0.36975607908058028 0 -0.058563253679506787 -0.38068245751723601 0 -0.035070660285960877 -0.35841379707961513 0 -0.058387822440418388 -0.36975607908058028 0 -0.051335308585544609 -0.35442186843706669 0 -0.066522813126512412 -0.35680227137673098 0 -0.058387822440418388 -0.36975607908058028 0 -0.051335308585544609 -0.35442186843706669 0 -0.066522813126512412 -0.35680227137673098 0 -0.051335308585544609 -0.35442186843706669 0 -0.054527031800802053 -0.34042178362413461 0 -0.040780788735907937 -0.34809370153295588 0 -0.051335308585544609 -0.35442186843706669 0 -0.054527031800802053 -0.34042178362413461 0 -0.066882954587322394 -0.32486941793266988 0 -0.054527031800802053 -0.34042178362413461 0 -0.05424539878688571 -0.319762651601179 0 -0.054527031800802053 -0.34042178362413461 0 -0.05424539878688571 -0.319762651601179 0 -0.033802973987086503 -0.33588719504380232 0 -0.05424539878688571 -0.319762651601179 0 -0.039668382727836717 -0.32560359559526031 0 -0.05424539878688571 -0.319762651601179 0 -0.033802973987086503 -0.33588719504380232 0 -0.037889090671270123 -0.30900677381518998 0 -0.025091366668787349 -0.3314445395893405 0 -0.05424539878688571 -0.319762651601179 0 -0.039668382727836717 -0.32560359559526031 0 -0.033802973987086503 -0.33588719504380232 0 -0.037889090671270123 -0.30900677381518998 0 -0.05424539878688571 -0.319762651601179 0 -0.039668382727836717 -0.32560359559526031 0 -0.037889090671270123 -0.30900677381518998 0 -0.039668382727836717 -0.32560359559526031 0 -0.025091366668787349 -0.3314445395893405 0 -0.040780788735907937 -0.34809370153295588 0 -0.054527031800802053 -0.34042178362413461 0 -0.033802973987086503 -0.33588719504380232 0 -0.039668382727836717 -0.32560359559526031 0 -0.025091366668787349 -0.3314445395893405 0 -0.039668382727836717 -0.32560359559526031 0 -0.033802973987086503 -0.33588719504380232 0 -0.025091366668787349 -0.3314445395893405 0 -0.025091366668787349 -0.3314445395893405 0 -0.01336054918728761 -0.35201173848642592 0 -0.033802973987086503 -0.33588719504380232 0 -0.025091366668787349 -0.3314445395893405 0 -0.01336054918728761 -0.35201173848642592 0 -0.025091366668787349 -0.3314445395893405 0 -0.01532372128421448 -0.33535839064186268 0 -0.01336054918728761 -0.35201173848642592 0 -0.025091366668787349 -0.3314445395893405 0 -0.022734703789933738 -0.32728556430890232 0 -0.01532372128421448 -0.33535839064186268 0 -0.025091366668787349 -0.3314445395893405 0 -0.01532372128421448 -0.33535839064186268 0 -0.022734703789933738 -0.32728556430890232 0 -0.01532372128421448 -0.33535839064186268 0 -0.037889090671270123 -0.30900677381518998 0 -0.014390974368570029 -0.31032982847088841 0 -0.022734703789933738 -0.32728556430890232 0 -0.037889090671270123 -0.30900677381518998 0 -0.025091366668787349 -0.3314445395893405 0 -0.022734703789933738 -0.32728556430890232 0 -0.014390974368570029 -0.31032982847088841 0 -0.022734703789933738 -0.32728556430890232 0 -0.01532372128421448 -0.33535839064186268 0 -0.014390974368570029 -0.31032982847088841 0 -0.010269967403673339 -0.33738340682189533 0 -0.014390974368570029 -0.31032982847088841 0 -0.010269967403673339 -0.33738340682189533 0 -0.01532372128421448 -0.33535839064186268 0 -0.014390974368570029 -0.31032982847088841 0 -0.010269967403673339 -0.33738340682189533 0 0.001904989571353899 -0.32214434476741449 0 -0.010269967403673339 -0.33738340682189533 0 -0.0096343958099064687 -0.34155580596031437 0 0.0075807645751098419 -0.34453611388615663 0 -0.010269967403673339 -0.33738340682189533 0 0.0075807645751098419 -0.34453611388615663 0 -0.0096343958099064687 -0.34155580596031437 0 -0.01532372128421448 -0.33535839064186268 0 -0.01336054918728761 -0.35201173848642592 0 -0.010269967403673339 -0.33738340682189533 0 -0.0096343958099064687 -0.34155580596031437 0 -0.010269967403673339 -0.33738340682189533 0 -0.0096343958099064687 -0.34155580596031437 0 -0.01532372128421448 -0.33535839064186268 0 -0.0096343958099064687 -0.34155580596031437 0 -0.01532372128421448 -0.33535839064186268 0 -0.010269967403673339 -0.33738340682189533 0 -0.01532372128421448 -0.33535839064186268 0 -0.010269967403673339 -0.33738340682189533 0 0.0034794820758208261 -0.33361449123698089 0 0.001904989571353899 -0.32214434476741449 0 -0.0096343958099064687 -0.34155580596031437 0 -0.0070150904897389628 -0.35875101633193152 0 -0.0096343958099064687 -0.34155580596031437 0 -0.0070150904897389628 -0.35875101633193152 0 -0.01336054918728761 -0.35201173848642592 0 -0.0096343958099064687 -0.34155580596031437 0 -0.0070150904897389628 -0.35875101633193152 0 0.0099352179383349771 -0.36287309999936251 0 -0.033802973987086503 -0.33588719504380232 0 -0.01336054918728761 -0.35201173848642592 0 -0.029167969020145641 -0.35132386348016093 0 -0.01336054918728761 -0.35201173848642592 0 -0.029167969020145641 -0.35132386348016093 0 -0.021437446366364531 -0.36359117576668931 0 -0.033802973987086503 -0.33588719504380232 0 -0.01336054918728761 -0.35201173848642592 0 -0.035070660285960877 -0.35841379707961513 0 -0.029167969020145641 -0.35132386348016093 0 -0.021437446366364531 -0.36359117576668931 0 -0.040000350022935588 -0.37213681664196291 0 -0.021437446366364531 -0.36359117576668931 0 -0.02618172091304426 -0.37743656618445498 0 -0.021437446366364531 -0.36359117576668931 0 -0.002178803782163227 -0.37161627006544062 0 -0.02618172091304426 -0.37743656618445498 0 -0.040000350022935588 -0.37213681664196291 0 -0.021437446366364531 -0.36359117576668931 0 -0.01336054918728761 -0.35201173848642592 0 -0.021437446366364531 -0.36359117576668931 0 -0.002178803782163227 -0.37161627006544062 0 -0.01336054918728761 -0.35201173848642592 0 -0.002178803782163227 -0.37161627006544062 0 -0.0070150904897389628 -0.35875101633193152 0 -0.01336054918728761 -0.35201173848642592 0 -0.002178803782163227 -0.37161627006544062 0 -0.002178803782163227 -0.37161627006544062 0 -0.026336278995230201 -0.38905167830789189 0 -0.002178803782163227 -0.37161627006544062 0 -0.0066930742226519926 -0.39143820132839208 0 -0.026336278995230201 -0.38905167830789189 0 -0.0066930742226519926 -0.39143820132839208 0 -0.001728596279610697 -0.40597762003102339 0 -0.017737199096442072 -0.40073047040120602 0 -0.0066930742226519926 -0.39143820132839208 0 -0.017737199096442072 -0.40073047040120602 0 -0.026336278995230201 -0.38905167830789189 0 -0.017737199096442072 -0.40073047040120602 0 -0.026336278995230201 -0.38905167830789189 0 -0.033287388117186109 -0.40399871831440642 0 -0.002178803782163227 -0.37161627006544062 0 -0.026336278995230201 -0.38905167830789189 0 -0.02618172091304426 -0.37743656618445498 0 -0.026336278995230201 -0.38905167830789189 0 -0.02618172091304426 -0.37743656618445498 0 -0.033482850758781962 -0.383939184607547 0 -0.02618172091304426 -0.37743656618445498 0 -0.042372487296275553 -0.37905951185084519 0 -0.033482850758781962 -0.383939184607547 0 -0.02618172091304426 -0.37743656618445498 0 -0.042372487296275553 -0.37905951185084519 0 -0.040000350022935588 -0.37213681664196291 0 -0.02618172091304426 -0.37743656618445498 0 -0.042372487296275553 -0.37905951185084519 0 -0.042372487296275553 -0.37905951185084519 0 -0.039040915830577852 -0.39020898208699611 0 -0.049048127186911553 -0.38756594990863991 0 -0.042372487296275553 -0.37905951185084519 0 -0.039040915830577852 -0.39020898208699611 0 -0.033482850758781962 -0.383939184607547 0 -0.026336278995230201 -0.38905167830789189 0 -0.039040915830577852 -0.39020898208699611 0 -0.033482850758781962 -0.383939184607547 0 -0.026336278995230201 -0.38905167830789189 0 -0.050493754208297943 -0.40648708655034188 0 -0.039040915830577852 -0.39020898208699611 0 -0.048181286987745188 -0.3967611761759377 0 -0.050493754208297943 -0.40648708655034188 0 -0.026336278995230201 -0.38905167830789189 0 -0.039040915830577852 -0.39020898208699611 0 -0.050493754208297943 -0.40648708655034188 0 -0.026336278995230201 -0.38905167830789189 0 -0.033287388117186109 -0.40399871831440642 0 -0.050493754208297943 -0.40648708655034188 0 -0.039040915830577852 -0.39020898208699611 0 -0.048181286987745188 -0.3967611761759377 0 -0.049048127186911553 -0.38756594990863991 0 -0.048181286987745188 -0.3967611761759377 0 -0.055512870853615448 -0.39455951290216967 0 -0.049048127186911553 -0.38756594990863991 0 -0.055512870853615448 -0.39455951290216967 0 -0.052509649903146327 -0.40794203844841681 0 -0.074281153156084773 -0.38791836881244668 0 -0.048181286987745188 -0.3967611761759377 0 -0.055512870853615448 -0.39455951290216967 0 -0.050493754208297943 -0.40648708655034188 0 -0.055512870853615448 -0.39455951290216967 0 -0.052509649903146327 -0.40794203844841681 0 -0.050493754208297943 -0.40648708655034188 0 -0.048181286987745188 -0.3967611761759377 0 -0.050493754208297943 -0.40648708655034188 0 -0.040000350022935588 -0.37213681664196291 0 -0.042372487296275553 -0.37905951185084519 0 -0.058563253679506787 -0.38068245751723601 0 -0.042372487296275553 -0.37905951185084519 0 -0.058563253679506787 -0.38068245751723601 0 -0.040000350022935588 -0.37213681664196291 0 -0.058563253679506787 -0.38068245751723601 0 -0.042372487296275553 -0.37905951185084519 0 -0.058563253679506787 -0.38068245751723601 0 -0.049048127186911553 -0.38756594990863991 0 -0.055512870853615448 -0.39455951290216967 0 -0.058563253679506787 -0.38068245751723601 0 -0.049048127186911553 -0.38756594990863991 0 -0.055571169944573007 -0.4278419796903028 0 -0.060002998013559863 -0.44648162232419802 0 -0.069408814394604765 -0.42365151461769918 0 -0.055571169944573007 -0.4278419796903028 0 -0.060002998013559863 -0.44648162232419802 0 -0.055571169944573007 -0.4278419796903028 0 -0.04142135733128624 -0.43391233418184683 0 -0.048623679129421588 -0.44273110985945369 0 -0.055571169944573007 -0.4278419796903028 0 -0.059775586818595829 -0.41787661413097049 0 -0.069408814394604765 -0.42365151461769918 0 -0.055571169944573007 -0.4278419796903028 0 -0.059775586818595829 -0.41787661413097049 0 -0.052509649903146327 -0.40794203844841681 0 -0.055571169944573007 -0.4278419796903028 0 -0.052509649903146327 -0.40794203844841681 0 -0.038621424185474637 -0.4207153063468223 0 -0.055571169944573007 -0.4278419796903028 0 -0.052509649903146327 -0.40794203844841681 0 -0.052509649903146327 -0.40794203844841681 0 -0.070248957975066639 -0.42074520084202788 0 -0.059775586818595829 -0.41787661413097049 0 -0.052509649903146327 -0.40794203844841681 0 -0.070248957975066639 -0.42074520084202788 0 -0.052509649903146327 -0.40794203844841681 0 -0.050493754208297943 -0.40648708655034188 0 -0.041470954428671609 -0.41006675355118111 0 -0.052509649903146327 -0.40794203844841681 0 -0.050493754208297943 -0.40648708655034188 0 -0.052509649903146327 -0.40794203844841681 0 -0.038621424185474637 -0.4207153063468223 0 -0.033287388117186109 -0.40399871831440642 0 -0.050493754208297943 -0.40648708655034188 0 -0.041470954428671609 -0.41006675355118111 0 -0.052509649903146327 -0.40794203844841681 0 -0.041470954428671609 -0.41006675355118111 0 -0.038621424185474637 -0.4207153063468223 0 -0.033287388117186109 -0.40399871831440642 0 -0.041470954428671609 -0.41006675355118111 0 -0.027792962261932352 -0.41547375898907968 0 -0.041470954428671609 -0.41006675355118111 0 -0.038621424185474637 -0.4207153063468223 0 -0.027792962261932352 -0.41547375898907968 0 -0.055571169944573007 -0.4278419796903028 0 -0.038621424185474637 -0.4207153063468223 0 -0.04142135733128624 -0.43391233418184683 0 -0.038621424185474637 -0.4207153063468223 0 -0.026103506495360269 -0.43222827563723731 0 -0.038621424185474637 -0.4207153063468223 0 -0.04142135733128624 -0.43391233418184683 0 -0.026103506495360269 -0.43222827563723731 0 -0.04142135733128624 -0.43391233418184683 0 -0.026103506495360269 -0.43222827563723731 0 -0.035662081446574762 -0.44437129177822371 0 -0.026103506495360269 -0.43222827563723731 0 -0.027792962261932352 -0.41547375898907968 0 -0.009537301248459449 -0.42510302968362512 0 -0.026103506495360269 -0.43222827563723731 0 -0.009537301248459449 -0.42510302968362512 0 -0.019709463090837601 -0.44530454005801179 0 -0.038621424185474637 -0.4207153063468223 0 -0.026103506495360269 -0.43222827563723731 0 -0.027792962261932352 -0.41547375898907968 0 -0.017737199096442072 -0.40073047040120602 0 -0.027792962261932352 -0.41547375898907968 0 -0.009537301248459449 -0.42510302968362512 0 -0.017737199096442072 -0.40073047040120602 0 -0.033287388117186109 -0.40399871831440642 0 -0.027792962261932352 -0.41547375898907968 0 -0.001728596279610697 -0.40597762003102339 0 -0.017737199096442072 -0.40073047040120602 0 -0.009537301248459449 -0.42510302968362512 0 -0.017737199096442072 -0.40073047040120602 0 -0.009537301248459449 -0.42510302968362512 0 -0.001728596279610697 -0.40597762003102339 0 -0.009537301248459449 -0.42510302968362512 0 0.0082246319185010179 -0.41465428951275207 0 -0.009537301248459449 -0.42510302968362512 0 -0.0013374034004768371 -0.44947558896604423 0 -0.009537301248459449 -0.42510302968362512 0 -0.0013374034004768371 -0.44947558896604423 0 0.01039378864355619 -0.42848339288335913 0 -0.009537301248459449 -0.42510302968362512 0 -0.0013374034004768371 -0.44947558896604423 0 -0.019709463090837601 -0.44530454005801179 0 -0.0013374034004768371 -0.44947558896604423 0 -0.014612752260004851 -0.46155177919014362 0 -0.019709463090837601 -0.44530454005801179 0 -0.0013374034004768371 -0.44947558896604423 0 -0.014612752260004851 -0.46155177919014362 0 0.0068624944475057766 -0.47384814824846327 0 -0.014612752260004851 -0.46155177919014362 0 -0.028521420705905499 -0.4674310816654948 0 -0.030789477839635839 -0.45543267362212791 0 -0.014612752260004851 -0.46155177919014362 0 -0.030789477839635839 -0.45543267362212791 0 -0.019709463090837601 -0.44530454005801179 0 -0.030789477839635839 -0.45543267362212791 0 -0.019709463090837601 -0.44530454005801179 0 -0.035662081446574762 -0.44437129177822371 0 -0.026103506495360269 -0.43222827563723731 0 -0.019709463090837601 -0.44530454005801179 0 -0.035662081446574762 -0.44437129177822371 0 -0.015217900669161011 -0.5 0 -0.01418124297067914 -0.47781864258071971 0 0.0024053695883212941 -0.48891336768777249 0 -0.01418124297067914 -0.47781864258071971 0 0.0068624944475057766 -0.47384814824846327 0 0.0024053695883212941 -0.48891336768777249 0 -0.014612752260004851 -0.46155177919014362 0 -0.01418124297067914 -0.47781864258071971 0 0.0068624944475057766 -0.47384814824846327 0 -0.014612752260004851 -0.46155177919014362 0 -0.028521420705905499 -0.4674310816654948 0 -0.01418124297067914 -0.47781864258071971 0 -0.028521420705905499 -0.4674310816654948 0 -0.01418124297067914 -0.47781864258071971 0 -0.027752274071966478 -0.47742461628286209 0 -0.015217900669161011 -0.5 0 -0.027752274071966478 -0.47742461628286209 0 -0.038171784631523778 -0.48284131767108018 0 -0.015217900669161011 -0.5 0 -0.01418124297067914 -0.47781864258071971 0 -0.027752274071966478 -0.47742461628286209 0 -0.015217900669161011 -0.5 0 -0.043972809743024373 -0.5 0 -0.038171784631523778 -0.48284131767108018 0 -0.043972809743024373 -0.5 0 -0.038171784631523778 -0.48284131767108018 0 -0.049841179956411519 -0.48183723669954598 0 -0.038171784631523778 -0.48284131767108018 0 -0.048675315621036823 -0.47094071089761919 0 -0.038171784631523778 -0.48284131767108018 0 -0.048675315621036823 -0.47094071089761919 0 -0.049841179956411519 -0.48183723669954598 0 -0.027752274071966478 -0.47742461628286209 0 -0.038171784631523778 -0.48284131767108018 0 -0.038764373548703768 -0.47063519779216179 0 -0.028521420705905499 -0.4674310816654948 0 -0.027752274071966478 -0.47742461628286209 0 -0.038764373548703768 -0.47063519779216179 0 -0.038764373548703768 -0.47063519779216179 0 -0.048675315621036823 -0.47094071089761919 0 -0.045335619097383061 -0.46570514195792412 0 -0.038171784631523778 -0.48284131767108018 0 -0.038764373548703768 -0.47063519779216179 0 -0.048675315621036823 -0.47094071089761919 0 -0.048675315621036823 -0.47094071089761919 0 -0.055120034750126161 -0.47128965669693351 0 -0.049841179956411519 -0.48183723669954598 0 -0.048675315621036823 -0.47094071089761919 0 -0.055120034750126161 -0.47128965669693351 0 -0.057384894248553399 -0.46524593439390849 0 -0.055120034750126161 -0.47128965669693351 0 -0.059149819292987238 -0.47777467248794547 0 -0.064422500494955764 -0.4650694252783244 0 -0.059149819292987238 -0.47777467248794547 0 -0.049841179956411519 -0.48183723669954598 0 -0.058853327493046781 -0.48842932436532971 0 -0.055120034750126161 -0.47128965669693351 0 -0.059149819292987238 -0.47777467248794547 0 -0.049841179956411519 -0.48183723669954598 0 -0.059149819292987238 -0.47777467248794547 0 -0.058853327493046781 -0.48842932436532971 0 -0.068575109655922298 -0.48253471263916042 0 -0.043972809743024373 -0.5 0 -0.058853327493046781 -0.48842932436532971 0 -0.072727718816887776 -0.49999999999999672 0 -0.043972809743024373 -0.5 0 -0.049841179956411519 -0.48183723669954598 0 -0.058853327493046781 -0.48842932436532971 0 -0.045123684251444827 -0.45223268167437758 0 -0.035662081446574762 -0.44437129177822371 0 -0.048623679129421588 -0.44273110985945369 0 -0.04142135733128624 -0.43391233418184683 0 -0.035662081446574762 -0.44437129177822371 0 -0.048623679129421588 -0.44273110985945369 0 -0.030789477839635839 -0.45543267362212791 0 -0.045123684251444827 -0.45223268167437758 0 -0.035662081446574762 -0.44437129177822371 0 -0.030789477839635839 -0.45543267362212791 0 -0.045123684251444827 -0.45223268167437758 0 -0.04007978340352341 -0.46172459869688548 0 -0.028521420705905499 -0.4674310816654948 0 -0.030789477839635839 -0.45543267362212791 0 -0.04007978340352341 -0.46172459869688548 0 -0.028521420705905499 -0.4674310816654948 0 -0.038764373548703768 -0.47063519779216179 0 -0.04007978340352341 -0.46172459869688548 0 -0.038764373548703768 -0.47063519779216179 0 -0.04007978340352341 -0.46172459869688548 0 -0.045335619097383061 -0.46570514195792412 0 -0.04007978340352341 -0.46172459869688548 0 -0.045335619097383061 -0.46570514195792412 0 -0.047248161051959649 -0.4591011094540644 0 -0.045123684251444827 -0.45223268167437758 0 -0.04007978340352341 -0.46172459869688548 0 -0.047248161051959649 -0.4591011094540644 0 -0.045123684251444827 -0.45223268167437758 0 -0.050581796861615229 -0.45333412325219669 0 -0.047248161051959649 -0.4591011094540644 0 -0.050581796861615229 -0.45333412325219669 0 -0.047248161051959649 -0.4591011094540644 0 -0.051910461861691633 -0.46612409294888979 0 -0.051910461861691633 -0.46612409294888979 0 -0.05917884661055 -0.4590401041241583 0 -0.060002998013559863 -0.44648162232419802 0 -0.051910461861691633 -0.46612409294888979 0 -0.060002998013559863 -0.44648162232419802 0 -0.050581796861615229 -0.45333412325219669 0 -0.051910461861691633 -0.46612409294888979 0 -0.060002998013559863 -0.44648162232419802 0 -0.048675315621036823 -0.47094071089761919 0 -0.05917884661055 -0.4590401041241583 0 -0.048675315621036823 -0.47094071089761919 0 -0.051910461861691633 -0.46612409294888979 0 -0.05917884661055 -0.4590401041241583 0 -0.048675315621036823 -0.47094071089761919 0 -0.045335619097383061 -0.46570514195792412 0 -0.051910461861691633 -0.46612409294888979 0 -0.045335619097383061 -0.46570514195792412 0 -0.047248161051959649 -0.4591011094540644 0 -0.051910461861691633 -0.46612409294888979 0 -0.055120034750126161 -0.47128965669693351 0 -0.057384894248553399 -0.46524593439390849 0 -0.064422500494955764 -0.4650694252783244 0 -0.048675315621036823 -0.47094071089761919 0 -0.057384894248553399 -0.46524593439390849 0 -0.05917884661055 -0.4590401041241583 0 -0.057384894248553399 -0.46524593439390849 0 -0.05917884661055 -0.4590401041241583 0 -0.059237257045792073 -0.46090013765886428 0 -0.064422500494955764 -0.4650694252783244 0 -0.057384894248553399 -0.46524593439390849 0 -0.059237257045792073 -0.46090013765886428 0 -0.064422500494955764 -0.4650694252783244 0 -0.057384894248553399 -0.46524593439390849 0 -0.059237257045792073 -0.46090013765886428 0 -0.05917884661055 -0.4590401041241583 0 -0.059237257045792073 -0.46090013765886428 0 -0.062180371227510647 -0.45563934639583059 0 -0.064422500494955764 -0.4650694252783244 0 -0.059237257045792073 -0.46090013765886428 0 -0.05917884661055 -0.4590401041241583 0 -0.062180371227510647 -0.45563934639583059 0 -0.05917884661055 -0.4590401041241583 0 -0.062180371227510647 -0.45563934639583059 0 -0.05917884661055 -0.4590401041241583 0 -0.061269440441321127 -0.45180810022505591 0 -0.05917884661055 -0.4590401041241583 0 -0.062180371227510647 -0.45563934639583059 0 -0.061269440441321127 -0.45180810022505591 0 -0.062180371227510647 -0.45563934639583059 0 -0.061269440441321127 -0.45180810022505591 0 -0.055571169944573007 -0.4278419796903028 0 -0.060002998013559863 -0.44648162232419802 0 -0.048623679129421588 -0.44273110985945369 0 -0.05917884661055 -0.4590401041241583 0 -0.061269440441321127 -0.45180810022505591 0 -0.060002998013559863 -0.44648162232419802 0 -0.061269440441321127 -0.45180810022505591 0 -0.060002998013559863 -0.44648162232419802 0 -0.050581796861615229 -0.45333412325219669 0 -0.060002998013559863 -0.44648162232419802 0 -0.048623679129421588 -0.44273110985945369 0 -0.045123684251444827 -0.45223268167437758 0 -0.050581796861615229 -0.45333412325219669 0 -0.048623679129421588 -0.44273110985945369 0 -0.061269440441321127 -0.45180810022505591 0 -0.069408814394604765 -0.42365151461769918 0 -0.062180371227510647 -0.45563934639583059 0 -0.061269440441321127 -0.45180810022505591 0 -0.077098496045509793 -0.43873696019506903 0 -0.062180371227510647 -0.45563934639583059 0 -0.077098496045509793 -0.43873696019506903 0 -0.073769461018799692 -0.45951707792468061 0 -0.061269440441321127 -0.45180810022505591 0 -0.077098496045509793 -0.43873696019506903 0 -0.069408814394604765 -0.42365151461769918 0 -0.061269440441321127 -0.45180810022505591 0 -0.060002998013559863 -0.44648162232419802 0 -0.069408814394604765 -0.42365151461769918 0 -0.062180371227510647 -0.45563934639583059 0 -0.077098496045509793 -0.43873696019506903 0 -0.062180371227510647 -0.45563934639583059 0 -0.064422500494955764 -0.4650694252783244 0 -0.062180371227510647 -0.45563934639583059 0 -0.064422500494955764 -0.4650694252783244 0 -0.073769461018799692 -0.45951707792468061 0 -0.084521355142842869 -0.45759592347480388 0 -0.086143661312174283 -0.48253471263916248 0 -0.099165393688022629 -0.46120376842987459 0 -0.073769461018799692 -0.45951707792468061 0 -0.084521355142842869 -0.45759592347480388 0 -0.086143661312174283 -0.48253471263916248 0 -0.084521355142842869 -0.45759592347480388 0 -0.089624247433654214 -0.44685599598904568 0 -0.099165393688022629 -0.46120376842987459 0 -0.077098496045509793 -0.43873696019506903 0 -0.084521355142842869 -0.45759592347480388 0 -0.089624247433654214 -0.44685599598904568 0 -0.077098496045509793 -0.43873696019506903 0 -0.073769461018799692 -0.45951707792468061 0 -0.084521355142842869 -0.45759592347480388 0 -0.089624247433654214 -0.44685599598904568 0 -0.099878095611554862 -0.4393977270813314 0 -0.089545628933694749 -0.43673796215895883 0 -0.077098496045509793 -0.43873696019506903 0 -0.089624247433654214 -0.44685599598904568 0 -0.089545628933694749 -0.43673796215895883 0 -0.072727718816887776 -0.49999999999999672 0 -0.068575109655922298 -0.48253471263916042 0 -0.058853327493046781 -0.48842932436532971 0 -0.072727718816887776 -0.49999999999999672 0 -0.068575109655922298 -0.48253471263916042 0 -0.072727718816887776 -0.49999999999999672 0 -0.068575109655922298 -0.48253471263916042 0 -0.086143661312174283 -0.48253471263916248 0 -0.064422500494955764 -0.4650694252783244 0 -0.068575109655922298 -0.48253471263916042 0 -0.059149819292987238 -0.47777467248794547 0 -0.064422500494955764 -0.4650694252783244 0 -0.068575109655922298 -0.48253471263916042 0 -0.064422500494955764 -0.4650694252783244 0 -0.073769461018799692 -0.45951707792468061 0 -0.086143661312174283 -0.48253471263916248 0 -0.064422500494955764 -0.4650694252783244 0 -0.068575109655922298 -0.48253471263916042 0 -0.086143661312174283 -0.48253471263916248 0 -0.064422500494955764 -0.4650694252783244 0 -0.086143661312174283 -0.48253471263916248 0 -0.072727718816887776 -0.49999999999999672 0 -0.086143661312174283 -0.48253471263916248 0 -0.090296270473140428 -0.5 0 -0.086143661312174283 -0.48253471263916248 0 -0.090296270473140428 -0.5 0 -0.10786482212939311 -0.50000000000000011 0 -0.086143661312174283 -0.48253471263916248 0 -0.10786482212939311 -0.50000000000000011 0 -0.086143661312174283 -0.48253471263916248 0 -0.10786482212939311 -0.50000000000000011 0 -0.1056577076014347 -0.47999846360012538 0 -0.086143661312174283 -0.48253471263916248 0 -0.1056577076014347 -0.47999846360012538 0 -0.099165393688022629 -0.46120376842987459 0 -0.1056577076014347 -0.47999846360012538 0 -0.12108079434187891 -0.47202921183540031 0 -0.099165393688022629 -0.46120376842987459 0 -0.1056577076014347 -0.47999846360012538 0 -0.12108079434187891 -0.47202921183540031 0 -0.1206292342060253 -0.48641385964910883 0 -0.131118449396015 -0.5 0 -0.10786482212939311 -0.50000000000000011 0 -0.1206292342060253 -0.48641385964910883 0 -0.10786482212939311 -0.50000000000000011 0 -0.1056577076014347 -0.47999846360012538 0 -0.1206292342060253 -0.48641385964910883 0 -0.099878095611554862 -0.4393977270813314 0 -0.099165393688022629 -0.46120376842987459 0 -0.099878095611554862 -0.4393977270813314 0 -0.099165393688022629 -0.46120376842987459 0 -0.11615585050415531 -0.45102464773050138 0 -0.089624247433654214 -0.44685599598904568 0 -0.099878095611554862 -0.4393977270813314 0 -0.099165393688022629 -0.46120376842987459 0 -0.12108079434187891 -0.47202921183540031 0 -0.099165393688022629 -0.46120376842987459 0 -0.11615585050415531 -0.45102464773050138 0 -0.13077987840644981 -0.46069854066347632 0 -0.12108079434187891 -0.47202921183540031 0 -0.11615585050415531 -0.45102464773050138 0 -0.13194602454298601 -0.43962244526902572 0 -0.11615585050415531 -0.45102464773050138 0 -0.1129403580353462 -0.43280081863281078 0 -0.099878095611554862 -0.4393977270813314 0 -0.11615585050415531 -0.45102464773050138 0 -0.1129403580353462 -0.43280081863281078 0 -0.13194602454298601 -0.43962244526902572 0 -0.1165997240041481 -0.41847011486561592 0 -0.13194602454298601 -0.43962244526902572 0 -0.1129403580353462 -0.43280081863281078 0 -0.1165997240041481 -0.41847011486561592 0 -0.1129403580353462 -0.43280081863281078 0 -0.1079125428112538 -0.41892639524425412 0 -0.1165997240041481 -0.41847011486561592 0 -0.099878095611554862 -0.4393977270813314 0 -0.100590797535087 -0.41759168573278821 0 -0.092016620863508841 -0.4218345739943074 0 -0.099878095611554862 -0.4393977270813314 0 -0.089545628933694749 -0.43673796215895883 0 -0.092016620863508841 -0.4218345739943074 0 -0.099878095611554862 -0.4393977270813314 0 -0.1129403580353462 -0.43280081863281078 0 -0.10283731640903 -0.42510314405888588 0 -0.099878095611554862 -0.4393977270813314 0 -0.100590797535087 -0.41759168573278821 0 -0.099878095611554862 -0.4393977270813314 0 -0.10283731640903 -0.42510314405888588 0 -0.100590797535087 -0.41759168573278821 0 -0.1129403580353462 -0.43280081863281078 0 -0.10283731640903 -0.42510314405888588 0 -0.1079125428112538 -0.41892639524425412 0 -0.100590797535087 -0.41759168573278821 0 -0.1012534234653099 -0.39731778446220639 0 -0.1165997240041481 -0.41847011486561592 0 -0.1012534234653099 -0.39731778446220639 0 -0.100590797535087 -0.41759168573278821 0 -0.094499944748829334 -0.39722631626938482 0 -0.088610052547492879 -0.41006814396079783 0 -0.100590797535087 -0.41759168573278821 0 -0.1079125428112538 -0.41892639524425412 0 -0.1012534234653099 -0.39731778446220639 0 -0.100590797535087 -0.41759168573278821 0 -0.094499944748829334 -0.39722631626938482 0 -0.1079125428112538 -0.41892639524425412 0 -0.1165997240041481 -0.41847011486561592 0 -0.1012534234653099 -0.39731778446220639 0 -0.10283731640903 -0.42510314405888588 0 -0.100590797535087 -0.41759168573278821 0 -0.1079125428112538 -0.41892639524425412 0 -0.10283731640903 -0.42510314405888588 0 -0.100590797535087 -0.41759168573278821 0 -0.12592730430259419 -0.40432488328170318 0 -0.1165997240041481 -0.41847011486561592 0 -0.1152538145686829 -0.39895411709426332 0 -0.1165997240041481 -0.41847011486561592 0 -0.1152538145686829 -0.39895411709426332 0 -0.1012534234653099 -0.39731778446220639 0 -0.12526638733901391 -0.39147447277512609 0 -0.12592730430259419 -0.40432488328170318 0 -0.1152538145686829 -0.39895411709426332 0 -0.12526638733901391 -0.39147447277512609 0 -0.1152538145686829 -0.39895411709426332 0 -0.1147112201852714 -0.38836266809632891 0 -0.1152538145686829 -0.39895411709426332 0 -0.1147112201852714 -0.38836266809632891 0 -0.1077648281157602 -0.39377477908459929 0 -0.12526638733901391 -0.39147447277512609 0 -0.12201267174342199 -0.37938718301114999 0 -0.1147112201852714 -0.38836266809632891 0 -0.1147112201852714 -0.38836266809632891 0 -0.1094440337948836 -0.37923577087639421 0 -0.1073228884697877 -0.3875649225559597 0 -0.1147112201852714 -0.38836266809632891 0 -0.1073228884697877 -0.3875649225559597 0 -0.1077648281157602 -0.39377477908459929 0 -0.12201267174342199 -0.37938718301114999 0 -0.1147112201852714 -0.38836266809632891 0 -0.1094440337948836 -0.37923577087639421 0 -0.1159926709000937 -0.36685414663024191 0 -0.12201267174342199 -0.37938718301114999 0 -0.1094440337948836 -0.37923577087639421 0 -0.1024060606807759 -0.36205135125861898 0 -0.1094440337948836 -0.37923577087639421 0 -0.1016559479587178 -0.38500202459504551 0 -0.1094440337948836 -0.37923577087639421 0 -0.1016559479587178 -0.38500202459504551 0 -0.1073228884697877 -0.3875649225559597 0 -0.1016559479587178 -0.38500202459504551 0 -0.1014693111655476 -0.390712419775258 0 -0.1016559479587178 -0.38500202459504551 0 -0.1073228884697877 -0.3875649225559597 0 -0.1014693111655476 -0.390712419775258 0 -0.1016559479587178 -0.38500202459504551 0 -0.091585827134305964 -0.3839926061052007 0 -0.1016559479587178 -0.38500202459504551 0 -0.1014693111655476 -0.390712419775258 0 -0.093729726096669103 -0.3869476153003294 0 -0.1016559479587178 -0.38500202459504551 0 -0.091585827134305964 -0.3839926061052007 0 -0.093729726096669103 -0.3869476153003294 0 -0.1014693111655476 -0.390712419775258 0 -0.093729726096669103 -0.3869476153003294 0 -0.1016559479587178 -0.38500202459504551 0 -0.095426438310298192 -0.37780241062099151 0 -0.091585827134305964 -0.3839926061052007 0 -0.100590797535087 -0.41759168573278821 0 -0.1012534234653099 -0.39731778446220639 0 -0.099487365185966847 -0.39952233119993291 0 -0.100590797535087 -0.41759168573278821 0 -0.094499944748829334 -0.39722631626938482 0 -0.099487365185966847 -0.39952233119993291 0 -0.1152538145686829 -0.39895411709426332 0 -0.1077648281157602 -0.39377477908459929 0 -0.1012534234653099 -0.39731778446220639 0 -0.1073228884697877 -0.3875649225559597 0 -0.1077648281157602 -0.39377477908459929 0 -0.1014693111655476 -0.390712419775258 0 -0.1077648281157602 -0.39377477908459929 0 -0.1012534234653099 -0.39731778446220639 0 -0.1014693111655476 -0.390712419775258 0 -0.1077648281157602 -0.39377477908459929 0 -0.1014693111655476 -0.390712419775258 0 -0.1012534234653099 -0.39731778446220639 0 -0.094499944748829334 -0.39722631626938482 0 -0.099487365185966847 -0.39952233119993291 0 -0.1012534234653099 -0.39731778446220639 0 -0.094499944748829334 -0.39722631626938482 0 -0.093729726096669103 -0.3869476153003294 0 -0.1012534234653099 -0.39731778446220639 0 -0.1014693111655476 -0.390712419775258 0 -0.093729726096669103 -0.3869476153003294 0 -0.1012534234653099 -0.39731778446220639 0 -0.093729726096669103 -0.3869476153003294 0 -0.1012534234653099 -0.39731778446220639 0 -0.1014693111655476 -0.390712419775258 0 -0.094499944748829334 -0.39722631626938482 0 -0.099487365185966847 -0.39952233119993291 0 -0.094499944748829334 -0.39722631626938482 0 -0.085553154766675646 -0.40134027138503481 0 -0.088610052547492879 -0.41006814396079783 0 -0.094499944748829334 -0.39722631626938482 0 -0.082560309743270749 -0.39172977139542609 0 -0.085553154766675646 -0.40134027138503481 0 -0.094499944748829334 -0.39722631626938482 0 -0.082560309743270749 -0.39172977139542609 0 -0.091033556626635648 -0.38563610430902873 0 -0.094499944748829334 -0.39722631626938482 0 -0.082560309743270749 -0.39172977139542609 0 -0.094499944748829334 -0.39722631626938482 0 -0.091033556626635648 -0.38563610430902873 0 -0.082560309743270749 -0.39172977139542609 0 -0.079097438192195432 -0.39013559964190198 0 -0.074673198083630793 -0.40544040024196493 0 -0.082560309743270749 -0.39172977139542609 0 -0.079097438192195432 -0.39013559964190198 0 -0.082560309743270749 -0.39172977139542609 0 -0.076542312027108539 -0.406336853914531 0 -0.082560309743270749 -0.39172977139542609 0 -0.085553154766675646 -0.40134027138503481 0 -0.076542312027108539 -0.406336853914531 0 -0.085553154766675646 -0.40134027138503481 0 -0.076542312027108539 -0.406336853914531 0 -0.088610052547492879 -0.41006814396079783 0 -0.090139611558562177 -0.37333304007799939 0 -0.088525620654428705 -0.37725057202694517 0 -0.088525620654428705 -0.37725057202694517 0 -0.087954911787112483 -0.37534235041220648 0 -0.08170780991661282 -0.38109255286014232 0 -0.090139611558562177 -0.37333304007799939 0 -0.088525620654428705 -0.37725057202694517 0 -0.087954911787112483 -0.37534235041220648 0 -0.088525620654428705 -0.37725057202694517 0 -0.087954911787112483 -0.37534235041220648 0 -0.090139611558562177 -0.37333304007799939 0 -0.095426438310298192 -0.37780241062099151 0 -0.088525620654428705 -0.37725057202694517 0 -0.088525620654428705 -0.37725057202694517 0 -0.091585827134305964 -0.3839926061052007 0 -0.095426438310298192 -0.37780241062099151 0 -0.088525620654428705 -0.37725057202694517 0 -0.091585827134305964 -0.3839926061052007 0 -0.088525620654428705 -0.37725057202694517 0 -0.086634605294488312 -0.38349630075200858 0 -0.088525620654428705 -0.37725057202694517 0 -0.086634605294488312 -0.38349630075200858 0 -0.091585827134305964 -0.3839926061052007 0 -0.082560309743270749 -0.39172977139542609 0 -0.086634605294488312 -0.38349630075200858 0 -0.091033556626635648 -0.38563610430902873 0 -0.094499944748829334 -0.39722631626938482 0 -0.091033556626635648 -0.38563610430902873 0 -0.093729726096669103 -0.3869476153003294 0 -0.086634605294488312 -0.38349630075200858 0 -0.091585827134305964 -0.3839926061052007 0 -0.086634605294488312 -0.38349630075200858 0 -0.091033556626635648 -0.38563610430902873 0 -0.086634605294488312 -0.38349630075200858 0 -0.091585827134305964 -0.3839926061052007 0 -0.091033556626635648 -0.38563610430902873 0 -0.091585827134305964 -0.3839926061052007 0 -0.091033556626635648 -0.38563610430902873 0 -0.093729726096669103 -0.3869476153003294 0 -0.091033556626635648 -0.38563610430902873 0 -0.093729726096669103 -0.3869476153003294 0 -0.091585827134305964 -0.3839926061052007 0 -0.093729726096669103 -0.3869476153003294 0 -0.091585827134305964 -0.3839926061052007 0 -0.091033556626635648 -0.38563610430902873 0 -0.082560309743270749 -0.39172977139542609 0 -0.086634605294488312 -0.38349630075200858 0 -0.082560309743270749 -0.39172977139542609 0 -0.086634605294488312 -0.38349630075200858 0 -0.081174899406055781 -0.38294902548401538 0 -0.082560309743270749 -0.39172977139542609 0 -0.079097438192195432 -0.39013559964190198 0 -0.081174899406055781 -0.38294902548401538 0 -0.079097438192195432 -0.39013559964190198 0 -0.081174899406055781 -0.38294902548401538 0 -0.074281153156084773 -0.38791836881244668 0 -0.079097438192195432 -0.39013559964190198 0 -0.081174899406055781 -0.38294902548401538 0 -0.086634605294488312 -0.38349630075200858 0 -0.081174899406055781 -0.38294902548401538 0 -0.088525620654428705 -0.37725057202694517 0 -0.086634605294488312 -0.38349630075200858 0 -0.08170780991661282 -0.38109255286014232 0 -0.086634605294488312 -0.38349630075200858 0 -0.081174899406055781 -0.38294902548401538 0 -0.08170780991661282 -0.38109255286014232 0 -0.086634605294488312 -0.38349630075200858 0 -0.08170780991661282 -0.38109255286014232 0 -0.081174899406055781 -0.38294902548401538 0 -0.08170780991661282 -0.38109255286014232 0 -0.087954911787112483 -0.37534235041220648 0 -0.08170780991661282 -0.38109255286014232 0 -0.055512870853615448 -0.39455951290216967 0 -0.058563253679506787 -0.38068245751723601 0 -0.074281153156084773 -0.38791836881244668 0 -0.058563253679506787 -0.38068245751723601 0 -0.074281153156084773 -0.38791836881244668 0 -0.058387822440418388 -0.36975607908058028 0 -0.08170780991661282 -0.38109255286014232 0 -0.058387822440418388 -0.36975607908058028 0 -0.081174899406055781 -0.38294902548401538 0 -0.08170780991661282 -0.38109255286014232 0 -0.058563253679506787 -0.38068245751723601 0 -0.081174899406055781 -0.38294902548401538 0 -0.074281153156084773 -0.38791836881244668 0 -0.058563253679506787 -0.38068245751723601 0 -0.081174899406055781 -0.38294902548401538 0 -0.058387822440418388 -0.36975607908058028 0 -0.058563253679506787 -0.38068245751723601 0 -0.081174899406055781 -0.38294902548401538 0 -0.081174899406055781 -0.38294902548401538 0 -0.074281153156084773 -0.38791836881244668 0 -0.079097438192195432 -0.39013559964190198 0 -0.074281153156084773 -0.38791836881244668 0 -0.079097438192195432 -0.39013559964190198 0 -0.074281153156084773 -0.38791836881244668 0 -0.074673198083630793 -0.40544040024196493 0 -0.052509649903146327 -0.40794203844841681 0 -0.074281153156084773 -0.38791836881244668 0 -0.052509649903146327 -0.40794203844841681 0 -0.074281153156084773 -0.38791836881244668 0 -0.074673198083630793 -0.40544040024196493 0 -0.082560309743270749 -0.39172977139542609 0 -0.074673198083630793 -0.40544040024196493 0 -0.076542312027108539 -0.406336853914531 0 -0.079097438192195432 -0.39013559964190198 0 -0.074673198083630793 -0.40544040024196493 0 -0.052509649903146327 -0.40794203844841681 0 -0.074673198083630793 -0.40544040024196493 0 -0.070248957975066639 -0.42074520084202788 0 -0.076542312027108539 -0.406336853914531 0 -0.070248957975066639 -0.42074520084202788 0 -0.074673198083630793 -0.40544040024196493 0 -0.070248957975066639 -0.42074520084202788 0 -0.074673198083630793 -0.40544040024196493 0 -0.076542312027108539 -0.406336853914531 0 -0.070248957975066639 -0.42074520084202788 0 -0.070248957975066639 -0.42074520084202788 0 -0.077246521605040669 -0.42579562012280953 0 -0.078194253298280558 -0.41865647959270891 0 -0.076542312027108539 -0.406336853914531 0 -0.070248957975066639 -0.42074520084202788 0 -0.078194253298280558 -0.41865647959270891 0 -0.059775586818595829 -0.41787661413097049 0 -0.070248957975066639 -0.42074520084202788 0 -0.069408814394604765 -0.42365151461769918 0 -0.060002998013559863 -0.44648162232419802 0 -0.069408814394604765 -0.42365151461769918 0 -0.070248957975066639 -0.42074520084202788 0 -0.069408814394604765 -0.42365151461769918 0 -0.077098496045509793 -0.43873696019506903 0 -0.069408814394604765 -0.42365151461769918 0 -0.077246521605040669 -0.42579562012280953 0 -0.070248957975066639 -0.42074520084202788 0 -0.069408814394604765 -0.42365151461769918 0 -0.077246521605040669 -0.42579562012280953 0 -0.070248957975066639 -0.42074520084202788 0 -0.077246521605040669 -0.42579562012280953 0 -0.077246521605040669 -0.42579562012280953 0 -0.082943237868067593 -0.4239856173255338 0 -0.078194253298280558 -0.41865647959270891 0 -0.077098496045509793 -0.43873696019506903 0 -0.082943237868067593 -0.4239856173255338 0 -0.092016620863508841 -0.4218345739943074 0 -0.077098496045509793 -0.43873696019506903 0 -0.089545628933694749 -0.43673796215895883 0 -0.092016620863508841 -0.4218345739943074 0 -0.077098496045509793 -0.43873696019506903 0 -0.092016620863508841 -0.4218345739943074 0 -0.077098496045509793 -0.43873696019506903 0 -0.077246521605040669 -0.42579562012280953 0 -0.082943237868067593 -0.4239856173255338 0 -0.100590797535087 -0.41759168573278821 0 -0.092016620863508841 -0.4218345739943074 0 -0.088610052547492879 -0.41006814396079783 0 -0.082943237868067593 -0.4239856173255338 0 -0.092016620863508841 -0.4218345739943074 0 -0.083714880680240453 -0.41622037016703428 0 -0.092016620863508841 -0.4218345739943074 0 -0.088610052547492879 -0.41006814396079783 0 -0.083714880680240453 -0.41622037016703428 0 -0.076542312027108539 -0.406336853914531 0 -0.088610052547492879 -0.41006814396079783 0 -0.083714880680240453 -0.41622037016703428 0 -0.076542312027108539 -0.406336853914531 0 -0.078194253298280558 -0.41865647959270891 0 -0.083714880680240453 -0.41622037016703428 0 -0.082943237868067593 -0.4239856173255338 0 -0.078194253298280558 -0.41865647959270891 0 -0.083714880680240453 -0.41622037016703428 0 -0.081808777729522386 -0.083143660930833002 0 -0.073985000225153141 -0.099795971436559522 0 -0.085935801107842547 -0.09579043756499836 0 -0.081808777729522386 -0.083143660930833002 0 -0.085935801107842547 -0.09579043756499836 0 -0.094306078709463503 -0.087148618235937392 0 -0.081808777729522386 -0.083143660930833002 0 -0.094306078709463503 -0.087148618235937392 0 -0.095869533599057435 -0.074719864200214883 0 -0.081808777729522386 -0.083143660930833002 0 -0.087640100333796281 -0.066301869750421821 0 -0.076351800502585221 -0.068318825045574613 0 -0.081808777729522386 -0.083143660930833002 0 -0.087640100333796281 -0.066301869750421821 0 -0.095869533599057435 -0.074719864200214883 0 -0.087640100333796281 -0.066301869750421821 0 -0.095869533599057435 -0.074719864200214883 0 -0.097041901727127691 -0.062312633498474219 0 -0.087640100333796281 -0.066301869750421821 0 -0.076351800502585221 -0.068318825045574613 0 -0.079773765115028039 -0.057914828426178573 0 -0.081808777729522386 -0.083143660930833002 0 -0.076351800502585221 -0.068318825045574613 0 -0.068001603171865072 -0.074911341683796137 0 -0.068001603171865072 -0.074911341683796137 0 -0.065822825648978775 -0.060485584973140792 0 -0.05753372126900759 -0.073422836261521005 0 -0.076351800502585221 -0.068318825045574613 0 -0.068001603171865072 -0.074911341683796137 0 -0.065822825648978775 -0.060485584973140792 0 -0.068001603171865072 -0.074911341683796137 0 -0.066670257350634976 -0.085780572793309681 0 -0.05753372126900759 -0.073422836261521005 0 -0.081808777729522386 -0.083143660930833002 0 -0.066670257350634976 -0.085780572793309681 0 -0.073985000225153141 -0.099795971436559522 0 -0.081808777729522386 -0.083143660930833002 0 -0.068001603171865072 -0.074911341683796137 0 -0.066670257350634976 -0.085780572793309681 0 -0.066670257350634976 -0.085780572793309681 0 -0.073985000225153141 -0.099795971436559522 0 -0.05982498813170789 -0.10249801488187529 0 -0.073985000225153141 -0.099795971436559522 0 -0.065415314349395459 -0.11473522154729129 0 -0.05982498813170789 -0.10249801488187529 0 -0.073985000225153141 -0.099795971436559522 0 -0.065415314349395459 -0.11473522154729129 0 -0.07727601190464152 -0.1134926659633375 0 -0.065415314349395459 -0.11473522154729129 0 -0.060446148579459319 -0.1303024678998376 0 -0.071674103496310607 -0.1250344835198243 0 -0.07727601190464152 -0.1134926659633375 0 -0.082994471061899833 -0.1234246307735777 0 -0.071674103496310607 -0.1250344835198243 0 -0.065415314349395459 -0.11473522154729129 0 -0.07727601190464152 -0.1134926659633375 0 -0.071674103496310607 -0.1250344835198243 0 -0.07727601190464152 -0.1134926659633375 0 -0.082994471061899833 -0.1234246307735777 0 -0.08680817640523622 -0.1078855820033275 0 -0.082994471061899833 -0.1234246307735777 0 -0.08680817640523622 -0.1078855820033275 0 -0.095277368860953449 -0.1178446661751102 0 -0.082994471061899833 -0.1234246307735777 0 -0.095277368860953449 -0.1178446661751102 0 -0.095971306836852913 -0.13086642389395989 0 -0.085935801107842547 -0.09579043756499836 0 -0.08680817640523622 -0.1078855820033275 0 -0.1020424425883536 -0.1015565670732166 0 -0.073985000225153141 -0.099795971436559522 0 -0.085935801107842547 -0.09579043756499836 0 -0.08680817640523622 -0.1078855820033275 0 -0.073985000225153141 -0.099795971436559522 0 -0.07727601190464152 -0.1134926659633375 0 -0.08680817640523622 -0.1078855820033275 0 -0.085935801107842547 -0.09579043756499836 0 -0.1020424425883536 -0.1015565670732166 0 -0.094306078709463503 -0.087148618235937392 0 -0.08680817640523622 -0.1078855820033275 0 -0.1020424425883536 -0.1015565670732166 0 -0.095277368860953449 -0.1178446661751102 0 -0.1020424425883536 -0.1015565670732166 0 -0.095277368860953449 -0.1178446661751102 0 -0.1085913382140784 -0.11903379143832921 0 -0.095277368860953449 -0.1178446661751102 0 -0.1085913382140784 -0.11903379143832921 0 -0.095971306836852913 -0.13086642389395989 0 -0.1085913382140784 -0.11903379143832921 0 -0.11893842975153809 -0.10446969177473921 0 -0.12736410167423581 -0.1213878944680517 0 -0.1020424425883536 -0.1015565670732166 0 -0.11893842975153809 -0.10446969177473921 0 -0.1189291253072135 -0.086669643832799348 0 -0.1020424425883536 -0.1015565670732166 0 -0.1085913382140784 -0.11903379143832921 0 -0.11893842975153809 -0.10446969177473921 0 -0.1189291253072135 -0.086669643832799348 0 -0.1056068239719813 -0.08097964138995771 0 -0.1139735316209595 -0.069866863539540053 0 -0.1020424425883536 -0.1015565670732166 0 -0.1189291253072135 -0.086669643832799348 0 -0.1056068239719813 -0.08097964138995771 0 -0.1020424425883536 -0.1015565670732166 0 -0.1056068239719813 -0.08097964138995771 0 -0.094306078709463503 -0.087148618235937392 0 -0.1056068239719813 -0.08097964138995771 0 -0.094306078709463503 -0.087148618235937392 0 -0.095869533599057435 -0.074719864200214883 0 -0.095869533599057435 -0.074719864200214883 0 -0.1039382096783972 -0.069282752438140638 0 -0.097041901727127691 -0.062312633498474219 0 -0.1056068239719813 -0.08097964138995771 0 -0.1039382096783972 -0.069282752438140638 0 -0.1139735316209595 -0.069866863539540053 0 -0.1056068239719813 -0.08097964138995771 0 -0.095869533599057435 -0.074719864200214883 0 -0.1039382096783972 -0.069282752438140638 0 -0.1039382096783972 -0.069282752438140638 0 -0.097041901727127691 -0.062312633498474219 0 -0.1071992574728602 -0.058534759562516372 0 -0.1039382096783972 -0.069282752438140638 0 -0.1139735316209595 -0.069866863539540053 0 -0.1071992574728602 -0.058534759562516372 0 -0.1189291253072135 -0.086669643832799348 0 -0.1139735316209595 -0.069866863539540053 0 -0.12930964035960699 -0.069761515268982097 0 -0.1139735316209595 -0.069866863539540053 0 -0.1161384697585349 -0.056806249932135858 0 -0.12930964035960699 -0.069761515268982097 0 -0.1161384697585349 -0.056806249932135858 0 -0.1208541397454049 -0.045822468476665427 0 -0.12930964035960699 -0.069761515268982097 0 -0.1248214427799455 -0.0491876577223027 0 -0.1208541397454049 -0.045822468476665427 0 -0.12930964035960699 -0.069761515268982097 0 -0.1161384697585349 -0.056806249932135858 0 -0.10991932193075039 -0.048940588969216672 0 -0.1071992574728602 -0.058534759562516372 0 -0.1139735316209595 -0.069866863539540053 0 -0.1161384697585349 -0.056806249932135858 0 -0.1071992574728602 -0.058534759562516372 0 -0.1161384697585349 -0.056806249932135858 0 -0.10991932193075039 -0.048940588969216672 0 -0.1149357203506014 -0.047989794102068162 0 -0.1161384697585349 -0.056806249932135858 0 -0.1149357203506014 -0.047989794102068162 0 -0.1208541397454049 -0.045822468476665427 0 -0.1248214427799455 -0.0491876577223027 0 -0.1208541397454049 -0.045822468476665427 0 -0.1246368416492639 -0.024787675353444869 0 -0.1128309499677153 -0.040389869030254703 0 -0.10841128816168021 -0.033720593740292633 0 -0.11239863913120279 -0.021883421684348751 0 -0.1208541397454049 -0.045822468476665427 0 -0.11239863913120279 -0.021883421684348751 0 -0.1208541397454049 -0.045822468476665427 0 -0.1128309499677153 -0.040389869030254703 0 -0.11239863913120279 -0.021883421684348751 0 -0.1248214427799455 -0.0491876577223027 0 -0.1246368416492639 -0.024787675353444869 0 -0.1149357203506014 -0.047989794102068162 0 -0.1208541397454049 -0.045822468476665427 0 -0.1128309499677153 -0.040389869030254703 0 -0.10991932193075039 -0.048940588969216672 0 -0.1149357203506014 -0.047989794102068162 0 -0.1128309499677153 -0.040389869030254703 0 -0.10991932193075039 -0.048940588969216672 0 -0.1128309499677153 -0.040389869030254703 0 -0.1049963107845597 -0.040407454994133042 0 -0.10991932193075039 -0.048940588969216672 0 -0.1049963107845597 -0.040407454994133042 0 -0.1002598709818909 -0.049694841596422852 0 -0.1049963107845597 -0.040407454994133042 0 -0.10841128816168021 -0.033720593740292633 0 -0.1012581714839781 -0.029848849592015819 0 -0.1128309499677153 -0.040389869030254703 0 -0.1049963107845597 -0.040407454994133042 0 -0.10841128816168021 -0.033720593740292633 0 -0.097298262181343159 -0.039849987036595598 0 -0.1012581714839781 -0.029848849592015819 0 -0.091929659262116575 -0.033133953101480262 0 -0.1049963107845597 -0.040407454994133042 0 -0.097298262181343159 -0.039849987036595598 0 -0.1012581714839781 -0.029848849592015819 0 -0.1049963107845597 -0.040407454994133042 0 -0.097298262181343159 -0.039849987036595598 0 -0.1002598709818909 -0.049694841596422852 0 -0.097298262181343159 -0.039849987036595598 0 -0.1002598709818909 -0.049694841596422852 0 -0.087030839425688053 -0.044306376809862227 0 -0.1002598709818909 -0.049694841596422852 0 -0.097041901727127691 -0.062312633498474219 0 -0.1071992574728602 -0.058534759562516372 0 -0.1002598709818909 -0.049694841596422852 0 -0.097041901727127691 -0.062312633498474219 0 -0.090164156554830718 -0.055563028782557922 0 -0.10991932193075039 -0.048940588969216672 0 -0.1002598709818909 -0.049694841596422852 0 -0.1071992574728602 -0.058534759562516372 0 -0.1244522405185825 -0.00038769298458709092 0 -0.11239863913120279 -0.021883421684348751 0 -0.10394313851700079 0.0020556251079679459 0 -0.1244522405185825 -0.00038769298458709092 0 -0.1246368416492639 -0.024787675353444869 0 -0.1244522405185825 -0.00038769298458709092 0 -0.11239863913120279 -0.021883421684348751 0 -0.1246368416492639 -0.024787675353444869 0 -0.1208541397454049 -0.045822468476665427 0 -0.11239863913120279 -0.021883421684348751 0 -0.1246368416492639 -0.024787675353444869 0 -0.10841128816168021 -0.033720593740292633 0 -0.11239863913120279 -0.021883421684348751 0 -0.1012581714839781 -0.029848849592015819 0 -0.1012581714839781 -0.029848849592015819 0 -0.090677970328949406 -0.022917020247476879 0 -0.091929659262116575 -0.033133953101480262 0 -0.1012581714839781 -0.029848849592015819 0 -0.1001126671493681 -0.016491083843961009 0 -0.090677970328949406 -0.022917020247476879 0 -0.1001126671493681 -0.016491083843961009 0 -0.092285416285709382 -0.0098617528039315269 0 -0.090677970328949406 -0.022917020247476879 0 -0.11239863913120279 -0.021883421684348751 0 -0.1012581714839781 -0.029848849592015819 0 -0.1001126671493681 -0.016491083843961009 0 -0.1001126671493681 -0.016491083843961009 0 -0.092285416285709382 -0.0098617528039315269 0 -0.10394313851700079 0.0020556251079679459 0 -0.11239863913120279 -0.021883421684348751 0 -0.1001126671493681 -0.016491083843961009 0 -0.10394313851700079 0.0020556251079679459 0 -0.092285416285709382 -0.0098617528039315269 0 -0.10394313851700079 0.0020556251079679459 0 -0.085958893623968774 0.001514634656162053 0 -0.11239863913120279 -0.021883421684348751 0 -0.10394313851700079 0.0020556251079679459 0 -0.092285416285709382 -0.0098617528039315269 0 -0.077949881484559239 -0.01307625006729682 0 -0.085958893623968774 0.001514634656162053 0 -0.092285416285709382 -0.0098617528039315269 0 -0.090677970328949406 -0.022917020247476879 0 -0.077949881484559239 -0.01307625006729682 0 -0.090677970328949406 -0.022917020247476879 0 -0.073841780976804383 -0.025706854857452392 0 -0.077949881484559239 -0.01307625006729682 0 -0.090677970328949406 -0.022917020247476879 0 -0.073841780976804383 -0.025706854857452392 0 -0.082102255714859004 -0.034759692131612618 0 -0.090677970328949406 -0.022917020247476879 0 -0.091929659262116575 -0.033133953101480262 0 -0.082102255714859004 -0.034759692131612618 0 -0.073841780976804383 -0.025706854857452392 0 -0.077949881484559239 -0.01307625006729682 0 -0.060674527584339763 -0.015412449877807689 0 -0.073841780976804383 -0.025706854857452392 0 -0.060674527584339763 -0.015412449877807689 0 -0.060703590497751453 -0.03101491529774986 0 -0.077949881484559239 -0.01307625006729682 0 -0.085958893623968774 0.001514634656162053 0 -0.065648076432031049 0.00090955339710942099 0 -0.077949881484559239 -0.01307625006729682 0 -0.060674527584339763 -0.015412449877807689 0 -0.065648076432031049 0.00090955339710942099 0 -0.079773765115028039 -0.057914828426178573 0 -0.087030839425688053 -0.044306376809862227 0 -0.074827122987446398 -0.047817820925290022 0 -0.079773765115028039 -0.057914828426178573 0 -0.090164156554830718 -0.055563028782557922 0 -0.087030839425688053 -0.044306376809862227 0 -0.087640100333796281 -0.066301869750421821 0 -0.079773765115028039 -0.057914828426178573 0 -0.090164156554830718 -0.055563028782557922 0 -0.087640100333796281 -0.066301869750421821 0 -0.097041901727127691 -0.062312633498474219 0 -0.090164156554830718 -0.055563028782557922 0 -0.1002598709818909 -0.049694841596422852 0 -0.090164156554830718 -0.055563028782557922 0 -0.087030839425688053 -0.044306376809862227 0 -0.097298262181343159 -0.039849987036595598 0 -0.087030839425688053 -0.044306376809862227 0 -0.091929659262116575 -0.033133953101480262 0 -0.087030839425688053 -0.044306376809862227 0 -0.091929659262116575 -0.033133953101480262 0 -0.082102255714859004 -0.034759692131612618 0 -0.087030839425688053 -0.044306376809862227 0 -0.082102255714859004 -0.034759692131612618 0 -0.074827122987446398 -0.047817820925290022 0 -0.082102255714859004 -0.034759692131612618 0 -0.070942460250367517 -0.03706080152277047 0 -0.074827122987446398 -0.047817820925290022 0 -0.073841780976804383 -0.025706854857452392 0 -0.082102255714859004 -0.034759692131612618 0 -0.070942460250367517 -0.03706080152277047 0 -0.073841780976804383 -0.025706854857452392 0 -0.070942460250367517 -0.03706080152277047 0 -0.060703590497751453 -0.03101491529774986 0 -0.070942460250367517 -0.03706080152277047 0 -0.061850736208416378 -0.044087883634974623 0 -0.060703590497751453 -0.03101491529774986 0 -0.070942460250367517 -0.03706080152277047 0 -0.074827122987446398 -0.047817820925290022 0 -0.061850736208416378 -0.044087883634974623 0 -0.074827122987446398 -0.047817820925290022 0 -0.065822825648978775 -0.060485584973140792 0 -0.061850736208416378 -0.044087883634974623 0 -0.079773765115028039 -0.057914828426178573 0 -0.074827122987446398 -0.047817820925290022 0 -0.065822825648978775 -0.060485584973140792 0 -0.076351800502585221 -0.068318825045574613 0 -0.079773765115028039 -0.057914828426178573 0 -0.065822825648978775 -0.060485584973140792 0 -0.065822825648978775 -0.060485584973140792 0 -0.051906109188989122 -0.051634581827710108 0 -0.055146373663134192 -0.063188587977351315 0 -0.065822825648978775 -0.060485584973140792 0 -0.051906109188989122 -0.051634581827710108 0 -0.061850736208416378 -0.044087883634974623 0 -0.051906109188989122 -0.051634581827710108 0 -0.044968642856814678 -0.064628327886466996 0 -0.055146373663134192 -0.063188587977351315 0 -0.061850736208416378 -0.044087883634974623 0 -0.048286593140243993 -0.039377229684959138 0 -0.060703590497751453 -0.03101491529774986 0 -0.051906109188989122 -0.051634581827710108 0 -0.061850736208416378 -0.044087883634974623 0 -0.048286593140243993 -0.039377229684959138 0 -0.048286593140243993 -0.039377229684959138 0 -0.039642814346724391 -0.052475069278980747 0 -0.030584103036016622 -0.035608219704199993 0 -0.039642814346724391 -0.052475069278980747 0 -0.024435088609687641 -0.049746151716912712 0 -0.030584103036016622 -0.035608219704199993 0 -0.048286593140243993 -0.039377229684959138 0 -0.044331283213942488 -0.020119990811347448 0 -0.030584103036016622 -0.035608219704199993 0 -0.039642814346724391 -0.052475069278980747 0 -0.03034189778213453 -0.060014988360291517 0 -0.024435088609687641 -0.049746151716912712 0 -0.039642814346724391 -0.052475069278980747 0 -0.03034189778213453 -0.060014988360291517 0 -0.044968642856814678 -0.064628327886466996 0 -0.051906109188989122 -0.051634581827710108 0 -0.039642814346724391 -0.052475069278980747 0 -0.044968642856814678 -0.064628327886466996 0 -0.051906109188989122 -0.051634581827710108 0 -0.048286593140243993 -0.039377229684959138 0 -0.039642814346724391 -0.052475069278980747 0 -0.060674527584339763 -0.015412449877807689 0 -0.044331283213942488 -0.020119990811347448 0 -0.045118160941850949 -0.00049033847668307538 0 -0.060674527584339763 -0.015412449877807689 0 -0.045118160941850949 -0.00049033847668307538 0 -0.065648076432031049 0.00090955339710942099 0 -0.048286593140243993 -0.039377229684959138 0 -0.060703590497751453 -0.03101491529774986 0 -0.044331283213942488 -0.020119990811347448 0 -0.060674527584339763 -0.015412449877807689 0 -0.060703590497751453 -0.03101491529774986 0 -0.044331283213942488 -0.020119990811347448 0 -0.044331283213942488 -0.020119990811347448 0 -0.027025641752002061 -0.0079319500279313396 0 -0.030584103036016622 -0.035608219704199993 0 -0.044331283213942488 -0.020119990811347448 0 -0.045118160941850949 -0.00049033847668307538 0 -0.027025641752002061 -0.0079319500279313396 0 -0.027025641752002061 -0.0079319500279313396 0 -0.0118242871531395 -0.020545428430059291 0 -0.0091716063734174208 -0.003332990253060792 0 -0.027025641752002061 -0.0079319500279313396 0 -0.0091716063734174208 -0.003332990253060792 0 -0.01566814095190756 0.010235570601176981 0 -0.027025641752002061 -0.0079319500279313396 0 -0.0118242871531395 -0.020545428430059291 0 -0.030584103036016622 -0.035608219704199993 0 -0.0118242871531395 -0.020545428430059291 0 -0.030584103036016622 -0.035608219704199993 0 -0.0118242871531395 -0.020545428430059291 0 0.006935528729737548 -0.0054826371559186567 0 0.0027408304473846411 -0.028176541972939319 0 -0.0118242871531395 -0.020545428430059291 0 -0.01026660782967455 -0.041229232136501717 0 0.0027408304473846411 -0.028176541972939319 0 -0.0118242871531395 -0.020545428430059291 0 -0.0091716063734174208 -0.003332990253060792 0 0.006935528729737548 -0.0054826371559186567 0 -0.0118242871531395 -0.020545428430059291 0 0.006935528729737548 -0.0054826371559186567 0 -0.024435088609687641 -0.049746151716912712 0 -0.01026660782967455 -0.041229232136501717 0 -0.01499476028908407 -0.06055090283160456 0 -0.03034189778213453 -0.060014988360291517 0 -0.01499476028908407 -0.06055090283160456 0 -0.03034189778213453 -0.060014988360291517 0 -0.024435088609687641 -0.049746151716912712 0 -0.01499476028908407 -0.06055090283160456 0 -0.024435088609687641 -0.049746151716912712 0 -0.030584103036016622 -0.035608219704199993 0 -0.01026660782967455 -0.041229232136501717 0 -0.0118242871531395 -0.020545428430059291 0 -0.030584103036016622 -0.035608219704199993 0 -0.01026660782967455 -0.041229232136501717 0 -0.01026660782967455 -0.041229232136501717 0 0.0096258971738255473 -0.043108802377643002 0 0.00035237720396625368 -0.061086817302918282 0 -0.01026660782967455 -0.041229232136501717 0 -0.01499476028908407 -0.06055090283160456 0 0.00035237720396625368 -0.061086817302918282 0 -0.01499476028908407 -0.06055090283160456 0 0.00035237720396625368 -0.061086817302918282 0 -0.011408129540087309 -0.083886203777590068 0 0.0065051428120863272 -0.082127796022149757 0 0.00035237720396625368 -0.061086817302918282 0 -0.011408129540087309 -0.083886203777590068 0 0.00035237720396625368 -0.061086817302918282 0 -0.01499476028908407 -0.06055090283160456 0 -0.011408129540087309 -0.083886203777590068 0 0.00035237720396625368 -0.061086817302918282 0 -0.011408129540087309 -0.083886203777590068 0 0.001856719827670471 -0.098182337095309047 0 0.0065051428120863272 -0.082127796022149757 0 -0.011408129540087309 -0.083886203777590068 0 -0.03053113156520738 -0.089911417014305078 0 -0.02316863628414112 -0.10668559025226169 0 -0.011408129540087309 -0.083886203777590068 0 -0.03053113156520738 -0.089911417014305078 0 -0.026049830403481512 -0.075342802050597457 0 -0.01499476028908407 -0.06055090283160456 0 -0.011408129540087309 -0.083886203777590068 0 -0.026049830403481512 -0.075342802050597457 0 -0.03034189778213453 -0.060014988360291517 0 -0.01499476028908407 -0.06055090283160456 0 -0.026049830403481512 -0.075342802050597457 0 -0.03034189778213453 -0.060014988360291517 0 -0.026049830403481512 -0.075342802050597457 0 -0.041349905228919973 -0.078428718904655664 0 -0.03034189778213453 -0.060014988360291517 0 -0.044968642856814678 -0.064628327886466996 0 -0.041349905228919973 -0.078428718904655664 0 -0.03053113156520738 -0.089911417014305078 0 -0.026049830403481512 -0.075342802050597457 0 -0.041349905228919973 -0.078428718904655664 0 -0.03053113156520738 -0.089911417014305078 0 -0.041349905228919973 -0.078428718904655664 0 -0.047432501145458397 -0.097370211357339573 0 -0.041349905228919973 -0.078428718904655664 0 -0.053879666709155317 -0.08598560359304859 0 -0.05753372126900759 -0.073422836261521005 0 -0.041349905228919973 -0.078428718904655664 0 -0.053879666709155317 -0.08598560359304859 0 -0.047432501145458397 -0.097370211357339573 0 -0.066670257350634976 -0.085780572793309681 0 -0.053879666709155317 -0.08598560359304859 0 -0.05982498813170789 -0.10249801488187529 0 -0.066670257350634976 -0.085780572793309681 0 -0.053879666709155317 -0.08598560359304859 0 -0.05753372126900759 -0.073422836261521005 0 -0.044968642856814678 -0.064628327886466996 0 -0.041349905228919973 -0.078428718904655664 0 -0.05753372126900759 -0.073422836261521005 0 -0.065822825648978775 -0.060485584973140792 0 -0.05753372126900759 -0.073422836261521005 0 -0.055146373663134192 -0.063188587977351315 0 -0.044968642856814678 -0.064628327886466996 0 -0.05753372126900759 -0.073422836261521005 0 -0.055146373663134192 -0.063188587977351315 0 -0.065415314349395459 -0.11473522154729129 0 -0.048239208743362072 -0.1165718691901324 0 -0.05982498813170789 -0.10249801488187529 0 -0.065415314349395459 -0.11473522154729129 0 -0.048239208743362072 -0.1165718691901324 0 -0.060446148579459319 -0.1303024678998376 0 -0.048239208743362072 -0.1165718691901324 0 -0.05982498813170789 -0.10249801488187529 0 -0.047432501145458397 -0.097370211357339573 0 -0.053879666709155317 -0.08598560359304859 0 -0.05982498813170789 -0.10249801488187529 0 -0.047432501145458397 -0.097370211357339573 0 -0.048239208743362072 -0.1165718691901324 0 -0.047432501145458397 -0.097370211357339573 0 -0.02316863628414112 -0.10668559025226169 0 -0.03053113156520738 -0.089911417014305078 0 -0.047432501145458397 -0.097370211357339573 0 -0.02316863628414112 -0.10668559025226169 0 -0.048239208743362072 -0.1165718691901324 0 -0.02316863628414112 -0.10668559025226169 0 -0.029948833034415319 -0.13246817914486481 0 -0.02316863628414112 -0.10668559025226169 0 -0.01250087523651249 -0.12826546419306251 0 -0.029948833034415319 -0.13246817914486481 0 -0.011408129540087309 -0.083886203777590068 0 -0.02316863628414112 -0.10668559025226169 0 -0.02316863628414112 -0.10668559025226169 0 0.0015243557028834459 -0.11711868301268021 0 0.001856719827670471 -0.098182337095309047 0 -0.011408129540087309 -0.083886203777590068 0 -0.02316863628414112 -0.10668559025226169 0 0.001856719827670471 -0.098182337095309047 0 -0.02316863628414112 -0.10668559025226169 0 -0.01250087523651249 -0.12826546419306251 0 0.0015243557028834459 -0.11711868301268021 0 -0.01250087523651249 -0.12826546419306251 0 -0.013317386200938249 -0.14799664519887931 0 0.0088678229424013627 -0.13941235935176011 0 -0.01250087523651249 -0.12826546419306251 0 0.0088678229424013627 -0.13941235935176011 0 0.0015243557028834459 -0.11711868301268021 0 -0.01250087523651249 -0.12826546419306251 0 -0.029948833034415319 -0.13246817914486481 0 -0.013317386200938249 -0.14799664519887931 0 -0.013317386200938249 -0.14799664519887931 0 -0.035502595344277812 -0.15658093104599841 0 -0.029948833034415319 -0.13246817914486481 0 -0.013317386200938249 -0.14799664519887931 0 -0.035502595344277812 -0.15658093104599841 0 -0.013317386200938249 -0.14799664519887931 0 0.0088678229424013627 -0.13941235935176011 0 -0.013317386200938249 -0.14799664519887931 0 0.0027310736070901482 -0.15493719994590471 0 0.0088678229424013627 -0.13941235935176011 0 -0.013317386200938249 -0.14799664519887931 0 -0.0013673002328405961 -0.1767093328090546 0 0.0027310736070901482 -0.15493719994590471 0 -0.013317386200938249 -0.14799664519887931 0 -0.0013673002328405961 -0.1767093328090546 0 -0.029934926785222919 -0.1776443960910804 0 -0.0013673002328405961 -0.1767093328090546 0 -0.0217915143334447 -0.19785215020996011 0 -0.0013673002328405961 -0.1767093328090546 0 -0.029934926785222919 -0.1776443960910804 0 -0.0217915143334447 -0.19785215020996011 0 -0.013317386200938249 -0.14799664519887931 0 -0.029934926785222919 -0.1776443960910804 0 -0.035502595344277812 -0.15658093104599841 0 -0.035502595344277812 -0.15658093104599841 0 -0.057687804487617317 -0.16516521689311761 0 -0.029934926785222919 -0.1776443960910804 0 -0.035502595344277812 -0.15658093104599841 0 -0.057687804487617317 -0.16516521689311761 0 -0.029934926785222919 -0.1776443960910804 0 -0.048583433801033478 -0.18728911877980611 0 -0.034676635542126917 -0.191298641696723 0 -0.029934926785222919 -0.1776443960910804 0 -0.048583433801033478 -0.18728911877980611 0 -0.057687804487617317 -0.16516521689311761 0 -0.048583433801033478 -0.18728911877980611 0 -0.057687804487617317 -0.16516521689311761 0 -0.063770138428779252 -0.18079669395549949 0 -0.035502595344277812 -0.15658093104599841 0 -0.057687804487617317 -0.16516521689311761 0 -0.06059931965736505 -0.14742373122833671 0 -0.035502595344277812 -0.15658093104599841 0 -0.06059931965736505 -0.14742373122833671 0 -0.046947221071775923 -0.13666943570183401 0 -0.048239208743362072 -0.1165718691901324 0 -0.046947221071775923 -0.13666943570183401 0 -0.060446148579459319 -0.1303024678998376 0 -0.06059931965736505 -0.14742373122833671 0 -0.046947221071775923 -0.13666943570183401 0 -0.060446148579459319 -0.1303024678998376 0 -0.048239208743362072 -0.1165718691901324 0 -0.029948833034415319 -0.13246817914486481 0 -0.046947221071775923 -0.13666943570183401 0 -0.029948833034415319 -0.13246817914486481 0 -0.035502595344277812 -0.15658093104599841 0 -0.046947221071775923 -0.13666943570183401 0 -0.03064478186574425 -0.25326356670072259 0 -0.026067501294639708 -0.24850247980592871 0 -0.033387688564450117 -0.24425465961654741 0 -0.026067501294639708 -0.24850247980592871 0 -0.02456862519526215 -0.24210395604782819 0 -0.033387688564450117 -0.24425465961654741 0 -0.02974340118516787 -0.23585106297766359 0 -0.02456862519526215 -0.24210395604782819 0 -0.02062871475200042 -0.2320366992723622 0 -0.02974340118516787 -0.23585106297766359 0 -0.02456862519526215 -0.24210395604782819 0 -0.033387688564450117 -0.24425465961654741 0 -0.02456862519526215 -0.24210395604782819 0 -0.01660477195623393 -0.2403164687020414 0 -0.02062871475200042 -0.2320366992723622 0 -0.02456862519526215 -0.24210395604782819 0 -0.01660477195623393 -0.2403164687020414 0 -0.01887874476148543 -0.24814250919209771 0 -0.026067501294639708 -0.24850247980592871 0 -0.02456862519526215 -0.24210395604782819 0 -0.01887874476148543 -0.24814250919209771 0 -0.01660477195623393 -0.2403164687020414 0 -0.01887874476148543 -0.24814250919209771 0 -0.0080727856436109482 -0.2481099565327444 0 -0.0080727856436109482 -0.2481099565327444 0 -0.0084819670471955304 -0.2367225590632196 0 0.0055632338660241776 -0.24332209518663511 0 -0.01660477195623393 -0.2403164687020414 0 -0.0084819670471955304 -0.2367225590632196 0 -0.02062871475200042 -0.2320366992723622 0 -0.01660477195623393 -0.2403164687020414 0 -0.0080727856436109482 -0.2481099565327444 0 -0.0084819670471955304 -0.2367225590632196 0 -0.0084819670471955304 -0.2367225590632196 0 -0.0075276580997289226 -0.21896018305478171 0 0.0032521440618358652 -0.23009641691855939 0 -0.0084819670471955304 -0.2367225590632196 0 -0.0075276580997289226 -0.21896018305478171 0 -0.02062871475200042 -0.2320366992723622 0 -0.0075276580997289226 -0.21896018305478171 0 -0.02062871475200042 -0.2320366992723622 0 -0.024832472176938718 -0.21885173135413241 0 -0.02974340118516787 -0.23585106297766359 0 -0.02062871475200042 -0.2320366992723622 0 -0.031998745265470661 -0.22641465662269231 0 -0.02062871475200042 -0.2320366992723622 0 -0.024832472176938718 -0.21885173135413241 0 -0.031998745265470661 -0.22641465662269231 0 -0.0075276580997289226 -0.21896018305478171 0 -0.024832472176938718 -0.21885173135413241 0 -0.0217915143334447 -0.19785215020996011 0 -0.024832472176938718 -0.21885173135413241 0 -0.0217915143334447 -0.19785215020996011 0 -0.042215728434048867 -0.21899496761086559 0 -0.0075276580997289226 -0.21896018305478171 0 -0.0217915143334447 -0.19785215020996011 0 0.003555539334036632 -0.19934620758084881 0 -0.0013673002328405961 -0.1767093328090546 0 -0.0217915143334447 -0.19785215020996011 0 0.003555539334036632 -0.19934620758084881 0 -0.029934926785222919 -0.1776443960910804 0 -0.0217915143334447 -0.19785215020996011 0 -0.034676635542126917 -0.191298641696723 0 -0.0217915143334447 -0.19785215020996011 0 -0.034676635542126917 -0.191298641696723 0 -0.04224094911505525 -0.20168175555289891 0 -0.048583433801033478 -0.18728911877980611 0 -0.034676635542126917 -0.191298641696723 0 -0.04224094911505525 -0.20168175555289891 0 -0.048583433801033478 -0.18728911877980611 0 -0.058327232484387218 -0.2013044317948425 0 -0.063770138428779252 -0.18079669395549949 0 -0.048583433801033478 -0.18728911877980611 0 -0.04224094911505525 -0.20168175555289891 0 -0.058327232484387218 -0.2013044317948425 0 -0.058327232484387218 -0.2013044317948425 0 -0.04785115009529034 -0.21335122322519601 0 -0.065984069430329237 -0.21594808513783789 0 -0.04224094911505525 -0.20168175555289891 0 -0.058327232484387218 -0.2013044317948425 0 -0.04785115009529034 -0.21335122322519601 0 -0.04785115009529034 -0.21335122322519601 0 -0.065984069430329237 -0.21594808513783789 0 -0.04785115009529034 -0.21335122322519601 0 -0.050089297127046031 -0.22131182591420251 0 -0.065984069430329237 -0.21594808513783789 0 -0.0217915143334447 -0.19785215020996011 0 -0.042215728434048867 -0.21899496761086559 0 -0.0217915143334447 -0.19785215020996011 0 -0.04224094911505525 -0.20168175555289891 0 -0.042215728434048867 -0.21899496761086559 0 -0.04224094911505525 -0.20168175555289891 0 -0.04785115009529034 -0.21335122322519601 0 -0.042215728434048867 -0.21899496761086559 0 -0.04785115009529034 -0.21335122322519601 0 -0.042215728434048867 -0.21899496761086559 0 -0.050089297127046031 -0.22131182591420251 0 -0.024832472176938718 -0.21885173135413241 0 -0.031998745265470661 -0.22641465662269231 0 -0.042215728434048867 -0.21899496761086559 0 -0.031998745265470661 -0.22641465662269231 0 -0.042215728434048867 -0.21899496761086559 0 -0.041320068815934301 -0.22639292378782619 0 -0.031998745265470661 -0.22641465662269231 0 -0.041320068815934301 -0.22639292378782619 0 -0.038133232148655979 -0.23444534332888789 0 -0.02974340118516787 -0.23585106297766359 0 -0.031998745265470661 -0.22641465662269231 0 -0.038133232148655979 -0.23444534332888789 0 -0.041320068815934301 -0.22639292378782619 0 -0.052151212760384272 -0.22988480121754831 0 -0.038133232148655979 -0.23444534332888789 0 -0.042215728434048867 -0.21899496761086559 0 -0.041320068815934301 -0.22639292378782619 0 -0.050089297127046031 -0.22131182591420251 0 -0.041320068815934301 -0.22639292378782619 0 -0.050089297127046031 -0.22131182591420251 0 -0.052151212760384272 -0.22988480121754831 0 -0.0567919256119837 -0.24387644547435741 0 -0.065984069430329237 -0.21594808513783789 0 -0.050089297127046031 -0.22131182591420251 0 -0.052151212760384272 -0.22988480121754831 0 -0.065984069430329237 -0.21594808513783789 0 -0.052151212760384272 -0.22988480121754831 0 -0.0567919256119837 -0.24387644547435741 0 -0.065984069430329237 -0.21594808513783789 0 -0.052151212760384272 -0.22988480121754831 0 -0.0567919256119837 -0.24387644547435741 0 -0.045207486351244337 -0.24272005325013779 0 -0.046517308340487992 -0.25474718453952289 0 -0.0567919256119837 -0.24387644547435741 0 -0.045207486351244337 -0.24272005325013779 0 -0.038581934025118947 -0.25114857380685968 0 -0.046517308340487992 -0.25474718453952289 0 -0.045207486351244337 -0.24272005325013779 0 -0.052151212760384272 -0.22988480121754831 0 -0.045207486351244337 -0.24272005325013779 0 -0.038133232148655979 -0.23444534332888789 0 -0.02974340118516787 -0.23585106297766359 0 -0.038133232148655979 -0.23444534332888789 0 -0.033387688564450117 -0.24425465961654741 0 -0.045207486351244337 -0.24272005325013779 0 -0.038133232148655979 -0.23444534332888789 0 -0.033387688564450117 -0.24425465961654741 0 -0.038581934025118947 -0.25114857380685968 0 -0.03064478186574425 -0.25326356670072259 0 -0.033387688564450117 -0.24425465961654741 0 -0.038581934025118947 -0.25114857380685968 0 -0.045207486351244337 -0.24272005325013779 0 -0.033387688564450117 -0.24425465961654741 0 -0.076282262678724011 -0.24169347649274159 0 -0.094544528280961701 -0.23130979592197831 0 -0.1005321994236209 -0.2431127607729493 0 -0.090174700483665673 -0.26498018187443112 0 -0.076282262678724011 -0.24169347649274159 0 -0.1005321994236209 -0.2431127607729493 0 -0.063484538676239377 -0.26413124226689111 0 -0.0567919256119837 -0.24387644547435741 0 -0.076282262678724011 -0.24169347649274159 0 -0.0567919256119837 -0.24387644547435741 0 -0.076282262678724011 -0.24169347649274159 0 -0.076216545617433393 -0.2267874217425101 0 -0.0567919256119837 -0.24387644547435741 0 -0.076216545617433393 -0.2267874217425101 0 -0.065984069430329237 -0.21594808513783789 0 -0.076216545617433393 -0.2267874217425101 0 -0.089079986681209755 -0.21925571071859279 0 -0.065984069430329237 -0.21594808513783789 0 -0.076282262678724011 -0.24169347649274159 0 -0.076216545617433393 -0.2267874217425101 0 -0.089079986681209755 -0.21925571071859279 0 -0.076282262678724011 -0.24169347649274159 0 -0.089079986681209755 -0.21925571071859279 0 -0.076282262678724011 -0.24169347649274159 0 -0.089079986681209755 -0.21925571071859279 0 -0.094544528280961701 -0.23130979592197831 0 -0.089079986681209755 -0.21925571071859279 0 -0.087982693832912948 -0.20610030108417279 0 -0.065984069430329237 -0.21594808513783789 0 -0.089079986681209755 -0.21925571071859279 0 -0.091681034097487346 -0.21469539259619891 0 -0.087982693832912948 -0.20610030108417279 0 -0.089079986681209755 -0.21925571071859279 0 -0.091681034097487346 -0.21469539259619891 0 -0.089079986681209755 -0.21925571071859279 0 -0.065984069430329237 -0.21594808513783789 0 -0.058327232484387218 -0.2013044317948425 0 -0.065984069430329237 -0.21594808513783789 0 -0.072928541530643487 -0.1948487939390374 0 -0.065984069430329237 -0.21594808513783789 0 -0.072928541530643487 -0.1948487939390374 0 -0.087982693832912948 -0.20610030108417279 0 -0.065984069430329237 -0.21594808513783789 0 -0.072928541530643487 -0.1948487939390374 0 -0.058327232484387218 -0.2013044317948425 0 -0.072928541530643487 -0.1948487939390374 0 -0.063770138428779252 -0.18079669395549949 0 -0.087982693832912948 -0.20610030108417279 0 -0.072928541530643487 -0.1948487939390374 0 -0.088647710124579282 -0.1895137930351245 0 -0.087982693832912948 -0.20610030108417279 0 -0.088647710124579282 -0.1895137930351245 0 -0.098413722631135098 -0.19641739989264009 0 -0.088647710124579282 -0.1895137930351245 0 -0.098413722631135098 -0.19641739989264009 0 -0.1039428787252024 -0.18306303235069041 0 -0.087982693832912948 -0.20610030108417279 0 -0.098413722631135098 -0.19641739989264009 0 -0.1018219586260966 -0.2062222809526808 0 -0.098413722631135098 -0.19641739989264009 0 -0.10967337184688419 -0.19718759204053191 0 -0.1018219586260966 -0.2062222809526808 0 -0.098413722631135098 -0.19641739989264009 0 -0.10967337184688419 -0.19718759204053191 0 -0.1039428787252024 -0.18306303235069041 0 -0.1039428787252024 -0.18306303235069041 0 -0.1280127438194481 -0.19237656196114411 0 -0.10967337184688419 -0.19718759204053191 0 -0.1178174188303993 -0.20556040013348681 0 -0.1280127438194481 -0.19237656196114411 0 -0.10967337184688419 -0.19718759204053191 0 -0.1039428787252024 -0.18306303235069041 0 -0.1280127438194481 -0.19237656196114411 0 -0.10967337184688419 -0.19718759204053191 0 -0.10961342770230489 -0.21003706569406461 0 -0.1178174188303993 -0.20556040013348681 0 -0.1178174188303993 -0.20556040013348681 0 -0.1109550451866443 -0.21888036136960631 0 -0.13246178853905299 -0.20873151589840269 0 -0.1109550451866443 -0.21888036136960631 0 -0.13246178853905299 -0.20873151589840269 0 -0.1109550451866443 -0.21888036136960631 0 -0.12407830270498089 -0.22426790937284519 0 -0.13246178853905299 -0.20873151589840269 0 -0.10961342770230489 -0.21003706569406461 0 -0.1178174188303993 -0.20556040013348681 0 -0.1109550451866443 -0.21888036136960631 0 -0.10961342770230489 -0.21003706569406461 0 -0.103172625086798 -0.22127395363072039 0 -0.1109550451866443 -0.21888036136960631 0 -0.10961342770230489 -0.21003706569406461 0 -0.1018219586260966 -0.2062222809526808 0 -0.103172625086798 -0.22127395363072039 0 -0.10967337184688419 -0.19718759204053191 0 -0.10961342770230489 -0.21003706569406461 0 -0.1018219586260966 -0.2062222809526808 0 -0.091681034097487346 -0.21469539259619891 0 -0.087982693832912948 -0.20610030108417279 0 -0.103172625086798 -0.22127395363072039 0 -0.089079986681209755 -0.21925571071859279 0 -0.091681034097487346 -0.21469539259619891 0 -0.103172625086798 -0.22127395363072039 0 -0.087982693832912948 -0.20610030108417279 0 -0.103172625086798 -0.22127395363072039 0 -0.087982693832912948 -0.20610030108417279 0 -0.1018219586260966 -0.2062222809526808 0 -0.103172625086798 -0.22127395363072039 0 -0.094544528280961701 -0.23130979592197831 0 -0.103172625086798 -0.22127395363072039 0 -0.1005321994236209 -0.2431127607729493 0 -0.089079986681209755 -0.21925571071859279 0 -0.103172625086798 -0.22127395363072039 0 -0.089079986681209755 -0.21925571071859279 0 -0.094544528280961701 -0.23130979592197831 0 -0.103172625086798 -0.22127395363072039 0 -0.103172625086798 -0.22127395363072039 0 -0.1223681628105569 -0.24044891992886891 0 -0.103172625086798 -0.22127395363072039 0 -0.12407830270498089 -0.22426790937284519 0 -0.1238233973506119 -0.23541481827178831 0 -0.103172625086798 -0.22127395363072039 0 -0.1223681628105569 -0.24044891992886891 0 -0.1238233973506119 -0.23541481827178831 0 -0.103172625086798 -0.22127395363072039 0 -0.12407830270498089 -0.22426790937284519 0 -0.103172625086798 -0.22127395363072039 0 -0.1109550451866443 -0.21888036136960631 0 -0.12407830270498089 -0.22426790937284519 0 -0.11757885349586771 -0.25701660664448461 0 -0.1223681628105569 -0.24044891992886891 0 -0.1005321994236209 -0.2431127607729493 0 -0.11757885349586771 -0.25701660664448461 0 -0.1223681628105569 -0.24044891992886891 0 -0.1223681628105569 -0.24044891992886891 0 -0.1238233973506119 -0.23541481827178831 0 -0.103172625086798 -0.22127395363072039 0 -0.1223681628105569 -0.24044891992886891 0 -0.1005321994236209 -0.2431127607729493 0 -0.088441251280713618 -0.1477167476767523 0 -0.085474651021334253 -0.13655174303235951 0 -0.077236065216807342 -0.1460130695171887 0 -0.088441251280713618 -0.1477167476767523 0 -0.077236065216807342 -0.1460130695171887 0 -0.072985053953480025 -0.15595005707556001 0 -0.088441251280713618 -0.1477167476767523 0 -0.093538562727787294 -0.15940564464812701 0 -0.098894310772838973 -0.14952020789867901 0 -0.088441251280713618 -0.1477167476767523 0 -0.085474651021334253 -0.13655174303235951 0 -0.095252038160572317 -0.1406191133899993 0 -0.085474651021334253 -0.13655174303235951 0 -0.095971306836852913 -0.13086642389395989 0 -0.095252038160572317 -0.1406191133899993 0 -0.082994471061899833 -0.1234246307735777 0 -0.085474651021334253 -0.13655174303235951 0 -0.095971306836852913 -0.13086642389395989 0 -0.082994471061899833 -0.1234246307735777 0 -0.085474651021334253 -0.13655174303235951 0 -0.073596501371478315 -0.1364787996572045 0 -0.085474651021334253 -0.13655174303235951 0 -0.073596501371478315 -0.1364787996572045 0 -0.077236065216807342 -0.1460130695171887 0 -0.06059931965736505 -0.14742373122833671 0 -0.060446148579459319 -0.1303024678998376 0 -0.073596501371478315 -0.1364787996572045 0 -0.082994471061899833 -0.1234246307735777 0 -0.073596501371478315 -0.1364787996572045 0 -0.071674103496310607 -0.1250344835198243 0 -0.060446148579459319 -0.1303024678998376 0 -0.073596501371478315 -0.1364787996572045 0 -0.071674103496310607 -0.1250344835198243 0 -0.06059931965736505 -0.14742373122833671 0 -0.073596501371478315 -0.1364787996572045 0 -0.077236065216807342 -0.1460130695171887 0 -0.057687804487617317 -0.16516521689311761 0 -0.06059931965736505 -0.14742373122833671 0 -0.072985053953480025 -0.15595005707556001 0 -0.06059931965736505 -0.14742373122833671 0 -0.077236065216807342 -0.1460130695171887 0 -0.072985053953480025 -0.15595005707556001 0 -0.057687804487617317 -0.16516521689311761 0 -0.079873013630956835 -0.17374950274023659 0 -0.057687804487617317 -0.16516521689311761 0 -0.072985053953480025 -0.15595005707556001 0 -0.079873013630956835 -0.17374950274023659 0 -0.072928541530643487 -0.1948487939390374 0 -0.079873013630956835 -0.17374950274023659 0 -0.057687804487617317 -0.16516521689311761 0 -0.063770138428779252 -0.18079669395549949 0 -0.079873013630956835 -0.17374950274023659 0 -0.072928541530643487 -0.1948487939390374 0 -0.063770138428779252 -0.18079669395549949 0 -0.079873013630956835 -0.17374950274023659 0 -0.072928541530643487 -0.1948487939390374 0 -0.088647710124579282 -0.1895137930351245 0 -0.079873013630956835 -0.17374950274023659 0 -0.079873013630956835 -0.17374950274023659 0 -0.1039428787252024 -0.18306303235069041 0 -0.088647710124579282 -0.1895137930351245 0 -0.079873013630956835 -0.17374950274023659 0 -0.1039428787252024 -0.18306303235069041 0 -0.088441251280713618 -0.1477167476767523 0 -0.079873013630956835 -0.17374950274023659 0 -0.079873013630956835 -0.17374950274023659 0 -0.093538562727787294 -0.15940564464812701 0 -0.098088850166783578 -0.16700629557107341 0 -0.088441251280713618 -0.1477167476767523 0 -0.079873013630956835 -0.17374950274023659 0 -0.093538562727787294 -0.15940564464812701 0 -0.088441251280713618 -0.1477167476767523 0 -0.072985053953480025 -0.15595005707556001 0 -0.079873013630956835 -0.17374950274023659 0 -0.093538562727787294 -0.15940564464812701 0 -0.098088850166783578 -0.16700629557107341 0 -0.1023953877876435 -0.15903546935389351 0 -0.098088850166783578 -0.16700629557107341 0 -0.1039428787252024 -0.18306303235069041 0 -0.1119878388851908 -0.16231915977259129 0 -0.098088850166783578 -0.16700629557107341 0 -0.1023953877876435 -0.15903546935389351 0 -0.1119878388851908 -0.16231915977259129 0 -0.079873013630956835 -0.17374950274023659 0 -0.098088850166783578 -0.16700629557107341 0 -0.1039428787252024 -0.18306303235069041 0 -0.1039428787252024 -0.18306303235069041 0 -0.11859204859796291 -0.17560578940816099 0 -0.1119878388851908 -0.16231915977259129 0 -0.1039428787252024 -0.18306303235069041 0 -0.11859204859796291 -0.17560578940816099 0 -0.1280127438194481 -0.19237656196114411 0 -0.1023953877876435 -0.15903546935389351 0 -0.1119878388851908 -0.16231915977259129 0 -0.1169630623746598 -0.14907522687480429 0 -0.11859204859796291 -0.17560578940816099 0 -0.1119878388851908 -0.16231915977259129 0 -0.12588679133122799 -0.1624874708491951 0 -0.1119878388851908 -0.16231915977259129 0 -0.1169630623746598 -0.14907522687480429 0 -0.12588679133122799 -0.1624874708491951 0 -0.1119878388851908 -0.16231915977259129 0 -0.1169630623746598 -0.14907522687480429 0 -0.1023953877876435 -0.15903546935389351 0 -0.1169630623746598 -0.14907522687480429 0 -0.098894310772838973 -0.14952020789867901 0 -0.1169630623746598 -0.14907522687480429 0 -0.098894310772838973 -0.14952020789867901 0 -0.1169630623746598 -0.14907522687480429 0 -0.098894310772838973 -0.14952020789867901 0 -0.1074786708911218 -0.1384404444482458 0 -0.088441251280713618 -0.1477167476767523 0 -0.098894310772838973 -0.14952020789867901 0 -0.095252038160572317 -0.1406191133899993 0 -0.098894310772838973 -0.14952020789867901 0 -0.095252038160572317 -0.1406191133899993 0 -0.1074786708911218 -0.1384404444482458 0 -0.093538562727787294 -0.15940564464812701 0 -0.1023953877876435 -0.15903546935389351 0 -0.098894310772838973 -0.14952020789867901 0 -0.1085913382140784 -0.11903379143832921 0 -0.095971306836852913 -0.13086642389395989 0 -0.1074786708911218 -0.1384404444482458 0 -0.095971306836852913 -0.13086642389395989 0 -0.095252038160572317 -0.1406191133899993 0 -0.1074786708911218 -0.1384404444482458 0 -0.1085913382140784 -0.11903379143832921 0 -0.1074786708911218 -0.1384404444482458 0 -0.12736410167423581 -0.1213878944680517 0 -0.1169630623746598 -0.14907522687480429 0 -0.1074786708911218 -0.1384404444482458 0 -0.12736410167423581 -0.1213878944680517 0 -0.1169630623746598 -0.14907522687480429 0 -0.12736410167423581 -0.1213878944680517 0 -0.13746664940214659 -0.13470709103134659 0 -0.12736410167423581 -0.1213878944680517 0 -0.14737054533773081 -0.1208951937003558 0 -0.1169630623746598 -0.14907522687480429 0 -0.13746664940214659 -0.13470709103134659 0 -0.12736410167423581 -0.1213878944680517 0 -0.1569759497016511 -0.14808982533941309 0 -0.14737054533773081 -0.1208951937003558 0 -0.13746664940214659 -0.13470709103134659 0 -0.1569759497016511 -0.14808982533941309 0 -0.14737054533773081 -0.1208951937003558 0 -0.1369695060381555 -0.1485825261071109 0 -0.1526603788815559 -0.1573596194762775 0 -0.1569759497016511 -0.14808982533941309 0 -0.13746664940214659 -0.13470709103134659 0 -0.1369695060381555 -0.1485825261071109 0 -0.1569759497016511 -0.14808982533941309 0 -0.1369695060381555 -0.1485825261071109 0 -0.1569759497016511 -0.14808982533941309 0 -0.1169630623746598 -0.14907522687480429 0 -0.1369695060381555 -0.1485825261071109 0 -0.1169630623746598 -0.14907522687480429 0 -0.1369695060381555 -0.1485825261071109 0 -0.12588679133122799 -0.1624874708491951 0 -0.1169630623746598 -0.14907522687480429 0 -0.13746664940214659 -0.13470709103134659 0 -0.1369695060381555 -0.1485825261071109 0 -0.11859204859796291 -0.17560578940816099 0 -0.12588679133122799 -0.1624874708491951 0 -0.13147554750711021 -0.17522771154146191 0 -0.12588679133122799 -0.1624874708491951 0 -0.13147554750711021 -0.17522771154146191 0 -0.14107140235061469 -0.16358211752318311 0 -0.13147554750711021 -0.17522771154146191 0 -0.14520517551865919 -0.17294749126987599 0 -0.14107140235061469 -0.16358211752318311 0 -0.1369695060381555 -0.1485825261071109 0 -0.12588679133122799 -0.1624874708491951 0 -0.14107140235061469 -0.16358211752318311 0 -0.11859204859796291 -0.17560578940816099 0 -0.13147554750711021 -0.17522771154146191 0 -0.1280127438194481 -0.19237656196114411 0 -0.13147554750711021 -0.17522771154146191 0 -0.1398254013782112 -0.18365029146927231 0 -0.1280127438194481 -0.19237656196114411 0 -0.13147554750711021 -0.17522771154146191 0 -0.1398254013782112 -0.18365029146927231 0 -0.14520517551865919 -0.17294749126987599 0 -0.1398254013782112 -0.18365029146927231 0 -0.14820117369214661 -0.18035874543477601 0 -0.1498687104188495 -0.18767128888863599 0 -0.1398254013782112 -0.18365029146927231 0 -0.14820117369214661 -0.18035874543477601 0 -0.14520517551865919 -0.17294749126987599 0 -0.14820117369214661 -0.18035874543477601 0 -0.14520517551865919 -0.17294749126987599 0 -0.1568216795970071 -0.17538216601134321 0 -0.14820117369214661 -0.18035874543477601 0 -0.15608754076248521 -0.18190001438557629 0 -0.1568216795970071 -0.17538216601134321 0 -0.14520517551865919 -0.17294749126987599 0 -0.15263532751206779 -0.16758471640843459 0 -0.1568216795970071 -0.17538216601134321 0 -0.14820117369214661 -0.18035874543477601 0 -0.15608754076248521 -0.18190001438557629 0 -0.1498687104188495 -0.18767128888863599 0 -0.15608754076248521 -0.18190001438557629 0 -0.1607184616130248 -0.18728683910860641 0 -0.1498687104188495 -0.18767128888863599 0 -0.1369695060381555 -0.1485825261071109 0 -0.14107140235061469 -0.16358211752318311 0 -0.1526603788815559 -0.1573596194762775 0 -0.14520517551865919 -0.17294749126987599 0 -0.14107140235061469 -0.16358211752318311 0 -0.15263532751206779 -0.16758471640843459 0 -0.15263532751206779 -0.16758471640843459 0 -0.1526603788815559 -0.1573596194762775 0 -0.16142564196989831 -0.16655703171874039 0 -0.14107140235061469 -0.16358211752318311 0 -0.15263532751206779 -0.16758471640843459 0 -0.1526603788815559 -0.1573596194762775 0 -0.1526603788815559 -0.1573596194762775 0 -0.16142564196989831 -0.16655703171874039 0 -0.16326087804426159 -0.16588359066980229 0 -0.16326087804426159 -0.16588359066980229 0 -0.1569759497016511 -0.14808982533941309 0 -0.1526603788815559 -0.1573596194762775 0 -0.16326087804426159 -0.16588359066980229 0 -0.1569759497016511 -0.14808982533941309 0 -0.1594122663447772 -0.17133307891758459 0 -0.16142564196989831 -0.16655703171874039 0 -0.16676641630013581 -0.17580840153182001 0 -0.15263532751206779 -0.16758471640843459 0 -0.1594122663447772 -0.17133307891758459 0 -0.16142564196989831 -0.16655703171874039 0 -0.16142564196989831 -0.16655703171874039 0 -0.16326087804426159 -0.16588359066980229 0 -0.16676641630013581 -0.17580840153182001 0 -0.15263532751206779 -0.16758471640843459 0 -0.1594122663447772 -0.17133307891758459 0 -0.1568216795970071 -0.17538216601134321 0 -0.16142564196989831 -0.16655703171874039 0 -0.16326087804426159 -0.16588359066980229 0 -0.16326087804426159 -0.16588359066980229 0 -0.16676641630013581 -0.17580840153182001 0 -0.1783922457352059 -0.17293489930968209 0 -0.16326087804426159 -0.16588359066980229 0 -0.16676641630013581 -0.17580840153182001 0 -0.15608754076248521 -0.18190001438557629 0 -0.1607184616130248 -0.18728683910860641 0 -0.16676641630013581 -0.17580840153182001 0 -0.15608754076248521 -0.18190001438557629 0 -0.1568216795970071 -0.17538216601134321 0 -0.16676641630013581 -0.17580840153182001 0 -0.1594122663447772 -0.17133307891758459 0 -0.1568216795970071 -0.17538216601134321 0 -0.16676641630013581 -0.17580840153182001 0 -0.1607184616130248 -0.18728683910860641 0 -0.16676641630013581 -0.17580840153182001 0 -0.17547527524387041 -0.1884338249559952 0 -0.17547527524387041 -0.1884338249559952 0 -0.1969820185962792 -0.17828497948479149 0 -0.1783922457352059 -0.17293489930968209 0 -0.17547527524387041 -0.1884338249559952 0 -0.1969820185962792 -0.17828497948479149 0 -0.16676641630013581 -0.17580840153182001 0 -0.1783922457352059 -0.17293489930968209 0 -0.17547527524387041 -0.1884338249559952 0 -0.16326087804426159 -0.16588359066980229 0 -0.18947664049148261 -0.1562636999060015 0 -0.16326087804426159 -0.16588359066980229 0 -0.18633417632017751 -0.14736681724080919 0 -0.18947664049148261 -0.1562636999060015 0 -0.16326087804426159 -0.16588359066980229 0 -0.1783922457352059 -0.17293489930968209 0 -0.18947664049148261 -0.1562636999060015 0 -0.18633417632017751 -0.14736681724080919 0 -0.16621773075288121 -0.1295318635244681 0 -0.18400621351090571 -0.1217110611121094 0 -0.16621773075288121 -0.1295318635244681 0 -0.1569759497016511 -0.14808982533941309 0 -0.14737054533773081 -0.1208951937003558 0 -0.18633417632017751 -0.14736681724080919 0 -0.16621773075288121 -0.1295318635244681 0 -0.1569759497016511 -0.14808982533941309 0 -0.18633417632017751 -0.14736681724080919 0 -0.1569759497016511 -0.14808982533941309 0 -0.16326087804426159 -0.16588359066980229 0 -0.18633417632017751 -0.14736681724080919 0 -0.1569759497016511 -0.14808982533941309 0 -0.1377523016625678 -0.25581657194563601 0 -0.15263230708737521 -0.24356194903458239 0 -0.13476861079800859 -0.2391754021203874 0 -0.15263230708737521 -0.24356194903458239 0 -0.13476861079800859 -0.2391754021203874 0 -0.14055595197029169 -0.22979662500526149 0 -0.1377523016625678 -0.25581657194563601 0 -0.1223681628105569 -0.24044891992886891 0 -0.13476861079800859 -0.2391754021203874 0 -0.1377523016625678 -0.25581657194563601 0 -0.1223681628105569 -0.24044891992886891 0 -0.1238233973506119 -0.23541481827178831 0 -0.13476861079800859 -0.2391754021203874 0 -0.13139441447274411 -0.22962184130071481 0 -0.1223681628105569 -0.24044891992886891 0 -0.1238233973506119 -0.23541481827178831 0 -0.13476861079800859 -0.2391754021203874 0 -0.13476861079800859 -0.2391754021203874 0 -0.14055595197029169 -0.22979662500526149 0 -0.13139441447274411 -0.22962184130071481 0 -0.12407830270498089 -0.22426790937284519 0 -0.1238233973506119 -0.23541481827178831 0 -0.13139441447274411 -0.22962184130071481 0 -0.12407830270498089 -0.22426790937284519 0 -0.13139441447274411 -0.22962184130071481 0 -0.13441394179160859 -0.22010184774946731 0 -0.14055595197029169 -0.22979662500526149 0 -0.13139441447274411 -0.22962184130071481 0 -0.13441394179160859 -0.22010184774946731 0 -0.14055595197029169 -0.22979662500526149 0 -0.13441394179160859 -0.22010184774946731 0 -0.14940536450650499 -0.21373664043116339 0 -0.15263230708737521 -0.24356194903458239 0 -0.14940536450650499 -0.21373664043116339 0 -0.15263230708737521 -0.24356194903458239 0 -0.14940536450650499 -0.21373664043116339 0 -0.16621803193972459 -0.22739125443424221 0 -0.15263230708737521 -0.24356194903458239 0 -0.14055595197029169 -0.22979662500526149 0 -0.14940536450650499 -0.21373664043116339 0 -0.14940536450650499 -0.21373664043116339 0 -0.13246178853905299 -0.20873151589840269 0 -0.1539685318914617 -0.1985826704271989 0 -0.13246178853905299 -0.20873151589840269 0 -0.1539685318914617 -0.1985826704271989 0 -0.13441394179160859 -0.22010184774946731 0 -0.14940536450650499 -0.21373664043116339 0 -0.13246178853905299 -0.20873151589840269 0 -0.12407830270498089 -0.22426790937284519 0 -0.13441394179160859 -0.22010184774946731 0 -0.13246178853905299 -0.20873151589840269 0 -0.1178174188303993 -0.20556040013348681 0 -0.13246178853905299 -0.20873151589840269 0 -0.1280127438194481 -0.19237656196114411 0 -0.13246178853905299 -0.20873151589840269 0 -0.1280127438194481 -0.19237656196114411 0 -0.14041115317576749 -0.19424917250638599 0 -0.1398254013782112 -0.18365029146927231 0 -0.1280127438194481 -0.19237656196114411 0 -0.14041115317576749 -0.19424917250638599 0 -0.13246178853905299 -0.20873151589840269 0 -0.14041115317576749 -0.19424917250638599 0 -0.1539685318914617 -0.1985826704271989 0 -0.14041115317576749 -0.19424917250638599 0 -0.1539685318914617 -0.1985826704271989 0 -0.1498687104188495 -0.18767128888863599 0 -0.1398254013782112 -0.18365029146927231 0 -0.14041115317576749 -0.19424917250638599 0 -0.1498687104188495 -0.18767128888863599 0 -0.1607184616130248 -0.18728683910860641 0 -0.1539685318914617 -0.1985826704271989 0 -0.1498687104188495 -0.18767128888863599 0 -0.1607184616130248 -0.18728683910860641 0 -0.1539685318914617 -0.1985826704271989 0 -0.17547527524387041 -0.1884338249559952 0 -0.1539685318914617 -0.1985826704271989 0 -0.17547527524387041 -0.1884338249559952 0 -0.16825702714884239 -0.20885775366498019 0 -0.1539685318914617 -0.1985826704271989 0 -0.17547527524387041 -0.1884338249559952 0 -0.17547527524387041 -0.1884338249559952 0 -0.18277425339256639 -0.2026996383603622 0 -0.16825702714884239 -0.20885775366498019 0 -0.17547527524387041 -0.1884338249559952 0 -0.18277425339256639 -0.2026996383603622 0 -0.1902080517791363 -0.1917922864575213 0 -0.18277425339256639 -0.2026996383603622 0 -0.16825702714884239 -0.20885775366498019 0 -0.18626938338499441 -0.22517712183416291 0 -0.14940536450650499 -0.21373664043116339 0 -0.1539685318914617 -0.1985826704271989 0 -0.16825702714884239 -0.20885775366498019 0 -0.14940536450650499 -0.21373664043116339 0 -0.16825702714884239 -0.20885775366498019 0 -0.16621803193972459 -0.22739125443424221 0 -0.16825702714884239 -0.20885775366498019 0 -0.16621803193972459 -0.22739125443424221 0 -0.18626938338499441 -0.22517712183416291 0 -0.16621803193972459 -0.22739125443424221 0 -0.18626938338499441 -0.22517712183416291 0 -0.1745260775709061 -0.24562280720632229 0 -0.18626938338499441 -0.22517712183416291 0 -0.1745260775709061 -0.24562280720632229 0 -0.19988453840298659 -0.24176205441804 0 -0.18626938338499441 -0.22517712183416291 0 -0.1745260775709061 -0.24562280720632229 0 -0.15263230708737521 -0.24356194903458239 0 -0.16621803193972459 -0.22739125443424221 0 -0.1745260775709061 -0.24562280720632229 0 -0.1689202540561075 -0.25519621835756329 0 -0.15263230708737521 -0.24356194903458239 0 -0.1745260775709061 -0.24562280720632229 0 -0.21854221021918649 -0.25236034283526498 0 -0.19988453840298659 -0.24176205441804 0 -0.21493562756427159 -0.22243862284749449 0 -0.19160736129165659 -0.25262396586623759 0 -0.1745260775709061 -0.24562280720632229 0 -0.19988453840298659 -0.24176205441804 0 -0.18626938338499441 -0.22517712183416291 0 -0.19988453840298659 -0.24176205441804 0 -0.21493562756427159 -0.22243862284749449 0 -0.21493562756427159 -0.22243862284749449 0 -0.19801268919908249 -0.2047314364620034 0 -0.21541309520260529 -0.20113031717637361 0 -0.18626938338499441 -0.22517712183416291 0 -0.19801268919908249 -0.2047314364620034 0 -0.18277425339256639 -0.2026996383603622 0 -0.18626938338499441 -0.22517712183416291 0 -0.19801268919908249 -0.2047314364620034 0 -0.18626938338499441 -0.22517712183416291 0 -0.21493562756427159 -0.22243862284749449 0 -0.19801268919908249 -0.2047314364620034 0 -0.19801268919908249 -0.2047314364620034 0 -0.1902080517791363 -0.1917922864575213 0 -0.20975599501317069 -0.18428575108984399 0 -0.18277425339256639 -0.2026996383603622 0 -0.19801268919908249 -0.2047314364620034 0 -0.1902080517791363 -0.1917922864575213 0 -0.21541309520260529 -0.20113031717637361 0 -0.20975599501317069 -0.18428575108984399 0 -0.229896455205026 -0.18225842567294781 0 -0.19801268919908249 -0.2047314364620034 0 -0.21541309520260529 -0.20113031717637361 0 -0.20975599501317069 -0.18428575108984399 0 -0.19801268919908249 -0.2047314364620034 0 -0.20975599501317069 -0.18428575108984399 0 -0.21541309520260529 -0.20113031717637361 0 -0.23384346774119599 -0.2034651679104556 0 -0.229896455205026 -0.18225842567294781 0 -0.24262172765942899 -0.19089247064050549 0 -0.25644706280453389 -0.1995927939493197 0 -0.25029992488695979 -0.1782534950292988 0 -0.24262172765942899 -0.19089247064050549 0 -0.23384346774119599 -0.2034651679104556 0 -0.25644706280453389 -0.1995927939493197 0 -0.24262172765942899 -0.19089247064050549 0 -0.23384346774119599 -0.2034651679104556 0 -0.229896455205026 -0.18225842567294781 0 -0.23384346774119599 -0.2034651679104556 0 -0.2377451423251814 -0.23136366228574551 0 -0.25674041691710447 -0.22108212323078871 0 -0.23384346774119599 -0.2034651679104556 0 -0.25674041691710447 -0.22108212323078871 0 -0.25644706280453389 -0.1995927939493197 0 -0.21493562756427159 -0.22243862284749449 0 -0.21541309520260529 -0.20113031717637361 0 -0.23384346774119599 -0.2034651679104556 0 -0.21493562756427159 -0.22243862284749449 0 -0.23384346774119599 -0.2034651679104556 0 -0.2377451423251814 -0.23136366228574551 0 -0.24465976002352091 -0.25387891845332877 0 -0.2377451423251814 -0.23136366228574551 0 -0.25992972331208369 -0.2410680052130979 0 -0.24465976002352091 -0.25387891845332877 0 -0.21854221021918649 -0.25236034283526498 0 -0.2377451423251814 -0.23136366228574551 0 -0.21854221021918649 -0.25236034283526498 0 -0.21493562756427159 -0.22243862284749449 0 -0.2377451423251814 -0.23136366228574551 0 -0.21854221021918649 -0.25236034283526498 0 -0.2377451423251814 -0.23136366228574551 0 -0.21569240293870359 -0.1466438091422006 0 -0.18947664049148261 -0.1562636999060015 0 -0.2105647825198341 -0.15627799774793921 0 -0.2105647825198341 -0.15627799774793921 0 -0.22149930082725899 -0.1638400657176845 0 -0.22047208921520459 -0.14652609931143951 0 -0.21569240293870359 -0.1466438091422006 0 -0.2105647825198341 -0.15627799774793921 0 -0.22047208921520459 -0.14652609931143951 0 -0.21569240293870359 -0.1466438091422006 0 -0.22047208921520459 -0.14652609931143951 0 -0.20228853596836749 -0.13187567246267581 0 -0.2244809527826766 -0.1321180186971766 0 -0.2129261089666101 -0.1196792574727195 0 -0.21569240293870359 -0.1466438091422006 0 -0.20228853596836749 -0.13187567246267581 0 -0.2244809527826766 -0.1321180186971766 0 -0.18633417632017751 -0.14736681724080919 0 -0.20228853596836749 -0.13187567246267581 0 -0.18400621351090571 -0.1217110611121094 0 -0.21569240293870359 -0.1466438091422006 0 -0.18947664049148261 -0.1562636999060015 0 -0.18633417632017751 -0.14736681724080919 0 -0.21569240293870359 -0.1466438091422006 0 -0.18947664049148261 -0.1562636999060015 0 -0.18633417632017751 -0.14736681724080919 0 -0.21569240293870359 -0.1466438091422006 0 -0.18633417632017751 -0.14736681724080919 0 -0.21569240293870359 -0.1466438091422006 0 -0.20228853596836749 -0.13187567246267581 0 -0.1783922457352059 -0.17293489930968209 0 -0.18947664049148261 -0.1562636999060015 0 -0.1969820185962792 -0.17828497948479149 0 -0.18947664049148261 -0.1562636999060015 0 -0.1969820185962792 -0.17828497948479149 0 -0.20568347912652049 -0.16811631466237001 0 -0.18947664049148261 -0.1562636999060015 0 -0.20568347912652049 -0.16811631466237001 0 -0.2105647825198341 -0.15627799774793921 0 -0.1902080517791363 -0.1917922864575213 0 -0.1969820185962792 -0.17828497948479149 0 -0.20975599501317069 -0.18428575108984399 0 -0.17547527524387041 -0.1884338249559952 0 -0.1902080517791363 -0.1917922864575213 0 -0.1969820185962792 -0.17828497948479149 0 -0.20975599501317069 -0.18428575108984399 0 -0.22149930082725899 -0.1638400657176845 0 -0.20975599501317069 -0.18428575108984399 0 -0.20568347912652049 -0.16811631466237001 0 -0.22149930082725899 -0.1638400657176845 0 -0.1969820185962792 -0.17828497948479149 0 -0.20975599501317069 -0.18428575108984399 0 -0.20568347912652049 -0.16811631466237001 0 -0.20568347912652049 -0.16811631466237001 0 -0.2105647825198341 -0.15627799774793921 0 -0.22149930082725899 -0.1638400657176845 0 -0.22149930082725899 -0.1638400657176845 0 -0.2402834514435094 -0.1667894474332684 0 -0.2341322288468432 -0.15422277024092529 0 -0.22149930082725899 -0.1638400657176845 0 -0.229896455205026 -0.18225842567294781 0 -0.2402834514435094 -0.1667894474332684 0 -0.20975599501317069 -0.18428575108984399 0 -0.22149930082725899 -0.1638400657176845 0 -0.229896455205026 -0.18225842567294781 0 -0.229896455205026 -0.18225842567294781 0 -0.2402834514435094 -0.1667894474332684 0 -0.25029992488695979 -0.1782534950292988 0 -0.24262172765942899 -0.19089247064050549 0 -0.229896455205026 -0.18225842567294781 0 -0.25029992488695979 -0.1782534950292988 0 -0.2402834514435094 -0.1667894474332684 0 -0.25029992488695979 -0.1782534950292988 0 -0.25761979100978533 -0.16665415002795461 0 -0.2402834514435094 -0.1667894474332684 0 -0.24825300788518309 -0.1555077779107997 0 -0.25761979100978533 -0.16665415002795461 0 -0.2402834514435094 -0.1667894474332684 0 -0.24825300788518309 -0.1555077779107997 0 -0.2341322288468432 -0.15422277024092529 0 -0.24825300788518309 -0.1555077779107997 0 -0.2405789555143194 -0.1375116727892334 0 -0.25601133851015478 -0.1487044986697981 0 -0.24825300788518309 -0.1555077779107997 0 -0.2341322288468432 -0.15422277024092529 0 -0.2405789555143194 -0.1375116727892334 0 -0.21569240293870359 -0.1466438091422006 0 -0.22047208921520459 -0.14652609931143951 0 -0.2405789555143194 -0.1375116727892334 0 -0.22149930082725899 -0.1638400657176845 0 -0.2341322288468432 -0.15422277024092529 0 -0.22047208921520459 -0.14652609931143951 0 -0.21569240293870359 -0.1466438091422006 0 -0.2405789555143194 -0.1375116727892334 0 -0.2341322288468432 -0.15422277024092529 0 -0.22047208921520459 -0.14652609931143951 0 -0.2405789555143194 -0.1375116727892334 0 -0.21569240293870359 -0.1466438091422006 0 -0.2244809527826766 -0.1321180186971766 0 -0.2405789555143194 -0.1375116727892334 0 -0.2244809527826766 -0.1321180186971766 0 -0.2405789555143194 -0.1375116727892334 0 -0.23651179230599079 -0.1199754775459997 0 -0.2405789555143194 -0.1375116727892334 0 -0.23651179230599079 -0.1199754775459997 0 -0.25054446979338107 -0.12912519928877991 0 -0.23651179230599079 -0.1199754775459997 0 -0.24959534238117709 -0.1078054475449232 0 -0.26009747564537128 -0.1202716976192799 0 -0.23651179230599079 -0.1199754775459997 0 -0.26009747564537128 -0.1202716976192799 0 -0.23651179230599079 -0.1199754775459997 0 -0.26009747564537128 -0.1202716976192799 0 -0.25054446979338107 -0.12912519928877991 0 -0.23651179230599079 -0.1199754775459997 0 -0.24959534238117709 -0.1078054475449232 0 -0.23746734258601571 -0.1067534300414448 0 -0.24098124084432149 -0.095291905336151436 0 -0.23746734258601571 -0.1067534300414448 0 -0.22473934926471251 -0.1042306158888877 0 -0.24959534238117709 -0.1078054475449232 0 -0.24098124084432149 -0.095291905336151436 0 -0.25687551172258971 -0.095275519396915032 0 -0.24959534238117709 -0.1078054475449232 0 -0.24098124084432149 -0.095291905336151436 0 -0.23746734258601571 -0.1067534300414448 0 -0.22473934926471251 -0.1042306158888877 0 -0.22774604229393439 -0.087804120453188278 0 -0.20897213189474381 -0.093424031558921927 0 -0.24098124084432149 -0.095291905336151436 0 -0.22473934926471251 -0.1042306158888877 0 -0.22774604229393439 -0.087804120453188278 0 -0.2244809527826766 -0.1321180186971766 0 -0.23651179230599079 -0.1199754775459997 0 -0.2129261089666101 -0.1196792574727195 0 -0.23651179230599079 -0.1199754775459997 0 -0.2129261089666101 -0.1196792574727195 0 -0.23651179230599079 -0.1199754775459997 0 -0.23746734258601571 -0.1067534300414448 0 -0.22473934926471251 -0.1042306158888877 0 -0.23651179230599079 -0.1199754775459997 0 -0.22473934926471251 -0.1042306158888877 0 -0.2129261089666101 -0.1196792574727195 0 -0.2466384096447127 -0.069214282175018252 0 -0.23144064811545881 -0.071679072189906365 0 -0.24006258296416741 -0.059977364163272567 0 -0.2466384096447127 -0.069214282175018252 0 -0.23867713564867771 -0.0818228939715063 0 -0.25106785873748549 -0.083001848322642804 0 -0.2466384096447127 -0.069214282175018252 0 -0.23867713564867771 -0.0818228939715063 0 -0.23144064811545881 -0.071679072189906365 0 -0.24098124084432149 -0.095291905336151436 0 -0.25106785873748549 -0.083001848322642804 0 -0.25687551172258971 -0.095275519396915032 0 -0.24098124084432149 -0.095291905336151436 0 -0.23867713564867771 -0.0818228939715063 0 -0.25106785873748549 -0.083001848322642804 0 -0.24098124084432149 -0.095291905336151436 0 -0.23867713564867771 -0.0818228939715063 0 -0.22774604229393439 -0.087804120453188278 0 -0.22048160989483939 -0.080833284582646742 0 -0.22774604229393439 -0.087804120453188278 0 -0.23144064811545881 -0.071679072189906365 0 -0.23867713564867771 -0.0818228939715063 0 -0.22774604229393439 -0.087804120453188278 0 -0.23144064811545881 -0.071679072189906365 0 -0.22048160989483939 -0.080833284582646742 0 -0.22774604229393439 -0.087804120453188278 0 -0.20897213189474381 -0.093424031558921927 0 -0.23144064811545881 -0.071679072189906365 0 -0.2137676172752207 -0.070425914128570383 0 -0.21856310265569601 -0.047427796698218422 0 -0.22048160989483939 -0.080833284582646742 0 -0.23144064811545881 -0.071679072189906365 0 -0.2137676172752207 -0.070425914128570383 0 -0.23144064811545881 -0.071679072189906365 0 -0.23092663332862359 -0.057189961691847993 0 -0.24006258296416741 -0.059977364163272567 0 -0.20335705558913081 -0.063140738221072371 0 -0.2137676172752207 -0.070425914128570383 0 -0.20224544779007569 -0.076575791796341275 0 -0.2137676172752207 -0.070425914128570383 0 -0.20897213189474381 -0.093424031558921927 0 -0.20224544779007569 -0.076575791796341275 0 -0.2137676172752207 -0.070425914128570383 0 -0.20897213189474381 -0.093424031558921927 0 -0.22048160989483939 -0.080833284582646742 0 -0.2137676172752207 -0.070425914128570383 0 -0.20897213189474381 -0.093424031558921927 0 -0.20897213189474381 -0.093424031558921927 0 -0.18864483179057751 -0.079783658531738119 0 -0.20224544779007569 -0.076575791796341275 0 -0.20897213189474381 -0.093424031558921927 0 -0.18864483179057751 -0.079783658531738119 0 -0.1843208979706715 -0.098582101900239388 0 -0.20335705558913081 -0.063140738221072371 0 -0.18864483179057751 -0.079783658531738119 0 -0.20224544779007569 -0.076575791796341275 0 -0.20335705558913081 -0.063140738221072371 0 -0.18864483179057751 -0.079783658531738119 0 -0.20335705558913081 -0.063140738221072371 0 -0.18864483179057751 -0.079783658531738119 0 -0.18476368522970901 -0.060313507398174523 0 -0.22473934926471251 -0.1042306158888877 0 -0.2129261089666101 -0.1196792574727195 0 -0.1994025973422491 -0.10829052452779669 0 -0.20228853596836749 -0.13187567246267581 0 -0.2129261089666101 -0.1196792574727195 0 -0.1994025973422491 -0.10829052452779669 0 -0.22473934926471251 -0.1042306158888877 0 -0.20897213189474381 -0.093424031558921927 0 -0.1994025973422491 -0.10829052452779669 0 -0.20897213189474381 -0.093424031558921927 0 -0.1994025973422491 -0.10829052452779669 0 -0.1843208979706715 -0.098582101900239388 0 -0.20228853596836749 -0.13187567246267581 0 -0.1994025973422491 -0.10829052452779669 0 -0.18400621351090571 -0.1217110611121094 0 -0.1994025973422491 -0.10829052452779669 0 -0.18400621351090571 -0.1217110611121094 0 -0.1843208979706715 -0.098582101900239388 0 -0.16621773075288121 -0.1295318635244681 0 -0.18400621351090571 -0.1217110611121094 0 -0.16647442841019139 -0.11035058163789351 0 -0.18400621351090571 -0.1217110611121094 0 -0.16647442841019139 -0.11035058163789351 0 -0.1843208979706715 -0.098582101900239388 0 -0.16621773075288121 -0.1295318635244681 0 -0.16647442841019139 -0.11035058163789351 0 -0.14737054533773081 -0.1208951937003558 0 -0.16647442841019139 -0.11035058163789351 0 -0.16521255597131029 -0.094363556792246006 0 -0.15171862691764881 -0.097019712797942706 0 -0.16647442841019139 -0.11035058163789351 0 -0.16521255597131029 -0.094363556792246006 0 -0.1843208979706715 -0.098582101900239388 0 -0.16521255597131029 -0.094363556792246006 0 -0.1843208979706715 -0.098582101900239388 0 -0.1718657805157274 -0.077566403117392158 0 -0.18864483179057751 -0.079783658531738119 0 -0.1843208979706715 -0.098582101900239388 0 -0.1718657805157274 -0.077566403117392158 0 -0.18864483179057751 -0.079783658531738119 0 -0.1718657805157274 -0.077566403117392158 0 -0.18476368522970901 -0.060313507398174523 0 -0.1718657805157274 -0.077566403117392158 0 -0.16766997596840549 -0.055069670457126463 0 -0.18476368522970901 -0.060313507398174523 0 -0.1718657805157274 -0.077566403117392158 0 -0.1555984100513392 -0.067553704814911478 0 -0.16766997596840549 -0.055069670457126463 0 -0.1718657805157274 -0.077566403117392158 0 -0.15451520526235171 -0.083858215916353424 0 -0.1555984100513392 -0.067553704814911478 0 -0.16521255597131029 -0.094363556792246006 0 -0.1718657805157274 -0.077566403117392158 0 -0.15451520526235171 -0.083858215916353424 0 -0.16521255597131029 -0.094363556792246006 0 -0.15451520526235171 -0.083858215916353424 0 -0.15171862691764881 -0.097019712797942706 0 -0.15451520526235171 -0.083858215916353424 0 -0.14334301715898221 -0.074859018030624863 0 -0.13903100861317999 -0.090330850909877913 0 -0.15451520526235171 -0.083858215916353424 0 -0.13903100861317999 -0.090330850909877913 0 -0.15171862691764881 -0.097019712797942706 0 -0.1377651409738101 -0.093700562061298426 0 -0.13903100861317999 -0.090330850909877913 0 -0.15171862691764881 -0.097019712797942706 0 -0.15451520526235171 -0.083858215916353424 0 -0.1555984100513392 -0.067553704814911478 0 -0.14334301715898221 -0.074859018030624863 0 -0.1555984100513392 -0.067553704814911478 0 -0.14334301715898221 -0.074859018030624863 0 -0.13945189113323761 -0.059806177835795588 0 -0.14334301715898221 -0.074859018030624863 0 -0.12930964035960699 -0.069761515268982097 0 -0.13945189113323761 -0.059806177835795588 0 -0.12930964035960699 -0.069761515268982097 0 -0.1377651409738101 -0.093700562061298426 0 -0.12930964035960699 -0.069761515268982097 0 -0.1377651409738101 -0.093700562061298426 0 -0.13903100861317999 -0.090330850909877913 0 -0.1189291253072135 -0.086669643832799348 0 -0.12930964035960699 -0.069761515268982097 0 -0.1377651409738101 -0.093700562061298426 0 -0.14334301715898221 -0.074859018030624863 0 -0.12930964035960699 -0.069761515268982097 0 -0.13903100861317999 -0.090330850909877913 0 -0.1377651409738101 -0.093700562061298426 0 -0.13903100861317999 -0.090330850909877913 0 -0.11893842975153809 -0.10446969177473921 0 -0.1377651409738101 -0.093700562061298426 0 -0.12736410167423581 -0.1213878944680517 0 -0.1377651409738101 -0.093700562061298426 0 -0.12736410167423581 -0.1213878944680517 0 -0.11893842975153809 -0.10446969177473921 0 -0.1189291253072135 -0.086669643832799348 0 -0.1377651409738101 -0.093700562061298426 0 -0.1377651409738101 -0.093700562061298426 0 -0.12736410167423581 -0.1213878944680517 0 -0.14737054533773081 -0.1208951937003558 0 -0.16647442841019139 -0.11035058163789351 0 -0.14737054533773081 -0.1208951937003558 0 -0.15171862691764881 -0.097019712797942706 0 -0.1377651409738101 -0.093700562061298426 0 -0.14737054533773081 -0.1208951937003558 0 -0.15171862691764881 -0.097019712797942706 0 -0.1377651409738101 -0.093700562061298426 0 -0.14737054533773081 -0.1208951937003558 0 -0.14925834278157041 -0.027771983247297551 0 -0.15381676672243971 -0.0048344028756085976 0 -0.16158573310271521 -0.019122381719964599 0 -0.14925834278157041 -0.027771983247297551 0 -0.15381676672243971 -0.0048344028756085976 0 -0.14925834278157041 -0.027771983247297551 0 -0.13622810944285851 -0.025664644749336048 0 -0.13728148428220571 -0.03631729474545041 0 -0.15381676672243971 -0.0048344028756085976 0 -0.13373576905839379 -0.01378162565115138 0 -0.13796817939809339 -7.5853332940862265e-05 0 -0.14925834278157041 -0.027771983247297551 0 -0.15381676672243971 -0.0048344028756085976 0 -0.13373576905839379 -0.01378162565115138 0 -0.1244522405185825 -0.00038769298458709092 0 -0.1246368416492639 -0.024787675353444869 0 -0.13373576905839379 -0.01378162565115138 0 -0.1244522405185825 -0.00038769298458709092 0 -0.13373576905839379 -0.01378162565115138 0 -0.13796817939809339 -7.5853332940862265e-05 0 -0.1244522405185825 -0.00038769298458709092 0 -0.13373576905839379 -0.01378162565115138 0 -0.1246368416492639 -0.024787675353444869 0 -0.13373576905839379 -0.01378162565115138 0 -0.13622810944285851 -0.025664644749336048 0 -0.14925834278157041 -0.027771983247297551 0 -0.13373576905839379 -0.01378162565115138 0 -0.13622810944285851 -0.025664644749336048 0 -0.1246368416492639 -0.024787675353444869 0 -0.13622810944285851 -0.025664644749336048 0 -0.13728148428220571 -0.03631729474545041 0 -0.1248214427799455 -0.0491876577223027 0 -0.1246368416492639 -0.024787675353444869 0 -0.13067566527459321 -0.039597081228004503 0 -0.1246368416492639 -0.024787675353444869 0 -0.13067566527459321 -0.039597081228004503 0 -0.13728148428220571 -0.03631729474545041 0 -0.1248214427799455 -0.0491876577223027 0 -0.13067566527459321 -0.039597081228004503 0 -0.1359628923869578 -0.048095697090820053 0 -0.13067566527459321 -0.039597081228004503 0 -0.13728148428220571 -0.03631729474545041 0 -0.1359628923869578 -0.048095697090820053 0 -0.13728148428220571 -0.03631729474545041 0 -0.1359628923869578 -0.048095697090820053 0 -0.14767594406259391 -0.049379474087132447 0 -0.1248214427799455 -0.0491876577223027 0 -0.12930964035960699 -0.069761515268982097 0 -0.13945189113323761 -0.059806177835795588 0 -0.1208541397454049 -0.045822468476665427 0 -0.12930964035960699 -0.069761515268982097 0 -0.1248214427799455 -0.0491876577223027 0 -0.1359628923869578 -0.048095697090820053 0 -0.13945189113323761 -0.059806177835795588 0 -0.1555984100513392 -0.067553704814911478 0 -0.13945189113323761 -0.059806177835795588 0 -0.14767594406259391 -0.049379474087132447 0 -0.1359628923869578 -0.048095697090820053 0 -0.13945189113323761 -0.059806177835795588 0 -0.14767594406259391 -0.049379474087132447 0 -0.14925834278157041 -0.027771983247297551 0 -0.14767594406259391 -0.049379474087132447 0 -0.16346190388351911 -0.035477368974388322 0 -0.14925834278157041 -0.027771983247297551 0 -0.13728148428220571 -0.03631729474545041 0 -0.14767594406259391 -0.049379474087132447 0 -0.14767594406259391 -0.049379474087132447 0 -0.16346190388351911 -0.035477368974388322 0 -0.16766997596840549 -0.055069670457126463 0 -0.16346190388351911 -0.035477368974388322 0 -0.16766997596840549 -0.055069670457126463 0 -0.1792130821544009 -0.041655239440509813 0 -0.1555984100513392 -0.067553704814911478 0 -0.14767594406259391 -0.049379474087132447 0 -0.16766997596840549 -0.055069670457126463 0 -0.16766997596840549 -0.055069670457126463 0 -0.18476368522970901 -0.060313507398174523 0 -0.1792130821544009 -0.041655239440509813 0 -0.18476368522970901 -0.060313507398174523 0 -0.1792130821544009 -0.041655239440509813 0 -0.19607578221694649 -0.043845816873478577 0 -0.16346190388351911 -0.035477368974388322 0 -0.1792130821544009 -0.041655239440509813 0 -0.1747539590121796 -0.02148713112583673 0 -0.1792130821544009 -0.041655239440509813 0 -0.1747539590121796 -0.02148713112583673 0 -0.18874747204970219 -0.028974905836781941 0 -0.1747539590121796 -0.02148713112583673 0 -0.18814241231787171 -0.014961103822567131 0 -0.18874747204970219 -0.028974905836781941 0 -0.14925834278157041 -0.027771983247297551 0 -0.16346190388351911 -0.035477368974388322 0 -0.16158573310271521 -0.019122381719964599 0 -0.16346190388351911 -0.035477368974388322 0 -0.1747539590121796 -0.02148713112583673 0 -0.16158573310271521 -0.019122381719964599 0 -0.1747539590121796 -0.02148713112583673 0 -0.16158573310271521 -0.019122381719964599 0 -0.1670666400728934 -0.0075955490013497832 0 -0.15381676672243971 -0.0048344028756085976 0 -0.1670666400728934 -0.0075955490013497832 0 -0.16872927738725291 0.0066655648670224509 0 -0.15381676672243971 -0.0048344028756085976 0 -0.16158573310271521 -0.019122381719964599 0 -0.1670666400728934 -0.0075955490013497832 0 -0.1670666400728934 -0.0075955490013497832 0 -0.1785064095432054 -0.0066611219507198768 0 -0.16872927738725291 0.0066655648670224509 0 -0.1747539590121796 -0.02148713112583673 0 -0.1670666400728934 -0.0075955490013497832 0 -0.1785064095432054 -0.0066611219507198768 0 -0.1747539590121796 -0.02148713112583673 0 -0.1785064095432054 -0.0066611219507198768 0 -0.18814241231787171 -0.014961103822567131 0 -0.1785064095432054 -0.0066611219507198768 0 -0.18814241231787171 -0.014961103822567131 0 -0.193034969706537 0.00064734206737222756 0 -0.20555212454711219 -0.022925237921517471 0 -0.20993853639106591 -0.0035380738047605968 0 -0.193034969706537 0.00064734206737222756 0 -0.18814241231787171 -0.014961103822567131 0 -0.20555212454711219 -0.022925237921517471 0 -0.193034969706537 0.00064734206737222756 0 -0.20555212454711219 -0.022925237921517471 0 -0.193034969706537 0.00064734206737222756 0 -0.20993853639106591 -0.0035380738047605968 0 -0.193034969706537 0.00064734206737222756 0 -0.18814241231787171 -0.014961103822567131 0 -0.18874747204970219 -0.028974905836781941 0 -0.20555212454711219 -0.022925237921517471 0 -0.20555212454711219 -0.022925237921517471 0 -0.21630961893328751 -0.01519709454307171 0 -0.22290571171937651 -0.026601576769118469 0 -0.20993853639106591 -0.0035380738047605968 0 -0.22684210307559549 -0.0077234896768903086 0 -0.21568563774484731 0.0082874278720449449 0 -0.20993853639106591 -0.0035380738047605968 0 -0.21630961893328751 -0.01519709454307171 0 -0.22684210307559549 -0.0077234896768903086 0 -0.20555212454711219 -0.022925237921517471 0 -0.20993853639106591 -0.0035380738047605968 0 -0.21630961893328751 -0.01519709454307171 0 -0.20993853639106591 -0.0035380738047605968 0 -0.22684210307559549 -0.0077234896768903086 0 -0.20335705558913081 -0.063140738221072371 0 -0.18476368522970901 -0.060313507398174523 0 -0.19607578221694649 -0.043845816873478577 0 -0.1792130821544009 -0.041655239440509813 0 -0.18874747204970219 -0.028974905836781941 0 -0.19607578221694649 -0.043845816873478577 0 -0.18874747204970219 -0.028974905836781941 0 -0.20555212454711219 -0.022925237921517471 0 -0.19607578221694649 -0.043845816873478577 0 -0.20555212454711219 -0.022925237921517471 0 -0.21856310265569601 -0.047427796698218422 0 -0.20555212454711219 -0.022925237921517471 0 -0.21856310265569601 -0.047427796698218422 0 -0.21896932036315811 -0.045479663861346789 0 -0.20555212454711219 -0.022925237921517471 0 -0.19607578221694649 -0.043845816873478577 0 -0.21856310265569601 -0.047427796698218422 0 -0.20555212454711219 -0.022925237921517471 0 -0.21896932036315811 -0.045479663861346789 0 -0.22290571171937651 -0.026601576769118469 0 -0.2137676172752207 -0.070425914128570383 0 -0.21856310265569601 -0.047427796698218422 0 -0.20335705558913081 -0.063140738221072371 0 -0.2137676172752207 -0.070425914128570383 0 -0.21856310265569601 -0.047427796698218422 0 -0.20335705558913081 -0.063140738221072371 0 -0.19607578221694649 -0.043845816873478577 0 -0.21856310265569601 -0.047427796698218422 0 -0.20335705558913081 -0.063140738221072371 0 -0.21856310265569601 -0.047427796698218422 0 -0.23144064811545881 -0.071679072189906365 0 -0.21856310265569601 -0.047427796698218422 0 -0.23092663332862359 -0.057189961691847993 0 -0.23144064811545881 -0.071679072189906365 0 -0.21856310265569601 -0.047427796698218422 0 -0.21856310265569601 -0.047427796698218422 0 -0.23092663332862359 -0.057189961691847993 0 -0.22458774444026389 -0.046948698447319907 0 -0.23092663332862359 -0.057189961691847993 0 -0.2320274706224234 -0.04981915803055513 0 -0.23892230415514151 -0.050781370399802413 0 -0.23092663332862359 -0.057189961691847993 0 -0.22458774444026389 -0.046948698447319907 0 -0.2320274706224234 -0.04981915803055513 0 -0.21896932036315811 -0.045479663861346789 0 -0.2306307955349908 -0.032287844280089482 0 -0.22290571171937651 -0.026601576769118469 0 -0.21896932036315811 -0.045479663861346789 0 -0.22290571171937651 -0.026601576769118469 0 -0.22458774444026389 -0.046948698447319907 0 -0.2320274706224234 -0.04981915803055513 0 -0.23529860714157019 -0.041169280456794459 0 -0.22458774444026389 -0.046948698447319907 0 -0.2306307955349908 -0.032287844280089482 0 -0.23529860714157019 -0.041169280456794459 0 -0.22458774444026389 -0.046948698447319907 0 -0.21896932036315811 -0.045479663861346789 0 -0.2306307955349908 -0.032287844280089482 0 -0.21856310265569601 -0.047427796698218422 0 -0.22458774444026389 -0.046948698447319907 0 -0.21896932036315811 -0.045479663861346789 0 -0.21856310265569601 -0.047427796698218422 0 -0.21896932036315811 -0.045479663861346789 0 -0.21896932036315811 -0.045479663861346789 0 -0.2306307955349908 -0.032287844280089482 0 -0.2306307955349908 -0.032287844280089482 0 -0.23529860714157019 -0.041169280456794459 0 -0.241537864008738 -0.030171217790278881 0 -0.24798951326795751 -0.035882587373858313 0 -0.23529860714157019 -0.041169280456794459 0 -0.241537864008738 -0.030171217790278881 0 -0.24798951326795751 -0.035882587373858313 0 -0.24357205858261219 -0.044359355700093257 0 -0.23529860714157019 -0.041169280456794459 0 -0.24798951326795751 -0.035882587373858313 0 -0.24357205858261219 -0.044359355700093257 0 -0.25238491957690051 -0.051022134359787842 0 -0.24357205858261219 -0.044359355700093257 0 -0.23529860714157019 -0.041169280456794459 0 -0.23892230415514151 -0.050781370399802413 0 -0.2466384096447127 -0.069214282175018252 0 -0.24006258296416741 -0.059977364163272567 0 -0.25238491957690051 -0.051022134359787842 0 -0.2320274706224234 -0.04981915803055513 0 -0.23529860714157019 -0.041169280456794459 0 -0.23892230415514151 -0.050781370399802413 0 -0.23892230415514151 -0.050781370399802413 0 -0.24006258296416741 -0.059977364163272567 0 -0.25238491957690051 -0.051022134359787842 0 -0.24357205858261219 -0.044359355700093257 0 -0.23892230415514151 -0.050781370399802413 0 -0.25238491957690051 -0.051022134359787842 0 -0.23092663332862359 -0.057189961691847993 0 -0.23892230415514151 -0.050781370399802413 0 -0.24006258296416741 -0.059977364163272567 0 -0.21630961893328751 -0.01519709454307171 0 -0.22684210307559549 -0.0077234896768903086 0 -0.22290571171937651 -0.026601576769118469 0 -0.22684210307559549 -0.0077234896768903086 0 -0.22290571171937651 -0.026601576769118469 0 -0.23226271327452069 -0.02198020745377605 0 -0.22684210307559549 -0.0077234896768903086 0 -0.22290571171937651 -0.026601576769118469 0 -0.2306307955349908 -0.032287844280089482 0 -0.22290571171937651 -0.026601576769118469 0 -0.23226271327452069 -0.02198020745377605 0 -0.22684210307559549 -0.0077234896768903086 0 -0.23226271327452069 -0.02198020745377605 0 -0.24229227070682269 -0.019096024698831499 0 -0.2306307955349908 -0.032287844280089482 0 -0.241537864008738 -0.030171217790278881 0 -0.24229227070682269 -0.019096024698831499 0 -0.2306307955349908 -0.032287844280089482 0 -0.23226271327452069 -0.02198020745377605 0 -0.24229227070682269 -0.019096024698831499 0 -0.2306307955349908 -0.032287844280089482 0 -0.24229227070682269 -0.019096024698831499 0 -0.24798951326795751 -0.035882587373858313 0 -0.241537864008738 -0.030171217790278881 0 -0.25387676547985721 -0.02452441136234379 0 -0.241537864008738 -0.030171217790278881 0 -0.24229227070682269 -0.019096024698831499 0 -0.25387676547985721 -0.02452441136234379 0 -0.24229227070682269 -0.019096024698831499 0 -0.24826461013585729 -0.013027819984466921 0 -0.25387676547985721 -0.02452441136234379 0 -0.22684210307559549 -0.0077234896768903086 0 -0.24826461013585729 -0.013027819984466921 0 -0.24598119983726671 0.0037338506766126851 0 -0.22684210307559549 -0.0077234896768903086 0 -0.24229227070682269 -0.019096024698831499 0 -0.24826461013585729 -0.013027819984466921 0 -0.22684210307559549 -0.0077234896768903086 0 -0.24826461013585729 -0.013027819984466921 0 -0.24826461013585729 -0.013027819984466921 0 -0.26003022337954462 -0.0038093911555793728 0 -0.24598119983726671 0.0037338506766126851 0 -0.24826461013585729 -0.013027819984466921 0 -0.26003022337954462 -0.0038093911555793728 0 -0.26968711719611937 -0.018332150292041979 0 -0.24826461013585729 -0.013027819984466921 0 -0.26968711719611937 -0.018332150292041979 0 -0.25387676547985721 -0.02452441136234379 0 -0.26968711719611937 -0.018332150292041979 0 -0.26155562347943467 -0.037861138146123199 0 -0.24826461013585729 -0.013027819984466921 0 -0.25387676547985721 -0.02452441136234379 0 -0.26968711719611937 -0.018332150292041979 0 -0.26968711719611937 -0.018332150292041979 0 -0.28953187906397732 -0.034281883787379987 0 -0.27524211720584768 -0.038538427260779863 0 -0.26003022337954462 -0.0038093911555793728 0 -0.26968711719611937 -0.018332150292041979 0 -0.27433688946420332 -0.0007833753365484626 0 -0.26968711719611937 -0.018332150292041979 0 -0.27433688946420332 -0.0007833753365484626 0 -0.28631392786639209 -0.0070506759659385472 0 -0.28631392786639209 -0.0070506759659385472 0 -0.29653674479957171 -0.021015146411400301 0 -0.3025805037907468 -0.0027432771802810229 0 -0.28631392786639209 -0.0070506759659385472 0 -0.3025805037907468 -0.0027432771802810229 0 -0.28842838408131971 0.0076205693905790281 0 -0.27433688946420332 -0.0007833753365484626 0 -0.28631392786639209 -0.0070506759659385472 0 -0.28842838408131971 0.0076205693905790281 0 -0.26968711719611937 -0.018332150292041979 0 -0.28631392786639209 -0.0070506759659385472 0 -0.29653674479957171 -0.021015146411400301 0 -0.26968711719611937 -0.018332150292041979 0 -0.29653674479957171 -0.021015146411400301 0 -0.28953187906397732 -0.034281883787379987 0 -0.29653674479957171 -0.021015146411400301 0 -0.28953187906397732 -0.034281883787379987 0 -0.31718310516035308 -0.038172790333745737 0 -0.29653674479957171 -0.021015146411400301 0 -0.31459326366374579 -0.01532774276474733 0 -0.31718310516035308 -0.038172790333745737 0 -0.29653674479957171 -0.021015146411400301 0 -0.3025805037907468 -0.0027432771802810229 0 -0.31459326366374579 -0.01532774276474733 0 -0.30229462048881822 -0.056161209871372138 0 -0.29850594913894141 -0.055440370537233663 0 -0.30849544073550722 -0.074776909133231664 0 -0.30229462048881822 -0.056161209871372138 0 -0.29366820665513949 -0.048519954280836622 0 -0.31370341578724742 -0.051143824177853653 0 -0.30229462048881822 -0.056161209871372138 0 -0.29850594913894141 -0.055440370537233663 0 -0.29366820665513949 -0.048519954280836622 0 -0.30229462048881822 -0.056161209871372138 0 -0.31629816603535338 -0.060261719535131632 0 -0.30229462048881822 -0.056161209871372138 0 -0.31178497446605258 -0.064623658022855565 0 -0.31629816603535338 -0.060261719535131632 0 -0.30229462048881822 -0.056161209871372138 0 -0.31370341578724742 -0.051143824177853653 0 -0.31629816603535338 -0.060261719535131632 0 -0.29366820665513949 -0.048519954280836622 0 -0.31718310516035308 -0.038172790333745737 0 -0.29366820665513949 -0.048519954280836622 0 -0.31718310516035308 -0.038172790333745737 0 -0.31370341578724742 -0.051143824177853653 0 -0.28953187906397732 -0.034281883787379987 0 -0.29366820665513949 -0.048519954280836622 0 -0.31718310516035308 -0.038172790333745737 0 -0.28953187906397732 -0.034281883787379987 0 -0.29366820665513949 -0.048519954280836622 0 -0.27524211720584768 -0.038538427260779863 0 -0.29366820665513949 -0.048519954280836622 0 -0.27015330814992611 -0.058867118227927437 0 -0.29366820665513949 -0.048519954280836622 0 -0.28660483069534037 -0.061918496488246169 0 -0.27015330814992611 -0.058867118227927437 0 -0.29850594913894141 -0.055440370537233663 0 -0.28660483069534037 -0.061918496488246169 0 -0.29557893925590151 -0.069462416794053169 0 -0.29850594913894141 -0.055440370537233663 0 -0.29366820665513949 -0.048519954280836622 0 -0.28660483069534037 -0.061918496488246169 0 -0.29366820665513949 -0.048519954280836622 0 -0.27015330814992611 -0.058867118227927437 0 -0.27524211720584768 -0.038538427260779863 0 -0.26968711719611937 -0.018332150292041979 0 -0.27524211720584768 -0.038538427260779863 0 -0.26155562347943467 -0.037861138146123199 0 -0.27015330814992611 -0.058867118227927437 0 -0.27524211720584768 -0.038538427260779863 0 -0.26155562347943467 -0.037861138146123199 0 -0.24798951326795751 -0.035882587373858313 0 -0.26155562347943467 -0.037861138146123199 0 -0.25238491957690051 -0.051022134359787842 0 -0.24798951326795751 -0.035882587373858313 0 -0.25387676547985721 -0.02452441136234379 0 -0.26155562347943467 -0.037861138146123199 0 -0.27015330814992611 -0.058867118227927437 0 -0.26155562347943467 -0.037861138146123199 0 -0.25238491957690051 -0.051022134359787842 0 -0.2466384096447127 -0.069214282175018252 0 -0.27015330814992611 -0.058867118227927437 0 -0.25238491957690051 -0.051022134359787842 0 -0.2466384096447127 -0.069214282175018252 0 -0.27015330814992611 -0.058867118227927437 0 -0.26102584033089798 -0.073534373921212107 0 -0.2466384096447127 -0.069214282175018252 0 -0.27015330814992611 -0.058867118227927437 0 -0.2466384096447127 -0.069214282175018252 0 -0.26102584033089798 -0.073534373921212107 0 -0.25106785873748549 -0.083001848322642804 0 -0.25106785873748549 -0.083001848322642804 0 -0.26431637422662529 -0.083961298504163229 0 -0.25687551172258971 -0.095275519396915032 0 -0.26431637422662529 -0.083961298504163229 0 -0.25687551172258971 -0.095275519396915032 0 -0.26922948176741379 -0.094556007429682482 0 -0.26102584033089798 -0.073534373921212107 0 -0.25106785873748549 -0.083001848322642804 0 -0.26431637422662529 -0.083961298504163229 0 -0.26431637422662529 -0.083961298504163229 0 -0.27622487875609619 -0.085738752979791055 0 -0.27411142324960069 -0.07331497732508381 0 -0.26431637422662529 -0.083961298504163229 0 -0.27622487875609619 -0.085738752979791055 0 -0.26922948176741379 -0.094556007429682482 0 -0.27622487875609619 -0.085738752979791055 0 -0.26922948176741379 -0.094556007429682482 0 -0.28208733676033698 -0.099544680508420066 0 -0.27622487875609619 -0.085738752979791055 0 -0.27411142324960069 -0.07331497732508381 0 -0.28634330733871821 -0.075869823829162894 0 -0.28660483069534037 -0.061918496488246169 0 -0.27015330814992611 -0.058867118227927437 0 -0.27411142324960069 -0.07331497732508381 0 -0.27015330814992611 -0.058867118227927437 0 -0.26102584033089798 -0.073534373921212107 0 -0.27411142324960069 -0.07331497732508381 0 -0.26102584033089798 -0.073534373921212107 0 -0.26431637422662529 -0.083961298504163229 0 -0.27411142324960069 -0.07331497732508381 0 -0.24959534238117709 -0.1078054475449232 0 -0.26009747564537128 -0.1202716976192799 0 -0.26511094786836592 -0.1069062435210571 0 -0.24959534238117709 -0.1078054475449232 0 -0.26511094786836592 -0.1069062435210571 0 -0.25687551172258971 -0.095275519396915032 0 -0.26511094786836592 -0.1069062435210571 0 -0.25687551172258971 -0.095275519396915032 0 -0.26922948176741379 -0.094556007429682482 0 -0.26511094786836592 -0.1069062435210571 0 -0.27676276389741278 -0.11052104179975 0 -0.28208733676033698 -0.099544680508420066 0 -0.26511094786836592 -0.1069062435210571 0 -0.26922948176741379 -0.094556007429682482 0 -0.28208733676033698 -0.099544680508420066 0 -0.26511094786836592 -0.1069062435210571 0 -0.28208733676033698 -0.099544680508420066 0 -0.26009747564537128 -0.1202716976192799 0 -0.28368315898475188 -0.1205679176925603 0 -0.26697405985724948 -0.1304210152969853 0 -0.26009747564537128 -0.1202716976192799 0 -0.27676276389741278 -0.11052104179975 0 -0.28368315898475188 -0.1205679176925603 0 -0.26009747564537128 -0.1202716976192799 0 -0.28368315898475188 -0.1205679176925603 0 -0.26009747564537128 -0.1202716976192799 0 -0.26511094786836592 -0.1069062435210571 0 -0.27676276389741278 -0.11052104179975 0 -0.28368315898475188 -0.1205679176925603 0 -0.30807566230962469 -0.12087427087378499 0 -0.28368315898475188 -0.1205679176925603 0 -0.29137344231852969 -0.1063755175941712 0 -0.30807566230962469 -0.12087427087378499 0 -0.27676276389741278 -0.11052104179975 0 -0.28368315898475188 -0.1205679176925603 0 -0.29137344231852969 -0.1063755175941712 0 -0.28368315898475188 -0.1205679176925603 0 -0.29137344231852969 -0.1063755175941712 0 -0.29137344231852969 -0.1063755175941712 0 -0.28208733676033698 -0.099544680508420066 0 -0.29906372565230788 -0.092183117495782341 0 -0.28208733676033698 -0.099544680508420066 0 -0.29906372565230788 -0.092183117495782341 0 -0.27676276389741278 -0.11052104179975 0 -0.29137344231852969 -0.1063755175941712 0 -0.28208733676033698 -0.099544680508420066 0 -0.29137344231852969 -0.1063755175941712 0 -0.29906372565230788 -0.092183117495782341 0 -0.30690970986333499 -0.10413412755240679 0 -0.29906372565230788 -0.092183117495782341 0 -0.31411573014289268 -0.085656035662949492 0 -0.29137344231852969 -0.1063755175941712 0 -0.30690970986333499 -0.10413412755240679 0 -0.29906372565230788 -0.092183117495782341 0 -0.28368315898475188 -0.1205679176925603 0 -0.30807566230962469 -0.12087427087378499 0 -0.30140371581860798 -0.1292511186866305 0 -0.29137344231852969 -0.1063755175941712 0 -0.30690970986333499 -0.10413412755240679 0 -0.30807566230962469 -0.12087427087378499 0 -0.29557893925590151 -0.069462416794053169 0 -0.28634330733871821 -0.075869823829162894 0 -0.29528406594296941 -0.079953964946478426 0 -0.28660483069534037 -0.061918496488246169 0 -0.29557893925590151 -0.069462416794053169 0 -0.28634330733871821 -0.075869823829162894 0 -0.28660483069534037 -0.061918496488246169 0 -0.27411142324960069 -0.07331497732508381 0 -0.28634330733871821 -0.075869823829162894 0 -0.27622487875609619 -0.085738752979791055 0 -0.28634330733871821 -0.075869823829162894 0 -0.28693891673241251 -0.08747755748016231 0 -0.28208733676033698 -0.099544680508420066 0 -0.28693891673241251 -0.08747755748016231 0 -0.29906372565230788 -0.092183117495782341 0 -0.27622487875609619 -0.085738752979791055 0 -0.28208733676033698 -0.099544680508420066 0 -0.28693891673241251 -0.08747755748016231 0 -0.28693891673241251 -0.08747755748016231 0 -0.29528406594296941 -0.079953964946478426 0 -0.29906372565230788 -0.092183117495782341 0 -0.28634330733871821 -0.075869823829162894 0 -0.28693891673241251 -0.08747755748016231 0 -0.29528406594296941 -0.079953964946478426 0 -0.29528406594296941 -0.079953964946478426 0 -0.29906372565230788 -0.092183117495782341 0 -0.30849544073550722 -0.074776909133231664 0 -0.29906372565230788 -0.092183117495782341 0 -0.30849544073550722 -0.074776909133231664 0 -0.29906372565230788 -0.092183117495782341 0 -0.30849544073550722 -0.074776909133231664 0 -0.31411573014289268 -0.085656035662949492 0 -0.29906372565230788 -0.092183117495782341 0 -0.31411573014289268 -0.085656035662949492 0 -0.30849544073550722 -0.074776909133231664 0 -0.31411573014289268 -0.085656035662949492 0 -0.30229462048881822 -0.056161209871372138 0 -0.30849544073550722 -0.074776909133231664 0 -0.31178497446605258 -0.064623658022855565 0 -0.29850594913894141 -0.055440370537233663 0 -0.29557893925590151 -0.069462416794053169 0 -0.30849544073550722 -0.074776909133231664 0 -0.30849544073550722 -0.074776909133231664 0 -0.31286059459191501 -0.066721027791507209 0 -0.29850594913894141 -0.055440370537233663 0 -0.30849544073550722 -0.074776909133231664 0 -0.29557893925590151 -0.069462416794053169 0 -0.29528406594296941 -0.079953964946478426 0 -0.30849544073550722 -0.074776909133231664 0 -0.30849544073550722 -0.074776909133231664 0 -0.31178497446605258 -0.064623658022855565 0 -0.31286059459191501 -0.066721027791507209 0 -0.31178497446605258 -0.064623658022855565 0 -0.31286059459191501 -0.066721027791507209 0 -0.31286059459191501 -0.066721027791507209 0 -0.32103296817657878 -0.082656476452658639 0 -0.31286059459191501 -0.066721027791507209 0 -0.32103296817657878 -0.082656476452658639 0 -0.32352590008436471 -0.062378140209921912 0 -0.31178497446605258 -0.064623658022855565 0 -0.31286059459191501 -0.066721027791507209 0 -0.31629816603535338 -0.060261719535131632 0 -0.30849544073550722 -0.074776909133231664 0 -0.31286059459191501 -0.066721027791507209 0 -0.32103296817657878 -0.082656476452658639 0 -0.31286059459191501 -0.066721027791507209 0 -0.31629816603535338 -0.060261719535131632 0 -0.31286059459191501 -0.066721027791507209 0 -0.31629816603535338 -0.060261719535131632 0 -0.32352590008436471 -0.062378140209921912 0 -0.32103296817657878 -0.082656476452658639 0 -0.33093834944883532 -0.101971145942244 0 -0.30849544073550722 -0.074776909133231664 0 -0.31411573014289268 -0.085656035662949492 0 -0.32103296817657878 -0.082656476452658639 0 -0.31411573014289268 -0.085656035662949492 0 -0.32103296817657878 -0.082656476452658639 0 -0.32329194788869442 -0.1034183298589804 0 -0.31411573014289268 -0.085656035662949492 0 -0.32103296817657878 -0.082656476452658639 0 -0.32103296817657878 -0.082656476452658639 0 -0.33692687914299491 -0.089632102483736459 0 -0.33093834944883532 -0.101971145942244 0 -0.32103296817657878 -0.082656476452658639 0 -0.33692687914299491 -0.089632102483736459 0 -0.3453529791357649 -0.07211045902320197 0 -0.32103296817657878 -0.082656476452658639 0 -0.3453529791357649 -0.07211045902320197 0 -0.32352590008436471 -0.062378140209921912 0 -0.34475717967991132 -0.068595070548471249 0 -0.3453529791357649 -0.07211045902320197 0 -0.32352590008436471 -0.062378140209921912 0 -0.34475717967991132 -0.068595070548471249 0 -0.32352590008436471 -0.062378140209921912 0 -0.32103296817657878 -0.082656476452658639 0 -0.3453529791357649 -0.07211045902320197 0 -0.30807566230962469 -0.12087427087378499 0 -0.32329194788869442 -0.1034183298589804 0 -0.33246816563449738 -0.1211806240550105 0 -0.30807566230962469 -0.12087427087378499 0 -0.33246816563449738 -0.1211806240550105 0 -0.30807566230962469 -0.12087427087378499 0 -0.32007374605487132 -0.12494213909402439 0 -0.33246816563449738 -0.1211806240550105 0 -0.30690970986333499 -0.10413412755240679 0 -0.30807566230962469 -0.12087427087378499 0 -0.32329194788869442 -0.1034183298589804 0 -0.32329194788869442 -0.1034183298589804 0 -0.33246816563449738 -0.1211806240550105 0 -0.32007374605487132 -0.12494213909402439 0 -0.33441303965894859 -0.1249452932850653 0 -0.30690970986333499 -0.10413412755240679 0 -0.31411573014289268 -0.085656035662949492 0 -0.32329194788869442 -0.1034183298589804 0 -0.32103296817657878 -0.082656476452658639 0 -0.32329194788869442 -0.1034183298589804 0 -0.33093834944883532 -0.101971145942244 0 -0.31411573014289268 -0.085656035662949492 0 -0.32329194788869442 -0.1034183298589804 0 -0.32329194788869442 -0.1034183298589804 0 -0.33093834944883532 -0.101971145942244 0 -0.33246816563449738 -0.1211806240550105 0 -0.33692687914299491 -0.089632102483736459 0 -0.33093834944883532 -0.101971145942244 0 -0.35038321981080389 -0.10179032851684799 0 -0.33093834944883532 -0.101971145942244 0 -0.34773438721257438 -0.1121772477149196 0 -0.35038321981080389 -0.10179032851684799 0 -0.33093834944883532 -0.101971145942244 0 -0.3408437307210912 -0.1212858154318297 0 -0.33093834944883532 -0.101971145942244 0 -0.3408437307210912 -0.1212858154318297 0 -0.33246816563449738 -0.1211806240550105 0 -0.33093834944883532 -0.101971145942244 0 -0.3408437307210912 -0.1212858154318297 0 -0.34773438721257438 -0.1121772477149196 0 -0.34272140335036932 -0.124947120862287 0 -0.3408437307210912 -0.1212858154318297 0 -0.33441303965894859 -0.1249452932850653 0 -0.3408437307210912 -0.1212858154318297 0 -0.33246816563449738 -0.1211806240550105 0 -0.34272140335036932 -0.124947120862287 0 -0.33441303965894859 -0.1249452932850653 0 -0.34272140335036932 -0.124947120862287 0 -0.3408437307210912 -0.1212858154318297 0 -0.32007374605487132 -0.12494213909402439 0 -0.33441303965894859 -0.1249452932850653 0 -0.33246816563449738 -0.1211806240550105 0 -0.3408437307210912 -0.1212858154318297 0 -0.33441303965894859 -0.1249452932850653 0 -0.33246816563449738 -0.1211806240550105 0 -0.33441303965894859 -0.1249452932850653 0 -0.33246816563449738 -0.1211806240550105 0 -0.34272140335036932 -0.124947120862287 0 -0.35433435295871402 -0.1214552484327875 0 -0.36893450279197471 -0.1249528869149899 0 -0.34272140335036932 -0.124947120862287 0 -0.36893450279197471 -0.1249528869149899 0 -0.3408437307210912 -0.1212858154318297 0 -0.35433435295871402 -0.1214552484327875 0 -0.3408437307210912 -0.1212858154318297 0 -0.35433435295871402 -0.1214552484327875 0 -0.34773438721257438 -0.1121772477149196 0 -0.34272140335036932 -0.124947120862287 0 -0.3408437307210912 -0.1212858154318297 0 -0.35433435295871402 -0.1214552484327875 0 -0.35433435295871402 -0.1214552484327875 0 -0.34773438721257438 -0.1121772477149196 0 -0.3623387343604032 -0.1125517513480446 0 -0.34773438721257438 -0.1121772477149196 0 -0.35038321981080389 -0.10179032851684799 0 -0.3623387343604032 -0.1125517513480446 0 -0.37380044498630338 -0.100392191664622 0 -0.3623387343604032 -0.1125517513480446 0 -0.3789649235099295 -0.11270856972454819 0 -0.35038321981080389 -0.10179032851684799 0 -0.37380044498630338 -0.100392191664622 0 -0.36747037526515469 -0.088210616938563927 0 -0.35038321981080389 -0.10179032851684799 0 -0.37380044498630338 -0.100392191664622 0 -0.3623387343604032 -0.1125517513480446 0 -0.3623387343604032 -0.1125517513480446 0 -0.36893450279197471 -0.1249528869149899 0 -0.3789649235099295 -0.11270856972454819 0 -0.35433435295871402 -0.1214552484327875 0 -0.3623387343604032 -0.1125517513480446 0 -0.36893450279197471 -0.1249528869149899 0 -0.34995192587724822 -0.070116192960804249 0 -0.35645509357982358 -0.081628608772215283 0 -0.36843110820579178 -0.075527255856609146 0 -0.34995192587724822 -0.070116192960804249 0 -0.36608399240098949 -0.063120758007335118 0 -0.35494834161021771 -0.06194377696909157 0 -0.34995192587724822 -0.070116192960804249 0 -0.36843110820579178 -0.075527255856609146 0 -0.34995192587724822 -0.070116192960804249 0 -0.36608399240098949 -0.063120758007335118 0 -0.34995192587724822 -0.070116192960804249 0 -0.34475717967991132 -0.068595070548471249 0 -0.35494834161021771 -0.06194377696909157 0 -0.34995192587724822 -0.070116192960804249 0 -0.34475717967991132 -0.068595070548471249 0 -0.34995192587724822 -0.070116192960804249 0 -0.34475717967991132 -0.068595070548471249 0 -0.3453529791357649 -0.07211045902320197 0 -0.34995192587724822 -0.070116192960804249 0 -0.3453529791357649 -0.07211045902320197 0 -0.34995192587724822 -0.070116192960804249 0 -0.3453529791357649 -0.07211045902320197 0 -0.35645509357982358 -0.081628608772215283 0 -0.34475717967991132 -0.068595070548471249 0 -0.3453529791357649 -0.07211045902320197 0 -0.35038321981080389 -0.10179032851684799 0 -0.35645509357982358 -0.081628608772215283 0 -0.36747037526515469 -0.088210616938563927 0 -0.35038321981080389 -0.10179032851684799 0 -0.3453529791357649 -0.07211045902320197 0 -0.35645509357982358 -0.081628608772215283 0 -0.33692687914299491 -0.089632102483736459 0 -0.35038321981080389 -0.10179032851684799 0 -0.3453529791357649 -0.07211045902320197 0 -0.35038321981080389 -0.10179032851684799 0 -0.3453529791357649 -0.07211045902320197 0 -0.36747037526515469 -0.088210616938563927 0 -0.36843110820579178 -0.075527255856609146 0 -0.38691029053433551 -0.080938318752413793 0 -0.35645509357982358 -0.081628608772215283 0 -0.36747037526515469 -0.088210616938563927 0 -0.36843110820579178 -0.075527255856609146 0 -0.34995192587724822 -0.070116192960804249 0 -0.36843110820579178 -0.075527255856609146 0 -0.36608399240098949 -0.063120758007335118 0 -0.36843110820579178 -0.075527255856609146 0 -0.36608399240098949 -0.063120758007335118 0 -0.37978412082390189 -0.068029865631836883 0 -0.36608399240098949 -0.063120758007335118 0 -0.37085155020467431 -0.050438611479832557 0 -0.38221605892473098 -0.056125323053866277 0 -0.36608399240098949 -0.063120758007335118 0 -0.38221605892473098 -0.056125323053866277 0 -0.37085155020467431 -0.050438611479832557 0 -0.36177701350261748 -0.054750595911384127 0 -0.36329546327126672 -0.041142767418341691 0 -0.36608399240098949 -0.063120758007335118 0 -0.36177701350261748 -0.054750595911384127 0 -0.35494834161021771 -0.06194377696909157 0 -0.36608399240098949 -0.063120758007335118 0 -0.37085155020467431 -0.050438611479832557 0 -0.36177701350261748 -0.054750595911384127 0 -0.36177701350261748 -0.054750595911384127 0 -0.35494834161021771 -0.06194377696909157 0 -0.35217159659032232 -0.05313626741746251 0 -0.34475717967991132 -0.068595070548471249 0 -0.35217159659032232 -0.05313626741746251 0 -0.34008173660725832 -0.04100860914713586 0 -0.36177701350261748 -0.054750595911384127 0 -0.35217159659032232 -0.05313626741746251 0 -0.36329546327126672 -0.041142767418341691 0 -0.34475717967991132 -0.068595070548471249 0 -0.35494834161021771 -0.06194377696909157 0 -0.35217159659032232 -0.05313626741746251 0 -0.35217159659032232 -0.05313626741746251 0 -0.35233090603521772 -0.034345905606361089 0 -0.36329546327126672 -0.041142767418341691 0 -0.35217159659032232 -0.05313626741746251 0 -0.35233090603521772 -0.034345905606361089 0 -0.34008173660725832 -0.04100860914713586 0 -0.35233090603521772 -0.034345905606361089 0 -0.34677261788783459 -0.022263095799622792 0 -0.34008173660725832 -0.04100860914713586 0 -0.35233090603521772 -0.034345905606361089 0 -0.36329546327126672 -0.041142767418341691 0 -0.36125368123050811 -0.029816691131076791 0 -0.36329546327126672 -0.041142767418341691 0 -0.37015544225173291 -0.03012439130571171 0 -0.36125368123050811 -0.029816691131076791 0 -0.37085155020467431 -0.050438611479832557 0 -0.36329546327126672 -0.041142767418341691 0 -0.37439980638912518 -0.038891661293645137 0 -0.36329546327126672 -0.041142767418341691 0 -0.37439980638912518 -0.038891661293645137 0 -0.37015544225173291 -0.03012439130571171 0 -0.37439980638912518 -0.038891661293645137 0 -0.37015544225173291 -0.03012439130571171 0 -0.37866743010551202 -0.02906954498465647 0 -0.37015544225173291 -0.03012439130571171 0 -0.37402384376206249 -0.023759624541515059 0 -0.37866743010551202 -0.02906954498465647 0 -0.37015544225173291 -0.03012439130571171 0 -0.37402384376206249 -0.023759624541515059 0 -0.36652472594663232 -0.022500501643346649 0 -0.37402384376206249 -0.023759624541515059 0 -0.37465439862472261 -0.016787835852634068 0 -0.36652472594663232 -0.022500501643346649 0 -0.37465439862472261 -0.016787835852634068 0 -0.36652472594663232 -0.022500501643346649 0 -0.3596530522362773 -0.017262546391789129 0 -0.36652472594663232 -0.022500501643346649 0 -0.3596530522362773 -0.017262546391789129 0 -0.35649867437881472 -0.022585523222405649 0 -0.36652472594663232 -0.022500501643346649 0 -0.36125368123050811 -0.029816691131076791 0 -0.35649867437881472 -0.022585523222405649 0 -0.37015544225173291 -0.03012439130571171 0 -0.36652472594663232 -0.022500501643346649 0 -0.36125368123050811 -0.029816691131076791 0 -0.37465439862472261 -0.016787835852634068 0 -0.3596530522362773 -0.017262546391789129 0 -0.34857824671955512 -0.007874197240844389 0 -0.37465439862472261 -0.016787835852634068 0 -0.3597652811465577 -0.0058215117475868012 0 -0.34857824671955512 -0.007874197240844389 0 -0.37465439862472261 -0.016787835852634068 0 -0.34857824671955512 -0.007874197240844389 0 -0.37126952376897032 -0.00085078512189483576 0 -0.36867541047690239 -0.006920070417115203 0 -0.36494834593608783 -0.001298186014321303 0 -0.37126952376897032 -0.00085078512189483576 0 -0.37464851222799189 -0.0076089195940836872 0 -0.37774077980655368 -0.001289555558904682 0 -0.37126952376897032 -0.00085078512189483576 0 -0.37464851222799189 -0.0076089195940836872 0 -0.36867541047690239 -0.006920070417115203 0 -0.37465439862472261 -0.016787835852634068 0 -0.36867541047690239 -0.006920070417115203 0 -0.3597652811465577 -0.0058215117475868012 0 -0.37465439862472261 -0.016787835852634068 0 -0.37464851222799189 -0.0076089195940836872 0 -0.36867541047690239 -0.006920070417115203 0 -0.36867541047690239 -0.006920070417115203 0 -0.3597652811465577 -0.0058215117475868012 0 -0.36494834593608783 -0.001298186014321303 0 -0.3597652811465577 -0.0058215117475868012 0 -0.36494834593608783 -0.001298186014321303 0 -0.35900139338342918 0.0020097317905480609 0 -0.3597652811465577 -0.0058215117475868012 0 -0.35221409618436439 -0.0049109655465913588 0 -0.34857824671955512 -0.007874197240844389 0 -0.3597652811465577 -0.0058215117475868012 0 -0.35509488683577939 -0.0004162838960613095 0 -0.35900139338342918 0.0020097317905480609 0 -0.3597652811465577 -0.0058215117475868012 0 -0.35509488683577939 -0.0004162838960613095 0 -0.35221409618436439 -0.0049109655465913588 0 -0.3596530522362773 -0.017262546391789129 0 -0.34857824671955512 -0.007874197240844389 0 -0.35200921551166209 -0.0165646739997149 0 -0.34857824671955512 -0.007874197240844389 0 -0.34618108527798752 -0.01472783018749277 0 -0.35200921551166209 -0.0165646739997149 0 -0.35233090603521772 -0.034345905606361089 0 -0.36125368123050811 -0.029816691131076791 0 -0.35649867437881472 -0.022585523222405649 0 -0.35233090603521772 -0.034345905606361089 0 -0.35649867437881472 -0.022585523222405649 0 -0.34677261788783459 -0.022263095799622792 0 -0.35649867437881472 -0.022585523222405649 0 -0.35200921551166209 -0.0165646739997149 0 -0.34677261788783459 -0.022263095799622792 0 -0.3596530522362773 -0.017262546391789129 0 -0.35649867437881472 -0.022585523222405649 0 -0.35200921551166209 -0.0165646739997149 0 -0.34618108527798752 -0.01472783018749277 0 -0.35200921551166209 -0.0165646739997149 0 -0.34677261788783459 -0.022263095799622792 0 -0.33540629353460438 -0.01342214774580049 0 -0.31718310516035308 -0.038172790333745737 0 -0.34008173660725832 -0.04100860914713586 0 -0.33540629353460438 -0.01342214774580049 0 -0.34008173660725832 -0.04100860914713586 0 -0.34677261788783459 -0.022263095799622792 0 -0.33540629353460438 -0.01342214774580049 0 -0.34008173660725832 -0.04100860914713586 0 -0.34618108527798752 -0.01472783018749277 0 -0.34677261788783459 -0.022263095799622792 0 -0.33540629353460438 -0.01342214774580049 0 -0.33540629353460438 -0.01342214774580049 0 -0.3204068892458079 -0.0014125807301150939 0 -0.33073085046195078 0.01416431365553468 0 -0.34857824671955512 -0.007874197240844389 0 -0.33540629353460438 -0.01342214774580049 0 -0.33073085046195078 0.01416431365553468 0 -0.34857824671955512 -0.007874197240844389 0 -0.34618108527798752 -0.01472783018749277 0 -0.33540629353460438 -0.01342214774580049 0 -0.3025805037907468 -0.0027432771802810229 0 -0.31459326366374579 -0.01532774276474733 0 -0.3204068892458079 -0.0014125807301150939 0 -0.33540629353460438 -0.01342214774580049 0 -0.31459326366374579 -0.01532774276474733 0 -0.3204068892458079 -0.0014125807301150939 0 -0.33540629353460438 -0.01342214774580049 0 -0.31459326366374579 -0.01532774276474733 0 -0.31718310516035308 -0.038172790333745737 0 -0.31718310516035308 -0.038172790333745737 0 -0.3268834079531176 -0.05023453433316457 0 -0.34008173660725832 -0.04100860914713586 0 -0.31718310516035308 -0.038172790333745737 0 -0.31370341578724742 -0.051143824177853653 0 -0.3268834079531176 -0.05023453433316457 0 -0.31370341578724742 -0.051143824177853653 0 -0.31629816603535338 -0.060261719535131632 0 -0.32352590008436471 -0.062378140209921912 0 -0.31629816603535338 -0.060261719535131632 0 -0.32352590008436471 -0.062378140209921912 0 -0.32352590008436471 -0.062378140209921912 0 -0.3268834079531176 -0.05023453433316457 0 -0.33381205608116321 -0.055554088559673351 0 -0.31370341578724742 -0.051143824177853653 0 -0.32352590008436471 -0.062378140209921912 0 -0.3268834079531176 -0.05023453433316457 0 -0.34475717967991132 -0.068595070548471249 0 -0.32352590008436471 -0.062378140209921912 0 -0.33381205608116321 -0.055554088559673351 0 -0.34475717967991132 -0.068595070548471249 0 -0.33381205608116321 -0.055554088559673351 0 -0.34008173660725832 -0.04100860914713586 0 -0.3268834079531176 -0.05023453433316457 0 -0.33381205608116321 -0.055554088559673351 0 -0.34008173660725832 -0.04100860914713586 0 -0.34475717967991132 -0.068595070548471249 0 -0.34008173660725832 -0.04100860914713586 0 -0.29131753467172561 -0.25675805269722002 0 -0.30769212114973271 -0.24578220261295139 0 -0.29241592956139478 -0.23974284613727589 0 -0.30769212114973271 -0.24578220261295139 0 -0.30829656048542242 -0.23127198481015249 0 -0.29241592956139478 -0.23974284613727589 0 -0.30829656048542242 -0.23127198481015249 0 -0.29279532374442052 -0.2217612167757172 0 -0.3129652712195421 -0.2114706657937139 0 -0.30829656048542242 -0.23127198481015249 0 -0.29279532374442052 -0.2217612167757172 0 -0.29241592956139478 -0.23974284613727589 0 -0.29279532374442052 -0.2217612167757172 0 -0.29241592956139478 -0.23974284613727589 0 -0.27798049023744681 -0.23352671123603991 0 -0.29279532374442052 -0.2217612167757172 0 -0.27798049023744681 -0.23352671123603991 0 -0.27449661508218531 -0.21747639879007349 0 -0.29131753467172561 -0.25675805269722002 0 -0.29241592956139478 -0.23974284613727589 0 -0.27722523139620658 -0.24922189107985179 0 -0.29241592956139478 -0.23974284613727589 0 -0.27722523139620658 -0.24922189107985179 0 -0.27798049023744681 -0.23352671123603991 0 -0.27722523139620658 -0.24922189107985179 0 -0.25992972331208369 -0.2410680052130979 0 -0.27798049023744681 -0.23352671123603991 0 -0.26398002587916253 -0.25656090854441049 0 -0.27722523139620658 -0.24922189107985179 0 -0.25992972331208369 -0.2410680052130979 0 -0.25992972331208369 -0.2410680052130979 0 -0.25674041691710447 -0.22108212323078871 0 -0.27798049023744681 -0.23352671123603991 0 -0.2377451423251814 -0.23136366228574551 0 -0.25992972331208369 -0.2410680052130979 0 -0.25674041691710447 -0.22108212323078871 0 -0.25674041691710447 -0.22108212323078871 0 -0.27798049023744681 -0.23352671123603991 0 -0.27449661508218531 -0.21747639879007349 0 -0.27449661508218531 -0.21747639879007349 0 -0.25644706280453389 -0.1995927939493197 0 -0.27817485521465529 -0.19463925610534399 0 -0.27449661508218531 -0.21747639879007349 0 -0.27817485521465529 -0.19463925610534399 0 -0.25674041691710447 -0.22108212323078871 0 -0.27449661508218531 -0.21747639879007349 0 -0.25644706280453389 -0.1995927939493197 0 -0.25644706280453389 -0.1995927939493197 0 -0.27817485521465529 -0.19463925610534399 0 -0.26629571781906192 -0.18034234132084431 0 -0.27817485521465529 -0.19463925610534399 0 -0.29367807880863189 -0.20345752952089671 0 -0.29386082525749962 -0.1848532680646672 0 -0.27449661508218531 -0.21747639879007349 0 -0.27817485521465529 -0.19463925610534399 0 -0.29367807880863189 -0.20345752952089671 0 -0.29279532374442052 -0.2217612167757172 0 -0.27449661508218531 -0.21747639879007349 0 -0.29367807880863189 -0.20345752952089671 0 -0.29279532374442052 -0.2217612167757172 0 -0.29367807880863189 -0.20345752952089671 0 -0.3129652712195421 -0.2114706657937139 0 -0.29367807880863189 -0.20345752952089671 0 -0.30717411826112789 -0.1920401195635244 0 -0.29386082525749962 -0.1848532680646672 0 -0.29367807880863189 -0.20345752952089671 0 -0.30717411826112789 -0.1920401195635244 0 -0.3129652712195421 -0.2114706657937139 0 -0.30551265723832022 -0.17938492804960809 0 -0.29677214667513702 -0.1677956617280158 0 -0.29386082525749962 -0.1848532680646672 0 -0.30717411826112789 -0.1920401195635244 0 -0.30551265723832022 -0.17938492804960809 0 -0.29386082525749962 -0.1848532680646672 0 -0.30717411826112789 -0.1920401195635244 0 -0.30551265723832022 -0.17938492804960809 0 -0.31489114071409963 -0.18333745750317351 0 -0.30551265723832022 -0.17938492804960809 0 -0.31220508881165993 -0.16846949012138551 0 -0.29677214667513702 -0.1677956617280158 0 -0.30551265723832022 -0.17938492804960809 0 -0.31220508881165993 -0.16846949012138551 0 -0.31489114071409963 -0.18333745750317351 0 -0.31220508881165993 -0.16846949012138551 0 -0.2949530938874384 -0.15245549241185349 0 -0.31498630483336881 -0.15987728715749039 0 -0.31220508881165993 -0.16846949012138551 0 -0.2949530938874384 -0.15245549241185349 0 -0.31220508881165993 -0.16846949012138551 0 -0.29677214667513702 -0.1677956617280158 0 -0.2949530938874384 -0.15245549241185349 0 -0.28185309534712533 -0.17180211342061449 0 -0.28553133547959519 -0.14896497073588499 0 -0.29677214667513702 -0.1677956617280158 0 -0.28185309534712533 -0.17180211342061449 0 -0.2949530938874384 -0.15245549241185349 0 -0.28185309534712533 -0.17180211342061449 0 -0.28553133547959519 -0.14896497073588499 0 -0.2949530938874384 -0.15245549241185349 0 -0.27817485521465529 -0.19463925610534399 0 -0.28185309534712533 -0.17180211342061449 0 -0.29386082525749962 -0.1848532680646672 0 -0.29677214667513702 -0.1677956617280158 0 -0.28185309534712533 -0.17180211342061449 0 -0.29386082525749962 -0.1848532680646672 0 -0.27817485521465529 -0.19463925610534399 0 -0.28185309534712533 -0.17180211342061449 0 -0.27817485521465529 -0.19463925610534399 0 -0.28185309534712533 -0.17180211342061449 0 -0.26629571781906192 -0.18034234132084431 0 -0.26629571781906192 -0.18034234132084431 0 -0.25029992488695979 -0.1782534950292988 0 -0.25761979100978533 -0.16665415002795461 0 -0.25644706280453389 -0.1995927939493197 0 -0.26629571781906192 -0.18034234132084431 0 -0.25029992488695979 -0.1782534950292988 0 -0.26629571781906192 -0.18034234132084431 0 -0.25761979100978533 -0.16665415002795461 0 -0.26933386928146391 -0.16300442301689841 0 -0.24825300788518309 -0.1555077779107997 0 -0.25761979100978533 -0.16665415002795461 0 -0.26108146703715113 -0.15708396540124031 0 -0.25761979100978533 -0.16665415002795461 0 -0.26108146703715113 -0.15708396540124031 0 -0.26933386928146391 -0.16300442301689841 0 -0.28185309534712533 -0.17180211342061449 0 -0.27598770130958522 -0.15333886838191951 0 -0.28553133547959519 -0.14896497073588499 0 -0.28185309534712533 -0.17180211342061449 0 -0.26629571781906192 -0.18034234132084431 0 -0.26933386928146391 -0.16300442301689841 0 -0.26108146703715113 -0.15708396540124031 0 -0.26933386928146391 -0.16300442301689841 0 -0.26726071412102442 -0.15087550168963329 0 -0.28185309534712533 -0.17180211342061449 0 -0.26933386928146391 -0.16300442301689841 0 -0.27598770130958522 -0.15333886838191951 0 -0.27598770130958522 -0.15333886838191951 0 -0.271177428866754 -0.14364721368904659 0 -0.28553133547959519 -0.14896497073588499 0 -0.271177428866754 -0.14364721368904659 0 -0.28662611268527088 -0.1421678116724244 0 -0.28553133547959519 -0.14896497073588499 0 -0.271177428866754 -0.14364721368904659 0 -0.28553133547959519 -0.14896497073588499 0 -0.271177428866754 -0.14364721368904659 0 -0.26726071412102442 -0.15087550168963329 0 -0.25891484533836889 -0.13910423861407881 0 -0.271177428866754 -0.14364721368904659 0 -0.26726071412102442 -0.15087550168963329 0 -0.27598770130958522 -0.15333886838191951 0 -0.271177428866754 -0.14364721368904659 0 -0.26726071412102442 -0.15087550168963329 0 -0.26933386928146391 -0.16300442301689841 0 -0.27598770130958522 -0.15333886838191951 0 -0.26726071412102442 -0.15087550168963329 0 -0.2405789555143194 -0.1375116727892334 0 -0.25601133851015478 -0.1487044986697981 0 -0.25891484533836889 -0.13910423861407881 0 -0.26108146703715113 -0.15708396540124031 0 -0.26726071412102442 -0.15087550168963329 0 -0.25601133851015478 -0.1487044986697981 0 -0.271177428866754 -0.14364721368904659 0 -0.25891484533836889 -0.13910423861407881 0 -0.26726071412102442 -0.15087550168963329 0 -0.25601133851015478 -0.1487044986697981 0 -0.25891484533836889 -0.13910423861407881 0 -0.24825300788518309 -0.1555077779107997 0 -0.26108146703715113 -0.15708396540124031 0 -0.25601133851015478 -0.1487044986697981 0 -0.26009747564537128 -0.1202716976192799 0 -0.25054446979338107 -0.12912519928877991 0 -0.26697405985724948 -0.1304210152969853 0 -0.25054446979338107 -0.12912519928877991 0 -0.25891484533836889 -0.13910423861407881 0 -0.26697405985724948 -0.1304210152969853 0 -0.2405789555143194 -0.1375116727892334 0 -0.25054446979338107 -0.12912519928877991 0 -0.25891484533836889 -0.13910423861407881 0 -0.28368315898475188 -0.1205679176925603 0 -0.271177428866754 -0.14364721368904659 0 -0.26697405985724948 -0.1304210152969853 0 -0.28368315898475188 -0.1205679176925603 0 -0.271177428866754 -0.14364721368904659 0 -0.28514813781506088 -0.1345929107172644 0 -0.28368315898475188 -0.1205679176925603 0 -0.271177428866754 -0.14364721368904659 0 -0.271177428866754 -0.14364721368904659 0 -0.25891484533836889 -0.13910423861407881 0 -0.26697405985724948 -0.1304210152969853 0 -0.271177428866754 -0.14364721368904659 0 -0.28514813781506088 -0.1345929107172644 0 -0.28662611268527088 -0.1421678116724244 0 -0.28368315898475188 -0.1205679176925603 0 -0.29492821592448881 -0.13453805291007029 0 -0.28514813781506088 -0.1345929107172644 0 -0.28368315898475188 -0.1205679176925603 0 -0.29492821592448881 -0.13453805291007029 0 -0.30140371581860798 -0.1292511186866305 0 -0.29492821592448881 -0.13453805291007029 0 -0.2912775948780732 -0.1389862943003273 0 -0.28514813781506088 -0.1345929107172644 0 -0.29657756063899582 -0.140013172184488 0 -0.29492821592448881 -0.13453805291007029 0 -0.2912775948780732 -0.1389862943003273 0 -0.2912775948780732 -0.1389862943003273 0 -0.28514813781506088 -0.1345929107172644 0 -0.28662611268527088 -0.1421678116724244 0 -0.28662611268527088 -0.1421678116724244 0 -0.28553133547959519 -0.14896497073588499 0 -0.28662611268527088 -0.1421678116724244 0 -0.28553133547959519 -0.14896497073588499 0 -0.28937009998544028 -0.14621975116982991 0 -0.28553133547959519 -0.14896497073588499 0 -0.2922536480049423 -0.1499497578362777 0 -0.28937009998544028 -0.14621975116982991 0 -0.28553133547959519 -0.14896497073588499 0 -0.2922536480049423 -0.1499497578362777 0 -0.2949530938874384 -0.15245549241185349 0 -0.28553133547959519 -0.14896497073588499 0 -0.2949530938874384 -0.15245549241185349 0 -0.2922536480049423 -0.1499497578362777 0 -0.2949530938874384 -0.15245549241185349 0 -0.29617843115691228 -0.14802272380236281 0 -0.2922536480049423 -0.1499497578362777 0 -0.2949530938874384 -0.15245549241185349 0 -0.2912775948780732 -0.1389862943003273 0 -0.28662611268527088 -0.1421678116724244 0 -0.29310794732654949 -0.1436195240173895 0 -0.28662611268527088 -0.1421678116724244 0 -0.28937009998544028 -0.14621975116982991 0 -0.29310794732654949 -0.1436195240173895 0 -0.2922536480049423 -0.1499497578362777 0 -0.28937009998544028 -0.14621975116982991 0 -0.29310794732654949 -0.1436195240173895 0 -0.29617843115691228 -0.14802272380236281 0 -0.29310794732654949 -0.1436195240173895 0 -0.29956135480037449 -0.14472193576336759 0 -0.2922536480049423 -0.1499497578362777 0 -0.29617843115691228 -0.14802272380236281 0 -0.29310794732654949 -0.1436195240173895 0 -0.29657756063899582 -0.140013172184488 0 -0.2912775948780732 -0.1389862943003273 0 -0.29310794732654949 -0.1436195240173895 0 -0.29657756063899582 -0.140013172184488 0 -0.29310794732654949 -0.1436195240173895 0 -0.29956135480037449 -0.14472193576336759 0 -0.29956135480037449 -0.14472193576336759 0 -0.30554397810907652 -0.146919348525368 0 -0.30456114821214081 -0.13888567554976469 0 -0.2949530938874384 -0.15245549241185349 0 -0.30620642865757891 -0.15285211384445899 0 -0.31498630483336881 -0.15987728715749039 0 -0.2949530938874384 -0.15245549241185349 0 -0.31498630483336881 -0.15987728715749039 0 -0.29657756063899582 -0.140013172184488 0 -0.29956135480037449 -0.14472193576336759 0 -0.30456114821214081 -0.13888567554976469 0 -0.29617843115691228 -0.14802272380236281 0 -0.29956135480037449 -0.14472193576336759 0 -0.30052761464898298 -0.14908162957255741 0 -0.29956135480037449 -0.14472193576336759 0 -0.30052761464898298 -0.14908162957255741 0 -0.30554397810907652 -0.146919348525368 0 -0.2949530938874384 -0.15245549241185349 0 -0.30052761464898298 -0.14908162957255741 0 -0.30620642865757891 -0.15285211384445899 0 -0.2949530938874384 -0.15245549241185349 0 -0.29617843115691228 -0.14802272380236281 0 -0.30052761464898298 -0.14908162957255741 0 -0.30052761464898298 -0.14908162957255741 0 -0.30620642865757891 -0.15285211384445899 0 -0.30554397810907652 -0.146919348525368 0 -0.30620642865757891 -0.15285211384445899 0 -0.31211863317072019 -0.1538765410016501 0 -0.31498630483336881 -0.15987728715749039 0 -0.30620642865757891 -0.15285211384445899 0 -0.31071230574427161 -0.15022116190891349 0 -0.30554397810907652 -0.146919348525368 0 -0.30620642865757891 -0.15285211384445899 0 -0.31071230574427161 -0.15022116190891349 0 -0.31211863317072019 -0.1538765410016501 0 -0.31246836027323899 -0.14497521722301901 0 -0.31246708178415561 -0.13872402753426441 0 -0.30456114821214081 -0.13888567554976469 0 -0.30554397810907652 -0.146919348525368 0 -0.31246836027323899 -0.14497521722301901 0 -0.30456114821214081 -0.13888567554976469 0 -0.31071230574427161 -0.15022116190891349 0 -0.30554397810907652 -0.146919348525368 0 -0.31246836027323899 -0.14497521722301901 0 -0.30140371581860798 -0.1292511186866305 0 -0.30456114821214081 -0.13888567554976469 0 -0.31280589771709483 -0.13181614145056869 0 -0.31246708178415561 -0.13872402753426441 0 -0.30456114821214081 -0.13888567554976469 0 -0.31280589771709483 -0.13181614145056869 0 -0.30807566230962469 -0.12087427087378499 0 -0.30140371581860798 -0.1292511186866305 0 -0.31280589771709483 -0.13181614145056869 0 -0.29657756063899582 -0.140013172184488 0 -0.29492821592448881 -0.13453805291007029 0 -0.30456114821214081 -0.13888567554976469 0 -0.29492821592448881 -0.13453805291007029 0 -0.30140371581860798 -0.1292511186866305 0 -0.30456114821214081 -0.13888567554976469 0 -0.3226930215385343 -0.13395567837890529 0 -0.31855308997834159 -0.13934265221991729 0 -0.32506280578504959 -0.14064102607364051 0 -0.3226930215385343 -0.13395567837890529 0 -0.32506280578504959 -0.14064102607364051 0 -0.33047387389575927 -0.1369340691945744 0 -0.3226930215385343 -0.13395567837890529 0 -0.32807010768985068 -0.12986880773923029 0 -0.33047387389575927 -0.1369340691945744 0 -0.32007374605487132 -0.12494213909402439 0 -0.33441303965894859 -0.1249452932850653 0 -0.32807010768985068 -0.12986880773923029 0 -0.32007374605487132 -0.12494213909402439 0 -0.3226930215385343 -0.13395567837890529 0 -0.32807010768985068 -0.12986880773923029 0 -0.32007374605487132 -0.12494213909402439 0 -0.3226930215385343 -0.13395567837890529 0 -0.31280589771709483 -0.13181614145056869 0 -0.30807566230962469 -0.12087427087378499 0 -0.32007374605487132 -0.12494213909402439 0 -0.31280589771709483 -0.13181614145056869 0 -0.3226930215385343 -0.13395567837890529 0 -0.31280589771709483 -0.13181614145056869 0 -0.31855308997834159 -0.13934265221991729 0 -0.31246708178415561 -0.13872402753426441 0 -0.31280589771709483 -0.13181614145056869 0 -0.31855308997834159 -0.13934265221991729 0 -0.31246836027323899 -0.14497521722301901 0 -0.31246708178415561 -0.13872402753426441 0 -0.31855308997834159 -0.13934265221991729 0 -0.31246836027323899 -0.14497521722301901 0 -0.31855308997834159 -0.13934265221991729 0 -0.32096396999162452 -0.14503749675666289 0 -0.31246836027323899 -0.14497521722301901 0 -0.31722412851074311 -0.15248258895007169 0 -0.32096396999162452 -0.14503749675666289 0 -0.31211863317072019 -0.1538765410016501 0 -0.31722412851074311 -0.15248258895007169 0 -0.31498630483336881 -0.15987728715749039 0 -0.31071230574427161 -0.15022116190891349 0 -0.31246836027323899 -0.14497521722301901 0 -0.31722412851074311 -0.15248258895007169 0 -0.31071230574427161 -0.15022116190891349 0 -0.31211863317072019 -0.1538765410016501 0 -0.31722412851074311 -0.15248258895007169 0 -0.32096396999162452 -0.14503749675666289 0 -0.32506280578504959 -0.14064102607364051 0 -0.33039285730051032 -0.1475567648151897 0 -0.31722412851074311 -0.15248258895007169 0 -0.32096396999162452 -0.14503749675666289 0 -0.33039285730051032 -0.1475567648151897 0 -0.31855308997834159 -0.13934265221991729 0 -0.32096396999162452 -0.14503749675666289 0 -0.32506280578504959 -0.14064102607364051 0 -0.33039285730051032 -0.1475567648151897 0 -0.33813688440009898 -0.15615522653291031 0 -0.34198145815712638 -0.1395953898376964 0 -0.32506280578504959 -0.14064102607364051 0 -0.33039285730051032 -0.1475567648151897 0 -0.33047387389575927 -0.1369340691945744 0 -0.31722412851074311 -0.15248258895007169 0 -0.33039285730051032 -0.1475567648151897 0 -0.33813688440009898 -0.15615522653291031 0 -0.33039285730051032 -0.1475567648151897 0 -0.34198145815712638 -0.1395953898376964 0 -0.33047387389575927 -0.1369340691945744 0 -0.33813688440009898 -0.15615522653291031 0 -0.34198145815712638 -0.1395953898376964 0 -0.34954987665533299 -0.15424548639031271 0 -0.34198145815712638 -0.1395953898376964 0 -0.3337346198504213 -0.1328358900141379 0 -0.33047387389575927 -0.1369340691945744 0 -0.32807010768985068 -0.12986880773923029 0 -0.3337346198504213 -0.1328358900141379 0 -0.33047387389575927 -0.1369340691945744 0 -0.33441303965894859 -0.1249452932850653 0 -0.32807010768985068 -0.12986880773923029 0 -0.3337346198504213 -0.1328358900141379 0 -0.33441303965894859 -0.1249452932850653 0 -0.34198145815712638 -0.1395953898376964 0 -0.34272140335036932 -0.124947120862287 0 -0.33441303965894859 -0.1249452932850653 0 -0.34198145815712638 -0.1395953898376964 0 -0.33441303965894859 -0.1249452932850653 0 -0.34198145815712638 -0.1395953898376964 0 -0.3337346198504213 -0.1328358900141379 0 -0.34272140335036932 -0.124947120862287 0 -0.35413341494744088 -0.14719959415449421 0 -0.34272140335036932 -0.124947120862287 0 -0.35599685079288468 -0.13305792836185981 0 -0.35413341494744088 -0.14719959415449421 0 -0.34272140335036932 -0.124947120862287 0 -0.34198145815712638 -0.1395953898376964 0 -0.35413341494744088 -0.14719959415449421 0 -0.34272140335036932 -0.124947120862287 0 -0.36893450279197471 -0.1249528869149899 0 -0.35599685079288468 -0.13305792836185981 0 -0.35599685079288468 -0.13305792836185981 0 -0.36484224068191412 -0.14157370685753851 0 -0.35413341494744088 -0.14719959415449421 0 -0.36893450279197471 -0.1249528869149899 0 -0.35599685079288468 -0.13305792836185981 0 -0.36484224068191412 -0.14157370685753851 0 -0.36893450279197471 -0.1249528869149899 0 -0.36484224068191412 -0.14157370685753851 0 -0.3777566452334315 -0.14913711856379011 0 -0.3679743334396014 -0.15408772885571331 0 -0.37696591512674532 -0.1609827341034305 0 -0.3777566452334315 -0.14913711856379011 0 -0.3679743334396014 -0.15408772885571331 0 -0.36484224068191412 -0.14157370685753851 0 -0.3777566452334315 -0.14913711856379011 0 -0.3679743334396014 -0.15408772885571331 0 -0.36484224068191412 -0.14157370685753851 0 -0.35413341494744088 -0.14719959415449421 0 -0.35413341494744088 -0.14719959415449421 0 -0.34954987665533299 -0.15424548639031271 0 -0.35445721343992059 -0.1619675590177023 0 -0.34198145815712638 -0.1395953898376964 0 -0.34954987665533299 -0.15424548639031271 0 -0.34198145815712638 -0.1395953898376964 0 -0.35413341494744088 -0.14719959415449421 0 -0.34954987665533299 -0.15424548639031271 0 -0.33813688440009898 -0.15615522653291031 0 -0.34954987665533299 -0.15424548639031271 0 -0.34648545334868369 -0.16311147615285329 0 -0.34648545334868369 -0.16311147615285329 0 -0.35788001493839611 -0.17576831496813999 0 -0.33501951577929873 -0.16729908190312789 0 -0.34954987665533299 -0.15424548639031271 0 -0.34648545334868369 -0.16311147615285329 0 -0.35445721343992059 -0.1619675590177023 0 -0.35413341494744088 -0.14719959415449421 0 -0.35445721343992059 -0.1619675590177023 0 -0.36554542654456429 -0.16945206744667471 0 -0.35788001493839611 -0.17576831496813999 0 -0.33501951577929873 -0.16729908190312789 0 -0.34648545334868369 -0.16311147615285329 0 -0.35445721343992059 -0.1619675590177023 0 -0.35788001493839611 -0.17576831496813999 0 -0.35445721343992059 -0.1619675590177023 0 -0.36554542654456429 -0.16945206744667471 0 -0.35788001493839611 -0.17576831496813999 0 -0.35413341494744088 -0.14719959415449421 0 -0.36554542654456429 -0.16945206744667471 0 -0.3679743334396014 -0.15408772885571331 0 -0.35413341494744088 -0.14719959415449421 0 -0.36554542654456429 -0.16945206744667471 0 -0.3679743334396014 -0.15408772885571331 0 -0.36554542654456429 -0.16945206744667471 0 -0.37696591512674532 -0.1609827341034305 0 -0.37016556171889331 -0.18126023377528719 0 -0.3536864721015115 -0.18284124587119119 0 -0.37235342842372432 -0.19838340983925429 0 -0.36554542654456429 -0.16945206744667471 0 -0.37016556171889331 -0.18126023377528719 0 -0.38426477739238413 -0.17192867897072969 0 -0.37016556171889331 -0.18126023377528719 0 -0.3536864721015115 -0.18284124587119119 0 -0.35788001493839611 -0.17576831496813999 0 -0.36554542654456429 -0.16945206744667471 0 -0.37016556171889331 -0.18126023377528719 0 -0.35788001493839611 -0.17576831496813999 0 -0.3536864721015115 -0.18284124587119119 0 -0.33501951577929873 -0.16729908190312789 0 -0.3536864721015115 -0.18284124587119119 0 -0.35788001493839611 -0.17576831496813999 0 -0.33501951577929873 -0.16729908190312789 0 -0.3536864721015115 -0.18284124587119119 0 -0.32945708373588178 -0.18448348783091689 0 -0.33501951577929873 -0.16729908190312789 0 -0.31722412851074311 -0.15248258895007169 0 -0.33813688440009898 -0.15615522653291031 0 -0.33501951577929873 -0.16729908190312789 0 -0.33813688440009898 -0.15615522653291031 0 -0.34648545334868369 -0.16311147615285329 0 -0.33501951577929873 -0.16729908190312789 0 -0.31722412851074311 -0.15248258895007169 0 -0.33501951577929873 -0.16729908190312789 0 -0.31722412851074311 -0.15248258895007169 0 -0.33501951577929873 -0.16729908190312789 0 -0.31498630483336881 -0.15987728715749039 0 -0.31220508881165993 -0.16846949012138551 0 -0.33501951577929873 -0.16729908190312789 0 -0.31498630483336881 -0.15987728715749039 0 -0.33501951577929873 -0.16729908190312789 0 -0.31498630483336881 -0.15987728715749039 0 -0.31220508881165993 -0.16846949012138551 0 -0.32945708373588178 -0.18448348783091689 0 -0.31489114071409963 -0.18333745750317351 0 -0.31220508881165993 -0.16846949012138551 0 -0.32945708373588178 -0.18448348783091689 0 -0.31220508881165993 -0.16846949012138551 0 -0.32945708373588178 -0.18448348783091689 0 -0.33501951577929873 -0.16729908190312789 0 -0.32945708373588178 -0.18448348783091689 0 -0.31489114071409963 -0.18333745750317351 0 -0.32010675552350842 -0.19230926195043291 0 -0.30717411826112789 -0.1920401195635244 0 -0.32010675552350842 -0.19230926195043291 0 -0.3129652712195421 -0.2114706657937139 0 -0.32945708373588178 -0.18448348783091689 0 -0.32010675552350842 -0.19230926195043291 0 -0.32566449460190838 -0.20326261146105551 0 -0.32010675552350842 -0.19230926195043291 0 -0.3129652712195421 -0.2114706657937139 0 -0.32566449460190838 -0.20326261146105551 0 -0.30717411826112789 -0.1920401195635244 0 -0.31489114071409963 -0.18333745750317351 0 -0.32010675552350842 -0.19230926195043291 0 -0.3129652712195421 -0.2114706657937139 0 -0.32566449460190838 -0.20326261146105551 0 -0.33208474862113468 -0.21873250337862821 0 -0.33208474862113468 -0.21873250337862821 0 -0.34670907866010381 -0.20049748554044841 0 -0.34896881396179619 -0.22434135344573131 0 -0.32566449460190838 -0.20326261146105551 0 -0.33208474862113468 -0.21873250337862821 0 -0.34670907866010381 -0.20049748554044841 0 -0.3536864721015115 -0.18284124587119119 0 -0.32945708373588178 -0.18448348783091689 0 -0.34670907866010381 -0.20049748554044841 0 -0.32945708373588178 -0.18448348783091689 0 -0.32566449460190838 -0.20326261146105551 0 -0.34670907866010381 -0.20049748554044841 0 -0.32945708373588178 -0.18448348783091689 0 -0.34670907866010381 -0.20049748554044841 0 -0.3536864721015115 -0.18284124587119119 0 -0.35917751319241631 -0.19955840612521841 0 -0.34670907866010381 -0.20049748554044841 0 -0.3536864721015115 -0.18284124587119119 0 -0.37235342842372432 -0.19838340983925429 0 -0.3536864721015115 -0.18284124587119119 0 -0.35917751319241631 -0.19955840612521841 0 -0.37235342842372432 -0.19838340983925429 0 -0.37235342842372432 -0.19838340983925429 0 -0.36396107358432572 -0.21651148324997979 0 -0.37772562505684643 -0.22219038377974651 0 -0.35917751319241631 -0.19955840612521841 0 -0.37235342842372432 -0.19838340983925429 0 -0.36396107358432572 -0.21651148324997979 0 -0.34670907866010381 -0.20049748554044841 0 -0.36396107358432572 -0.21651148324997979 0 -0.34896881396179619 -0.22434135344573131 0 -0.34670907866010381 -0.20049748554044841 0 -0.36396107358432572 -0.21651148324997979 0 -0.35917751319241631 -0.19955840612521841 0 -0.34670907866010381 -0.20049748554044841 0 -0.36396107358432572 -0.21651148324997979 0 -0.34896881396179619 -0.22434135344573131 0 -0.36764811873304098 -0.23322730847002751 0 -0.35305879752332059 -0.24486073726717009 0 -0.36396107358432572 -0.21651148324997979 0 -0.36764811873304098 -0.23322730847002751 0 -0.37772562505684643 -0.22219038377974651 0 -0.36396107358432572 -0.21651148324997979 0 -0.34896881396179619 -0.22434135344573131 0 -0.36764811873304098 -0.23322730847002751 0 -0.37533687834285862 -0.25417213976024849 0 -0.36764811873304098 -0.23322730847002751 0 -0.35305879752332059 -0.24486073726717009 0 -0.34896881396179619 -0.22434135344573131 0 -0.35305879752332059 -0.24486073726717009 0 -0.33568364413539042 -0.23615154195274179 0 -0.33623326073948312 -0.25365348176558788 0 -0.33568364413539042 -0.23615154195274179 0 -0.32213598881581812 -0.2442700999577708 0 -0.33623326073948312 -0.25365348176558788 0 -0.35305879752332059 -0.24486073726717009 0 -0.33568364413539042 -0.23615154195274179 0 -0.33208474862113468 -0.21873250337862821 0 -0.33568364413539042 -0.23615154195274179 0 -0.32219037366776621 -0.22897372759534659 0 -0.33208474862113468 -0.21873250337862821 0 -0.34896881396179619 -0.22434135344573131 0 -0.33568364413539042 -0.23615154195274179 0 -0.30829656048542242 -0.23127198481015249 0 -0.3129652712195421 -0.2114706657937139 0 -0.32219037366776621 -0.22897372759534659 0 -0.3129652712195421 -0.2114706657937139 0 -0.33208474862113468 -0.21873250337862821 0 -0.32219037366776621 -0.22897372759534659 0 -0.30769212114973271 -0.24578220261295139 0 -0.30829656048542242 -0.23127198481015249 0 -0.32213598881581812 -0.2442700999577708 0 -0.30829656048542242 -0.23127198481015249 0 -0.32219037366776621 -0.22897372759534659 0 -0.32213598881581812 -0.2442700999577708 0 -0.31968345090478489 -0.25798973640781447 0 -0.30769212114973271 -0.24578220261295139 0 -0.32213598881581812 -0.2442700999577708 0 -0.33568364413539042 -0.23615154195274179 0 -0.32219037366776621 -0.22897372759534659 0 -0.32213598881581812 -0.2442700999577708 0 -0.43598079583492633 -0.24721882136819351 0 -0.42311134176242837 -0.2304528026464861 0 -0.41615383063077721 -0.2466412503256647 0 -0.43598079583492633 -0.24721882136819351 0 -0.42311134176242837 -0.2304528026464861 0 -0.43908324849522451 -0.2287046610080686 0 -0.42311134176242837 -0.2304528026464861 0 -0.41411505562058892 -0.2091502018577929 0 -0.42948217154750851 -0.21815887616964899 0 -0.42311134176242837 -0.2304528026464861 0 -0.42948217154750851 -0.21815887616964899 0 -0.43908324849522451 -0.2287046610080686 0 -0.42948217154750851 -0.21815887616964899 0 -0.43955036875351089 -0.21658504913102711 0 -0.43908324849522451 -0.2287046610080686 0 -0.40619246279161347 -0.2313797712556602 0 -0.41411505562058892 -0.2091502018577929 0 -0.42311134176242837 -0.2304528026464861 0 -0.40619246279161347 -0.2313797712556602 0 -0.41411505562058892 -0.2091502018577929 0 -0.39826986996263802 -0.25360934065352753 0 -0.41615383063077721 -0.2466412503256647 0 -0.40619246279161347 -0.2313797712556602 0 -0.42311134176242837 -0.2304528026464861 0 -0.41615383063077721 -0.2466412503256647 0 -0.40619246279161347 -0.2313797712556602 0 -0.39826986996263802 -0.25360934065352753 0 -0.38632210934187061 -0.2364082567837591 0 -0.40619246279161347 -0.2313797712556602 0 -0.39826986996263802 -0.25360934065352753 0 -0.40619246279161347 -0.2313797712556602 0 -0.37533687834285862 -0.25417213976024849 0 -0.36764811873304098 -0.23322730847002751 0 -0.38632210934187061 -0.2364082567837591 0 -0.37533687834285862 -0.25417213976024849 0 -0.39826986996263802 -0.25360934065352753 0 -0.38632210934187061 -0.2364082567837591 0 -0.36764811873304098 -0.23322730847002751 0 -0.38632210934187061 -0.2364082567837591 0 -0.37772562505684643 -0.22219038377974651 0 -0.38632210934187061 -0.2364082567837591 0 -0.37772562505684643 -0.22219038377974651 0 -0.39102038474593709 -0.2139255738073175 0 -0.38632210934187061 -0.2364082567837591 0 -0.40619246279161347 -0.2313797712556602 0 -0.39102038474593709 -0.2139255738073175 0 -0.39102038474593709 -0.2139255738073175 0 -0.40351751052996843 -0.1957217498792192 0 -0.41411505562058892 -0.2091502018577929 0 -0.40619246279161347 -0.2313797712556602 0 -0.39102038474593709 -0.2139255738073175 0 -0.41411505562058892 -0.2091502018577929 0 -0.37235342842372432 -0.19838340983925429 0 -0.39102038474593709 -0.2139255738073175 0 -0.37235342842372432 -0.19838340983925429 0 -0.37772562505684643 -0.22219038377974651 0 -0.39102038474593709 -0.2139255738073175 0 -0.37016556171889331 -0.18126023377528719 0 -0.37235342842372432 -0.19838340983925429 0 -0.38726325091278008 -0.18918768555573329 0 -0.37235342842372432 -0.19838340983925429 0 -0.39102038474593709 -0.2139255738073175 0 -0.38726325091278008 -0.18918768555573329 0 -0.38726325091278008 -0.18918768555573329 0 -0.40351751052996843 -0.1957217498792192 0 -0.40315121292097328 -0.17942465571532731 0 -0.39102038474593709 -0.2139255738073175 0 -0.38726325091278008 -0.18918768555573329 0 -0.40351751052996843 -0.1957217498792192 0 -0.41411505562058892 -0.2091502018577929 0 -0.42203764844956237 -0.18692063245992491 0 -0.40351751052996843 -0.1957217498792192 0 -0.41411505562058892 -0.2091502018577929 0 -0.42203764844956237 -0.18692063245992491 0 -0.41411505562058892 -0.2091502018577929 0 -0.42948217154750851 -0.21815887616964899 0 -0.43155084310578928 -0.2059016662048701 0 -0.42948217154750851 -0.21815887616964899 0 -0.43155084310578928 -0.2059016662048701 0 -0.43955036875351089 -0.21658504913102711 0 -0.42203764844956237 -0.18692063245992491 0 -0.44484374680150301 -0.19597231310248839 0 -0.41411505562058892 -0.2091502018577929 0 -0.43155084310578928 -0.2059016662048701 0 -0.42203764844956237 -0.18692063245992491 0 -0.43155084310578928 -0.2059016662048701 0 -0.42203764844956237 -0.18692063245992491 0 -0.44484374680150301 -0.19597231310248839 0 -0.42203764844956237 -0.18692063245992491 0 -0.44134853753678083 -0.18159229851429221 0 -0.44484374680150301 -0.19597231310248839 0 -0.42203764844956237 -0.18692063245992491 0 -0.42880774722037651 -0.1679247830322266 0 -0.42203764844956237 -0.18692063245992491 0 -0.42880774722037651 -0.1679247830322266 0 -0.44134853753678083 -0.18159229851429221 0 -0.42880774722037651 -0.1679247830322266 0 -0.43557784599118871 -0.14892893360452769 0 -0.44631139980808621 -0.1631836851414229 0 -0.42880774722037651 -0.1679247830322266 0 -0.43557784599118871 -0.14892893360452769 0 -0.42880774722037651 -0.1679247830322266 0 -0.41236960909879722 -0.16540507401591409 0 -0.42079860369606048 -0.15043713941075901 0 -0.42203764844956237 -0.18692063245992491 0 -0.42880774722037651 -0.1679247830322266 0 -0.41236960909879722 -0.16540507401591409 0 -0.40351751052996843 -0.1957217498792192 0 -0.42203764844956237 -0.18692063245992491 0 -0.40315121292097328 -0.17942465571532731 0 -0.42203764844956237 -0.18692063245992491 0 -0.40315121292097328 -0.17942465571532731 0 -0.42203764844956237 -0.18692063245992491 0 -0.41236960909879722 -0.16540507401591409 0 -0.40315121292097328 -0.17942465571532731 0 -0.38726325091278008 -0.18918768555573329 0 -0.40315121292097328 -0.17942465571532731 0 -0.38426477739238413 -0.17192867897072969 0 -0.40315121292097328 -0.17942465571532731 0 -0.38426477739238413 -0.17192867897072969 0 -0.37016556171889331 -0.18126023377528719 0 -0.38726325091278008 -0.18918768555573329 0 -0.38426477739238413 -0.17192867897072969 0 -0.36554542654456429 -0.16945206744667471 0 -0.38426477739238413 -0.17192867897072969 0 -0.37696591512674532 -0.1609827341034305 0 -0.38426477739238413 -0.17192867897072969 0 -0.37696591512674532 -0.1609827341034305 0 -0.39230106084837368 -0.15838844905994759 0 -0.40315121292097328 -0.17942465571532731 0 -0.38426477739238413 -0.17192867897072969 0 -0.39230106084837368 -0.15838844905994759 0 -0.41236960909879722 -0.16540507401591409 0 -0.39230106084837368 -0.15838844905994759 0 -0.40587711449475489 -0.1449624873806776 0 -0.41236960909879722 -0.16540507401591409 0 -0.40315121292097328 -0.17942465571532731 0 -0.39230106084837368 -0.15838844905994759 0 -0.39230106084837368 -0.15838844905994759 0 -0.39162863389564362 -0.14105630786861159 0 -0.40587711449475489 -0.1449624873806776 0 -0.39230106084837368 -0.15838844905994759 0 -0.39162863389564362 -0.14105630786861159 0 -0.3777566452334315 -0.14913711856379011 0 -0.37696591512674532 -0.1609827341034305 0 -0.39230106084837368 -0.15838844905994759 0 -0.3777566452334315 -0.14913711856379011 0 -0.36893450279197471 -0.1249528869149899 0 -0.39162863389564362 -0.14105630786861159 0 -0.3777566452334315 -0.14913711856379011 0 -0.36893450279197471 -0.1249528869149899 0 -0.39162863389564362 -0.14105630786861159 0 -0.39514760223357998 -0.1249586529677193 0 -0.39162863389564362 -0.14105630786861159 0 -0.40587711449475489 -0.1449624873806776 0 -0.39514760223357998 -0.1249586529677193 0 -0.40587711449475489 -0.1449624873806776 0 -0.39514760223357998 -0.1249586529677193 0 -0.42136070167518519 -0.1249644190204488 0 -0.40587711449475489 -0.1449624873806776 0 -0.42079860369606048 -0.15043713941075901 0 -0.42136070167518519 -0.1249644190204488 0 -0.41236960909879722 -0.16540507401591409 0 -0.40587711449475489 -0.1449624873806776 0 -0.42079860369606048 -0.15043713941075901 0 -0.42079860369606048 -0.15043713941075901 0 -0.43557784599118871 -0.14892893360452769 0 -0.42136070167518519 -0.1249644190204488 0 -0.42880774722037651 -0.1679247830322266 0 -0.42079860369606048 -0.15043713941075901 0 -0.43557784599118871 -0.14892893360452769 0 -0.43557784599118871 -0.14892893360452769 0 -0.42136070167518519 -0.1249644190204488 0 -0.44757380111679052 -0.12497018507317829 0 -0.43557784599118871 -0.14892893360452769 0 -0.45596445488588 -0.14427568033770541 0 -0.44757380111679052 -0.12497018507317829 0 -0.43557784599118871 -0.14892893360452769 0 -0.45596445488588 -0.14427568033770541 0 -0.44631139980808621 -0.1631836851414229 0 -0.45596445488588 -0.14427568033770541 0 -0.46278066629215481 -0.1610158872753634 0 -0.44631139980808621 -0.1631836851414229 0 -0.45596445488588 -0.14427568033770541 0 -0.47930750267908417 -0.1480635854121114 0 -0.46278066629215481 -0.1610158872753634 0 -0.45596445488588 -0.14427568033770541 0 -0.44757380111679052 -0.12497018507317829 0 -0.47378690055839578 -0.1249759511259078 0 -0.48827360080937021 -0.13531742911399189 0 -0.47930750267908417 -0.1480635854121114 0 -0.47378690055839578 -0.1249759511259078 0 -0.45596445488588 -0.14427568033770541 0 -0.47930750267908417 -0.1480635854121114 0 -0.47378690055839578 -0.1249759511259078 0 -0.48827360080937021 -0.13531742911399189 0 -0.5 -0.14324846273931111 0 -0.50000000000000111 -0.12498171717863731 0 -0.48827360080937021 -0.13531742911399189 0 -0.47378690055839578 -0.1249759511259078 0 -0.50000000000000111 -0.12498171717863731 0 -0.5 -0.14324846273931111 0 -0.47930750267908417 -0.1480635854121114 0 -0.49999999999999961 -0.161515208299985 0 -0.48827360080937021 -0.13531742911399189 0 -0.5 -0.14324846273931111 0 -0.47930750267908417 -0.1480635854121114 0 -0.47930750267908417 -0.1480635854121114 0 -0.47738728335761421 -0.1682509267597351 0 -0.46278066629215481 -0.1610158872753634 0 -0.47738728335761421 -0.1682509267597351 0 -0.49999999999999961 -0.161515208299985 0 -0.48839409620634278 -0.18039624849769001 0 -0.49999999999999961 -0.161515208299985 0 -0.48839409620634278 -0.18039624849769001 0 -0.47930750267908417 -0.1480635854121114 0 -0.47738728335761421 -0.1682509267597351 0 -0.49999999999999961 -0.161515208299985 0 -0.49999999999999961 -0.161515208299985 0 -0.5 -0.18618779176616679 0 -0.48839409620634278 -0.18039624849769001 0 -0.5 -0.18618779176616679 0 -0.48839409620634278 -0.18039624849769001 0 -0.48957789370491162 -0.19386933705848941 0 -0.47738728335761421 -0.1682509267597351 0 -0.48839409620634278 -0.18039624849769001 0 -0.47328693949397721 -0.18411760774338479 0 -0.47738728335761421 -0.1682509267597351 0 -0.47328693949397721 -0.18411760774338479 0 -0.45860677246597031 -0.17520894370368309 0 -0.47328693949397721 -0.18411760774338479 0 -0.45860677246597031 -0.17520894370368309 0 -0.45906836497473352 -0.19043479360484361 0 -0.47738728335761421 -0.1682509267597351 0 -0.45860677246597031 -0.17520894370368309 0 -0.46278066629215481 -0.1610158872753634 0 -0.45860677246597031 -0.17520894370368309 0 -0.46278066629215481 -0.1610158872753634 0 -0.44631139980808621 -0.1631836851414229 0 -0.42880774722037651 -0.1679247830322266 0 -0.44631139980808621 -0.1631836851414229 0 -0.44134853753678083 -0.18159229851429221 0 -0.45860677246597031 -0.17520894370368309 0 -0.44631139980808621 -0.1631836851414229 0 -0.44134853753678083 -0.18159229851429221 0 -0.45860677246597031 -0.17520894370368309 0 -0.44134853753678083 -0.18159229851429221 0 -0.45906836497473352 -0.19043479360484361 0 -0.44134853753678083 -0.18159229851429221 0 -0.45906836497473352 -0.19043479360484361 0 -0.44134853753678083 -0.18159229851429221 0 -0.44484374680150301 -0.19597231310248839 0 -0.45906836497473352 -0.19043479360484361 0 -0.43155084310578928 -0.2059016662048701 0 -0.44484374680150301 -0.19597231310248839 0 -0.44343463088850471 -0.20721188330797369 0 -0.43155084310578928 -0.2059016662048701 0 -0.44343463088850471 -0.20721188330797369 0 -0.43955036875351089 -0.21658504913102711 0 -0.44343463088850471 -0.20721188330797369 0 -0.43955036875351089 -0.21658504913102711 0 -0.44966782191270221 -0.21345696714665749 0 -0.44966782191270221 -0.21345696714665749 0 -0.45691127413918359 -0.218140336649912 0 -0.44903912237987481 -0.22310222333220869 0 -0.43955036875351089 -0.21658504913102711 0 -0.44966782191270221 -0.21345696714665749 0 -0.44903912237987481 -0.22310222333220869 0 -0.44484374680150301 -0.19597231310248839 0 -0.44343463088850471 -0.20721188330797369 0 -0.45285363365211462 -0.2065344908709397 0 -0.44343463088850471 -0.20721188330797369 0 -0.44966782191270221 -0.21345696714665749 0 -0.45285363365211462 -0.2065344908709397 0 -0.45285363365211462 -0.2065344908709397 0 -0.4586721235044201 -0.2110072970525271 0 -0.46764984515344349 -0.20502399374505181 0 -0.44966782191270221 -0.21345696714665749 0 -0.45285363365211462 -0.2065344908709397 0 -0.4586721235044201 -0.2110072970525271 0 -0.44966782191270221 -0.21345696714665749 0 -0.4586721235044201 -0.2110072970525271 0 -0.45691127413918359 -0.218140336649912 0 -0.4586721235044201 -0.2110072970525271 0 -0.45691127413918359 -0.218140336649912 0 -0.46757130244775341 -0.21427176676618889 0 -0.4586721235044201 -0.2110072970525271 0 -0.46757130244775341 -0.21427176676618889 0 -0.46764984515344349 -0.20502399374505181 0 -0.44484374680150301 -0.19597231310248839 0 -0.46764984515344349 -0.20502399374505181 0 -0.45906836497473352 -0.19043479360484361 0 -0.44484374680150301 -0.19597231310248839 0 -0.45285363365211462 -0.2065344908709397 0 -0.46764984515344349 -0.20502399374505181 0 -0.45906836497473352 -0.19043479360484361 0 -0.47678819241268611 -0.1992772886953951 0 -0.44484374680150301 -0.19597231310248839 0 -0.46764984515344349 -0.20502399374505181 0 -0.46764984515344349 -0.20502399374505181 0 -0.45906836497473352 -0.19043479360484361 0 -0.47678819241268611 -0.1992772886953951 0 -0.47328693949397721 -0.18411760774338479 0 -0.45906836497473352 -0.19043479360484361 0 -0.47678819241268611 -0.1992772886953951 0 -0.48839409620634278 -0.18039624849769001 0 -0.47328693949397721 -0.18411760774338479 0 -0.47678819241268611 -0.1992772886953951 0 -0.48839409620634278 -0.18039624849769001 0 -0.47678819241268611 -0.1992772886953951 0 -0.47678819241268611 -0.1992772886953951 0 -0.48957789370491162 -0.19386933705848941 0 -0.50000000000000222 -0.21086037523234849 0 -0.48839409620634278 -0.18039624849769001 0 -0.47678819241268611 -0.1992772886953951 0 -0.48957789370491162 -0.19386933705848941 0 -0.5 -0.18618779176616679 0 -0.48957789370491162 -0.19386933705848941 0 -0.50000000000000222 -0.21086037523234849 0 -0.50000000000000222 -0.21086037523234849 0 -0.48101414991814051 -0.21220490785157131 0 -0.4775447229854059 -0.22535576830415929 0 -0.47678819241268611 -0.1992772886953951 0 -0.50000000000000222 -0.21086037523234849 0 -0.47678819241268611 -0.1992772886953951 0 -0.50000000000000222 -0.21086037523234849 0 -0.48101414991814051 -0.21220490785157131 0 -0.46757130244775341 -0.21427176676618889 0 -0.47678819241268611 -0.1992772886953951 0 -0.48101414991814051 -0.21220490785157131 0 -0.46757130244775341 -0.21427176676618889 0 -0.47678819241268611 -0.1992772886953951 0 -0.46757130244775341 -0.21427176676618889 0 -0.46764984515344349 -0.20502399374505181 0 -0.47678819241268611 -0.1992772886953951 0 -0.46757130244775341 -0.21427176676618889 0 -0.48101414991814051 -0.21220490785157131 0 -0.4775447229854059 -0.22535576830415929 0 -0.46757130244775341 -0.21427176676618889 0 -0.4775447229854059 -0.22535576830415929 0 -0.46571952953094348 -0.22577651025912229 0 -0.4775447229854059 -0.22535576830415929 0 -0.4726071657750785 -0.240360200228666 0 -0.45676275941016609 -0.23628729483617639 0 -0.50000000000000222 -0.21086037523234849 0 -0.4775447229854059 -0.22535576830415929 0 -0.48548116721245049 -0.23774912910784329 0 -0.50000000000000222 -0.21086037523234849 0 -0.5 -0.2401545466321974 0 -0.48548116721245049 -0.23774912910784329 0 -0.48050148842732221 -0.25523221810557922 0 -0.5 -0.2401545466321974 0 -0.48548116721245049 -0.23774912910784329 0 -0.48050148842732221 -0.25523221810557922 0 -0.4726071657750785 -0.240360200228666 0 -0.46267023581878858 -0.24817136713935201 0 -0.48050148842732221 -0.25523221810557922 0 -0.48548116721245049 -0.23774912910784329 0 -0.4726071657750785 -0.240360200228666 0 -0.4775447229854059 -0.22535576830415929 0 -0.48548116721245049 -0.23774912910784329 0 -0.4726071657750785 -0.240360200228666 0 -0.4726071657750785 -0.240360200228666 0 -0.46267023581878858 -0.24817136713935201 0 -0.45676275941016609 -0.23628729483617639 0 -0.46267023581878858 -0.24817136713935201 0 -0.45676275941016609 -0.23628729483617639 0 -0.45139902778349827 -0.24711062934306771 0 -0.4775447229854059 -0.22535576830415929 0 -0.45676275941016609 -0.23628729483617639 0 -0.46571952953094348 -0.22577651025912229 0 -0.4775447229854059 -0.22535576830415929 0 -0.45676275941016609 -0.23628729483617639 0 -0.46757130244775341 -0.21427176676618889 0 -0.45835441248282049 -0.22926624483698249 0 -0.45691127413918359 -0.218140336649912 0 -0.46757130244775341 -0.21427176676618889 0 -0.45835441248282049 -0.22926624483698249 0 -0.46757130244775341 -0.21427176676618889 0 -0.46571952953094348 -0.22577651025912229 0 -0.45835441248282049 -0.22926624483698249 0 -0.45691127413918359 -0.218140336649912 0 -0.45835441248282049 -0.22926624483698249 0 -0.44903912237987481 -0.22310222333220869 0 -0.45676275941016609 -0.23628729483617639 0 -0.46571952953094348 -0.22577651025912229 0 -0.45835441248282049 -0.22926624483698249 0 -0.45676275941016609 -0.23628729483617639 0 -0.45835441248282049 -0.22926624483698249 0 -0.44784406772060242 -0.23291584907632601 0 -0.45835441248282049 -0.22926624483698249 0 -0.44784406772060242 -0.23291584907632601 0 -0.44903912237987481 -0.22310222333220869 0 -0.44784406772060242 -0.23291584907632601 0 -0.44903912237987481 -0.22310222333220869 0 -0.43908324849522451 -0.2287046610080686 0 -0.43955036875351089 -0.21658504913102711 0 -0.44903912237987481 -0.22310222333220869 0 -0.43908324849522451 -0.2287046610080686 0 -0.43598079583492633 -0.24721882136819351 0 -0.44784406772060242 -0.23291584907632601 0 -0.43908324849522451 -0.2287046610080686 0 -0.43598079583492633 -0.24721882136819351 0 -0.45676275941016609 -0.23628729483617639 0 -0.45139902778349827 -0.24711062934306771 0 -0.43598079583492633 -0.24721882136819351 0 -0.45676275941016609 -0.23628729483617639 0 -0.44784406772060242 -0.23291584907632601 0 -0.43598079583492633 -0.24721882136819351 0 -0.45676275941016609 -0.23628729483617639 0 -0.41513049604948221 -0.033942569896895612 0 -0.42680670243505803 -0.034615113076212713 0 -0.40073055052989021 -0.025701474464423758 0 -0.41513049604948221 -0.033942569896895612 0 -0.42462943043776058 -0.041038039404546971 0 -0.40237332615973681 -0.030676944162886681 0 -0.42462943043776058 -0.041038039404546971 0 -0.40237332615973681 -0.030676944162886681 0 -0.41105872637709778 -0.041104419315527559 0 -0.42462943043776058 -0.041038039404546971 0 -0.40237332615973681 -0.030676944162886681 0 -0.41795689190558921 -0.046390941043723911 0 -0.41105872637709778 -0.041104419315527559 0 -0.42462943043776058 -0.041038039404546971 0 -0.41513049604948221 -0.033942569896895612 0 -0.42462943043776058 -0.041038039404546971 0 -0.4243569293735685 -0.037306081984415762 0 -0.41105872637709778 -0.041104419315527559 0 -0.4050251302254127 -0.045922345921936697 0 -0.40306291723554027 -0.039039715031688543 0 -0.41795689190558921 -0.046390941043723911 0 -0.41105872637709778 -0.041104419315527559 0 -0.41174405323292163 -0.047949206462353358 0 -0.41105872637709778 -0.041104419315527559 0 -0.41174405323292163 -0.047949206462353358 0 -0.4050251302254127 -0.045922345921936697 0 -0.41174405323292163 -0.047949206462353358 0 -0.4050251302254127 -0.045922345921936697 0 -0.40603099279739802 -0.054788986838451827 0 -0.41174405323292163 -0.047949206462353358 0 -0.4187470457232762 -0.053937065845881961 0 -0.40603099279739802 -0.054788986838451827 0 -0.4187470457232762 -0.053937065845881961 0 -0.40603099279739802 -0.054788986838451827 0 -0.41284572228237681 -0.064006668923108523 0 -0.4187470457232762 -0.053937065845881961 0 -0.41284572228237681 -0.064006668923108523 0 -0.42746868386642678 -0.066478460468227696 0 -0.41795689190558921 -0.046390941043723911 0 -0.41174405323292163 -0.047949206462353358 0 -0.4187470457232762 -0.053937065845881961 0 -0.41795689190558921 -0.046390941043723911 0 -0.4187470457232762 -0.053937065845881961 0 -0.42320145590089769 -0.048540393412862697 0 -0.42320145590089769 -0.048540393412862697 0 -0.43147245553696489 -0.05279552735729795 0 -0.42462943043776058 -0.041038039404546971 0 -0.4187470457232762 -0.053937065845881961 0 -0.42320145590089769 -0.048540393412862697 0 -0.43147245553696489 -0.05279552735729795 0 -0.43147245553696489 -0.05279552735729795 0 -0.42462943043776058 -0.041038039404546971 0 -0.44688553471578463 -0.051399134646207288 0 -0.4187470457232762 -0.053937065845881961 0 -0.43147245553696489 -0.05279552735729795 0 -0.42746868386642678 -0.066478460468227696 0 -0.43147245553696489 -0.05279552735729795 0 -0.42746868386642678 -0.066478460468227696 0 -0.43950717444435422 -0.063784996514660589 0 -0.42818951741271921 -0.038310772776573528 0 -0.43628267576141971 -0.035329403205585218 0 -0.44688553471578463 -0.051399134646207288 0 -0.42462943043776058 -0.041038039404546971 0 -0.42818951741271921 -0.038310772776573528 0 -0.44688553471578463 -0.051399134646207288 0 -0.42462943043776058 -0.041038039404546971 0 -0.44688553471578463 -0.051399134646207288 0 -0.41795689190558921 -0.046390941043723911 0 -0.42320145590089769 -0.048540393412862697 0 -0.42462943043776058 -0.041038039404546971 0 -0.41513049604948221 -0.033942569896895612 0 -0.4243569293735685 -0.037306081984415762 0 -0.42680670243505803 -0.034615113076212713 0 -0.42462943043776058 -0.041038039404546971 0 -0.4243569293735685 -0.037306081984415762 0 -0.42818951741271921 -0.038310772776573528 0 -0.42818951741271921 -0.038310772776573528 0 -0.42680670243505803 -0.034615113076212713 0 -0.4243569293735685 -0.037306081984415762 0 -0.42818951741271921 -0.038310772776573528 0 -0.42680670243505803 -0.034615113076212713 0 -0.42818951741271921 -0.038310772776573528 0 -0.42680670243505803 -0.034615113076212713 0 -0.42995577540377822 -0.032900560567165532 0 -0.42818951741271921 -0.038310772776573528 0 -0.42995577540377822 -0.032900560567165532 0 -0.43628267576141971 -0.035329403205585218 0 -0.42995577540377822 -0.032900560567165532 0 -0.43628267576141971 -0.035329403205585218 0 -0.4327931004709421 -0.029092843067932112 0 -0.42680670243505803 -0.034615113076212713 0 -0.4285090787839364 -0.025262373234060161 0 -0.41794895562780338 -0.01094222954485795 0 -0.42680670243505803 -0.034615113076212713 0 -0.41794895562780338 -0.01094222954485795 0 -0.43628267576141971 -0.035329403205585218 0 -0.4327931004709421 -0.029092843067932112 0 -0.43710875721387199 -0.026668229939385779 0 -0.42995577540377822 -0.032900560567165532 0 -0.4327931004709421 -0.029092843067932112 0 -0.4285090787839364 -0.025262373234060161 0 -0.43210921519170409 -0.025303648393463829 0 -0.43710875721387199 -0.026668229939385779 0 -0.43108579893039811 -0.01948839847471974 0 -0.4327931004709421 -0.029092843067932112 0 -0.43210921519170409 -0.025303648393463829 0 -0.4285090787839364 -0.025262373234060161 0 -0.4327931004709421 -0.029092843067932112 0 -0.43210921519170409 -0.025303648393463829 0 -0.43710875721387199 -0.026668229939385779 0 -0.43108579893039811 -0.01948839847471974 0 -0.43397544616601241 -0.014244232554068349 0 -0.43928417642389239 -0.017661557407765791 0 -0.43710875721387199 -0.026668229939385779 0 -0.43108579893039811 -0.01948839847471974 0 -0.43928417642389239 -0.017661557407765791 0 -0.43210921519170409 -0.025303648393463829 0 -0.43108579893039811 -0.01948839847471974 0 -0.4285090787839364 -0.025262373234060161 0 -0.43108579893039811 -0.01948839847471974 0 -0.4285090787839364 -0.025262373234060161 0 -0.41794895562780338 -0.01094222954485795 0 -0.42680670243505803 -0.034615113076212713 0 -0.42995577540377822 -0.032900560567165532 0 -0.4285090787839364 -0.025262373234060161 0 -0.43591977417237449 -0.008065469867085449 0 -0.42907061680018699 -0.010664914002041091 0 -0.42583279771702431 0.00046528033667210148 0 -0.43108579893039811 -0.01948839847471974 0 -0.43397544616601241 -0.014244232554068349 0 -0.42907061680018699 -0.010664914002041091 0 -0.43591977417237449 -0.008065469867085449 0 -0.43397544616601241 -0.014244232554068349 0 -0.43928417642389239 -0.017661557407765791 0 -0.43591977417237449 -0.008065469867085449 0 -0.43397544616601241 -0.014244232554068349 0 -0.42907061680018699 -0.010664914002041091 0 -0.43108579893039811 -0.01948839847471974 0 -0.42907061680018699 -0.010664914002041091 0 -0.41794895562780338 -0.01094222954485795 0 -0.42907061680018699 -0.010664914002041091 0 -0.41794895562780338 -0.01094222954485795 0 -0.42583279771702431 0.00046528033667210148 0 -0.41794895562780338 -0.01094222954485795 0 -0.4102220184461346 -0.019351118920435541 0 -0.40021295305484711 -0.013852611056198059 0 -0.41794895562780338 -0.01094222954485795 0 -0.40352261506359649 -0.001038070178381474 0 -0.40021295305484711 -0.013852611056198059 0 -0.42680670243505803 -0.034615113076212713 0 -0.41794895562780338 -0.01094222954485795 0 -0.4102220184461346 -0.019351118920435541 0 -0.42680670243505803 -0.034615113076212713 0 -0.4102220184461346 -0.019351118920435541 0 -0.40073055052989021 -0.025701474464423758 0 -0.42680670243505803 -0.034615113076212713 0 -0.40073055052989021 -0.025701474464423758 0 -0.41513049604948221 -0.033942569896895612 0 -0.40073055052989021 -0.025701474464423758 0 -0.40237332615973681 -0.030676944162886681 0 -0.40073055052989021 -0.025701474464423758 0 -0.40237332615973681 -0.030676944162886681 0 -0.38011722188171299 -0.020315848921226409 0 -0.40237332615973681 -0.030676944162886681 0 -0.38011722188171299 -0.020315848921226409 0 -0.4102220184461346 -0.019351118920435541 0 -0.40073055052989021 -0.025701474464423758 0 -0.40021295305484711 -0.013852611056198059 0 -0.40073055052989021 -0.025701474464423758 0 -0.40021295305484711 -0.013852611056198059 0 -0.38745402304870558 -0.01483805838738575 0 -0.40352261506359649 -0.001038070178381474 0 -0.40021295305484711 -0.013852611056198059 0 -0.39408165103759368 -0.0019794594859314238 0 -0.40021295305484711 -0.013852611056198059 0 -0.39408165103759368 -0.0019794594859314238 0 -0.39005949432245718 -0.0085411321607220259 0 -0.40021295305484711 -0.013852611056198059 0 -0.39005949432245718 -0.0085411321607220259 0 -0.38745402304870558 -0.01483805838738575 0 -0.39408165103759368 -0.0019794594859314238 0 -0.3848191179490616 -0.0027051675553946518 0 -0.39005949432245718 -0.0085411321607220259 0 -0.3848191179490616 -0.0027051675553946518 0 -0.38372972652207787 -0.0093303643187002475 0 -0.39005949432245718 -0.0085411321607220259 0 -0.38372972652207787 -0.0093303643187002475 0 -0.38745402304870558 -0.01483805838738575 0 -0.3791207175096093 -0.01135650732177081 0 -0.38372972652207787 -0.0093303643187002475 0 -0.39005949432245718 -0.0085411321607220259 0 -0.38745402304870558 -0.01483805838738575 0 -0.37465439862472261 -0.016787835852634068 0 -0.37464851222799189 -0.0076089195940836872 0 -0.3791207175096093 -0.01135650732177081 0 -0.37465439862472261 -0.016787835852634068 0 -0.38745402304870558 -0.01483805838738575 0 -0.3791207175096093 -0.01135650732177081 0 -0.37464851222799189 -0.0076089195940836872 0 -0.3791207175096093 -0.01135650732177081 0 -0.37960876280762101 -0.0064231604720931881 0 -0.38372972652207787 -0.0093303643187002475 0 -0.3791207175096093 -0.01135650732177081 0 -0.37960876280762101 -0.0064231604720931881 0 -0.3848191179490616 -0.0027051675553946518 0 -0.38372972652207787 -0.0093303643187002475 0 -0.37960876280762101 -0.0064231604720931881 0 -0.37464851222799189 -0.0076089195940836872 0 -0.37960876280762101 -0.0064231604720931881 0 -0.37774077980655368 -0.001289555558904682 0 -0.3848191179490616 -0.0027051675553946518 0 -0.37960876280762101 -0.0064231604720931881 0 -0.37774077980655368 -0.001289555558904682 0 -0.37465439862472261 -0.016787835852634068 0 -0.40073055052989021 -0.025701474464423758 0 -0.38745402304870558 -0.01483805838738575 0 -0.40237332615973681 -0.030676944162886681 0 -0.38781453024876661 -0.02996800237218563 0 -0.38011722188171299 -0.020315848921226409 0 -0.37465439862472261 -0.016787835852634068 0 -0.40073055052989021 -0.025701474464423758 0 -0.38011722188171299 -0.020315848921226409 0 -0.37465439862472261 -0.016787835852634068 0 -0.40073055052989021 -0.025701474464423758 0 -0.37402384376206249 -0.023759624541515059 0 -0.37465439862472261 -0.016787835852634068 0 -0.38011722188171299 -0.020315848921226409 0 -0.37402384376206249 -0.023759624541515059 0 -0.38011722188171299 -0.020315848921226409 0 -0.37866743010551202 -0.02906954498465647 0 -0.38781453024876661 -0.02996800237218563 0 -0.38011722188171299 -0.020315848921226409 0 -0.37866743010551202 -0.02906954498465647 0 -0.37439980638912518 -0.038891661293645137 0 -0.37866743010551202 -0.02906954498465647 0 -0.38394575501216083 -0.036535335565972972 0 -0.37439980638912518 -0.038891661293645137 0 -0.37993408630244868 -0.045501240077299353 0 -0.38394575501216083 -0.036535335565972972 0 -0.37085155020467431 -0.050438611479832557 0 -0.37439980638912518 -0.038891661293645137 0 -0.37993408630244868 -0.045501240077299353 0 -0.37993408630244868 -0.045501240077299353 0 -0.38895054345211377 -0.045335196083553769 0 -0.38394575501216083 -0.036535335565972972 0 -0.38895054345211377 -0.045335196083553769 0 -0.38394575501216083 -0.036535335565972972 0 -0.39396365166307989 -0.03445798481758762 0 -0.38781453024876661 -0.02996800237218563 0 -0.38394575501216083 -0.036535335565972972 0 -0.39396365166307989 -0.03445798481758762 0 -0.38781453024876661 -0.02996800237218563 0 -0.37866743010551202 -0.02906954498465647 0 -0.38394575501216083 -0.036535335565972972 0 -0.40237332615973681 -0.030676944162886681 0 -0.38781453024876661 -0.02996800237218563 0 -0.39396365166307989 -0.03445798481758762 0 -0.39396365166307989 -0.03445798481758762 0 -0.39750411751227832 -0.042292212187568533 0 -0.39928834571923882 -0.035924112998793431 0 -0.38895054345211377 -0.045335196083553769 0 -0.39396365166307989 -0.03445798481758762 0 -0.39750411751227832 -0.042292212187568533 0 -0.39750411751227832 -0.042292212187568533 0 -0.4050251302254127 -0.045922345921936697 0 -0.40306291723554027 -0.039039715031688543 0 -0.39750411751227832 -0.042292212187568533 0 -0.40306291723554027 -0.039039715031688543 0 -0.39928834571923882 -0.035924112998793431 0 -0.40237332615973681 -0.030676944162886681 0 -0.39396365166307989 -0.03445798481758762 0 -0.39928834571923882 -0.035924112998793431 0 -0.41105872637709778 -0.041104419315527559 0 -0.40237332615973681 -0.030676944162886681 0 -0.40306291723554027 -0.039039715031688543 0 -0.40237332615973681 -0.030676944162886681 0 -0.40306291723554027 -0.039039715031688543 0 -0.39928834571923882 -0.035924112998793431 0 -0.40603099279739802 -0.054788986838451827 0 -0.39527915405366182 -0.064437672488960096 0 -0.41284572228237681 -0.064006668923108523 0 -0.40603099279739802 -0.054788986838451827 0 -0.39443592701229091 -0.053019652188425637 0 -0.39527915405366182 -0.064437672488960096 0 -0.4050251302254127 -0.045922345921936697 0 -0.40603099279739802 -0.054788986838451827 0 -0.39443592701229091 -0.053019652188425637 0 -0.39750411751227832 -0.042292212187568533 0 -0.4050251302254127 -0.045922345921936697 0 -0.39443592701229091 -0.053019652188425637 0 -0.38895054345211377 -0.045335196083553769 0 -0.39750411751227832 -0.042292212187568533 0 -0.39443592701229091 -0.053019652188425637 0 -0.39443592701229091 -0.053019652188425637 0 -0.38221605892473098 -0.056125323053866277 0 -0.39527915405366182 -0.064437672488960096 0 -0.36608399240098949 -0.063120758007335118 0 -0.38221605892473098 -0.056125323053866277 0 -0.37978412082390189 -0.068029865631836883 0 -0.38895054345211377 -0.045335196083553769 0 -0.39443592701229091 -0.053019652188425637 0 -0.38221605892473098 -0.056125323053866277 0 -0.37993408630244868 -0.045501240077299353 0 -0.38895054345211377 -0.045335196083553769 0 -0.38221605892473098 -0.056125323053866277 0 -0.37085155020467431 -0.050438611479832557 0 -0.37993408630244868 -0.045501240077299353 0 -0.38221605892473098 -0.056125323053866277 0 -0.36843110820579178 -0.075527255856609146 0 -0.37978412082390189 -0.068029865631836883 0 -0.38691029053433551 -0.080938318752413793 0 -0.37978412082390189 -0.068029865631836883 0 -0.38691029053433551 -0.080938318752413793 0 -0.39527915405366182 -0.064437672488960096 0 -0.38221605892473098 -0.056125323053866277 0 -0.37978412082390189 -0.068029865631836883 0 -0.39527915405366182 -0.064437672488960096 0 -0.37380044498630338 -0.100392191664622 0 -0.36747037526515469 -0.088210616938563927 0 -0.38691029053433551 -0.080938318752413793 0 -0.36843110820579178 -0.075527255856609146 0 -0.38691029053433551 -0.080938318752413793 0 -0.40007542381043809 -0.086939242353532731 0 -0.39460333317738627 -0.1006873657273652 0 -0.41352047356827321 -0.0909948847898496 0 -0.38691029053433551 -0.080938318752413793 0 -0.40007542381043809 -0.086939242353532731 0 -0.40767355229219521 -0.074626636544090755 0 -0.38691029053433551 -0.080938318752413793 0 -0.40007542381043809 -0.086939242353532731 0 -0.39460333317738627 -0.1006873657273652 0 -0.38691029053433551 -0.080938318752413793 0 -0.39527915405366182 -0.064437672488960096 0 -0.40767355229219521 -0.074626636544090755 0 -0.39527915405366182 -0.064437672488960096 0 -0.41284572228237681 -0.064006668923108523 0 -0.40767355229219521 -0.074626636544090755 0 -0.36893450279197471 -0.1249528869149899 0 -0.3789649235099295 -0.11270856972454819 0 -0.39514760223357998 -0.1249586529677193 0 -0.36893450279197471 -0.1249528869149899 0 -0.39514760223357998 -0.1249586529677193 0 -0.3789649235099295 -0.11270856972454819 0 -0.39460333317738627 -0.1006873657273652 0 -0.39514760223357998 -0.1249586529677193 0 -0.37380044498630338 -0.100392191664622 0 -0.38691029053433551 -0.080938318752413793 0 -0.39460333317738627 -0.1006873657273652 0 -0.37380044498630338 -0.100392191664622 0 -0.3789649235099295 -0.11270856972454819 0 -0.39460333317738627 -0.1006873657273652 0 -0.39460333317738627 -0.1006873657273652 0 -0.39514760223357998 -0.1249586529677193 0 -0.4114708495464785 -0.1093321351213095 0 -0.42136070167518519 -0.1249644190204488 0 -0.4114708495464785 -0.1093321351213095 0 -0.43272213707796769 -0.1050553531011644 0 -0.39514760223357998 -0.1249586529677193 0 -0.42136070167518519 -0.1249644190204488 0 -0.39514760223357998 -0.1249586529677193 0 -0.42136070167518519 -0.1249644190204488 0 -0.4114708495464785 -0.1093321351213095 0 -0.39460333317738627 -0.1006873657273652 0 -0.4114708495464785 -0.1093321351213095 0 -0.41352047356827321 -0.0909948847898496 0 -0.4114708495464785 -0.1093321351213095 0 -0.43272213707796769 -0.1050553531011644 0 -0.41352047356827321 -0.0909948847898496 0 -0.42136070167518519 -0.1249644190204488 0 -0.43272213707796769 -0.1050553531011644 0 -0.44757380111679052 -0.12497018507317829 0 -0.42136070167518519 -0.1249644190204488 0 -0.44757380111679052 -0.12497018507317829 0 -0.42023793718526542 -0.076451056482049876 0 -0.41284572228237681 -0.064006668923108523 0 -0.42746868386642678 -0.066478460468227696 0 -0.42023793718526542 -0.076451056482049876 0 -0.41284572228237681 -0.064006668923108523 0 -0.40767355229219521 -0.074626636544090755 0 -0.42023793718526542 -0.076451056482049876 0 -0.40767355229219521 -0.074626636544090755 0 -0.41352047356827321 -0.0909948847898496 0 -0.40007542381043809 -0.086939242353532731 0 -0.40767355229219521 -0.074626636544090755 0 -0.41352047356827321 -0.0909948847898496 0 -0.42023793718526542 -0.076451056482049876 0 -0.41352047356827321 -0.0909948847898496 0 -0.43051036701793649 -0.083964229305721505 0 -0.43272213707796769 -0.1050553531011644 0 -0.41352047356827321 -0.0909948847898496 0 -0.43051036701793649 -0.083964229305721505 0 -0.43272213707796769 -0.1050553531011644 0 -0.43051036701793649 -0.083964229305721505 0 -0.44869793539396702 -0.090613631575090198 0 -0.43051036701793649 -0.083964229305721505 0 -0.42746868386642678 -0.066478460468227696 0 -0.43938561630945938 -0.075374003134316428 0 -0.42023793718526542 -0.076451056482049876 0 -0.43051036701793649 -0.083964229305721505 0 -0.42746868386642678 -0.066478460468227696 0 -0.42746868386642678 -0.066478460468227696 0 -0.43950717444435422 -0.063784996514660589 0 -0.43938561630945938 -0.075374003134316428 0 -0.43950717444435422 -0.063784996514660589 0 -0.45074392082461212 -0.072028697807882153 0 -0.43938561630945938 -0.075374003134316428 0 -0.43051036701793649 -0.083964229305721505 0 -0.43938561630945938 -0.075374003134316428 0 -0.44869793539396702 -0.090613631575090198 0 -0.45074392082461212 -0.072028697807882153 0 -0.43938561630945938 -0.075374003134316428 0 -0.44869793539396702 -0.090613631575090198 0 -0.45074392082461212 -0.072028697807882153 0 -0.44869793539396702 -0.090613631575090198 0 -0.4647336852437608 -0.080388630180202481 0 -0.44869793539396702 -0.090613631575090198 0 -0.4647336852437608 -0.080388630180202481 0 -0.47380622041468068 -0.096022360055862885 0 -0.4647336852437608 -0.080388630180202481 0 -0.46264955769922828 -0.069236149835977229 0 -0.47254815090776853 -0.069469283055039688 0 -0.45074392082461212 -0.072028697807882153 0 -0.46264955769922828 -0.069236149835977229 0 -0.44688553471578463 -0.051399134646207288 0 -0.46264955769922828 -0.069236149835977229 0 -0.47254815090776853 -0.069469283055039688 0 -0.46914163899380801 -0.061760229887868598 0 -0.45074392082461212 -0.072028697807882153 0 -0.4647336852437608 -0.080388630180202481 0 -0.46264955769922828 -0.069236149835977229 0 -0.43272213707796769 -0.1050553531011644 0 -0.44757380111679052 -0.12497018507317829 0 -0.46022938895027038 -0.10869066194517669 0 -0.43272213707796769 -0.1050553531011644 0 -0.44869793539396702 -0.090613631575090198 0 -0.46022938895027038 -0.10869066194517669 0 -0.44869793539396702 -0.090613631575090198 0 -0.46022938895027038 -0.10869066194517669 0 -0.47380622041468068 -0.096022360055862885 0 -0.44757380111679052 -0.12497018507317829 0 -0.47378690055839578 -0.1249759511259078 0 -0.44757380111679052 -0.12497018507317829 0 -0.46022938895027038 -0.10869066194517669 0 -0.47378690055839578 -0.1249759511259078 0 -0.46022938895027038 -0.10869066194517669 0 -0.47378690055839578 -0.1249759511259078 0 -0.48374478807960558 -0.1092121363906397 0 -0.46022938895027038 -0.10869066194517669 0 -0.48374478807960558 -0.1092121363906397 0 -0.47380622041468068 -0.096022360055862885 0 -0.48374478807960558 -0.1092121363906397 0 -0.47380622041468068 -0.096022360055862885 0 -0.48832582805197727 -0.092109142267116931 0 -0.48374478807960558 -0.1092121363906397 0 -0.5 -0.10055386622176241 0 -0.48832582805197727 -0.092109142267116931 0 -0.47378690055839578 -0.1249759511259078 0 -0.48374478807960558 -0.1092121363906397 0 -0.50000000000000111 -0.12498171717863731 0 -0.48374478807960558 -0.1092121363906397 0 -0.5 -0.10055386622176241 0 -0.50000000000000111 -0.12498171717863731 0 -0.47378690055839578 -0.1249759511259078 0 -0.50000000000000111 -0.12498171717863731 0 -0.47254815090776853 -0.069469283055039688 0 -0.47913967023945842 -0.082463322467565006 0 -0.48457081949690362 -0.068943122576377761 0 -0.47913967023945842 -0.082463322467565006 0 -0.48808502354595151 -0.080031310268457945 0 -0.48457081949690362 -0.068943122576377761 0 -0.48457081949690362 -0.068943122576377761 0 -0.46914163899380801 -0.061760229887868598 0 -0.48457081949690362 -0.068943122576377761 0 -0.48230491698392047 -0.057318093012348498 0 -0.46914163899380801 -0.061760229887868598 0 -0.47254815090776853 -0.069469283055039688 0 -0.48457081949690362 -0.068943122576377761 0 -0.46914163899380801 -0.061760229887868598 0 -0.47254815090776853 -0.069469283055039688 0 -0.46914163899380801 -0.061760229887868598 0 -0.4647336852437608 -0.080388630180202481 0 -0.47254815090776853 -0.069469283055039688 0 -0.47913967023945842 -0.082463322467565006 0 -0.4647336852437608 -0.080388630180202481 0 -0.47380622041468068 -0.096022360055862885 0 -0.47913967023945842 -0.082463322467565006 0 -0.47380622041468068 -0.096022360055862885 0 -0.47913967023945842 -0.082463322467565006 0 -0.48832582805197727 -0.092109142267116931 0 -0.5 -0.10055386622176241 0 -0.48832582805197727 -0.092109142267116931 0 -0.499999999999999 -0.07612601526488752 0 -0.48808502354595151 -0.080031310268457945 0 -0.48832582805197727 -0.092109142267116931 0 -0.499999999999999 -0.07612601526488752 0 -0.47913967023945842 -0.082463322467565006 0 -0.48808502354595151 -0.080031310268457945 0 -0.48832582805197727 -0.092109142267116931 0 -0.499999999999999 -0.07612601526488752 0 -0.48457081949690362 -0.068943122576377761 0 -0.499999999999999 -0.07612601526488752 0 -0.48457081949690362 -0.068943122576377761 0 -0.5 -0.055081012739928707 0 -0.48808502354595151 -0.080031310268457945 0 -0.499999999999999 -0.07612601526488752 0 -0.48457081949690362 -0.068943122576377761 0 -0.48457081949690362 -0.068943122576377761 0 -0.5 -0.055081012739928707 0 -0.48230491698392047 -0.057318093012348498 0 -0.5 -0.055081012739928707 0 -0.48157039955536241 -0.044558511477442143 0 -0.48230491698392047 -0.057318093012348498 0 -0.5 -0.055081012739928707 0 -0.500000000000004 -0.034036010214970061 0 -0.48157039955536241 -0.044558511477442143 0 -0.500000000000004 -0.034036010214970061 0 -0.48157039955536241 -0.044558511477442143 0 -0.48148290990478199 -0.029591545163434652 0 -0.48157039955536241 -0.044558511477442143 0 -0.45768975774058179 -0.035844230274481748 0 -0.48148290990478199 -0.029591545163434652 0 -0.48157039955536241 -0.044558511477442143 0 -0.46914163899380801 -0.061760229887868598 0 -0.45768975774058179 -0.035844230274481748 0 -0.48157039955536241 -0.044558511477442143 0 -0.48230491698392047 -0.057318093012348498 0 -0.46914163899380801 -0.061760229887868598 0 -0.46914163899380801 -0.061760229887868598 0 -0.45768975774058179 -0.035844230274481748 0 -0.44688553471578463 -0.051399134646207288 0 -0.46914163899380801 -0.061760229887868598 0 -0.45768975774058179 -0.035844230274481748 0 -0.46264955769922828 -0.069236149835977229 0 -0.46914163899380801 -0.061760229887868598 0 -0.44688553471578463 -0.051399134646207288 0 -0.46914163899380801 -0.061760229887868598 0 -0.44688553471578463 -0.051399134646207288 0 -0.43628267576141971 -0.035329403205585218 0 -0.44354830351403418 -0.034418653902415733 0 -0.44688553471578463 -0.051399134646207288 0 -0.45768975774058179 -0.035844230274481748 0 -0.44354830351403418 -0.034418653902415733 0 -0.44688553471578463 -0.051399134646207288 0 -0.45768975774058179 -0.035844230274481748 0 -0.44354830351403418 -0.034418653902415733 0 -0.44312252706978628 -0.024928407146411868 0 -0.43628267576141971 -0.035329403205585218 0 -0.43710875721387199 -0.026668229939385779 0 -0.44354830351403418 -0.034418653902415733 0 -0.43950717444435422 -0.063784996514660589 0 -0.45074392082461212 -0.072028697807882153 0 -0.44688553471578463 -0.051399134646207288 0 -0.43147245553696489 -0.05279552735729795 0 -0.43950717444435422 -0.063784996514660589 0 -0.44688553471578463 -0.051399134646207288 0 -0.43591977417237449 -0.008065469867085449 0 -0.44623787648735791 -0.0099282306610938807 0 -0.43740981058492812 0.01004998492246997 0 -0.43591977417237449 -0.008065469867085449 0 -0.44623787648735791 -0.0099282306610938807 0 -0.43928417642389239 -0.017661557407765791 0 -0.43591977417237449 -0.008065469867085449 0 -0.44623787648735791 -0.0099282306610938807 0 -0.43710875721387199 -0.026668229939385779 0 -0.43928417642389239 -0.017661557407765791 0 -0.44312252706978628 -0.024928407146411868 0 -0.45768975774058179 -0.035844230274481748 0 -0.44623787648735791 -0.0099282306610938807 0 -0.44312252706978628 -0.024928407146411868 0 -0.45768975774058179 -0.035844230274481748 0 -0.44623787648735791 -0.0099282306610938807 0 -0.44623787648735791 -0.0099282306610938807 0 -0.43928417642389239 -0.017661557407765791 0 -0.44312252706978628 -0.024928407146411868 0 -0.43710875721387199 -0.026668229939385779 0 -0.44354830351403418 -0.034418653902415733 0 -0.44312252706978628 -0.024928407146411868 0 -0.45768975774058179 -0.035844230274481748 0 -0.44623787648735791 -0.0099282306610938807 0 -0.47146408957177099 -0.01448240150379307 0 -0.44623787648735791 -0.0099282306610938807 0 -0.47146408957177099 -0.01448240150379307 0 -0.44623787648735791 -0.0099282306610938807 0 -0.47146408957177099 -0.01448240150379307 0 -0.46048772545436639 0.0043098071123656434 0 -0.47146408957177099 -0.01448240150379307 0 -0.47882554305316488 -0.0018417715126103191 0 -0.46048772545436639 0.0043098071123656434 0 -0.47146408957177099 -0.01448240150379307 0 -0.47882554305316488 -0.0018417715126103191 0 -0.49669030265618502 -0.01903657234648758 0 -0.47146408957177099 -0.01448240150379307 0 -0.49669030265618502 -0.01903657234648758 0 -0.47146408957177099 -0.01448240150379307 0 -0.48148290990478199 -0.029591545163434652 0 -0.49669030265618502 -0.01903657234648758 0 -0.45768975774058179 -0.035844230274481748 0 -0.47146408957177099 -0.01448240150379307 0 -0.48148290990478199 -0.029591545163434652 0 -0.500000000000004 -0.034036010214970061 0 -0.48148290990478199 -0.029591545163434652 0 -0.49669030265618502 -0.01903657234648758 0 -0.49669030265618502 -0.01903657234648758 0 -0.50000000000000056 -0.019634082844440681 0 -0.500000000000004 -0.034036010214970061 0 -0.49669030265618502 -0.01903657234648758 0 -0.500000000000004 -0.034036010214970061 0 -0.49669030265618502 -0.01903657234648758 0 -0.50000000000000056 -0.019634082844440681 0 -0.47882554305316488 -0.0018417715126103191 0 -0.49669030265618502 -0.01903657234648758 0 -0.49160980924365538 0.0039880541876541054 0 -0.49669030265618502 -0.01903657234648758 0 -0.49160980924365538 0.0039880541876541054 0 -0.49669030265618502 -0.01903657234648758 0 -0.50000000000000056 -0.019634082844440681 0 -0.49160980924365538 0.0039880541876541054 0 -0.50000000000000056 -0.019634082844440681 0 -0.49160980924365538 0.0039880541876541054 0 -0.50000000000000033 0.009303662189531537 0 -0.49160980924365538 0.0039880541876541054 0 -0.48652931583112352 0.027012680721795381 0 -0.49160980924365538 0.0039880541876541054 0 -0.50000000000000033 0.009303662189531537 0 -0.48652931583112352 0.027012680721795381 0 -0.50000000000000033 0.009303662189531537 0 -0.5 0.03611151152349279 0 -0.49175907743105379 0.031398254416965428 0 -0.50000000000000033 0.009303662189531537 0 -0.49175907743105379 0.031398254416965428 0 -0.50000000000000033 0.009303662189531537 0 -0.48652931583112352 0.027012680721795381 0 -0.49175907743105379 0.031398254416965428 0 -0.48652931583112352 0.027012680721795381 0 -0.47387578833984401 0.016012254987208822 0 -0.46815351836101687 0.031449839152918539 0 -0.49160980924365538 0.0039880541876541054 0 -0.48652931583112352 0.027012680721795381 0 -0.47387578833984401 0.016012254987208822 0 -0.47882554305316488 -0.0018417715126103191 0 -0.49160980924365538 0.0039880541876541054 0 -0.47387578833984401 0.016012254987208822 0 -0.47882554305316488 -0.0018417715126103191 0 -0.47387578833984401 0.016012254987208822 0 -0.46048772545436639 0.0043098071123656434 0 -0.49282352307895688 0.045257754500502748 0 -0.5 0.03611151152349279 0 -0.5 0.062919360857453976 0 -0.49282352307895688 0.045257754500502748 0 -0.48351815486210709 0.053492846644399093 0 -0.5 0.062919360857453976 0 -0.49175907743105379 0.031398254416965428 0 -0.48144882241859149 0.050037307255936581 0 -0.48351815486210709 0.053492846644399093 0 -0.48652931583112352 0.027012680721795381 0 -0.49175907743105379 0.031398254416965428 0 -0.48144882241859149 0.050037307255936581 0 -0.49175907743105379 0.031398254416965428 0 -0.48351815486210709 0.053492846644399093 0 -0.49282352307895688 0.045257754500502748 0 -0.49175907743105379 0.031398254416965428 0 -0.48351815486210709 0.053492846644399093 0 -0.49282352307895688 0.045257754500502748 0 -0.5 0.03611151152349279 0 -0.49175907743105379 0.031398254416965428 0 -0.48144882241859149 0.050037307255936581 0 -0.4639696453013944 0.043374392403556838 0 -0.46815351836101687 0.031449839152918539 0 -0.48652931583112352 0.027012680721795381 0 -0.48144882241859149 0.050037307255936581 0 -0.48652931583112352 0.027012680721795381 0 -0.48144882241859149 0.050037307255936581 0 -0.46815351836101687 0.031449839152918539 0 -0.48144882241859149 0.050037307255936581 0 -0.45709786057011947 0.055708105081253657 0 -0.47636832900606041 0.073061933790077832 0 -0.48144882241859149 0.050037307255936581 0 -0.48351815486210709 0.053492846644399093 0 -0.47636832900606041 0.073061933790077832 0 -0.48144882241859149 0.050037307255936581 0 -0.47636832900606041 0.073061933790077832 0 -0.48144882241859149 0.050037307255936581 0 -0.45709786057011947 0.055708105081253657 0 -0.4639696453013944 0.043374392403556838 0 -0.45709786057011947 0.055708105081253657 0 -0.4639696453013944 0.043374392403556838 0 -0.45299045524759751 0.034902057762674861 0 -0.4639696453013944 0.043374392403556838 0 -0.46815351836101687 0.031449839152918539 0 -0.45299045524759751 0.034902057762674861 0 -0.46815351836101687 0.031449839152918539 0 -0.45299045524759751 0.034902057762674861 0 -0.45709786057011947 0.055708105081253657 0 -0.45299045524759751 0.034902057762674861 0 -0.43782739213417787 0.038354276372430232 0 -0.45299045524759751 0.034902057762674861 0 -0.43782739213417787 0.038354276372430232 0 -0.45299045524759751 0.034902057762674861 0 -0.43782739213417787 0.038354276372430232 0 -0.44297011017848281 0.02707887027054981 0 -0.45709786057011947 0.055708105081253657 0 -0.43782739213417787 0.038354276372430232 0 -0.43187248081207541 0.055496176207803817 0 -0.45709786057011947 0.055708105081253657 0 -0.43782739213417787 0.038354276372430232 0 -0.45709786057011947 0.055708105081253657 0 -0.43187248081207541 0.055496176207803817 0 -0.43763284036668942 0.072255399145110422 0 -0.47387578833984401 0.016012254987208822 0 -0.46048772545436639 0.0043098071123656434 0 -0.45598123469437257 0.020633802368031268 0 -0.47387578833984401 0.016012254987208822 0 -0.46815351836101687 0.031449839152918539 0 -0.45598123469437257 0.020633802368031268 0 -0.46815351836101687 0.031449839152918539 0 -0.45299045524759751 0.034902057762674861 0 -0.45598123469437257 0.020633802368031268 0 -0.45598123469437257 0.020633802368031268 0 -0.44297011017848281 0.02707887027054981 0 -0.43740981058492812 0.01004998492246997 0 -0.45299045524759751 0.034902057762674861 0 -0.45598123469437257 0.020633802368031268 0 -0.44297011017848281 0.02707887027054981 0 -0.46048772545436639 0.0043098071123656434 0 -0.45598123469437257 0.020633802368031268 0 -0.43740981058492812 0.01004998492246997 0 -0.44623787648735791 -0.0099282306610938807 0 -0.46048772545436639 0.0043098071123656434 0 -0.43740981058492812 0.01004998492246997 0 -0.44623787648735791 -0.0099282306610938807 0 -0.43740981058492812 0.01004998492246997 0 -0.43591977417237449 -0.008065469867085449 0 -0.43740981058492812 0.01004998492246997 0 -0.42583279771702431 0.00046528033667210148 0 -0.43740981058492812 0.01004998492246997 0 -0.42292027786463471 0.01349413118407828 0 -0.42583279771702431 0.00046528033667210148 0 -0.41794895562780338 -0.01094222954485795 0 -0.40909120882054839 0.01273065398649661 0 -0.41794895562780338 -0.01094222954485795 0 -0.40352261506359649 -0.001038070178381474 0 -0.40909120882054839 0.01273065398649661 0 -0.42292027786463471 0.01349413118407828 0 -0.42583279771702431 0.00046528033667210148 0 -0.40909120882054839 0.01273065398649661 0 -0.41794895562780338 -0.01094222954485795 0 -0.42583279771702431 0.00046528033667210148 0 -0.40909120882054839 0.01273065398649661 0 -0.40909120882054839 0.01273065398649661 0 -0.41494363987246979 0.023236645495722939 0 -0.40023346201329341 0.036403537517851137 0 -0.41494363987246979 0.023236645495722939 0 -0.41436175989852531 0.033604495869393458 0 -0.40023346201329341 0.036403537517851137 0 -0.42292027786463471 0.01349413118407828 0 -0.41494363987246979 0.023236645495722939 0 -0.424969395700869 0.026775135554755129 0 -0.42292027786463471 0.01349413118407828 0 -0.40909120882054839 0.01273065398649661 0 -0.41494363987246979 0.023236645495722939 0 -0.41494363987246979 0.023236645495722939 0 -0.41896391809246269 0.029132761591660509 0 -0.41436175989852531 0.033604495869393458 0 -0.41494363987246979 0.023236645495722939 0 -0.41896391809246269 0.029132761591660509 0 -0.424969395700869 0.026775135554755129 0 -0.41896391809246269 0.029132761591660509 0 -0.424969395700869 0.026775135554755129 0 -0.42158087689798668 0.032914769446770492 0 -0.424969395700869 0.026775135554755129 0 -0.42858174468249838 0.030028200506033911 0 -0.42158087689798668 0.032914769446770492 0 -0.44297011017848281 0.02707887027054981 0 -0.43740981058492812 0.01004998492246997 0 -0.42858174468249838 0.030028200506033911 0 -0.43740981058492812 0.01004998492246997 0 -0.42292027786463471 0.01349413118407828 0 -0.424969395700869 0.026775135554755129 0 -0.43740981058492812 0.01004998492246997 0 -0.42858174468249838 0.030028200506033911 0 -0.43740981058492812 0.01004998492246997 0 -0.424969395700869 0.026775135554755129 0 -0.42858174468249838 0.030028200506033911 0 -0.424969395700869 0.026775135554755129 0 -0.42858174468249838 0.030028200506033911 0 -0.43782739213417787 0.038354276372430232 0 -0.44297011017848281 0.02707887027054981 0 -0.42858174468249838 0.030028200506033911 0 -0.43782739213417787 0.038354276372430232 0 -0.42858174468249838 0.030028200506033911 0 -0.42345682706553001 0.041626064651069543 0 -0.43782739213417787 0.038354276372430232 0 -0.42345682706553001 0.041626064651069543 0 -0.43187248081207541 0.055496176207803817 0 -0.43782739213417787 0.038354276372430232 0 -0.42858174468249838 0.030028200506033911 0 -0.43782739213417787 0.038354276372430232 0 -0.42345682706553001 0.041626064651069543 0 -0.42858174468249838 0.030028200506033911 0 -0.42345682706553001 0.041626064651069543 0 -0.42158087689798668 0.032914769446770492 0 -0.42858174468249838 0.030028200506033911 0 -0.42345682706553001 0.041626064651069543 0 -0.42345682706553001 0.041626064651069543 0 -0.43187248081207541 0.055496176207803817 0 -0.4177568865966339 0.054525225210098782 0 -0.43187248081207541 0.055496176207803817 0 -0.4177568865966339 0.054525225210098782 0 -0.41753301535116211 0.067129086497859855 0 -0.42345682706553001 0.041626064651069543 0 -0.4177568865966339 0.054525225210098782 0 -0.40276573021624068 0.046336866753853997 0 -0.4177568865966339 0.054525225210098782 0 -0.40750332447406851 0.057375884956624552 0 -0.41753301535116211 0.067129086497859855 0 -0.42345682706553001 0.041626064651069543 0 -0.4177568865966339 0.054525225210098782 0 -0.4177568865966339 0.054525225210098782 0 -0.40750332447406851 0.057375884956624552 0 -0.40276573021624068 0.046336866753853997 0 -0.42345682706553001 0.041626064651069543 0 -0.40276573021624068 0.046336866753853997 0 -0.42345682706553001 0.041626064651069543 0 -0.41020444479839763 0.039492741198042178 0 -0.40276573021624068 0.046336866753853997 0 -0.42345682706553001 0.041626064651069543 0 -0.41436175989852531 0.033604495869393458 0 -0.42158087689798668 0.032914769446770492 0 -0.42345682706553001 0.041626064651069543 0 -0.41436175989852531 0.033604495869393458 0 -0.41020444479839763 0.039492741198042178 0 -0.41896391809246269 0.029132761591660509 0 -0.41436175989852531 0.033604495869393458 0 -0.42158087689798668 0.032914769446770492 0 -0.41436175989852531 0.033604495869393458 0 -0.41020444479839763 0.039492741198042178 0 -0.40023346201329341 0.036403537517851137 0 -0.40276573021624068 0.046336866753853997 0 -0.38207463336695202 0.051047668856640811 0 -0.38772007791329738 0.03985096685417347 0 -0.41020444479839763 0.039492741198042178 0 -0.40023346201329341 0.036403537517851137 0 -0.40276573021624068 0.046336866753853997 0 -0.40023346201329341 0.036403537517851137 0 -0.40276573021624068 0.046336866753853997 0 -0.38772007791329738 0.03985096685417347 0 -0.40023346201329341 0.036403537517851137 0 -0.38772007791329738 0.03985096685417347 0 -0.38925836826538629 0.030805614435688099 0 -0.40276573021624068 0.046336866753853997 0 -0.38207463336695202 0.051047668856640811 0 -0.40276573021624068 0.046336866753853997 0 -0.39689466156197101 0.057407184083191301 0 -0.38207463336695202 0.051047668856640811 0 -0.40750332447406851 0.057375884956624552 0 -0.39689466156197101 0.057407184083191301 0 -0.40210564328563447 0.066115584712721373 0 -0.40750332447406851 0.057375884956624552 0 -0.40276573021624068 0.046336866753853997 0 -0.39689466156197101 0.057407184083191301 0 -0.38207463336695202 0.051047668856640811 0 -0.38848633305814179 0.065600711414542545 0 -0.36891219827968119 0.060077996683558232 0 -0.39689466156197101 0.057407184083191301 0 -0.38207463336695202 0.051047668856640811 0 -0.38848633305814179 0.065600711414542545 0 -0.38772007791329738 0.03985096685417347 0 -0.37937813184432773 0.031366277704107569 0 -0.38925836826538629 0.030805614435688099 0 -0.38207463336695202 0.051047668856640811 0 -0.38772007791329738 0.03985096685417347 0 -0.37261014177358448 0.043145835856899219 0 -0.38772007791329738 0.03985096685417347 0 -0.37937813184432773 0.031366277704107569 0 -0.37261014177358448 0.043145835856899219 0 -0.37937813184432773 0.031366277704107569 0 -0.38391758338059062 0.022870450659759161 0 -0.37479293228070759 0.022502646493578662 0 -0.37937813184432773 0.031366277704107569 0 -0.38925836826538629 0.030805614435688099 0 -0.38391758338059062 0.022870450659759161 0 -0.38925836826538629 0.030805614435688099 0 -0.38391758338059062 0.022870450659759161 0 -0.3946160130735708 0.021551959563878339 0 -0.38391758338059062 0.022870450659759161 0 -0.38667067902898572 0.013842153393714489 0 -0.3946160130735708 0.021551959563878339 0 -0.38391758338059062 0.022870450659759161 0 -0.3778438638662554 0.014761087644765769 0 -0.38667067902898572 0.013842153393714489 0 -0.38391758338059062 0.022870450659759161 0 -0.3778438638662554 0.014761087644765769 0 -0.37479293228070759 0.022502646493578662 0 -0.3778438638662554 0.014761087644765769 0 -0.38165634421242611 0.0056742618597281089 0 -0.38667067902898572 0.013842153393714489 0 -0.3778438638662554 0.014761087644765769 0 -0.38165634421242611 0.0056742618597281089 0 -0.37464316483836829 0.0066416053135349984 0 -0.37774077980655368 -0.001289555558904682 0 -0.38165634421242611 0.0056742618597281089 0 -0.37464316483836829 0.0066416053135349984 0 -0.3848191179490616 -0.0027051675553946518 0 -0.37774077980655368 -0.001289555558904682 0 -0.38165634421242611 0.0056742618597281089 0 -0.3848191179490616 -0.0027051675553946518 0 -0.38165634421242611 0.0056742618597281089 0 -0.38845980705381639 0.0057813395070211177 0 -0.39408165103759368 -0.0019794594859314238 0 -0.3848191179490616 -0.0027051675553946518 0 -0.38845980705381639 0.0057813395070211177 0 -0.38845980705381639 0.0057813395070211177 0 -0.38667067902898572 0.013842153393714489 0 -0.39627830677719 0.008853295208583448 0 -0.38165634421242611 0.0056742618597281089 0 -0.38845980705381639 0.0057813395070211177 0 -0.38667067902898572 0.013842153393714489 0 -0.38667067902898572 0.013842153393714489 0 -0.39627830677719 0.008853295208583448 0 -0.3946160130735708 0.021551959563878339 0 -0.39408165103759368 -0.0019794594859314238 0 -0.38845980705381639 0.0057813395070211177 0 -0.39627830677719 0.008853295208583448 0 -0.40352261506359649 -0.001038070178381474 0 -0.39408165103759368 -0.0019794594859314238 0 -0.39627830677719 0.008853295208583448 0 -0.40352261506359649 -0.001038070178381474 0 -0.40909120882054839 0.01273065398649661 0 -0.39627830677719 0.008853295208583448 0 -0.40909120882054839 0.01273065398649661 0 -0.39627830677719 0.008853295208583448 0 -0.3946160130735708 0.021551959563878339 0 -0.40909120882054839 0.01273065398649661 0 -0.40023346201329341 0.036403537517851137 0 -0.3946160130735708 0.021551959563878339 0 -0.40909120882054839 0.01273065398649661 0 -0.40023346201329341 0.036403537517851137 0 -0.40023346201329341 0.036403537517851137 0 -0.38925836826538629 0.030805614435688099 0 -0.3946160130735708 0.021551959563878339 0 -0.38696142946532958 0.1003701901717608 0 -0.40164011277457379 0.081352107660276216 0 -0.40864304721671202 0.1107171055473533 0 -0.38750957741872682 0.11885909540365321 0 -0.40864304721671202 0.1107171055473533 0 -0.39401402549175851 0.1361747599337243 0 -0.38750957741872682 0.11885909540365321 0 -0.38696142946532958 0.1003701901717608 0 -0.40864304721671202 0.1107171055473533 0 -0.38750957741872682 0.11885909540365321 0 -0.38696142946532958 0.1003701901717608 0 -0.36904533532088801 0.1177582563576956 0 -0.38696142946532958 0.1003701901717608 0 -0.37090825683648998 0.098456277756480637 0 -0.36904533532088801 0.1177582563576956 0 -0.37929074908003868 0.077603726490867345 0 -0.40164011277457379 0.081352107660276216 0 -0.38696142946532958 0.1003701901717608 0 -0.37929074908003868 0.077603726490867345 0 -0.40164011277457379 0.081352107660276216 0 -0.38696142946532958 0.1003701901717608 0 -0.37929074908003868 0.077603726490867345 0 -0.37090825683648998 0.098456277756480637 0 -0.37929074908003868 0.077603726490867345 0 -0.38848633305814179 0.065600711414542545 0 -0.36891219827968119 0.060077996683558232 0 -0.37929074908003868 0.077603726490867345 0 -0.38848633305814179 0.065600711414542545 0 -0.40164011277457379 0.081352107660276216 0 -0.38848633305814179 0.065600711414542545 0 -0.40210564328563447 0.066115584712721373 0 -0.40164011277457379 0.081352107660276216 0 -0.39689466156197101 0.057407184083191301 0 -0.38848633305814179 0.065600711414542545 0 -0.40210564328563447 0.066115584712721373 0 -0.40164011277457379 0.081352107660276216 0 -0.42398947646910912 0.085100488829685086 0 -0.40164011277457379 0.081352107660276216 0 -0.42398947646910912 0.085100488829685086 0 -0.40864304721671202 0.1107171055473533 0 -0.40210564328563447 0.066115584712721373 0 -0.40164011277457379 0.081352107660276216 0 -0.41753301535116211 0.067129086497859855 0 -0.40164011277457379 0.081352107660276216 0 -0.41753301535116211 0.067129086497859855 0 -0.42398947646910912 0.085100488829685086 0 -0.40750332447406851 0.057375884956624552 0 -0.40210564328563447 0.066115584712721373 0 -0.41753301535116211 0.067129086497859855 0 -0.41753301535116211 0.067129086497859855 0 -0.42398947646910912 0.085100488829685086 0 -0.43763284036668942 0.072255399145110422 0 -0.43187248081207541 0.055496176207803817 0 -0.41753301535116211 0.067129086497859855 0 -0.43763284036668942 0.072255399145110422 0 -0.42398947646910912 0.085100488829685086 0 -0.44633884016364428 0.088848869999093971 0 -0.42398947646910912 0.085100488829685086 0 -0.43763284036668942 0.072255399145110422 0 -0.44633884016364428 0.088848869999093971 0 -0.42398947646910912 0.085100488829685086 0 -0.42906186480059683 0.10519001099972999 0 -0.44633884016364428 0.088848869999093971 0 -0.42398947646910912 0.085100488829685086 0 -0.42906186480059683 0.10519001099972999 0 -0.40864304721671202 0.1107171055473533 0 -0.40864304721671202 0.1107171055473533 0 -0.43267942878230348 0.12559175737704789 0 -0.42906186480059683 0.10519001099972999 0 -0.40864304721671202 0.1107171055473533 0 -0.43267942878230348 0.12559175737704789 0 -0.42906186480059683 0.10519001099972999 0 -0.4489383204882843 0.11104189391905871 0 -0.43267942878230348 0.12559175737704789 0 -0.4489383204882843 0.11104189391905871 0 -0.45289828098281221 0.1241297055338681 0 -0.43267942878230348 0.12559175737704789 0 -0.4489383204882843 0.11104189391905871 0 -0.43267942878230348 0.12559175737704789 0 -0.42906186480059683 0.10519001099972999 0 -0.4489383204882843 0.11104189391905871 0 -0.44633884016364428 0.088848869999093971 0 -0.4489383204882843 0.11104189391905871 0 -0.44633884016364428 0.088848869999093971 0 -0.47121921728662652 0.096397536200283296 0 -0.46607010556719342 0.11973313861048911 0 -0.47121921728662652 0.096397536200283296 0 -0.4489383204882843 0.11104189391905871 0 -0.46607010556719342 0.11973313861048911 0 -0.47121921728662652 0.096397536200283296 0 -0.4489383204882843 0.11104189391905871 0 -0.45289828098281221 0.1241297055338681 0 -0.46607010556719342 0.11973313861048911 0 -0.45709786057011947 0.055708105081253657 0 -0.43763284036668942 0.072255399145110422 0 -0.45544766770060358 0.07348919590478746 0 -0.43763284036668942 0.072255399145110422 0 -0.44633884016364428 0.088848869999093971 0 -0.45544766770060358 0.07348919590478746 0 -0.44633884016364428 0.088848869999093971 0 -0.45544766770060358 0.07348919590478746 0 -0.47121921728662652 0.096397536200283296 0 -0.45544766770060358 0.07348919590478746 0 -0.47636832900606041 0.073061933790077832 0 -0.47121921728662652 0.096397536200283296 0 -0.45709786057011947 0.055708105081253657 0 -0.47636832900606041 0.073061933790077832 0 -0.45709786057011947 0.055708105081253657 0 -0.45544766770060358 0.07348919590478746 0 -0.47636832900606041 0.073061933790077832 0 -0.48351815486210709 0.053492846644399093 0 -0.47636832900606041 0.073061933790077832 0 -0.49140909277123612 0.074197219851226057 0 -0.47636832900606041 0.073061933790077832 0 -0.48274454235378189 0.091705374172880549 0 -0.47121921728662652 0.096397536200283296 0 -0.47636832900606041 0.073061933790077832 0 -0.47121921728662652 0.096397536200283296 0 -0.47636832900606041 0.073061933790077832 0 -0.49715897998801373 0.091784747772784503 0 -0.5 0.089727210191415163 0 -0.49715897998801373 0.091784747772784503 0 -0.49140909277123612 0.074197219851226057 0 -0.47636832900606041 0.073061933790077832 0 -0.48274454235378189 0.091705374172880549 0 -0.49715897998801373 0.091784747772784503 0 -0.47636832900606041 0.073061933790077832 0 -0.49715897998801373 0.091784747772784503 0 -0.49140909277123612 0.074197219851226057 0 -0.5 0.089727210191415163 0 -0.5 0.062919360857453976 0 -0.49140909277123612 0.074197219851226057 0 -0.48351815486210709 0.053492846644399093 0 -0.5 0.062919360857453976 0 -0.49140909277123612 0.074197219851226057 0 -0.46607010556719342 0.11973313861048911 0 -0.48623164313442779 0.1055772789283768 0 -0.48453668432005692 0.123143207324586 0 -0.46607010556719342 0.11973313861048911 0 -0.47121921728662652 0.096397536200283296 0 -0.48623164313442779 0.1055772789283768 0 -0.48274454235378189 0.091705374172880549 0 -0.47121921728662652 0.096397536200283296 0 -0.48623164313442779 0.1055772789283768 0 -0.5 0.089727210191415163 0 -0.49715897998801373 0.091784747772784503 0 -0.5 0.1165350595253765 0 -0.49715897998801373 0.091784747772784503 0 -0.48623164313442779 0.1055772789283768 0 -0.5 0.1165350595253765 0 -0.48274454235378189 0.091705374172880549 0 -0.49715897998801373 0.091784747772784503 0 -0.48623164313442779 0.1055772789283768 0 -0.48623164313442779 0.1055772789283768 0 -0.5 0.1165350595253765 0 -0.48453668432005692 0.123143207324586 0 -0.5 0.1165350595253765 0 -0.48453668432005692 0.123143207324586 0 -0.5 0.1433429088593379 0 -0.48453668432005692 0.123143207324586 0 -0.48049738108946538 0.1379484740379 0 -0.5 0.1433429088593379 0 -0.46607010556719342 0.11973313861048911 0 -0.48453668432005692 0.123143207324586 0 -0.48049738108946538 0.1379484740379 0 -0.46607010556719342 0.11973313861048911 0 -0.48049738108946538 0.1379484740379 0 -0.46092099384776192 0.14306874102069511 0 -0.48464943840857888 0.15775282940309851 0 -0.46990863904630059 0.1670362475492525 0 -0.46092099384776192 0.14306874102069511 0 -0.48464943840857888 0.15775282940309851 0 -0.46092099384776192 0.14306874102069511 0 -0.48049738108946538 0.1379484740379 0 -0.48464943840857888 0.15775282940309851 0 -0.46092099384776192 0.14306874102069511 0 -0.48049738108946538 0.1379484740379 0 -0.5 0.1433429088593379 0 -0.48464943840857888 0.15775282940309851 0 -0.48464943840857888 0.15775282940309851 0 -0.5 0.17015075819329931 0 -0.4898809761324775 0.17912292006808481 0 -0.5 0.1433429088593379 0 -0.48464943840857888 0.15775282940309851 0 -0.5 0.17015075819329931 0 -0.48464943840857888 0.15775282940309851 0 -0.4898809761324775 0.17912292006808481 0 -0.47865635922375932 0.17909963177513319 0 -0.5 0.17015075819329931 0 -0.4898809761324775 0.17912292006808481 0 -0.5 0.19695860752726069 0 -0.4898809761324775 0.17912292006808481 0 -0.47865635922375932 0.17909963177513319 0 -0.48609908303004917 0.1916527734416324 0 -0.47865635922375932 0.17909963177513319 0 -0.47279817792341111 0.1948006201282925 0 -0.47865635922375932 0.17909963177513319 0 -0.46589335310649882 0.18744802338852329 0 -0.47279817792341111 0.1948006201282925 0 -0.47865635922375932 0.17909963177513319 0 -0.46927870962167312 0.17493875400548389 0 -0.46990863904630059 0.1670362475492525 0 -0.47865635922375932 0.17909963177513319 0 -0.46927870962167312 0.17493875400548389 0 -0.46555461593459269 0.18128722400797501 0 -0.47865635922375932 0.17909963177513319 0 -0.46589335310649882 0.18744802338852329 0 -0.46555461593459269 0.18128722400797501 0 -0.48464943840857888 0.15775282940309851 0 -0.47865635922375932 0.17909963177513319 0 -0.46990863904630059 0.1670362475492525 0 -0.45742932361540911 0.15889287394486271 0 -0.45393765338305497 0.17471700686903011 0 -0.46990863904630059 0.1670362475492525 0 -0.45742932361540911 0.15889287394486271 0 -0.46092099384776192 0.14306874102069511 0 -0.45742932361540911 0.15889287394486271 0 -0.46299522428203971 0.17233191268957501 0 -0.45393765338305497 0.17471700686903011 0 -0.46927870962167312 0.17493875400548389 0 -0.46990863904630059 0.1670362475492525 0 -0.46299522428203971 0.17233191268957501 0 -0.46990863904630059 0.1670362475492525 0 -0.45742932361540911 0.15889287394486271 0 -0.46299522428203971 0.17233191268957501 0 -0.46589335310649882 0.18744802338852329 0 -0.46555461593459269 0.18128722400797501 0 -0.45393765338305497 0.17471700686903011 0 -0.46589335310649882 0.18744802338852329 0 -0.46555461593459269 0.18128722400797501 0 -0.46927870962167312 0.17493875400548389 0 -0.46555461593459269 0.18128722400797501 0 -0.46299522428203971 0.17233191268957501 0 -0.46555461593459269 0.18128722400797501 0 -0.46299522428203971 0.17233191268957501 0 -0.45393765338305497 0.17471700686903011 0 -0.46589335310649882 0.18744802338852329 0 -0.45393765338305497 0.17471700686903011 0 -0.45393765338305497 0.17471700686903011 0 -0.44047241453070329 0.18324079402305421 0 -0.44820564853932793 0.20069426145875721 0 -0.45393765338305497 0.17471700686903011 0 -0.44047241453070329 0.18324079402305421 0 -0.44174290600336708 0.16173144065936321 0 -0.45742932361540911 0.15889287394486271 0 -0.44174290600336708 0.16173144065936321 0 -0.44616928685712581 0.1494742970518641 0 -0.45742932361540911 0.15889287394486271 0 -0.45393765338305497 0.17471700686903011 0 -0.44174290600336708 0.16173144065936321 0 -0.45393765338305497 0.17471700686903011 0 -0.44174290600336708 0.16173144065936321 0 -0.44174290600336708 0.16173144065936321 0 -0.44616928685712581 0.1494742970518641 0 -0.43187713239064979 0.1573343508491826 0 -0.44616928685712581 0.1494742970518641 0 -0.43700896048386301 0.14249666109927989 0 -0.43187713239064979 0.1573343508491826 0 -0.44616928685712581 0.1494742970518641 0 -0.44680021131503311 0.13433024919887079 0 -0.46092099384776192 0.14306874102069511 0 -0.44616928685712581 0.1494742970518641 0 -0.44680021131503311 0.13433024919887079 0 -0.43700896048386301 0.14249666109927989 0 -0.45289828098281221 0.1241297055338681 0 -0.44680021131503311 0.13433024919887079 0 -0.43267942878230348 0.12559175737704789 0 -0.44680021131503311 0.13433024919887079 0 -0.43267942878230348 0.12559175737704789 0 -0.43700896048386301 0.14249666109927989 0 -0.44680021131503311 0.13433024919887079 0 -0.43267942878230348 0.12559175737704789 0 -0.45289828098281221 0.1241297055338681 0 -0.44680021131503311 0.13433024919887079 0 -0.46092099384776192 0.14306874102069511 0 -0.46607010556719342 0.11973313861048911 0 -0.46092099384776192 0.14306874102069511 0 -0.45289828098281221 0.1241297055338681 0 -0.46607010556719342 0.11973313861048911 0 -0.46092099384776192 0.14306874102069511 0 -0.44680021131503311 0.13433024919887079 0 -0.46092099384776192 0.14306874102069511 0 -0.45742932361540911 0.15889287394486271 0 -0.46092099384776192 0.14306874102069511 0 -0.45742932361540911 0.15889287394486271 0 -0.44616928685712581 0.1494742970518641 0 -0.46092099384776192 0.14306874102069511 0 -0.46853242371352971 0.23544625301742969 0 -0.46993231893463527 0.26090691788180947 0 -0.48177750529808522 0.24619974485466931 0 -0.46853242371352971 0.23544625301742969 0 -0.46993231893463527 0.26090691788180947 0 -0.48177750529808522 0.24619974485466931 0 -0.48375626182904402 0.22755154475287301 0 -0.46853242371352971 0.23544625301742969 0 -0.48177750529808522 0.24619974485466931 0 -0.5 0.2461359573144368 0 -0.48375626182904402 0.22755154475287301 0 -0.5 0.2461359573144368 0 -0.48375626182904402 0.22755154475287301 0 -0.49999999999999978 0.22376645686122221 0 -0.48375626182904402 0.22755154475287301 0 -0.48639908896170481 0.20928353849475789 0 -0.5 0.2461359573144368 0 -0.49999999999999978 0.22376645686122221 0 -0.48375626182904402 0.22755154475287301 0 -0.47173343442327142 0.22048762952866541 0 -0.46713252849242448 0.20998558815304991 0 -0.46853242371352971 0.23544625301742969 0 -0.48375626182904402 0.22755154475287301 0 -0.47173343442327142 0.22048762952866541 0 -0.4670472636537164 0.20843482960316059 0 -0.48375626182904402 0.22755154475287301 0 -0.47173343442327142 0.22048762952866541 0 -0.46853242371352971 0.23544625301742969 0 -0.48375626182904402 0.22755154475287301 0 -0.4670472636537164 0.20843482960316059 0 -0.48639908896170481 0.20928353849475789 0 -0.47279817792341111 0.1948006201282925 0 -0.4670472636537164 0.20843482960316059 0 -0.48375626182904402 0.22755154475287301 0 -0.48639908896170481 0.20928353849475789 0 -0.4670472636537164 0.20843482960316059 0 -0.49999999999999978 0.22376645686122221 0 -0.48639908896170481 0.20928353849475789 0 -0.5 0.19695860752726069 0 -0.49999999999999978 0.22376645686122221 0 -0.48639908896170481 0.20928353849475789 0 -0.48639908896170481 0.20928353849475789 0 -0.5 0.19695860752726069 0 -0.48609908303004917 0.1916527734416324 0 -0.4898809761324775 0.17912292006808481 0 -0.5 0.19695860752726069 0 -0.48609908303004917 0.1916527734416324 0 -0.48639908896170481 0.20928353849475789 0 -0.48609908303004917 0.1916527734416324 0 -0.47279817792341111 0.1948006201282925 0 -0.47865635922375932 0.17909963177513319 0 -0.48609908303004917 0.1916527734416324 0 -0.47279817792341111 0.1948006201282925 0 -0.48639908896170481 0.20928353849475789 0 -0.47279817792341111 0.1948006201282925 0 -0.47279817792341111 0.1948006201282925 0 -0.4670472636537164 0.20843482960316059 0 -0.46589335310649882 0.18744802338852329 0 -0.47279817792341111 0.1948006201282925 0 -0.46589335310649882 0.18744802338852329 0 -0.4603250720810298 0.20074399020462361 0 -0.4670472636537164 0.20843482960316059 0 -0.46589335310649882 0.18744802338852329 0 -0.45393765338305497 0.17471700686903011 0 -0.44820564853932793 0.20069426145875721 0 -0.46589335310649882 0.18744802338852329 0 -0.4603250720810298 0.20074399020462361 0 -0.44820564853932793 0.20069426145875721 0 -0.46589335310649882 0.18744802338852329 0 -0.47279817792341111 0.1948006201282925 0 -0.4670472636537164 0.20843482960316059 0 -0.46589335310649882 0.18744802338852329 0 -0.4670472636537164 0.20843482960316059 0 -0.45393765338305497 0.17471700686903011 0 -0.44820564853932793 0.20069426145875721 0 -0.44820564853932793 0.20069426145875721 0 -0.45427794118362658 0.21265328965042851 0 -0.44247364369559788 0.22667151604848371 0 -0.44820564853932793 0.20069426145875721 0 -0.44247364369559788 0.22667151604848371 0 -0.44820564853932793 0.20069426145875721 0 -0.44247364369559788 0.22667151604848371 0 -0.42336320141575168 0.21609666274764849 0 -0.45880341375183131 0.2186303689721085 0 -0.45427794118362658 0.21265328965042851 0 -0.46188137931700068 0.21002659871962689 0 -0.45880341375183131 0.2186303689721085 0 -0.45427794118362658 0.21265328965042851 0 -0.4536201791639074 0.2236252940046442 0 -0.4603250720810298 0.20074399020462361 0 -0.45427794118362658 0.21265328965042851 0 -0.46188137931700068 0.21002659871962689 0 -0.4603250720810298 0.20074399020462361 0 -0.44820564853932793 0.20069426145875721 0 -0.45427794118362658 0.21265328965042851 0 -0.4603250720810298 0.20074399020462361 0 -0.46188137931700068 0.21002659871962689 0 -0.4670472636537164 0.20843482960316059 0 -0.4603250720810298 0.20074399020462361 0 -0.4670472636537164 0.20843482960316059 0 -0.46188137931700068 0.21002659871962689 0 -0.4670472636537164 0.20843482960316059 0 -0.46713252849242448 0.20998558815304991 0 -0.4670472636537164 0.20843482960316059 0 -0.46713252849242448 0.20998558815304991 0 -0.47173343442327142 0.22048762952866541 0 -0.4670472636537164 0.20843482960316059 0 -0.46713252849242448 0.20998558815304991 0 -0.45880341375183131 0.2186303689721085 0 -0.46188137931700068 0.21002659871962689 0 -0.46713252849242448 0.20998558815304991 0 -0.46713252849242448 0.20998558815304991 0 -0.45710504060219709 0.23686107433279269 0 -0.46713252849242448 0.20998558815304991 0 -0.45710504060219709 0.23686107433279269 0 -0.46853242371352971 0.23544625301742969 0 -0.45880341375183131 0.2186303689721085 0 -0.46713252849242448 0.20998558815304991 0 -0.45710504060219709 0.23686107433279269 0 -0.45880341375183131 0.2186303689721085 0 -0.4536201791639074 0.2236252940046442 0 -0.45710504060219709 0.23686107433279269 0 -0.46713252849242448 0.20998558815304991 0 -0.46853242371352971 0.23544625301742969 0 -0.45427794118362658 0.21265328965042851 0 -0.4536201791639074 0.2236252940046442 0 -0.44247364369559788 0.22667151604848371 0 -0.4536201791639074 0.2236252940046442 0 -0.44247364369559788 0.22667151604848371 0 -0.45710504060219709 0.23686107433279269 0 -0.44247364369559788 0.22667151604848371 0 -0.4367416388518679 0.25264877063821017 0 -0.44247364369559788 0.22667151604848371 0 -0.45710504060219709 0.23686107433279269 0 -0.4367416388518679 0.25264877063821017 0 -0.45710504060219709 0.23686107433279269 0 -0.46853242371352971 0.23544625301742969 0 -0.46993231893463527 0.26090691788180947 0 -0.41931835140954682 0.23739665832436521 0 -0.40367044579520373 0.24132688110038639 0 -0.41175872593851298 0.2549478601346914 0 -0.41931835140954682 0.23739665832436521 0 -0.40790513800462019 0.22799805468035339 0 -0.40367044579520373 0.24132688110038639 0 -0.41931835140954682 0.23739665832436521 0 -0.4367416388518679 0.25264877063821017 0 -0.41175872593851298 0.2549478601346914 0 -0.44247364369559788 0.22667151604848371 0 -0.41931835140954682 0.23739665832436521 0 -0.4367416388518679 0.25264877063821017 0 -0.44247364369559788 0.22667151604848371 0 -0.41931835140954682 0.23739665832436521 0 -0.42336320141575168 0.21609666274764849 0 -0.41931835140954682 0.23739665832436521 0 -0.40790513800462019 0.22799805468035339 0 -0.42336320141575168 0.21609666274764849 0 -0.40790513800462019 0.22799805468035339 0 -0.42336320141575168 0.21609666274764849 0 -0.40538393777915788 0.2123952851453417 0 -0.42336320141575168 0.21609666274764849 0 -0.42071240458675369 0.1920614743917832 0 -0.40538393777915788 0.2123952851453417 0 -0.44820564853932793 0.20069426145875721 0 -0.42336320141575168 0.21609666274764849 0 -0.42071240458675369 0.1920614743917832 0 -0.44047241453070329 0.18324079402305421 0 -0.44820564853932793 0.20069426145875721 0 -0.42071240458675369 0.1920614743917832 0 -0.42071240458675369 0.1920614743917832 0 -0.40538393777915788 0.2123952851453417 0 -0.42071240458675369 0.1920614743917832 0 -0.4022878927449296 0.1970928012265635 0 -0.40298680868332198 0.18508216307238631 0 -0.42071240458675369 0.1920614743917832 0 -0.4022878927449296 0.1970928012265635 0 -0.40538393777915788 0.2123952851453417 0 -0.4022878927449296 0.1970928012265635 0 -0.39286614404695941 0.1920732104686422 0 -0.40298680868332198 0.18508216307238631 0 -0.4022878927449296 0.1970928012265635 0 -0.39286614404695941 0.1920732104686422 0 -0.39380007669083689 0.206464460861051 0 -0.38422654444444693 0.2008322729754812 0 -0.38088029112643113 0.1825210369279657 0 -0.38422654444444693 0.2008322729754812 0 -0.38088029112643113 0.1825210369279657 0 -0.36802074197771562 0.19700904511440151 0 -0.38422654444444693 0.2008322729754812 0 -0.37368745339656201 0.20924711939208951 0 -0.36802074197771562 0.19700904511440151 0 -0.39286614404695941 0.1920732104686422 0 -0.38422654444444693 0.2008322729754812 0 -0.38088029112643113 0.1825210369279657 0 -0.39286614404695941 0.1920732104686422 0 -0.38422654444444693 0.2008322729754812 0 -0.39380007669083689 0.206464460861051 0 -0.38422654444444693 0.2008322729754812 0 -0.38757279776246373 0.21914350902299659 0 -0.38757279776246373 0.21914350902299659 0 -0.36800338097472479 0.22147713987588341 0 -0.37368745339656201 0.20924711939208951 0 -0.38422654444444693 0.2008322729754812 0 -0.39380007669083689 0.206464460861051 0 -0.38757279776246373 0.21914350902299659 0 -0.38422654444444693 0.2008322729754812 0 -0.38757279776246373 0.21914350902299659 0 -0.37368745339656201 0.20924711939208951 0 -0.39141353052387118 0.2186855059784025 0 -0.39380007669083689 0.206464460861051 0 -0.38757279776246373 0.21914350902299659 0 -0.39141353052387118 0.2186855059784025 0 -0.39380007669083689 0.206464460861051 0 -0.40538393777915788 0.2123952851453417 0 -0.4022878927449296 0.1970928012265635 0 -0.39380007669083689 0.206464460861051 0 -0.40538393777915788 0.2123952851453417 0 -0.40790513800462019 0.22799805468035339 0 -0.39005547097156312 0.23272909589890109 0 -0.40367044579520373 0.24132688110038639 0 -0.39141353052387118 0.2186855059784025 0 -0.40538393777915788 0.2123952851453417 0 -0.39005547097156312 0.23272909589890109 0 -0.40790513800462019 0.22799805468035339 0 -0.40538393777915788 0.2123952851453417 0 -0.39005547097156312 0.23272909589890109 0 -0.40538393777915788 0.2123952851453417 0 -0.39005547097156312 0.23272909589890109 0 -0.38757279776246373 0.21914350902299659 0 -0.39005547097156312 0.23272909589890109 0 -0.38757279776246373 0.21914350902299659 0 -0.36800338097472479 0.22147713987588341 0 -0.39141353052387118 0.2186855059784025 0 -0.38757279776246373 0.21914350902299659 0 -0.39005547097156312 0.23272909589890109 0 -0.38757279776246373 0.21914350902299659 0 -0.37939186114838758 0.22424627805714001 0 -0.36800338097472479 0.22147713987588341 0 -0.38757279776246373 0.21914350902299659 0 -0.37939186114838758 0.22424627805714001 0 -0.39005547097156312 0.23272909589890109 0 -0.39141353052387118 0.2186855059784025 0 -0.38757279776246373 0.21914350902299659 0 -0.37939186114838758 0.22424627805714001 0 -0.37477717689163992 0.25299635056682518 0 -0.39005547097156312 0.23272909589890109 0 -0.39384597734802013 0.25347135609337229 0 -0.37477717689163992 0.25299635056682518 0 -0.37939186114838758 0.22424627805714001 0 -0.39005547097156312 0.23272909589890109 0 -0.37477717689163992 0.25299635056682518 0 -0.39005547097156312 0.23272909589890109 0 -0.37477717689163992 0.25299635056682518 0 -0.40367044579520373 0.24132688110038639 0 -0.41175872593851298 0.2549478601346914 0 -0.39384597734802013 0.25347135609337229 0 -0.39005547097156312 0.23272909589890109 0 -0.39384597734802013 0.25347135609337229 0 -0.39005547097156312 0.23272909589890109 0 -0.40367044579520373 0.24132688110038639 0 -0.39384597734802013 0.25347135609337229 0 -0.41485942150404181 0.14153864215909739 0 -0.41553858058260518 0.15317901213210369 0 -0.42574561826610652 0.14613969243370301 0 -0.41553858058260518 0.15317901213210369 0 -0.42574561826610652 0.14613969243370301 0 -0.42127399236650492 0.15770626544657529 0 -0.41485942150404181 0.14153864215909739 0 -0.41553858058260518 0.15317901213210369 0 -0.4044664398419977 0.15594807455379561 0 -0.40864304721671202 0.1107171055473533 0 -0.41485942150404181 0.14153864215909739 0 -0.43267942878230348 0.12559175737704789 0 -0.41485942150404181 0.14153864215909739 0 -0.43267942878230348 0.12559175737704789 0 -0.42574561826610652 0.14613969243370301 0 -0.43267942878230348 0.12559175737704789 0 -0.43700896048386301 0.14249666109927989 0 -0.42574561826610652 0.14613969243370301 0 -0.41485942150404181 0.14153864215909739 0 -0.43267942878230348 0.12559175737704789 0 -0.42574561826610652 0.14613969243370301 0 -0.43187713239064979 0.1573343508491826 0 -0.42127399236650492 0.15770626544657529 0 -0.43700896048386301 0.14249666109927989 0 -0.42574561826610652 0.14613969243370301 0 -0.43187713239064979 0.1573343508491826 0 -0.43187713239064979 0.1573343508491826 0 -0.42946357341586749 0.17496324995209989 0 -0.4216380035134229 0.16659483191912641 0 -0.44174290600336708 0.16173144065936321 0 -0.43187713239064979 0.1573343508491826 0 -0.42946357341586749 0.17496324995209989 0 -0.43187713239064979 0.1573343508491826 0 -0.42127399236650492 0.15770626544657529 0 -0.4216380035134229 0.16659483191912641 0 -0.44047241453070329 0.18324079402305421 0 -0.44174290600336708 0.16173144065936321 0 -0.42946357341586749 0.17496324995209989 0 -0.44047241453070329 0.18324079402305421 0 -0.42071240458675369 0.1920614743917832 0 -0.42946357341586749 0.17496324995209989 0 -0.42071240458675369 0.1920614743917832 0 -0.42946357341586749 0.17496324995209989 0 -0.41235879422937732 0.17543682721938669 0 -0.42071240458675369 0.1920614743917832 0 -0.41235879422937732 0.17543682721938669 0 -0.40298680868332198 0.18508216307238631 0 -0.42946357341586749 0.17496324995209989 0 -0.41235879422937732 0.17543682721938669 0 -0.4216380035134229 0.16659483191912641 0 -0.41553858058260518 0.15317901213210369 0 -0.42127399236650492 0.15770626544657529 0 -0.41302135350813218 0.1630654313638546 0 -0.42127399236650492 0.15770626544657529 0 -0.4216380035134229 0.16659483191912641 0 -0.41302135350813218 0.1630654313638546 0 -0.41235879422937732 0.17543682721938669 0 -0.4216380035134229 0.16659483191912641 0 -0.41302135350813218 0.1630654313638546 0 -0.41235879422937732 0.17543682721938669 0 -0.41302135350813218 0.1630654313638546 0 -0.40449990094882532 0.16792382984329149 0 -0.41302135350813218 0.1630654313638546 0 -0.40449990094882532 0.16792382984329149 0 -0.4044664398419977 0.15594807455379561 0 -0.41553858058260518 0.15317901213210369 0 -0.41302135350813218 0.1630654313638546 0 -0.4044664398419977 0.15594807455379561 0 -0.3926733654842145 0.1692345557408807 0 -0.4044664398419977 0.15594807455379561 0 -0.40449990094882532 0.16792382984329149 0 -0.3926733654842145 0.1692345557408807 0 -0.40078474618547688 0.17571320347163299 0 -0.40449990094882532 0.16792382984329149 0 -0.3926733654842145 0.1692345557408807 0 -0.4044664398419977 0.15594807455379561 0 -0.3926733654842145 0.1692345557408807 0 -0.39703941422577987 0.15748552694114659 0 -0.4044664398419977 0.15594807455379561 0 -0.40298680868332198 0.18508216307238631 0 -0.40078474618547688 0.17571320347163299 0 -0.39301525059178999 0.18044652774840561 0 -0.41235879422937732 0.17543682721938669 0 -0.40298680868332198 0.18508216307238631 0 -0.40078474618547688 0.17571320347163299 0 -0.41235879422937732 0.17543682721938669 0 -0.40449990094882532 0.16792382984329149 0 -0.40078474618547688 0.17571320347163299 0 -0.3926733654842145 0.1692345557408807 0 -0.40078474618547688 0.17571320347163299 0 -0.39301525059178999 0.18044652774840561 0 -0.39286614404695941 0.1920732104686422 0 -0.40298680868332198 0.18508216307238631 0 -0.39301525059178999 0.18044652774840561 0 -0.39286614404695941 0.1920732104686422 0 -0.39301525059178999 0.18044652774840561 0 -0.38088029112643113 0.1825210369279657 0 -0.3926733654842145 0.1692345557408807 0 -0.38088029112643113 0.1825210369279657 0 -0.3926733654842145 0.1692345557408807 0 -0.39301525059178999 0.18044652774840561 0 -0.38088029112643113 0.1825210369279657 0 -0.3926733654842145 0.1692345557408807 0 -0.37921940694751782 0.17343241172319571 0 -0.38088029112643113 0.1825210369279657 0 -0.37921940694751782 0.17343241172319571 0 -0.38088029112643113 0.1825210369279657 0 -0.37921940694751782 0.17343241172319571 0 -0.38088029112643113 0.1825210369279657 0 -0.37283571032282492 0.1791450959532255 0 -0.3784015845151173 0.16895715591276281 0 -0.37283571032282492 0.1791450959532255 0 -0.37921940694751782 0.17343241172319571 0 -0.3784015845151173 0.16895715591276281 0 -0.37283571032282492 0.1791450959532255 0 -0.37921940694751782 0.17343241172319571 0 -0.37283571032282492 0.1791450959532255 0 -0.39703941422577987 0.15748552694114659 0 -0.37921940694751782 0.17343241172319571 0 -0.38193020105096481 0.16249827228531991 0 -0.3784015845151173 0.16895715591276281 0 -0.38193020105096481 0.16249827228531991 0 -0.37372345991800282 0.14335770613522919 0 -0.39703941422577987 0.15748552694114659 0 -0.37921940694751782 0.17343241172319571 0 -0.3926733654842145 0.1692345557408807 0 -0.39703941422577987 0.15748552694114659 0 -0.37921940694751782 0.17343241172319571 0 -0.39703941422577987 0.15748552694114659 0 -0.38193020105096481 0.16249827228531991 0 -0.38598126975628672 0.1494316781992327 0 -0.37921940694751782 0.17343241172319571 0 -0.3784015845151173 0.16895715591276281 0 -0.38193020105096481 0.16249827228531991 0 -0.3784015845151173 0.16895715591276281 0 -0.38193020105096481 0.16249827228531991 0 -0.37921940694751782 0.17343241172319571 0 -0.3784015845151173 0.16895715591276281 0 -0.38598126975628672 0.1494316781992327 0 -0.39401402549175851 0.1361747599337243 0 -0.37372345991800282 0.14335770613522919 0 -0.38193020105096481 0.16249827228531991 0 -0.38598126975628672 0.1494316781992327 0 -0.37372345991800282 0.14335770613522919 0 -0.3784015845151173 0.16895715591276281 0 -0.37372345991800282 0.14335770613522919 0 -0.39703941422577987 0.15748552694114659 0 -0.38598126975628672 0.1494316781992327 0 -0.39401402549175851 0.1361747599337243 0 -0.41485942150404181 0.14153864215909739 0 -0.39703941422577987 0.15748552694114659 0 -0.39401402549175851 0.1361747599337243 0 -0.41485942150404181 0.14153864215909739 0 -0.39703941422577987 0.15748552694114659 0 -0.4044664398419977 0.15594807455379561 0 -0.41485942150404181 0.14153864215909739 0 -0.39703941422577987 0.15748552694114659 0 -0.40864304721671202 0.1107171055473533 0 -0.41485942150404181 0.14153864215909739 0 -0.39401402549175851 0.1361747599337243 0 -0.38750957741872682 0.11885909540365321 0 -0.37372345991800282 0.14335770613522919 0 -0.36904533532088801 0.1177582563576956 0 -0.38750957741872682 0.11885909540365321 0 -0.39401402549175851 0.1361747599337243 0 -0.37372345991800282 0.14335770613522919 0 -0.35823941519022368 0.13573745574644491 0 -0.37372345991800282 0.14335770613522919 0 -0.36904533532088801 0.1177582563576956 0 -0.37372345991800282 0.14335770613522919 0 -0.36904533532088801 0.1177582563576956 0 -0.35823941519022368 0.13573745574644491 0 -0.34455851703438989 0.13305210298766909 0 -0.35158166360451942 0.11704707172714621 0 -0.35823941519022368 0.13573745574644491 0 -0.34455851703438989 0.13305210298766909 0 -0.34873147585397152 0.15030858297792049 0 -0.35823941519022368 0.13573745574644491 0 -0.34873147585397152 0.15030858297792049 0 -0.36179603940957061 0.15290101429300901 0 -0.34873147585397152 0.15030858297792049 0 -0.34720568730415252 0.1616956217090188 0 -0.33647431770126862 0.14798842126345041 0 -0.34873147585397152 0.15030858297792049 0 -0.36179603940957061 0.15290101429300901 0 -0.35552330674067661 0.16014073544654131 0 -0.35823941519022368 0.13573745574644491 0 -0.36179603940957061 0.15290101429300901 0 -0.37372345991800282 0.14335770613522919 0 -0.3784015845151173 0.16895715591276281 0 -0.36179603940957061 0.15290101429300901 0 -0.37372345991800282 0.14335770613522919 0 -0.3784015845151173 0.16895715591276281 0 -0.36179603940957061 0.15290101429300901 0 -0.3628088848288224 0.16705289795690309 0 -0.3784015845151173 0.16895715591276281 0 -0.3628088848288224 0.16705289795690309 0 -0.36959790597703868 0.17377317275203899 0 -0.36179603940957061 0.15290101429300901 0 -0.3628088848288224 0.16705289795690309 0 -0.35552330674067661 0.16014073544654131 0 -0.38088029112643113 0.1825210369279657 0 -0.37283571032282492 0.1791450959532255 0 -0.36802074197771562 0.19700904511440151 0 -0.37283571032282492 0.1791450959532255 0 -0.36399845157591232 0.19532107462703119 0 -0.37283571032282492 0.1791450959532255 0 -0.36261880381503758 0.18828806813974089 0 -0.3784015845151173 0.16895715591276281 0 -0.36959790597703868 0.17377317275203899 0 -0.37283571032282492 0.1791450959532255 0 -0.36959790597703868 0.17377317275203899 0 -0.37283571032282492 0.1791450959532255 0 -0.36409588864576692 0.17933358541092431 0 -0.3628088848288224 0.16705289795690309 0 -0.36959790597703868 0.17377317275203899 0 -0.36409588864576692 0.17933358541092431 0 -0.3628088848288224 0.16705289795690309 0 -0.36409588864576692 0.17933358541092431 0 -0.35614161380151321 0.17761165346375071 0 -0.36409588864576692 0.17933358541092431 0 -0.35797279878738592 0.18411861580098379 0 -0.35614161380151321 0.17761165346375071 0 -0.36409588864576692 0.17933358541092431 0 -0.35797279878738592 0.18411861580098379 0 -0.36261880381503758 0.18828806813974089 0 -0.37283571032282492 0.1791450959532255 0 -0.36409588864576692 0.17933358541092431 0 -0.36261880381503758 0.18828806813974089 0 -0.35797279878738592 0.18411861580098379 0 -0.35614161380151321 0.17761165346375071 0 -0.35065229879255438 0.18593262723135329 0 -0.35797279878738592 0.18411861580098379 0 -0.35065229879255438 0.18593262723135329 0 -0.35645772166264922 0.19211102842263869 0 -0.35614161380151321 0.17761165346375071 0 -0.34811061985946878 0.17434540014992381 0 -0.35436851446084039 0.1683048517912053 0 -0.35614161380151321 0.17761165346375071 0 -0.34811061985946878 0.17434540014992381 0 -0.35065229879255438 0.18593262723135329 0 -0.35065229879255438 0.18593262723135329 0 -0.34227569468909552 0.1811403169530669 0 -0.33993633525554889 0.19055096072852831 0 -0.34811061985946878 0.17434540014992381 0 -0.35065229879255438 0.18593262723135329 0 -0.34227569468909552 0.1811403169530669 0 -0.35552330674067661 0.16014073544654131 0 -0.35436851446084039 0.1683048517912053 0 -0.34720568730415252 0.1616956217090188 0 -0.3628088848288224 0.16705289795690309 0 -0.35614161380151321 0.17761165346375071 0 -0.35436851446084039 0.1683048517912053 0 -0.3628088848288224 0.16705289795690309 0 -0.35552330674067661 0.16014073544654131 0 -0.35436851446084039 0.1683048517912053 0 -0.34811061985946878 0.17434540014992381 0 -0.34720568730415252 0.1616956217090188 0 -0.33801991010865667 0.17138732975114751 0 -0.34811061985946878 0.17434540014992381 0 -0.35436851446084039 0.1683048517912053 0 -0.34720568730415252 0.1616956217090188 0 -0.34873147585397152 0.15030858297792049 0 -0.35552330674067661 0.16014073544654131 0 -0.34720568730415252 0.1616956217090188 0 -0.34720568730415252 0.1616956217090188 0 -0.33801991010865667 0.17138732975114751 0 -0.33092539158612982 0.1609515407851054 0 -0.34720568730415252 0.1616956217090188 0 -0.33092539158612982 0.1609515407851054 0 -0.33647431770126862 0.14798842126345041 0 -0.33801991010865667 0.17138732975114751 0 -0.33092539158612982 0.1609515407851054 0 -0.3265778886375873 0.17202186172735501 0 -0.34227569468909552 0.1811403169530669 0 -0.33183788287013261 0.1831818366374682 0 -0.33993633525554889 0.19055096072852831 0 -0.34811061985946878 0.17434540014992381 0 -0.33801991010865667 0.17138732975114751 0 -0.34227569468909552 0.1811403169530669 0 -0.33801991010865667 0.17138732975114751 0 -0.34227569468909552 0.1811403169530669 0 -0.33183788287013261 0.1831818366374682 0 -0.33801991010865667 0.17138732975114751 0 -0.33183788287013261 0.1831818366374682 0 -0.3265778886375873 0.17202186172735501 0 -0.3265778886375873 0.17202186172735501 0 -0.31632076704925127 0.18575639557221951 0 -0.3167678101826048 0.16359462978275929 0 -0.33183788287013261 0.1831818366374682 0 -0.3265778886375873 0.17202186172735501 0 -0.31632076704925127 0.18575639557221951 0 -0.33092539158612982 0.1609515407851054 0 -0.3167678101826048 0.16359462978275929 0 -0.32050673558250908 0.1490213804769015 0 -0.33092539158612982 0.1609515407851054 0 -0.3265778886375873 0.17202186172735501 0 -0.3167678101826048 0.16359462978275929 0 -0.32050673558250908 0.1490213804769015 0 -0.30739524272803709 0.15185112365938391 0 -0.31211500736378339 0.1240031522641292 0 -0.3167678101826048 0.16359462978275929 0 -0.32050673558250908 0.1490213804769015 0 -0.30739524272803709 0.15185112365938391 0 -0.32050673558250908 0.1490213804769015 0 -0.30739524272803709 0.15185112365938391 0 -0.32919359534549508 0.13424827028365749 0 -0.31211500736378339 0.1240031522641292 0 -0.33231339904552459 0.1171762944261375 0 -0.32050673558250908 0.1490213804769015 0 -0.32919359534549508 0.13424827028365749 0 -0.31211500736378339 0.1240031522641292 0 -0.34455851703438989 0.13305210298766909 0 -0.32919359534549508 0.13424827028365749 0 -0.33231339904552459 0.1171762944261375 0 -0.34455851703438989 0.13305210298766909 0 -0.32919359534549508 0.13424827028365749 0 -0.33647431770126862 0.14798842126345041 0 -0.32050673558250908 0.1490213804769015 0 -0.32919359534549508 0.13424827028365749 0 -0.33647431770126862 0.14798842126345041 0 -0.33092539158612982 0.1609515407851054 0 -0.32050673558250908 0.1490213804769015 0 -0.33647431770126862 0.14798842126345041 0 -0.34455851703438989 0.13305210298766909 0 -0.34873147585397152 0.15030858297792049 0 -0.33647431770126862 0.14798842126345041 0 -0.35416421148584648 0.23888623464626721 0 -0.34843396418698602 0.22381077072877051 0 -0.33845336435013867 0.242079554605789 0 -0.35416421148584648 0.23888623464626721 0 -0.33845336435013867 0.242079554605789 0 -0.35464358931248319 0.25491115920099722 0 -0.37939186114838758 0.22424627805714001 0 -0.37013679196984273 0.23750613219799629 0 -0.37477717689163992 0.25299635056682518 0 -0.37013679196984273 0.23750613219799629 0 -0.35464358931248319 0.25491115920099722 0 -0.37477717689163992 0.25299635056682518 0 -0.35416421148584648 0.23888623464626721 0 -0.37013679196984273 0.23750613219799629 0 -0.35464358931248319 0.25491115920099722 0 -0.35416421148584648 0.23888623464626721 0 -0.37013679196984273 0.23750613219799629 0 -0.36148561266771267 0.2305011068434443 0 -0.36148561266771267 0.2305011068434443 0 -0.36975441169016687 0.228432664243616 0 -0.36800338097472479 0.22147713987588341 0 -0.37013679196984273 0.23750613219799629 0 -0.36148561266771267 0.2305011068434443 0 -0.36975441169016687 0.228432664243616 0 -0.37939186114838758 0.22424627805714001 0 -0.37013679196984273 0.23750613219799629 0 -0.36975441169016687 0.228432664243616 0 -0.37939186114838758 0.22424627805714001 0 -0.36975441169016687 0.228432664243616 0 -0.36800338097472479 0.22147713987588341 0 -0.36800338097472479 0.22147713987588341 0 -0.34843396418698602 0.22381077072877051 0 -0.35516119282899983 0.21149705330083701 0 -0.36148561266771267 0.2305011068434443 0 -0.36800338097472479 0.22147713987588341 0 -0.34843396418698602 0.22381077072877051 0 -0.36800338097472479 0.22147713987588341 0 -0.34843396418698602 0.22381077072877051 0 -0.35416421148584648 0.23888623464626721 0 -0.36148561266771267 0.2305011068434443 0 -0.34843396418698602 0.22381077072877051 0 -0.34843396418698602 0.22381077072877051 0 -0.34802604401402371 0.21953575615482759 0 -0.33982416592956399 0.21665757569738961 0 -0.34802604401402371 0.21953575615482759 0 -0.34581283434165899 0.20861347152532789 0 -0.33982416592956399 0.21665757569738961 0 -0.34802604401402371 0.21953575615482759 0 -0.34581283434165899 0.20861347152532789 0 -0.35516119282899983 0.21149705330083701 0 -0.34843396418698602 0.22381077072877051 0 -0.34802604401402371 0.21953575615482759 0 -0.35516119282899983 0.21149705330083701 0 -0.34581283434165899 0.20861347152532789 0 -0.35516119282899983 0.21149705330083701 0 -0.35389383475621161 0.20092716755479181 0 -0.34802604401402371 0.21953575615482759 0 -0.35516119282899983 0.21149705330083701 0 -0.34843396418698602 0.22381077072877051 0 -0.35516119282899983 0.21149705330083701 0 -0.36800338097472479 0.22147713987588341 0 -0.35516119282899983 0.21149705330083701 0 -0.37368745339656201 0.20924711939208951 0 -0.35516119282899983 0.21149705330083701 0 -0.37368745339656201 0.20924711939208951 0 -0.36802074197771562 0.19700904511440151 0 -0.35516119282899983 0.21149705330083701 0 -0.36399845157591232 0.19532107462703119 0 -0.35516119282899983 0.21149705330083701 0 -0.36802074197771562 0.19700904511440151 0 -0.37283571032282492 0.1791450959532255 0 -0.36399845157591232 0.19532107462703119 0 -0.36261880381503758 0.18828806813974089 0 -0.37283571032282492 0.1791450959532255 0 -0.36399845157591232 0.19532107462703119 0 -0.36802074197771562 0.19700904511440151 0 -0.35516119282899983 0.21149705330083701 0 -0.36399845157591232 0.19532107462703119 0 -0.36802074197771562 0.19700904511440151 0 -0.38088029112643113 0.1825210369279657 0 -0.36802074197771562 0.19700904511440151 0 -0.36399845157591232 0.19532107462703119 0 -0.36261880381503758 0.18828806813974089 0 -0.35645772166264922 0.19211102842263869 0 -0.35797279878738592 0.18411861580098379 0 -0.36261880381503758 0.18828806813974089 0 -0.35645772166264922 0.19211102842263869 0 -0.35065229879255438 0.18593262723135329 0 -0.35645772166264922 0.19211102842263869 0 -0.34803897337183792 0.19709320989812409 0 -0.35516119282899983 0.21149705330083701 0 -0.36399845157591232 0.19532107462703119 0 -0.35389383475621161 0.20092716755479181 0 -0.35645772166264922 0.19211102842263869 0 -0.35389383475621161 0.20092716755479181 0 -0.34803897337183792 0.19709320989812409 0 -0.36399845157591232 0.19532107462703119 0 -0.35645772166264922 0.19211102842263869 0 -0.35389383475621161 0.20092716755479181 0 -0.34581283434165899 0.20861347152532789 0 -0.35389383475621161 0.20092716755479181 0 -0.34803897337183792 0.19709320989812409 0 -0.34581283434165899 0.20861347152532789 0 -0.34803897337183792 0.19709320989812409 0 -0.33933674095816863 0.19971543786353729 0 -0.35065229879255438 0.18593262723135329 0 -0.34803897337183792 0.19709320989812409 0 -0.33993633525554889 0.19055096072852831 0 -0.33993633525554889 0.19055096072852831 0 -0.33933674095816863 0.19971543786353729 0 -0.33069942903629101 0.19625725860753851 0 -0.34803897337183792 0.19709320989812409 0 -0.33993633525554889 0.19055096072852831 0 -0.33933674095816863 0.19971543786353729 0 -0.33933674095816863 0.19971543786353729 0 -0.33069942903629101 0.19625725860753851 0 -0.33422481296465362 0.2080963853910347 0 -0.33183788287013261 0.1831818366374682 0 -0.33993633525554889 0.19055096072852831 0 -0.33069942903629101 0.19625725860753851 0 -0.31632076704925127 0.18575639557221951 0 -0.33069942903629101 0.19625725860753851 0 -0.32036655352850157 0.2095523693350691 0 -0.33183788287013261 0.1831818366374682 0 -0.31632076704925127 0.18575639557221951 0 -0.33069942903629101 0.19625725860753851 0 -0.32036655352850157 0.2095523693350691 0 -0.32458589997660492 0.2266546254550818 0 -0.30779163400160159 0.21927945841494459 0 -0.32036655352850157 0.2095523693350691 0 -0.32934906837639222 0.21536895119528529 0 -0.32458589997660492 0.2266546254550818 0 -0.32036655352850157 0.2095523693350691 0 -0.32934906837639222 0.21536895119528529 0 -0.33422481296465362 0.2080963853910347 0 -0.32934906837639222 0.21536895119528529 0 -0.33422481296465362 0.2080963853910347 0 -0.33982416592956399 0.21665757569738961 0 -0.33069942903629101 0.19625725860753851 0 -0.32036655352850157 0.2095523693350691 0 -0.33422481296465362 0.2080963853910347 0 -0.34581283434165899 0.20861347152532789 0 -0.33933674095816863 0.19971543786353729 0 -0.33422481296465362 0.2080963853910347 0 -0.34581283434165899 0.20861347152532789 0 -0.33422481296465362 0.2080963853910347 0 -0.33982416592956399 0.21665757569738961 0 -0.34843396418698602 0.22381077072877051 0 -0.33982416592956399 0.21665757569738961 0 -0.32458589997660492 0.2266546254550818 0 -0.34843396418698602 0.22381077072877051 0 -0.32458589997660492 0.2266546254550818 0 -0.34843396418698602 0.22381077072877051 0 -0.32458589997660492 0.2266546254550818 0 -0.33845336435013867 0.242079554605789 0 -0.34843396418698602 0.22381077072877051 0 -0.33845336435013867 0.242079554605789 0 -0.32934906837639222 0.21536895119528529 0 -0.33982416592956399 0.21665757569738961 0 -0.32458589997660492 0.2266546254550818 0 -0.32458589997660492 0.2266546254550818 0 -0.30073783576622393 0.22949848018139329 0 -0.32458589997660492 0.2266546254550818 0 -0.32455092720978362 0.24357057421839101 0 -0.31122576982003303 0.23714335435801151 0 -0.32455092720978362 0.24357057421839101 0 -0.311575650220281 0.24878047680599949 0 -0.31122576982003303 0.23714335435801151 0 -0.32458589997660492 0.2266546254550818 0 -0.32455092720978362 0.24357057421839101 0 -0.33845336435013867 0.242079554605789 0 -0.32455092720978362 0.24357057421839101 0 -0.33845336435013867 0.242079554605789 0 -0.32847276451329022 0.26034833848280681 0 -0.29310990672191722 0.23613872254877591 0 -0.29467853592727078 0.23721261512919359 0 -0.28985028671148488 0.25537141990030859 0 -0.29310990672191722 0.23613872254877591 0 -0.27131573767068418 0.22826101281380451 0 -0.28058301219108422 0.24181621635705669 0 -0.29310990672191722 0.23613872254877591 0 -0.28985028671148488 0.25537141990030859 0 -0.29310990672191722 0.23613872254877591 0 -0.28058301219108422 0.24181621635705669 0 -0.28985028671148488 0.25537141990030859 0 -0.28058301219108422 0.24181621635705669 0 -0.28985028671148488 0.25537141990030859 0 -0.29310990672191722 0.23613872254877591 0 -0.29467853592727078 0.23721261512919359 0 -0.29467853592727078 0.23721261512919359 0 -0.31122576982003303 0.23714335435801151 0 -0.30073783576622393 0.22949848018139329 0 -0.29467853592727078 0.23721261512919359 0 -0.311575650220281 0.24878047680599949 0 -0.31122576982003303 0.23714335435801151 0 -0.29467853592727078 0.23721261512919359 0 -0.311575650220281 0.24878047680599949 0 -0.29467853592727078 0.23721261512919359 0 -0.311575650220281 0.24878047680599949 0 -0.29523766041035199 0.26325150879709891 0 -0.32458589997660492 0.2266546254550818 0 -0.30073783576622393 0.22949848018139329 0 -0.30779163400160159 0.21927945841494459 0 -0.32458589997660492 0.2266546254550818 0 -0.31122576982003303 0.23714335435801151 0 -0.30073783576622393 0.22949848018139329 0 -0.30073783576622393 0.22949848018139329 0 -0.30779163400160159 0.21927945841494459 0 -0.29448167989639912 0.22804486553003031 0 -0.29310990672191722 0.23613872254877591 0 -0.29448167989639912 0.22804486553003031 0 -0.27369133376421262 0.22284465576077489 0 -0.29448167989639912 0.22804486553003031 0 -0.2838712618875629 0.21479465795795599 0 -0.27369133376421262 0.22284465576077489 0 -0.29448167989639912 0.22804486553003031 0 -0.29413635243235581 0.21196267741475219 0 -0.29310990672191722 0.23613872254877591 0 -0.27369133376421262 0.22284465576077489 0 -0.29467853592727078 0.23721261512919359 0 -0.30073783576622393 0.22949848018139329 0 -0.29448167989639912 0.22804486553003031 0 -0.29310990672191722 0.23613872254877591 0 -0.29467853592727078 0.23721261512919359 0 -0.29448167989639912 0.22804486553003031 0 -0.29467853592727078 0.23721261512919359 0 -0.29448167989639912 0.22804486553003031 0 -0.29310990672191722 0.23613872254877591 0 -0.29448167989639912 0.22804486553003031 0 -0.29413635243235581 0.21196267741475219 0 -0.29878620084027852 0.20264695157314819 0 -0.29379102496831272 0.19588048929947419 0 -0.29448167989639912 0.22804486553003031 0 -0.29413635243235581 0.21196267741475219 0 -0.29878620084027852 0.20264695157314819 0 -0.29448167989639912 0.22804486553003031 0 -0.29878620084027852 0.20264695157314819 0 -0.29413635243235581 0.21196267741475219 0 -0.29379102496831272 0.19588048929947419 0 -0.28522308967114912 0.20452327137286261 0 -0.29413635243235581 0.21196267741475219 0 -0.29379102496831272 0.19588048929947419 0 -0.29448167989639912 0.22804486553003031 0 -0.2838712618875629 0.21479465795795599 0 -0.29413635243235581 0.21196267741475219 0 -0.2838712618875629 0.21479465795795599 0 -0.28522308967114912 0.20452327137286261 0 -0.29413635243235581 0.21196267741475219 0 -0.32036655352850157 0.2095523693350691 0 -0.30779163400160159 0.21927945841494459 0 -0.29878620084027852 0.20264695157314819 0 -0.30779163400160159 0.21927945841494459 0 -0.29448167989639912 0.22804486553003031 0 -0.29878620084027852 0.20264695157314819 0 -0.29878620084027852 0.20264695157314819 0 -0.29379102496831272 0.19588048929947419 0 -0.30309072178415769 0.17724903761626601 0 -0.31632076704925127 0.18575639557221951 0 -0.29878620084027852 0.20264695157314819 0 -0.30309072178415769 0.17724903761626601 0 -0.31632076704925127 0.18575639557221951 0 -0.32036655352850157 0.2095523693350691 0 -0.29878620084027852 0.20264695157314819 0 -0.29878620084027852 0.20264695157314819 0 -0.30309072178415769 0.17724903761626601 0 -0.28522308967114912 0.20452327137286261 0 -0.29379102496831272 0.19588048929947419 0 -0.28124953787461371 0.1935735916895788 0 -0.29379102496831272 0.19588048929947419 0 -0.28124953787461371 0.1935735916895788 0 -0.28752446549241689 0.1832489647230989 0 -0.28124953787461371 0.1935735916895788 0 -0.2659766044530758 0.19238405035351089 0 -0.27494974420821611 0.1793112011395637 0 -0.28522308967114912 0.20452327137286261 0 -0.28124953787461371 0.1935735916895788 0 -0.27431068871210279 0.20621206129374381 0 -0.28124953787461371 0.1935735916895788 0 -0.2659766044530758 0.19238405035351089 0 -0.27431068871210279 0.20621206129374381 0 -0.25427276080650663 0.20955058897277601 0 -0.24947341468037071 0.1874691479585941 0 -0.2659766044530758 0.19238405035351089 0 -0.25427276080650663 0.20955058897277601 0 -0.24947341468037071 0.1874691479585941 0 -0.2659766044530758 0.19238405035351089 0 -0.25427276080650663 0.20955058897277601 0 -0.27431068871210279 0.20621206129374381 0 -0.25427276080650663 0.20955058897277601 0 -0.27369133376421262 0.22284465576077489 0 -0.25427276080650663 0.20955058897277601 0 -0.25977281016601761 0.2185578892770178 0 -0.27369133376421262 0.22284465576077489 0 -0.25427276080650663 0.20955058897277601 0 -0.25561524088587501 0.21572724177218369 0 -0.25977281016601761 0.2185578892770178 0 -0.25427276080650663 0.20955058897277601 0 -0.25561524088587501 0.21572724177218369 0 -0.24333230173327219 0.21221501244476959 0 -0.25427276080650663 0.20955058897277601 0 -0.25561524088587501 0.21572724177218369 0 -0.25427276080650663 0.20955058897277601 0 -0.27431068871210279 0.20621206129374381 0 -0.27369133376421262 0.22284465576077489 0 -0.2838712618875629 0.21479465795795599 0 -0.27431068871210279 0.20621206129374381 0 -0.27369133376421262 0.22284465576077489 0 -0.2838712618875629 0.21479465795795599 0 -0.28522308967114912 0.20452327137286261 0 -0.27431068871210279 0.20621206129374381 0 -0.29310990672191722 0.23613872254877591 0 -0.27369133376421262 0.22284465576077489 0 -0.27131573767068418 0.22826101281380451 0 -0.27131573767068418 0.22826101281380451 0 -0.26439065681250729 0.2289784260688752 0 -0.26819560602517328 0.23507842756581021 0 -0.27131573767068418 0.22826101281380451 0 -0.26675876456119929 0.22568570462696191 0 -0.26439065681250729 0.2289784260688752 0 -0.27369133376421262 0.22284465576077489 0 -0.26675876456119929 0.22568570462696191 0 -0.26371349664181459 0.22286429712754721 0 -0.25977281016601761 0.2185578892770178 0 -0.27369133376421262 0.22284465576077489 0 -0.26371349664181459 0.22286429712754721 0 -0.27369133376421262 0.22284465576077489 0 -0.27131573767068418 0.22826101281380451 0 -0.26675876456119929 0.22568570462696191 0 -0.26675876456119929 0.22568570462696191 0 -0.26371349664181459 0.22286429712754721 0 -0.26068259791677789 0.22548013136380779 0 -0.26068259791677789 0.22548013136380779 0 -0.25678634991227811 0.22260498734460241 0 -0.2574101570832959 0.22971939663687391 0 -0.26371349664181459 0.22286429712754721 0 -0.26068259791677789 0.22548013136380779 0 -0.25678634991227811 0.22260498734460241 0 -0.25977281016601761 0.2185578892770178 0 -0.26371349664181459 0.22286429712754721 0 -0.25678634991227811 0.22260498734460241 0 -0.25561524088587501 0.21572724177218369 0 -0.25977281016601761 0.2185578892770178 0 -0.25678634991227811 0.22260498734460241 0 -0.25678634991227811 0.22260498734460241 0 -0.249817319625419 0.2274340479663062 0 -0.24904636230289101 0.22050689045355901 0 -0.25561524088587501 0.21572724177218369 0 -0.25678634991227811 0.22260498734460241 0 -0.24904636230289101 0.22050689045355901 0 -0.25109603964961891 0.234366577265785 0 -0.2574101570832959 0.22971939663687391 0 -0.249817319625419 0.2274340479663062 0 -0.25678634991227811 0.22260498734460241 0 -0.2574101570832959 0.22971939663687391 0 -0.249817319625419 0.2274340479663062 0 -0.2574101570832959 0.22971939663687391 0 -0.26439065681250729 0.2289784260688752 0 -0.26193406046231932 0.2344272911270443 0 -0.26068259791677789 0.22548013136380779 0 -0.2574101570832959 0.22971939663687391 0 -0.26439065681250729 0.2289784260688752 0 -0.26675876456119929 0.22568570462696191 0 -0.26068259791677789 0.22548013136380779 0 -0.26439065681250729 0.2289784260688752 0 -0.26439065681250729 0.2289784260688752 0 -0.26193406046231932 0.2344272911270443 0 -0.26819560602517328 0.23507842756581021 0 -0.26193406046231932 0.2344272911270443 0 -0.26614348890836192 0.24293385421211869 0 -0.26819560602517328 0.23507842756581021 0 -0.2574101570832959 0.22971939663687391 0 -0.26193406046231932 0.2344272911270443 0 -0.25699538715464082 0.23905233796863981 0 -0.26193406046231932 0.2344272911270443 0 -0.25699538715464082 0.23905233796863981 0 -0.26614348890836192 0.24293385421211869 0 -0.25109603964961891 0.234366577265785 0 -0.25699538715464082 0.23905233796863981 0 -0.2470081454867771 0.2422065880623451 0 -0.25109603964961891 0.234366577265785 0 -0.2574101570832959 0.22971939663687391 0 -0.25699538715464082 0.23905233796863981 0 -0.25699538715464082 0.23905233796863981 0 -0.25693865295534157 0.25278860643768353 0 -0.2470081454867771 0.2422065880623451 0 -0.25699538715464082 0.23905233796863981 0 -0.26614348890836192 0.24293385421211869 0 -0.25693865295534157 0.25278860643768353 0 -0.26614348890836192 0.24293385421211869 0 -0.2724296921133022 0.25217156250687062 0 -0.25693865295534157 0.25278860643768353 0 -0.26614348890836192 0.24293385421211869 0 -0.28058301219108422 0.24181621635705669 0 -0.2724296921133022 0.25217156250687062 0 -0.28058301219108422 0.24181621635705669 0 -0.28985028671148488 0.25537141990030859 0 -0.2724296921133022 0.25217156250687062 0 -0.26614348890836192 0.24293385421211869 0 -0.26819560602517328 0.23507842756581021 0 -0.28058301219108422 0.24181621635705669 0 -0.27131573767068418 0.22826101281380451 0 -0.26819560602517328 0.23507842756581021 0 -0.28058301219108422 0.24181621635705669 0 -0.27131573767068418 0.22826101281380451 0 -0.28058301219108422 0.24181621635705669 0 -0.29326612220823411 0.13512644163735801 0 -0.28648818467010168 0.15636331808772699 0 -0.27141175194646833 0.1445184244171912 0 -0.29326612220823411 0.13512644163735801 0 -0.30739524272803709 0.15185112365938391 0 -0.28648818467010168 0.15636331808772699 0 -0.30739524272803709 0.15185112365938391 0 -0.31211500736378339 0.1240031522641292 0 -0.29326612220823411 0.13512644163735801 0 -0.30739524272803709 0.15185112365938391 0 -0.31211500736378339 0.1240031522641292 0 -0.30739524272803709 0.15185112365938391 0 -0.28648818467010168 0.15636331808772699 0 -0.30739524272803709 0.15185112365938391 0 -0.30309072178415769 0.17724903761626601 0 -0.3167678101826048 0.16359462978275929 0 -0.30739524272803709 0.15185112365938391 0 -0.30309072178415769 0.17724903761626601 0 -0.30739524272803709 0.15185112365938391 0 -0.30309072178415769 0.17724903761626601 0 -0.28648818467010168 0.15636331808772699 0 -0.31632076704925127 0.18575639557221951 0 -0.3167678101826048 0.16359462978275929 0 -0.30309072178415769 0.17724903761626601 0 -0.30309072178415769 0.17724903761626601 0 -0.28752446549241689 0.1832489647230989 0 -0.28381669143151822 0.17107272026056419 0 -0.29379102496831272 0.19588048929947419 0 -0.30309072178415769 0.17724903761626601 0 -0.28752446549241689 0.1832489647230989 0 -0.28752446549241689 0.1832489647230989 0 -0.28381669143151822 0.17107272026056419 0 -0.27494974420821611 0.1793112011395637 0 -0.30309072178415769 0.17724903761626601 0 -0.28648818467010168 0.15636331808772699 0 -0.28381669143151822 0.17107272026056419 0 -0.28648818467010168 0.15636331808772699 0 -0.28381669143151822 0.17107272026056419 0 -0.26558112661216632 0.16087551251606999 0 -0.28381669143151822 0.17107272026056419 0 -0.27494974420821611 0.1793112011395637 0 -0.26558112661216632 0.16087551251606999 0 -0.28648818467010168 0.15636331808772699 0 -0.26558112661216632 0.16087551251606999 0 -0.27494974420821611 0.1793112011395637 0 -0.26084394980388648 0.17618123618614701 0 -0.26558112661216632 0.16087551251606999 0 -0.2659766044530758 0.19238405035351089 0 -0.27494974420821611 0.1793112011395637 0 -0.26084394980388648 0.17618123618614701 0 -0.28124953787461371 0.1935735916895788 0 -0.28752446549241689 0.1832489647230989 0 -0.27494974420821611 0.1793112011395637 0 -0.2659766044530758 0.19238405035351089 0 -0.26084394980388648 0.17618123618614701 0 -0.24947341468037071 0.1874691479585941 0 -0.26084394980388648 0.17618123618614701 0 -0.24467406855423091 0.1653877069444131 0 -0.24947341468037071 0.1874691479585941 0 -0.26558112661216632 0.16087551251606999 0 -0.24467406855423091 0.1653877069444131 0 -0.26558112661216632 0.16087551251606999 0 -0.2543915534089356 0.15018751405662761 0 -0.24467406855423091 0.1653877069444131 0 -0.26084394980388648 0.17618123618614701 0 -0.26558112661216632 0.16087551251606999 0 -0.24467406855423091 0.1653877069444131 0 -0.26558112661216632 0.16087551251606999 0 -0.2543915534089356 0.15018751405662761 0 -0.27141175194646833 0.1445184244171912 0 -0.2543915534089356 0.15018751405662761 0 -0.27141175194646833 0.1445184244171912 0 -0.25477231595188199 0.13792181725732239 0 -0.28648818467010168 0.15636331808772699 0 -0.26558112661216632 0.16087551251606999 0 -0.27141175194646833 0.1445184244171912 0 -0.29326612220823411 0.13512644163735801 0 -0.27141175194646833 0.1445184244171912 0 -0.27545980130109921 0.1239996051278405 0 -0.27141175194646833 0.1445184244171912 0 -0.25477231595188199 0.13792181725732239 0 -0.27545980130109921 0.1239996051278405 0 -0.25477231595188199 0.13792181725732239 0 -0.27545980130109921 0.1239996051278405 0 -0.25477231595188199 0.13792181725732239 0 -0.27545980130109921 0.1239996051278405 0 -0.2495823492922267 0.12121763785839371 0 -0.25610310449345419 0.1041046972302731 0 -0.27545980130109921 0.1239996051278405 0 -0.2495823492922267 0.12121763785839371 0 -0.25610310449345419 0.1041046972302731 0 -0.25413031243694739 0.089521027236778197 0 -0.2427234934652894 0.090762762990284518 0 -0.25610310449345419 0.1041046972302731 0 -0.26471001572300679 0.091779207982481292 0 -0.25413031243694739 0.089521027236778197 0 -0.25610310449345419 0.1041046972302731 0 -0.27632390472144541 0.10600366135062909 0 -0.26471001572300679 0.091779207982481292 0 -0.27632390472144541 0.10600366135062909 0 -0.27815219556391091 0.091433986845849968 0 -0.26471001572300679 0.091779207982481292 0 -0.27632390472144541 0.10600366135062909 0 -0.28783094919658059 0.096999283795453681 0 -0.27815219556391091 0.091433986845849968 0 -0.25610310449345419 0.1041046972302731 0 -0.27632390472144541 0.10600366135062909 0 -0.27545980130109921 0.1239996051278405 0 -0.27545980130109921 0.1239996051278405 0 -0.29614728665031642 0.1100773929983587 0 -0.29326612220823411 0.13512644163735801 0 -0.27545980130109921 0.1239996051278405 0 -0.29614728665031642 0.1100773929983587 0 -0.27632390472144541 0.10600366135062909 0 -0.27545980130109921 0.1239996051278405 0 -0.29614728665031642 0.1100773929983587 0 -0.27632390472144541 0.10600366135062909 0 -0.29614728665031642 0.1100773929983587 0 -0.28783094919658059 0.096999283795453681 0 -0.29614728665031642 0.1100773929983587 0 -0.28783094919658059 0.096999283795453681 0 -0.29903425758953422 0.090155638130954882 0 -0.29614728665031642 0.1100773929983587 0 -0.29903425758953422 0.090155638130954882 0 -0.31683477199953253 0.096155180868875256 0 -0.29614728665031642 0.1100773929983587 0 -0.31683477199953253 0.096155180868875256 0 -0.29614728665031642 0.1100773929983587 0 -0.31211500736378339 0.1240031522641292 0 -0.31683477199953253 0.096155180868875256 0 -0.29326612220823411 0.13512644163735801 0 -0.29614728665031642 0.1100773929983587 0 -0.31211500736378339 0.1240031522641292 0 -0.30635830999651792 0.07761242167179265 0 -0.30189037325813839 0.060543452134012458 0 -0.32146679815367007 0.068824891797761426 0 -0.30635830999651792 0.07761242167179265 0 -0.29256534898171721 0.072382945427359638 0 -0.30189037325813839 0.060543452134012458 0 -0.30635830999651792 0.07761242167179265 0 -0.29903425758953422 0.090155638130954882 0 -0.29256534898171721 0.072382945427359638 0 -0.30635830999651792 0.07761242167179265 0 -0.29903425758953422 0.090155638130954882 0 -0.31683477199953253 0.096155180868875256 0 -0.29903425758953422 0.090155638130954882 0 -0.28572263353681682 0.08337299634339973 0 -0.29256534898171721 0.072382945427359638 0 -0.28783094919658059 0.096999283795453681 0 -0.29903425758953422 0.090155638130954882 0 -0.28572263353681682 0.08337299634339973 0 -0.28783094919658059 0.096999283795453681 0 -0.28572263353681682 0.08337299634339973 0 -0.27815219556391091 0.091433986845849968 0 -0.28572263353681682 0.08337299634339973 0 -0.29256534898171721 0.072382945427359638 0 -0.28059357561043269 0.073644623599786935 0 -0.29256534898171721 0.072382945427359638 0 -0.29088471103165969 0.062671374321780771 0 -0.30189037325813839 0.060543452134012458 0 -0.29256534898171721 0.072382945427359638 0 -0.29088471103165969 0.062671374321780771 0 -0.28261649390190829 0.064291953838756216 0 -0.29256534898171721 0.072382945427359638 0 -0.28261649390190829 0.064291953838756216 0 -0.28059357561043269 0.073644623599786935 0 -0.28261649390190829 0.064291953838756216 0 -0.27678196032587499 0.069585006034529676 0 -0.27195195811963518 0.06635492754641531 0 -0.26855373331756138 0.063547936276670339 0 -0.27195195811963518 0.06635492754641531 0 -0.25743728825439521 0.07924270920583569 0 -0.28261649390190829 0.064291953838756216 0 -0.27678196032587499 0.069585006034529676 0 -0.28059357561043269 0.073644623599786935 0 -0.27678196032587499 0.069585006034529676 0 -0.27196581367152378 0.074048519153160283 0 -0.27195195811963518 0.06635492754641531 0 -0.27678196032587499 0.069585006034529676 0 -0.28059357561043269 0.073644623599786935 0 -0.27196581367152378 0.074048519153160283 0 -0.28059357561043269 0.073644623599786935 0 -0.27196581367152378 0.074048519153160283 0 -0.27303575277029413 0.081855029780232597 0 -0.27196581367152378 0.074048519153160283 0 -0.27195195811963518 0.06635492754641531 0 -0.25743728825439521 0.07924270920583569 0 -0.28572263353681682 0.08337299634339973 0 -0.27815219556391091 0.091433986845849968 0 -0.27303575277029413 0.081855029780232597 0 -0.28572263353681682 0.08337299634339973 0 -0.28059357561043269 0.073644623599786935 0 -0.27303575277029413 0.081855029780232597 0 -0.27196581367152378 0.074048519153160283 0 -0.27303575277029413 0.081855029780232597 0 -0.25743728825439521 0.07924270920583569 0 -0.27815219556391091 0.091433986845849968 0 -0.27303575277029413 0.081855029780232597 0 -0.26471001572300679 0.091779207982481292 0 -0.26471001572300679 0.091779207982481292 0 -0.25743728825439521 0.07924270920583569 0 -0.25413031243694739 0.089521027236778197 0 -0.27303575277029413 0.081855029780232597 0 -0.26471001572300679 0.091779207982481292 0 -0.25743728825439521 0.07924270920583569 0 -0.25743728825439521 0.07924270920583569 0 -0.25064083865024739 0.073628726666345984 0 -0.24857020570659841 0.081659589420377987 0 -0.25743728825439521 0.07924270920583569 0 -0.25413031243694739 0.089521027236778197 0 -0.24857020570659841 0.081659589420377987 0 -0.26855373331756138 0.063547936276670339 0 -0.25743728825439521 0.07924270920583569 0 -0.25064083865024739 0.073628726666345984 0 -0.26855373331756138 0.063547936276670339 0 -0.25064083865024739 0.073628726666345984 0 -0.2562734301216873 0.062061687155910393 0 -0.26855373331756138 0.063547936276670339 0 -0.25064083865024739 0.073628726666345984 0 -0.27195195811963518 0.06635492754641531 0 -0.25743728825439521 0.07924270920583569 0 -0.25064083865024739 0.073628726666345984 0 -0.2562734301216873 0.062061687155910393 0 -0.24829977196364941 0.065213336215906109 0 -0.2623477931936597 0.053657636987073307 0 -0.25116276906762952 0.054241108780248931 0 -0.26153642505613889 0.036367366133998442 0 -0.2562734301216873 0.062061687155910393 0 -0.2623477931936597 0.053657636987073307 0 -0.25116276906762952 0.054241108780248931 0 -0.2562734301216873 0.062061687155910393 0 -0.25116276906762952 0.054241108780248931 0 -0.24829977196364941 0.065213336215906109 0 -0.26855373331756138 0.063547936276670339 0 -0.2562734301216873 0.062061687155910393 0 -0.2623477931936597 0.053657636987073307 0 -0.25116276906762952 0.054241108780248931 0 -0.26153642505613889 0.036367366133998442 0 -0.239388393447095 0.04766651035075449 0 -0.2623477931936597 0.053657636987073307 0 -0.26153642505613889 0.036367366133998442 0 -0.27323710809808138 0.049716314049096537 0 -0.26153642505613889 0.036367366133998442 0 -0.28732673365434691 0.040933413293477772 0 -0.26153642505613889 0.036367366133998442 0 -0.2825074511423824 0.030310297232740709 0 -0.28732673365434691 0.040933413293477772 0 -0.26153642505613889 0.036367366133998442 0 -0.27323710809808138 0.049716314049096537 0 -0.28732673365434691 0.040933413293477772 0 -0.26855373331756138 0.063547936276670339 0 -0.27195195811963518 0.06635492754641531 0 -0.28646662798487532 0.053467145886994819 0 -0.26855373331756138 0.063547936276670339 0 -0.28646662798487532 0.053467145886994819 0 -0.26855373331756138 0.063547936276670339 0 -0.27323710809808138 0.049716314049096537 0 -0.28646662798487532 0.053467145886994819 0 -0.27195195811963518 0.06635492754641531 0 -0.28646662798487532 0.053467145886994819 0 -0.28261649390190829 0.064291953838756216 0 -0.27195195811963518 0.06635492754641531 0 -0.28646662798487532 0.053467145886994819 0 -0.26855373331756138 0.063547936276670339 0 -0.2623477931936597 0.053657636987073307 0 -0.27323710809808138 0.049716314049096537 0 -0.26176261374782622 0.0098260211376069873 0 -0.24854849079604721 0.020569936005881421 0 -0.24598119983726671 0.0037338506766126851 0 -0.26003022337954462 -0.0038093911555793728 0 -0.26176261374782622 0.0098260211376069873 0 -0.24598119983726671 0.0037338506766126851 0 -0.26003022337954462 -0.0038093911555793728 0 -0.27433688946420332 -0.0007833753365484626 0 -0.26176261374782622 0.0098260211376069873 0 -0.26153642505613889 0.036367366133998442 0 -0.26176261374782622 0.0098260211376069873 0 -0.24854849079604721 0.020569936005881421 0 -0.26153642505613889 0.036367366133998442 0 -0.26176261374782622 0.0098260211376069873 0 -0.27684491432135683 0.017453585025194441 0 -0.26153642505613889 0.036367366133998442 0 -0.27684491432135683 0.017453585025194441 0 -0.2825074511423824 0.030310297232740709 0 -0.27433688946420332 -0.0007833753365484626 0 -0.26176261374782622 0.0098260211376069873 0 -0.27684491432135683 0.017453585025194441 0 -0.27433688946420332 -0.0007833753365484626 0 -0.27684491432135683 0.017453585025194441 0 -0.28842838408131971 0.0076205693905790281 0 -0.28842838408131971 0.0076205693905790281 0 -0.29131927560690712 0.022062190579302341 0 -0.29989828236451899 0.011495108916467369 0 -0.27684491432135683 0.017453585025194441 0 -0.29131927560690712 0.022062190579302341 0 -0.2825074511423824 0.030310297232740709 0 -0.27684491432135683 0.017453585025194441 0 -0.28842838408131971 0.0076205693905790281 0 -0.29131927560690712 0.022062190579302341 0 -0.29131927560690712 0.022062190579302341 0 -0.2825074511423824 0.030310297232740709 0 -0.29550990707316249 0.034734931131730561 0 -0.29131927560690712 0.022062190579302341 0 -0.30587597075389272 0.02137954460474218 0 -0.29550990707316249 0.034734931131730561 0 -0.30587597075389272 0.02137954460474218 0 -0.29550990707316249 0.034734931131730561 0 -0.30859873922341308 0.03381572977126493 0 -0.29131927560690712 0.022062190579302341 0 -0.30587597075389272 0.02137954460474218 0 -0.29989828236451899 0.011495108916467369 0 -0.3025805037907468 -0.0027432771802810229 0 -0.3204068892458079 -0.0014125807301150939 0 -0.31128727758972891 0.0091565171879943417 0 -0.30587597075389272 0.02137954460474218 0 -0.29989828236451899 0.011495108916467369 0 -0.31128727758972891 0.0091565171879943417 0 -0.3025805037907468 -0.0027432771802810229 0 -0.29989828236451899 0.011495108916467369 0 -0.31128727758972891 0.0091565171879943417 0 -0.3025805037907468 -0.0027432771802810229 0 -0.28842838408131971 0.0076205693905790281 0 -0.29989828236451899 0.011495108916467369 0 -0.28646662798487532 0.053467145886994819 0 -0.304010183261538 0.043594207608826187 0 -0.29088471103165969 0.062671374321780771 0 -0.28646662798487532 0.053467145886994819 0 -0.30189037325813839 0.060543452134012458 0 -0.29088471103165969 0.062671374321780771 0 -0.28261649390190829 0.064291953838756216 0 -0.28646662798487532 0.053467145886994819 0 -0.27323710809808138 0.049716314049096537 0 -0.28646662798487532 0.053467145886994819 0 -0.28732673365434691 0.040933413293477772 0 -0.28646662798487532 0.053467145886994819 0 -0.29550990707316249 0.034734931131730561 0 -0.30859873922341308 0.03381572977126493 0 -0.28646662798487532 0.053467145886994819 0 -0.28732673365434691 0.040933413293477772 0 -0.29550990707316249 0.034734931131730561 0 -0.2825074511423824 0.030310297232740709 0 -0.28732673365434691 0.040933413293477772 0 -0.29550990707316249 0.034734931131730561 0 -0.28646662798487532 0.053467145886994819 0 -0.30859873922341308 0.03381572977126493 0 -0.28646662798487532 0.053467145886994819 0 -0.304010183261538 0.043594207608826187 0 -0.30859873922341308 0.03381572977126493 0 -0.304010183261538 0.043594207608826187 0 -0.30859873922341308 0.03381572977126493 0 -0.32155373853820057 0.033721269330657687 0 -0.304010183261538 0.043594207608826187 0 -0.3137915997446068 0.051476736654279882 0 -0.31549181974187701 0.042926529004151233 0 -0.28646662798487532 0.053467145886994819 0 -0.304010183261538 0.043594207608826187 0 -0.30189037325813839 0.060543452134012458 0 -0.30189037325813839 0.060543452134012458 0 -0.3137915997446068 0.051476736654279882 0 -0.32146679815367007 0.068824891797761426 0 -0.304010183261538 0.043594207608826187 0 -0.30189037325813839 0.060543452134012458 0 -0.3137915997446068 0.051476736654279882 0 -0.3137915997446068 0.051476736654279882 0 -0.32609882430781029 0.041494602726648067 0 -0.32146679815367007 0.068824891797761426 0 -0.32609882430781029 0.041494602726648067 0 -0.32146679815367007 0.068824891797761426 0 -0.3137915997446068 0.051476736654279882 0 -0.31549181974187701 0.042926529004151233 0 -0.32609882430781029 0.041494602726648067 0 -0.304010183261538 0.043594207608826187 0 -0.31549181974187701 0.042926529004151233 0 -0.32155373853820057 0.033721269330657687 0 -0.304010183261538 0.043594207608826187 0 -0.32155373853820057 0.033721269330657687 0 -0.31549181974187701 0.042926529004151233 0 -0.32155373853820057 0.033721269330657687 0 -0.32609882430781029 0.041494602726648067 0 -0.32609882430781029 0.041494602726648067 0 -0.34385517732675519 0.031131612817745031 0 -0.35163198926140088 0.046228739452983239 0 -0.32609882430781029 0.041494602726648067 0 -0.338272543408071 0.060603673933957783 0 -0.32146679815367007 0.068824891797761426 0 -0.32609882430781029 0.041494602726648067 0 -0.338272543408071 0.060603673933957783 0 -0.35163198926140088 0.046228739452983239 0 -0.3204068892458079 -0.0014125807301150939 0 -0.31128727758972891 0.0091565171879943417 0 -0.33073085046195078 0.01416431365553468 0 -0.30587597075389272 0.02137954460474218 0 -0.31128727758972891 0.0091565171879943417 0 -0.33073085046195078 0.01416431365553468 0 -0.30859873922341308 0.03381572977126493 0 -0.33073085046195078 0.01416431365553468 0 -0.30587597075389272 0.02137954460474218 0 -0.30859873922341308 0.03381572977126493 0 -0.33073085046195078 0.01416431365553468 0 -0.32155373853820057 0.033721269330657687 0 -0.32609882430781029 0.041494602726648067 0 -0.33073085046195078 0.01416431365553468 0 -0.30859873922341308 0.03381572977126493 0 -0.32155373853820057 0.033721269330657687 0 -0.33073085046195078 0.01416431365553468 0 -0.32609882430781029 0.041494602726648067 0 -0.33073085046195078 0.01416431365553468 0 -0.33073085046195078 0.01416431365553468 0 -0.34385517732675519 0.031131612817745031 0 -0.35381837275022032 0.01853105722209741 0 -0.32609882430781029 0.041494602726648067 0 -0.33073085046195078 0.01416431365553468 0 -0.34385517732675519 0.031131612817745031 0 -0.33540629353460438 -0.01342214774580049 0 -0.33073085046195078 0.01416431365553468 0 -0.35221409618436439 -0.0049109655465913588 0 -0.33073085046195078 0.01416431365553468 0 -0.35221409618436439 -0.0049109655465913588 0 -0.34857824671955512 -0.007874197240844389 0 -0.33073085046195078 0.01416431365553468 0 -0.35221409618436439 -0.0049109655465913588 0 -0.33073085046195078 0.01416431365553468 0 -0.34939877662876639 0.0070576099193848619 0 -0.33073085046195078 0.01416431365553468 0 -0.34939877662876639 0.0070576099193848619 0 -0.35381837275022032 0.01853105722209741 0 -0.35900139338342918 0.0020097317905480609 0 -0.34939877662876639 0.0070576099193848619 0 -0.35834074471334648 0.0096788928264882005 0 -0.35509488683577939 -0.0004162838960613095 0 -0.35900139338342918 0.0020097317905480609 0 -0.34939877662876639 0.0070576099193848619 0 -0.35509488683577939 -0.0004162838960613095 0 -0.35221409618436439 -0.0049109655465913588 0 -0.34939877662876639 0.0070576099193848619 0 -0.34939877662876639 0.0070576099193848619 0 -0.35834074471334648 0.0096788928264882005 0 -0.35381837275022032 0.01853105722209741 0 -0.34385517732675519 0.031131612817745031 0 -0.35381837275022032 0.01853105722209741 0 -0.36551724687399623 0.028318485711261141 0 -0.37937813184432773 0.031366277704107569 0 -0.36551724687399623 0.028318485711261141 0 -0.37479293228070759 0.022502646493578662 0 -0.36551724687399623 0.028318485711261141 0 -0.37479293228070759 0.022502646493578662 0 -0.36730783543836809 0.01519693074799966 0 -0.3778438638662554 0.014761087644765769 0 -0.37479293228070759 0.022502646493578662 0 -0.36730783543836809 0.01519693074799966 0 -0.35381837275022032 0.01853105722209741 0 -0.36551724687399623 0.028318485711261141 0 -0.36730783543836809 0.01519693074799966 0 -0.35834074471334648 0.0096788928264882005 0 -0.36730783543836809 0.01519693074799966 0 -0.36603012090457948 0.0050917054244422654 0 -0.35834074471334648 0.0096788928264882005 0 -0.35381837275022032 0.01853105722209741 0 -0.36730783543836809 0.01519693074799966 0 -0.36730783543836809 0.01519693074799966 0 -0.37464316483836829 0.0066416053135349984 0 -0.36603012090457948 0.0050917054244422654 0 -0.3778438638662554 0.014761087644765769 0 -0.36730783543836809 0.01519693074799966 0 -0.37464316483836829 0.0066416053135349984 0 -0.37126952376897032 -0.00085078512189483576 0 -0.37774077980655368 -0.001289555558904682 0 -0.37464316483836829 0.0066416053135349984 0 -0.37126952376897032 -0.00085078512189483576 0 -0.37464316483836829 0.0066416053135349984 0 -0.36603012090457948 0.0050917054244422654 0 -0.37126952376897032 -0.00085078512189483576 0 -0.36494834593608783 -0.001298186014321303 0 -0.36603012090457948 0.0050917054244422654 0 -0.36494834593608783 -0.001298186014321303 0 -0.35900139338342918 0.0020097317905480609 0 -0.36603012090457948 0.0050917054244422654 0 -0.35900139338342918 0.0020097317905480609 0 -0.35834074471334648 0.0096788928264882005 0 -0.36603012090457948 0.0050917054244422654 0 -0.35163198926140088 0.046228739452983239 0 -0.36891219827968119 0.060077996683558232 0 -0.35298131256760962 0.063034912088641357 0 -0.338272543408071 0.060603673933957783 0 -0.35163198926140088 0.046228739452983239 0 -0.35298131256760962 0.063034912088641357 0 -0.34385517732675519 0.031131612817745031 0 -0.36551724687399623 0.028318485711261141 0 -0.35163198926140088 0.046228739452983239 0 -0.36551724687399623 0.028318485711261141 0 -0.35163198926140088 0.046228739452983239 0 -0.37261014177358448 0.043145835856899219 0 -0.37937813184432773 0.031366277704107569 0 -0.36551724687399623 0.028318485711261141 0 -0.37261014177358448 0.043145835856899219 0 -0.35163198926140088 0.046228739452983239 0 -0.37261014177358448 0.043145835856899219 0 -0.36891219827968119 0.060077996683558232 0 -0.38207463336695202 0.051047668856640811 0 -0.37261014177358448 0.043145835856899219 0 -0.36891219827968119 0.060077996683558232 0 -0.37929074908003868 0.077603726490867345 0 -0.35694138538550352 0.073855345321458488 0 -0.37929074908003868 0.077603726490867345 0 -0.36891219827968119 0.060077996683558232 0 -0.35694138538550352 0.073855345321458488 0 -0.36891219827968119 0.060077996683558232 0 -0.35298131256760962 0.063034912088641357 0 -0.35694138538550352 0.073855345321458488 0 -0.35298131256760962 0.063034912088641357 0 -0.35694138538550352 0.073855345321458488 0 -0.34914844650339177 0.074408805051249083 0 -0.35694138538550352 0.073855345321458488 0 -0.34914844650339177 0.074408805051249083 0 -0.35387282561504041 0.085789381247760657 0 -0.338272543408071 0.060603673933957783 0 -0.35298131256760962 0.063034912088641357 0 -0.34914844650339177 0.074408805051249083 0 -0.34914844650339177 0.074408805051249083 0 -0.35387282561504041 0.085789381247760657 0 -0.33299160925146271 0.085281992960062933 0 -0.35694138538550352 0.073855345321458488 0 -0.35387282561504041 0.085789381247760657 0 -0.36438159895332511 0.085691586513687634 0 -0.35387282561504041 0.085789381247760657 0 -0.36438159895332511 0.085691586513687634 0 -0.35579278546844412 0.098564625017930646 0 -0.37929074908003868 0.077603726490867345 0 -0.35694138538550352 0.073855345321458488 0 -0.36438159895332511 0.085691586513687634 0 -0.37929074908003868 0.077603726490867345 0 -0.36438159895332511 0.085691586513687634 0 -0.37090825683648998 0.098456277756480637 0 -0.37090825683648998 0.098456277756480637 0 -0.36904533532088801 0.1177582563576956 0 -0.35579278546844412 0.098564625017930646 0 -0.36438159895332511 0.085691586513687634 0 -0.37090825683648998 0.098456277756480637 0 -0.35579278546844412 0.098564625017930646 0 -0.35823941519022368 0.13573745574644491 0 -0.36904533532088801 0.1177582563576956 0 -0.35158166360451942 0.11704707172714621 0 -0.36904533532088801 0.1177582563576956 0 -0.35158166360451942 0.11704707172714621 0 -0.35579278546844412 0.098564625017930646 0 -0.35158166360451942 0.11704707172714621 0 -0.35579278546844412 0.098564625017930646 0 -0.34047962299512569 0.099373871294989508 0 -0.35387282561504041 0.085789381247760657 0 -0.35579278546844412 0.098564625017930646 0 -0.34047962299512569 0.099373871294989508 0 -0.34047962299512569 0.099373871294989508 0 -0.33231339904552459 0.1171762944261375 0 -0.31683477199953253 0.096155180868875256 0 -0.34455851703438989 0.13305210298766909 0 -0.35158166360451942 0.11704707172714621 0 -0.33231339904552459 0.1171762944261375 0 -0.35158166360451942 0.11704707172714621 0 -0.34047962299512569 0.099373871294989508 0 -0.33231339904552459 0.1171762944261375 0 -0.31211500736378339 0.1240031522641292 0 -0.31683477199953253 0.096155180868875256 0 -0.31211500736378339 0.1240031522641292 0 -0.33231339904552459 0.1171762944261375 0 -0.31683477199953253 0.096155180868875256 0 -0.30635830999651792 0.07761242167179265 0 -0.31683477199953253 0.096155180868875256 0 -0.32146679815367007 0.068824891797761426 0 -0.31683477199953253 0.096155180868875256 0 -0.32146679815367007 0.068824891797761426 0 -0.33299160925146271 0.085281992960062933 0 -0.31683477199953253 0.096155180868875256 0 -0.32146679815367007 0.068824891797761426 0 -0.31683477199953253 0.096155180868875256 0 -0.33299160925146271 0.085281992960062933 0 -0.338272543408071 0.060603673933957783 0 -0.32146679815367007 0.068824891797761426 0 -0.33576809196089219 0.072507027900731907 0 -0.32146679815367007 0.068824891797761426 0 -0.33576809196089219 0.072507027900731907 0 -0.33299160925146271 0.085281992960062933 0 -0.34914844650339177 0.074408805051249083 0 -0.33576809196089219 0.072507027900731907 0 -0.33299160925146271 0.085281992960062933 0 -0.338272543408071 0.060603673933957783 0 -0.34914844650339177 0.074408805051249083 0 -0.33576809196089219 0.072507027900731907 0 -0.35387282561504041 0.085789381247760657 0 -0.34047962299512569 0.099373871294989508 0 -0.33299160925146271 0.085281992960062933 0 -0.34914844650339177 0.074408805051249083 0 -0.33299160925146271 0.085281992960062933 0 -0.34047962299512569 0.099373871294989508 0 -0.31683477199953253 0.096155180868875256 0 -0.33299160925146271 0.085281992960062933 0 -0.3938434845513461 0.48000301234504228 0 -0.4154786193197833 0.47000451851756458 0 -0.40908183102320411 0.4845696213484928 0 -0.3938434845513461 0.48000301234504228 0 -0.40110135887996978 0.47332954189399812 0 -0.4154786193197833 0.47000451851756458 0 -0.3938434845513461 0.48000301234504228 0 -0.4154786193197833 0.47000451851756458 0 -0.3938434845513461 0.48000301234504228 0 -0.40110135887996978 0.47332954189399812 0 -0.38930270813857232 0.46778113184491188 0 -0.3938434845513461 0.48000301234504228 0 -0.39546946259238258 0.49128185561313598 0 -0.40908183102320411 0.4845696213484928 0 -0.40521342881326272 0.5 0 -0.39546946259238258 0.49128185561313598 0 -0.37789332191386737 0.5 0 -0.40521342881326272 0.5 0 -0.39546946259238258 0.49128185561313598 0 -0.40908183102320411 0.4845696213484928 0 -0.3938434845513461 0.48000301234504228 0 -0.39546946259238258 0.49128185561313598 0 -0.38517353549973538 0.49039659604947999 0 -0.3938434845513461 0.48000301234504228 0 -0.37220834978290879 0.49000150617251997 0 -0.39546946259238258 0.49128185561313598 0 -0.38517353549973538 0.49039659604947999 0 -0.37789332191386737 0.5 0 -0.3938434845513461 0.48000301234504228 0 -0.38517353549973538 0.49039659604947999 0 -0.37220834978290879 0.49000150617251997 0 -0.38517353549973538 0.49039659604947999 0 -0.37789332191386737 0.5 0 -0.37220834978290879 0.49000150617251997 0 -0.3938434845513461 0.48000301234504228 0 -0.37805640255927542 0.47903421333972468 0 -0.3842367001720054 0.47454362448235632 0 -0.3938434845513461 0.48000301234504228 0 -0.37805640255927542 0.47903421333972468 0 -0.37220834978290879 0.49000150617251997 0 -0.3842367001720054 0.47454362448235632 0 -0.37701653082709469 0.46900635458093531 0 -0.38930270813857232 0.46778113184491188 0 -0.3938434845513461 0.48000301234504228 0 -0.3842367001720054 0.47454362448235632 0 -0.38930270813857232 0.46778113184491188 0 -0.37805640255927542 0.47903421333972468 0 -0.3842367001720054 0.47454362448235632 0 -0.37701653082709469 0.46900635458093531 0 -0.37701653082709469 0.46900635458093531 0 -0.38677844954541418 0.45747132953460651 0 -0.37376195539900242 0.45249759326054367 0 -0.37701653082709469 0.46900635458093531 0 -0.38677844954541418 0.45747132953460651 0 -0.38930270813857232 0.46778113184491188 0 -0.38473584783684761 0.44354080077547992 0 -0.36778315087773072 0.43214877602771662 0 -0.37376195539900242 0.45249759326054367 0 -0.38677844954541418 0.45747132953460651 0 -0.38473584783684761 0.44354080077547992 0 -0.37376195539900242 0.45249759326054367 0 -0.38677844954541418 0.45747132953460651 0 -0.38473584783684761 0.44354080077547992 0 -0.39843898125590987 0.45231631840454728 0 -0.39843898125590987 0.45231631840454728 0 -0.4072920944712265 0.44499890251068641 0 -0.39856520721893041 0.43647578570475237 0 -0.38473584783684761 0.44354080077547992 0 -0.39843898125590987 0.45231631840454728 0 -0.39856520721893041 0.43647578570475237 0 -0.39843898125590987 0.45231631840454728 0 -0.39841490533913748 0.46178879282826651 0 -0.41709791082295028 0.45456801136960878 0 -0.40110135887996978 0.47332954189399812 0 -0.39841490533913748 0.46178879282826651 0 -0.41709791082295028 0.45456801136960878 0 -0.38677844954541418 0.45747132953460651 0 -0.38930270813857232 0.46778113184491188 0 -0.39841490533913748 0.46178879282826651 0 -0.40110135887996978 0.47332954189399812 0 -0.38930270813857232 0.46778113184491188 0 -0.39841490533913748 0.46178879282826651 0 -0.38677844954541418 0.45747132953460651 0 -0.39843898125590987 0.45231631840454728 0 -0.39841490533913748 0.46178879282826651 0 -0.40110135887996978 0.47332954189399812 0 -0.41709791082295028 0.45456801136960878 0 -0.4154786193197833 0.47000451851756458 0 -0.40110135887996978 0.47332954189399812 0 -0.41709791082295028 0.45456801136960878 0 -0.41709791082295028 0.45456801136960878 0 -0.42692569345801529 0.46340213249295897 0 -0.4154786193197833 0.47000451851756458 0 -0.41709791082295028 0.45456801136960878 0 -0.43309446276593089 0.43580648084521972 0 -0.41506627858711548 0.4366354945638371 0 -0.39843898125590987 0.45231631840454728 0 -0.41709791082295028 0.45456801136960878 0 -0.4072920944712265 0.44499890251068641 0 -0.4072920944712265 0.44499890251068641 0 -0.41506627858711548 0.4366354945638371 0 -0.39856520721893041 0.43647578570475237 0 -0.41709791082295028 0.45456801136960878 0 -0.4072920944712265 0.44499890251068641 0 -0.41506627858711548 0.4366354945638371 0 -0.41709791082295028 0.45456801136960878 0 -0.43251943231727258 0.45189802077753072 0 -0.43309446276593089 0.43580648084521972 0 -0.41709791082295028 0.45456801136960878 0 -0.43309446276593089 0.43580648084521972 0 -0.43251943231727258 0.45189802077753072 0 -0.44285055445462801 0.44408738363144917 0 -0.43309446276593089 0.43580648084521972 0 -0.43251943231727258 0.45189802077753072 0 -0.42692569345801529 0.46340213249295897 0 -0.44262854008483871 0.46162609554841733 0 -0.42692569345801529 0.46340213249295897 0 -0.43014133963940671 0.47900644757454591 0 -0.44262854008483871 0.46162609554841733 0 -0.41709791082295028 0.45456801136960878 0 -0.43251943231727258 0.45189802077753072 0 -0.42692569345801529 0.46340213249295897 0 -0.42692569345801529 0.46340213249295897 0 -0.43014133963940671 0.47900644757454591 0 -0.4154786193197833 0.47000451851756458 0 -0.43014133963940671 0.47900644757454591 0 -0.4154786193197833 0.47000451851756458 0 -0.40908183102320411 0.4845696213484928 0 -0.40521342881326272 0.5 0 -0.40908183102320411 0.4845696213484928 0 -0.43253353571265801 0.5 0 -0.43014133963940671 0.47900644757454591 0 -0.40908183102320411 0.4845696213484928 0 -0.43253353571265801 0.5 0 -0.43014133963940671 0.47900644757454591 0 -0.43253353571265801 0.5 0 -0.44984012809851409 0.48033494727474779 0 -0.43253353571265801 0.5 0 -0.44984012809851409 0.48033494727474779 0 -0.45985364261205308 0.50000000000000111 0 -0.43014133963940671 0.47900644757454591 0 -0.44984012809851409 0.48033494727474779 0 -0.44262854008483871 0.46162609554841733 0 -0.44984012809851409 0.48033494727474779 0 -0.47312811744354261 0.47395110078869013 0 -0.45820768181792781 0.46325373185340701 0 -0.45985364261205308 0.50000000000000111 0 -0.47312811744354261 0.47395110078869013 0 -0.44984012809851409 0.48033494727474779 0 -0.45985364261205308 0.50000000000000111 0 -0.47312811744354261 0.47395110078869013 0 -0.5 0.5 0 -0.47312811744354261 0.47395110078869013 0 -0.49999999999999972 0.44664233614409321 0 -0.45985364261205308 0.50000000000000111 0 -0.5 0.5 0 -0.47312811744354261 0.47395110078869013 0 -0.48640259227503152 0.44790220157737892 0 -0.49999999999999972 0.44664233614409321 0 -0.47883616718389621 0.43347798499105172 0 -0.49999999999999972 0.44664233614409321 0 -0.47883616718389621 0.43347798499105172 0 -0.47312811744354261 0.47395110078869013 0 -0.48640259227503152 0.44790220157737892 0 -0.49999999999999972 0.44664233614409321 0 -0.47312811744354261 0.47395110078869013 0 -0.48640259227503152 0.44790220157737892 0 -0.47312811744354261 0.47395110078869013 0 -0.48640259227503152 0.44790220157737892 0 -0.46932328621444303 0.45009797021529852 0 -0.46932328621444303 0.45009797021529852 0 -0.46288197751253979 0.435741310408158 0 -0.47883616718389621 0.43347798499105172 0 -0.48640259227503152 0.44790220157737892 0 -0.46932328621444303 0.45009797021529852 0 -0.47883616718389621 0.43347798499105172 0 -0.46932328621444303 0.45009797021529852 0 -0.45653044061400749 0.44574373859450739 0 -0.46288197751253979 0.435741310408158 0 -0.46932328621444303 0.45009797021529852 0 -0.45653044061400749 0.44574373859450739 0 -0.45820768181792781 0.46325373185340701 0 -0.45653044061400749 0.44574373859450739 0 -0.44988321330808601 0.43264183945635343 0 -0.46288197751253979 0.435741310408158 0 -0.47312811744354261 0.47395110078869013 0 -0.46932328621444303 0.45009797021529852 0 -0.45820768181792781 0.46325373185340701 0 -0.45653044061400749 0.44574373859450739 0 -0.45820768181792781 0.46325373185340701 0 -0.44262854008483871 0.46162609554841733 0 -0.44984012809851409 0.48033494727474779 0 -0.45820768181792781 0.46325373185340701 0 -0.44262854008483871 0.46162609554841733 0 -0.43251943231727258 0.45189802077753072 0 -0.44262854008483871 0.46162609554841733 0 -0.44285055445462801 0.44408738363144917 0 -0.45653044061400749 0.44574373859450739 0 -0.44262854008483871 0.46162609554841733 0 -0.44285055445462801 0.44408738363144917 0 -0.44285055445462801 0.44408738363144917 0 -0.44988321330808601 0.43264183945635343 0 -0.43309446276593089 0.43580648084521972 0 -0.45653044061400749 0.44574373859450739 0 -0.44285055445462801 0.44408738363144917 0 -0.44988321330808601 0.43264183945635343 0 -0.44909101470891138 0.41704495032083061 0 -0.43309446276593089 0.43580648084521972 0 -0.44988321330808601 0.43264183945635343 0 -0.44909101470891138 0.41704495032083061 0 -0.43309446276593089 0.43580648084521972 0 -0.44988321330808601 0.43264183945635343 0 -0.44909101470891138 0.41704495032083061 0 -0.45767233436779298 0.42031363383801013 0 -0.44909101470891138 0.41704495032083061 0 -0.43642708593841462 0.41129790334070748 0 -0.43309446276593089 0.43580648084521972 0 -0.44909101470891138 0.41704495032083061 0 -0.44923652684218601 0.40651161443480333 0 -0.43642708593841462 0.41129790334070748 0 -0.44909101470891138 0.41704495032083061 0 -0.46310762304278369 0.4136785712167641 0 -0.46508756665189233 0.39828341979644161 0 -0.44909101470891138 0.41704495032083061 0 -0.46508756665189233 0.39828341979644161 0 -0.44909101470891138 0.41704495032083061 0 -0.44923652684218601 0.40651161443480333 0 -0.46508756665189233 0.39828341979644161 0 -0.44909101470891138 0.41704495032083061 0 -0.45767233436779298 0.42031363383801013 0 -0.46310762304278369 0.4136785712167641 0 -0.45767233436779298 0.42031363383801013 0 -0.46310762304278369 0.4136785712167641 0 -0.4689935185142321 0.42014913325858988 0 -0.46310762304278369 0.4136785712167641 0 -0.47635794946245552 0.41312634298853379 0 -0.46508756665189233 0.39828341979644161 0 -0.45767233436779298 0.42031363383801013 0 -0.47883616718389621 0.43347798499105172 0 -0.4689935185142321 0.42014913325858988 0 -0.45767233436779298 0.42031363383801013 0 -0.46288197751253979 0.435741310408158 0 -0.47883616718389621 0.43347798499105172 0 -0.45767233436779298 0.42031363383801013 0 -0.47883616718389621 0.43347798499105172 0 -0.44988321330808601 0.43264183945635343 0 -0.45767233436779298 0.42031363383801013 0 -0.46288197751253979 0.435741310408158 0 -0.47883616718389621 0.43347798499105172 0 -0.47635794946245552 0.41312634298853379 0 -0.48714440641974271 0.42351608680749347 0 -0.47883616718389621 0.43347798499105172 0 -0.4689935185142321 0.42014913325858988 0 -0.47635794946245552 0.41312634298853379 0 -0.46310762304278369 0.4136785712167641 0 -0.4689935185142321 0.42014913325858988 0 -0.47635794946245552 0.41312634298853379 0 -0.47635794946245552 0.41312634298853379 0 -0.48901457958177968 0.41012265573874179 0 -0.48254378332594611 0.39722493186941499 0 -0.47635794946245552 0.41312634298853379 0 -0.48901457958177968 0.41012265573874179 0 -0.48714440641974271 0.42351608680749347 0 -0.48901457958177968 0.41012265573874179 0 -0.5 0.42140439004324071 0 -0.49999999999999978 0.39616644394238798 0 -0.48901457958177968 0.41012265573874179 0 -0.5 0.42140439004324071 0 -0.48714440641974271 0.42351608680749347 0 -0.49999999999999972 0.44664233614409321 0 -0.47883616718389621 0.43347798499105172 0 -0.48714440641974271 0.42351608680749347 0 -0.49999999999999972 0.44664233614409321 0 -0.5 0.42140439004324071 0 -0.48714440641974271 0.42351608680749347 0 -0.49007778645481631 0.38142997617552599 0 -0.49999999999999978 0.39616644394238798 0 -0.50000000000000311 0.3685517992903854 0 -0.49007778645481631 0.38142997617552599 0 -0.47611467569506138 0.38535029247959018 0 -0.48714178473823078 0.37241716516273898 0 -0.49999999999999978 0.39616644394238798 0 -0.48254378332594611 0.39722493186941499 0 -0.48901457958177968 0.41012265573874179 0 -0.49999999999999978 0.39616644394238798 0 -0.48254378332594611 0.39722493186941499 0 -0.49007778645481631 0.38142997617552599 0 -0.49999999999999978 0.39616644394238798 0 -0.48254378332594611 0.39722493186941499 0 -0.48254378332594611 0.39722493186941499 0 -0.46508756665189233 0.39828341979644161 0 -0.47635794946245552 0.41312634298853379 0 -0.48254378332594611 0.39722493186941499 0 -0.46508756665189233 0.39828341979644161 0 -0.48254378332594611 0.39722493186941499 0 -0.47611467569506138 0.38535029247959018 0 -0.46508756665189233 0.39828341979644161 0 -0.47611467569506138 0.38535029247959018 0 -0.46508756665189233 0.39828341979644161 0 -0.49007778645481631 0.38142997617552599 0 -0.48254378332594611 0.39722493186941499 0 -0.47611467569506138 0.38535029247959018 0 -0.47611467569506138 0.38535029247959018 0 -0.47397397291215421 0.37493689296344251 0 -0.48714178473823078 0.37241716516273898 0 -0.47611467569506138 0.38535029247959018 0 -0.48714178473823078 0.37241716516273898 0 -0.46871814716203669 0.37906981455344119 0 -0.46360543106569913 0.37231654924431878 0 -0.47397397291215421 0.37493689296344251 0 -0.47611467569506138 0.38535029247959018 0 -0.46871814716203669 0.37906981455344119 0 -0.47397397291215421 0.37493689296344251 0 -0.46871814716203669 0.37906981455344119 0 -0.46117850897523233 0.38367552352641338 0 -0.46360543106569913 0.37231654924431878 0 -0.47611467569506138 0.38535029247959018 0 -0.46871814716203669 0.37906981455344119 0 -0.46117850897523233 0.38367552352641338 0 -0.47611467569506138 0.38535029247959018 0 -0.46117850897523233 0.38367552352641338 0 -0.46508756665189233 0.39828341979644161 0 -0.46117850897523233 0.38367552352641338 0 -0.45400385251667602 0.39093091030285698 0 -0.45110956684876158 0.38402681738971201 0 -0.46117850897523233 0.38367552352641338 0 -0.45110956684876158 0.38402681738971201 0 -0.44813402172652672 0.37354371539476261 0 -0.46117850897523233 0.38367552352641338 0 -0.44813402172652672 0.37354371539476261 0 -0.46360543106569913 0.37231654924431878 0 -0.44923652684218601 0.40651161443480333 0 -0.46508756665189233 0.39828341979644161 0 -0.44634044006952572 0.39942018428123321 0 -0.46508756665189233 0.39828341979644161 0 -0.45400385251667602 0.39093091030285698 0 -0.44634044006952572 0.39942018428123321 0 -0.46508756665189233 0.39828341979644161 0 -0.44634044006952572 0.39942018428123321 0 -0.46117850897523233 0.38367552352641338 0 -0.46508756665189233 0.39828341979644161 0 -0.45400385251667602 0.39093091030285698 0 -0.45400385251667602 0.39093091030285698 0 -0.44634044006952572 0.39942018428123321 0 -0.44518347515021223 0.38837251913440451 0 -0.44634044006952572 0.39942018428123321 0 -0.44518347515021223 0.38837251913440451 0 -0.43728617553129168 0.39370672697544878 0 -0.44923652684218601 0.40651161443480333 0 -0.44634044006952572 0.39942018428123321 0 -0.43642708593841462 0.41129790334070748 0 -0.45110956684876158 0.38402681738971201 0 -0.44480856609964842 0.38185924381796288 0 -0.44813402172652672 0.37354371539476261 0 -0.45400385251667602 0.39093091030285698 0 -0.45110956684876158 0.38402681738971201 0 -0.44518347515021223 0.38837251913440451 0 -0.45110956684876158 0.38402681738971201 0 -0.44518347515021223 0.38837251913440451 0 -0.44480856609964842 0.38185924381796288 0 -0.44518347515021223 0.38837251913440451 0 -0.43913693036841173 0.38484964203092692 0 -0.43002747341826991 0.3864772557201327 0 -0.44518347515021223 0.38837251913440451 0 -0.43002747341826991 0.3864772557201327 0 -0.44518347515021223 0.38837251913440451 0 -0.43913693036841173 0.38484964203092692 0 -0.44480856609964842 0.38185924381796288 0 -0.44480856609964842 0.38185924381796288 0 -0.4393591315165738 0.37762743775392832 0 -0.44813402172652672 0.37354371539476261 0 -0.43913693036841173 0.38484964203092692 0 -0.44480856609964842 0.38185924381796288 0 -0.4393591315165738 0.37762743775392832 0 -0.43913693036841173 0.38484964203092692 0 -0.43173797726570751 0.37658334167695551 0 -0.43913693036841173 0.38484964203092692 0 -0.43173797726570751 0.37658334167695551 0 -0.43002747341826991 0.3864772557201327 0 -0.43913693036841173 0.38484964203092692 0 -0.4393591315165738 0.37762743775392832 0 -0.43173797726570751 0.37658334167695551 0 -0.4393591315165738 0.37762743775392832 0 -0.43173797726570751 0.37658334167695551 0 -0.4325639091043616 0.37180597819459837 0 -0.43173797726570751 0.37658334167695551 0 -0.43002747341826991 0.3864772557201327 0 -0.44518347515021223 0.38837251913440451 0 -0.43002747341826991 0.3864772557201327 0 -0.43728617553129168 0.39370672697544878 0 -0.43002747341826991 0.3864772557201327 0 -0.41472776448615789 0.38456402166930481 0 -0.42117367656598032 0.39254991666010941 0 -0.43002747341826991 0.3864772557201327 0 -0.41472776448615789 0.38456402166930481 0 -0.43002747341826991 0.3864772557201327 0 -0.42328890360694349 0.38021744503538613 0 -0.41472776448615789 0.38456402166930481 0 -0.43173797726570751 0.37658334167695551 0 -0.43002747341826991 0.3864772557201327 0 -0.42328890360694349 0.38021744503538613 0 -0.43173797726570751 0.37658334167695551 0 -0.42328890360694349 0.38021744503538613 0 -0.42689564018809201 0.37117335838025439 0 -0.40881671944059661 0.37920357314115732 0 -0.42689564018809201 0.37117335838025439 0 -0.42328890360694349 0.38021744503538613 0 -0.40881671944059661 0.37920357314115732 0 -0.42689564018809201 0.37117335838025439 0 -0.42328890360694349 0.38021744503538613 0 -0.41472776448615789 0.38456402166930481 0 -0.40881671944059661 0.37920357314115732 0 -0.41472776448615789 0.38456402166930481 0 -0.40724106840129259 0.39428871981441299 0 -0.42117367656598032 0.39254991666010941 0 -0.41472776448615789 0.38456402166930481 0 -0.40826438028753348 0.3817067557430866 0 -0.39942805555404642 0.38265078761847338 0 -0.41472776448615789 0.38456402166930481 0 -0.40724106840129259 0.39428871981441299 0 -0.39942805555404642 0.38265078761847338 0 -0.41472776448615789 0.38456402166930481 0 -0.39942805555404642 0.38265078761847338 0 -0.40881671944059661 0.37920357314115732 0 -0.39942805555404642 0.38265078761847338 0 -0.41098055992701871 0.3693971202961519 0 -0.40826438028753348 0.3817067557430866 0 -0.40881671944059661 0.37920357314115732 0 -0.41472776448615789 0.38456402166930481 0 -0.40826438028753348 0.3817067557430866 0 -0.40881671944059661 0.37920357314115732 0 -0.40724106840129259 0.39428871981441299 0 -0.4157685575788832 0.40127396331749671 0 -0.40157856791931718 0.40704460823596672 0 -0.42117367656598032 0.39254991666010941 0 -0.4157685575788832 0.40127396331749671 0 -0.42759331348715912 0.40055694876602499 0 -0.40724106840129259 0.39428871981441299 0 -0.42117367656598032 0.39254991666010941 0 -0.4157685575788832 0.40127396331749671 0 -0.4157685575788832 0.40127396331749671 0 -0.42759331348715912 0.40055694876602499 0 -0.44634044006952572 0.39942018428123321 0 -0.42759331348715912 0.40055694876602499 0 -0.44634044006952572 0.39942018428123321 0 -0.42759331348715912 0.40055694876602499 0 -0.43728617553129168 0.39370672697544878 0 -0.44634044006952572 0.39942018428123321 0 -0.42759331348715912 0.40055694876602499 0 -0.43642708593841462 0.41129790334070748 0 -0.43002747341826991 0.3864772557201327 0 -0.42117367656598032 0.39254991666010941 0 -0.42759331348715912 0.40055694876602499 0 -0.43002747341826991 0.3864772557201327 0 -0.42759331348715912 0.40055694876602499 0 -0.43002747341826991 0.3864772557201327 0 -0.42759331348715912 0.40055694876602499 0 -0.43728617553129168 0.39370672697544878 0 -0.43642708593841462 0.41129790334070748 0 -0.42449994900394461 0.41844961959922572 0 -0.43309446276593089 0.43580648084521972 0 -0.42759331348715912 0.40055694876602499 0 -0.43642708593841462 0.41129790334070748 0 -0.42449994900394461 0.41844961959922572 0 -0.4157685575788832 0.40127396331749671 0 -0.42759331348715912 0.40055694876602499 0 -0.42449994900394461 0.41844961959922572 0 -0.42759331348715912 0.40055694876602499 0 -0.42449994900394461 0.41844961959922572 0 -0.42449994900394461 0.41844961959922572 0 -0.43309446276593089 0.43580648084521972 0 -0.41506627858711548 0.4366354945638371 0 -0.42449994900394461 0.41844961959922572 0 -0.41506627858711548 0.4366354945638371 0 -0.40746949035714619 0.42222882353716701 0 -0.41506627858711548 0.4366354945638371 0 -0.40746949035714619 0.42222882353716701 0 -0.39856520721893041 0.43647578570475237 0 -0.42449994900394461 0.41844961959922572 0 -0.40746949035714619 0.42222882353716701 0 -0.41232914121482278 0.41224925367246401 0 -0.4157685575788832 0.40127396331749671 0 -0.42449994900394461 0.41844961959922572 0 -0.41232914121482278 0.41224925367246401 0 -0.4157685575788832 0.40127396331749671 0 -0.41232914121482278 0.41224925367246401 0 -0.40157856791931718 0.40704460823596672 0 -0.40746949035714619 0.42222882353716701 0 -0.41232914121482278 0.41224925367246401 0 -0.40157856791931718 0.40704460823596672 0 -0.40746949035714619 0.42222882353716701 0 -0.40157856791931718 0.40704460823596672 0 -0.39298749241221759 0.42119507937603923 0 -0.40746949035714619 0.42222882353716701 0 -0.39298749241221759 0.42119507937603923 0 -0.39856520721893041 0.43647578570475237 0 -0.39298749241221759 0.42119507937603923 0 -0.39856520721893041 0.43647578570475237 0 -0.38373994498284608 0.43043669407259588 0 -0.38373994498284608 0.43043669407259588 0 -0.37668454372729859 0.41206883315114529 0 -0.36778315087773072 0.43214877602771662 0 -0.38473584783684761 0.44354080077547992 0 -0.38373994498284608 0.43043669407259588 0 -0.36778315087773072 0.43214877602771662 0 -0.38473584783684761 0.44354080077547992 0 -0.39856520721893041 0.43647578570475237 0 -0.38373994498284608 0.43043669407259588 0 -0.40157856791931718 0.40704460823596672 0 -0.39298749241221759 0.42119507937603923 0 -0.37668454372729859 0.41206883315114529 0 -0.39298749241221759 0.42119507937603923 0 -0.38373994498284608 0.43043669407259588 0 -0.37668454372729859 0.41206883315114529 0 -0.40157856791931718 0.40704460823596672 0 -0.37668454372729859 0.41206883315114529 0 -0.37668454372729859 0.41206883315114529 0 -0.37844474563582792 0.390355182046278 0 -0.39076978830337122 0.39764902138512792 0 -0.40157856791931718 0.40704460823596672 0 -0.37668454372729859 0.41206883315114529 0 -0.39076978830337122 0.39764902138512792 0 -0.38141148745950948 0.38039780936179463 0 -0.39942805555404642 0.38265078761847338 0 -0.37844474563582792 0.390355182046278 0 -0.39942805555404642 0.38265078761847338 0 -0.38141148745950948 0.38039780936179463 0 -0.37844474563582792 0.390355182046278 0 -0.39942805555404642 0.38265078761847338 0 -0.37844474563582792 0.390355182046278 0 -0.39942805555404642 0.38265078761847338 0 -0.39076978830337122 0.39764902138512792 0 -0.38141148745950948 0.38039780936179463 0 -0.39942805555404642 0.38265078761847338 0 -0.39128338495032239 0.36719877308275878 0 -0.40826438028753348 0.3817067557430866 0 -0.40881671944059661 0.37920357314115732 0 -0.39942805555404642 0.38265078761847338 0 -0.40881671944059661 0.37920357314115732 0 -0.39942805555404642 0.38265078761847338 0 -0.40724106840129259 0.39428871981441299 0 -0.40157856791931718 0.40704460823596672 0 -0.39076978830337122 0.39764902138512792 0 -0.40724106840129259 0.39428871981441299 0 -0.39942805555404642 0.38265078761847338 0 -0.39076978830337122 0.39764902138512792 0 -0.39259889148010241 0.34864188780489069 0 -0.39999637464883392 0.35559476271013252 0 -0.38966798311544332 0.35610238881872369 0 -0.39259889148010241 0.34864188780489069 0 -0.39999637464883392 0.35559476271013252 0 -0.40046159691170069 0.34164056661102238 0 -0.39999637464883392 0.35559476271013252 0 -0.40046159691170069 0.34164056661102238 0 -0.41381361947694889 0.35655778899711688 0 -0.39999637464883392 0.35559476271013252 0 -0.40397412088998857 0.3623881668075713 0 -0.41381361947694889 0.35655778899711688 0 -0.39128338495032239 0.36719877308275878 0 -0.41098055992701871 0.3693971202961519 0 -0.40397412088998857 0.3623881668075713 0 -0.39128338495032239 0.36719877308275878 0 -0.41098055992701871 0.3693971202961519 0 -0.39942805555404642 0.38265078761847338 0 -0.39128338495032239 0.36719877308275878 0 -0.41098055992701871 0.3693971202961519 0 -0.39999637464883392 0.35559476271013252 0 -0.39128338495032239 0.36719877308275878 0 -0.38966798311544332 0.35610238881872369 0 -0.39999637464883392 0.35559476271013252 0 -0.40397412088998857 0.3623881668075713 0 -0.39128338495032239 0.36719877308275878 0 -0.39128338495032239 0.36719877308275878 0 -0.38070440212728118 0.35956436367519867 0 -0.38966798311544332 0.35610238881872369 0 -0.39128338495032239 0.36719877308275878 0 -0.38070440212728118 0.35956436367519867 0 -0.37158620997362618 0.36500042586936587 0 -0.39128338495032239 0.36719877308275878 0 -0.37158620997362618 0.36500042586936587 0 -0.38141148745950948 0.38039780936179463 0 -0.39128338495032239 0.36719877308275878 0 -0.37158620997362618 0.36500042586936587 0 -0.38070440212728118 0.35956436367519867 0 -0.38259242285128608 0.34975193996759602 0 -0.36960199921418602 0.35731180584905542 0 -0.38259242285128608 0.34975193996759602 0 -0.37580907906339922 0.33647878059299557 0 -0.36960199921418602 0.35731180584905542 0 -0.38070440212728118 0.35956436367519867 0 -0.38966798311544332 0.35610238881872369 0 -0.38259242285128608 0.34975193996759602 0 -0.39259889148010241 0.34864188780489069 0 -0.38966798311544332 0.35610238881872369 0 -0.38259242285128608 0.34975193996759602 0 -0.39259889148010241 0.34864188780489069 0 -0.38259242285128608 0.34975193996759602 0 -0.38794720083446621 0.34059934721089508 0 -0.38259242285128608 0.34975193996759602 0 -0.37580907906339922 0.33647878059299557 0 -0.38794720083446621 0.34059934721089508 0 -0.37580907906339922 0.33647878059299557 0 -0.38794720083446621 0.34059934721089508 0 -0.38710957434645199 0.32672334422492838 0 -0.37580907906339922 0.33647878059299557 0 -0.38201615891261242 0.31564575533693578 0 -0.38201615891261242 0.31564575533693578 0 -0.38336946241093189 0.30974931290420182 0 -0.36531193472093021 0.32454274932608829 0 -0.37580907906339922 0.33647878059299557 0 -0.38201615891261242 0.31564575533693578 0 -0.38710957434645199 0.32672334422492838 0 -0.38201615891261242 0.31564575533693578 0 -0.39350880394476312 0.31593875705230262 0 -0.38336946241093189 0.30974931290420182 0 -0.38201615891261242 0.31564575533693578 0 -0.38710957434645199 0.32672334422492838 0 -0.39350880394476312 0.31593875705230262 0 -0.38710957434645199 0.32672334422492838 0 -0.39350880394476312 0.31593875705230262 0 -0.39921774374196328 0.327754485124091 0 -0.39350880394476312 0.31593875705230262 0 -0.39921774374196328 0.327754485124091 0 -0.40602554896887638 0.32011992980008452 0 -0.39921774374196328 0.327754485124091 0 -0.40602554896887638 0.32011992980008452 0 -0.40814721749945931 0.33505042297199122 0 -0.38794720083446621 0.34059934721089508 0 -0.38710957434645199 0.32672334422492838 0 -0.40046159691170069 0.34164056661102238 0 -0.39259889148010241 0.34864188780489069 0 -0.38794720083446621 0.34059934721089508 0 -0.40046159691170069 0.34164056661102238 0 -0.38710957434645199 0.32672334422492838 0 -0.39921774374196328 0.327754485124091 0 -0.40046159691170069 0.34164056661102238 0 -0.38710957434645199 0.32672334422492838 0 -0.40046159691170069 0.34164056661102238 0 -0.39921774374196328 0.327754485124091 0 -0.40046159691170069 0.34164056661102238 0 -0.40814721749945931 0.33505042297199122 0 -0.40814721749945931 0.33505042297199122 0 -0.41954562432067788 0.33058053440738988 0 -0.41381361947694889 0.35655778899711688 0 -0.41954562432067788 0.33058053440738988 0 -0.41381361947694889 0.35655778899711688 0 -0.40602554896887638 0.32011992980008452 0 -0.40814721749945931 0.33505042297199122 0 -0.41954562432067788 0.33058053440738988 0 -0.40602554896887638 0.32011992980008452 0 -0.41954562432067788 0.33058053440738988 0 -0.42527762916440792 0.30460327981766322 0 -0.41954562432067788 0.33058053440738988 0 -0.42527762916440792 0.30460327981766322 0 -0.41954562432067788 0.33058053440738988 0 -0.44001701522470671 0.31606260091672289 0 -0.42527762916440792 0.30460327981766322 0 -0.41954562432067788 0.33058053440738988 0 -0.42420657124029282 0.3485159257420361 0 -0.43843079740841773 0.33787066219507811 0 -0.41954562432067788 0.33058053440738988 0 -0.43843079740841773 0.33787066219507811 0 -0.44001701522470671 0.31606260091672289 0 -0.42420657124029282 0.3485159257420361 0 -0.43459164588172849 0.36007712215754689 0 -0.43843079740841773 0.33787066219507811 0 -0.42420657124029282 0.3485159257420361 0 -0.41381361947694889 0.35655778899711688 0 -0.43459164588172849 0.36007712215754689 0 -0.41381361947694889 0.35655778899711688 0 -0.43459164588172849 0.36007712215754689 0 -0.43459164588172849 0.36007712215754689 0 -0.43843079740841773 0.33787066219507811 0 -0.40046159691170069 0.34164056661102238 0 -0.40814721749945931 0.33505042297199122 0 -0.41381361947694889 0.35655778899711688 0 -0.41954562432067788 0.33058053440738988 0 -0.42420657124029282 0.3485159257420361 0 -0.41381361947694889 0.35655778899711688 0 -0.39999637464883392 0.35559476271013252 0 -0.41381361947694889 0.35655778899711688 0 -0.40046159691170069 0.34164056661102238 0 -0.41381361947694889 0.35655778899711688 0 -0.41381361947694889 0.35655778899711688 0 -0.41098055992701871 0.3693971202961519 0 -0.42689564018809201 0.37117335838025439 0 -0.41098055992701871 0.3693971202961519 0 -0.42689564018809201 0.37117335838025439 0 -0.40881671944059661 0.37920357314115732 0 -0.41098055992701871 0.3693971202961519 0 -0.42689564018809201 0.37117335838025439 0 -0.40881671944059661 0.37920357314115732 0 -0.41098055992701871 0.3693971202961519 0 -0.40397412088998857 0.3623881668075713 0 -0.41381361947694889 0.35655778899711688 0 -0.41098055992701871 0.3693971202961519 0 -0.41381361947694889 0.35655778899711688 0 -0.41098055992701871 0.3693971202961519 0 -0.41381361947694889 0.35655778899711688 0 -0.42689564018809201 0.37117335838025439 0 -0.41381361947694889 0.35655778899711688 0 -0.42907199843085347 0.36486274908666949 0 -0.43459164588172849 0.36007712215754689 0 -0.42689564018809201 0.37117335838025439 0 -0.42907199843085347 0.36486274908666949 0 -0.42980351636605002 0.37149789839679431 0 -0.43173797726570751 0.37658334167695551 0 -0.42689564018809201 0.37117335838025439 0 -0.43173797726570751 0.37658334167695551 0 -0.42689564018809201 0.37117335838025439 0 -0.42980351636605002 0.37149789839679431 0 -0.42689564018809201 0.37117335838025439 0 -0.42980351636605002 0.37149789839679431 0 -0.41381361947694889 0.35655778899711688 0 -0.42689564018809201 0.37117335838025439 0 -0.42907199843085347 0.36486274908666949 0 -0.43459164588172849 0.36007712215754689 0 -0.4325639091043616 0.37180597819459837 0 -0.42907199843085347 0.36486274908666949 0 -0.43459164588172849 0.36007712215754689 0 -0.4325639091043616 0.37180597819459837 0 -0.43173797726570751 0.37658334167695551 0 -0.4325639091043616 0.37180597819459837 0 -0.43173797726570751 0.37658334167695551 0 -0.4325639091043616 0.37180597819459837 0 -0.42980351636605002 0.37149789839679431 0 -0.4325639091043616 0.37180597819459837 0 -0.42980351636605002 0.37149789839679431 0 -0.42907199843085347 0.36486274908666949 0 -0.4325639091043616 0.37180597819459837 0 -0.42980351636605002 0.37149789839679431 0 -0.4393591315165738 0.37762743775392832 0 -0.4325639091043616 0.37180597819459837 0 -0.44813402172652672 0.37354371539476261 0 -0.4325639091043616 0.37180597819459837 0 -0.44813402172652672 0.37354371539476261 0 -0.4325639091043616 0.37180597819459837 0 -0.44813402172652672 0.37354371539476261 0 -0.45404419213644692 0.3625975043188554 0 -0.43459164588172849 0.36007712215754689 0 -0.45404419213644692 0.3625975043188554 0 -0.43459164588172849 0.36007712215754689 0 -0.4325639091043616 0.37180597819459837 0 -0.45404419213644692 0.3625975043188554 0 -0.4325639091043616 0.37180597819459837 0 -0.45404419213644692 0.3625975043188554 0 -0.43459164588172849 0.36007712215754689 0 -0.44549025602952702 0.35300777224981977 0 -0.45404419213644692 0.3625975043188554 0 -0.44549025602952702 0.35300777224981977 0 -0.45575207180717081 0.34762579988211101 0 -0.43843079740841773 0.33787066219507811 0 -0.43459164588172849 0.36007712215754689 0 -0.44549025602952702 0.35300777224981977 0 -0.43843079740841773 0.33787066219507811 0 -0.44549025602952702 0.35300777224981977 0 -0.45575207180717081 0.34762579988211101 0 -0.45404419213644692 0.3625975043188554 0 -0.45575207180717081 0.34762579988211101 0 -0.46674234051517471 0.35793515390827568 0 -0.45404419213644692 0.3625975043188554 0 -0.45575207180717081 0.34762579988211101 0 -0.46674234051517471 0.35793515390827568 0 -0.46933267881425472 0.34565439271282838 0 -0.45404419213644692 0.3625975043188554 0 -0.47441064506165659 0.36523629740895902 0 -0.46674234051517471 0.35793515390827568 0 -0.45404419213644692 0.3625975043188554 0 -0.47441064506165659 0.36523629740895902 0 -0.45404419213644692 0.3625975043188554 0 -0.46360543106569913 0.37231654924431878 0 -0.47441064506165659 0.36523629740895902 0 -0.44813402172652672 0.37354371539476261 0 -0.45404419213644692 0.3625975043188554 0 -0.46360543106569913 0.37231654924431878 0 -0.46674234051517471 0.35793515390827568 0 -0.45404419213644692 0.3625975043188554 0 -0.46360543106569913 0.37231654924431878 0 -0.47397397291215421 0.37493689296344251 0 -0.47441064506165659 0.36523629740895902 0 -0.47441064506165659 0.36523629740895902 0 -0.48058358620238051 0.35168401037216412 0 -0.49477709798686631 0.36787509049906381 0 -0.47397397291215421 0.37493689296344251 0 -0.47441064506165659 0.36523629740895902 0 -0.48714178473823078 0.37241716516273898 0 -0.46674234051517471 0.35793515390827568 0 -0.47441064506165659 0.36523629740895902 0 -0.48058358620238051 0.35168401037216412 0 -0.46674234051517471 0.35793515390827568 0 -0.46933267881425472 0.34565439271282838 0 -0.48058358620238051 0.35168401037216412 0 -0.46933267881425472 0.34565439271282838 0 -0.48058358620238051 0.35168401037216412 0 -0.48121002056386808 0.3369363626790518 0 -0.48058358620238051 0.35168401037216412 0 -0.49703354506598713 0.34759711953555122 0 -0.48121002056386808 0.3369363626790518 0 -0.49703354506598713 0.34759711953555122 0 -0.5 0.34812631329607491 0 -0.49477709798686631 0.36787509049906381 0 -0.48058358620238051 0.35168401037216412 0 -0.49703354506598713 0.34759711953555122 0 -0.49477709798686631 0.36787509049906381 0 -0.49703354506598713 0.34759711953555122 0 -0.49477709798686631 0.36787509049906381 0 -0.5 0.34812631329607491 0 -0.50000000000000311 0.3685517992903854 0 -0.49477709798686631 0.36787509049906381 0 -0.47441064506165659 0.36523629740895902 0 -0.49477709798686631 0.36787509049906381 0 -0.48714178473823078 0.37241716516273898 0 -0.47441064506165659 0.36523629740895902 0 -0.49477709798686631 0.36787509049906381 0 -0.49007778645481631 0.38142997617552599 0 -0.50000000000000311 0.3685517992903854 0 -0.49477709798686631 0.36787509049906381 0 -0.50000000000000311 0.3685517992903854 0 -0.49477709798686631 0.36787509049906381 0 -0.49007778645481631 0.38142997617552599 0 -0.49477709798686631 0.36787509049906381 0 -0.48714178473823078 0.37241716516273898 0 -0.4992899921451075 0.32731914857203848 0 -0.47890896772952718 0.31636292681222472 0 -0.4992899921451075 0.32731914857203848 0 -0.48121002056386808 0.3369363626790518 0 -0.47890896772952718 0.31636292681222472 0 -0.49999999999999989 0.32093853419885771 0 -0.47890896772952718 0.31636292681222472 0 -0.48920120729889771 0.30786362236022019 0 -0.49999999999999989 0.32093853419885771 0 -0.4992899921451075 0.32731914857203848 0 -0.47890896772952718 0.31636292681222472 0 -0.49999999999999989 0.32093853419885771 0 -0.4992899921451075 0.32731914857203848 0 -0.49703354506598713 0.34759711953555122 0 -0.4992899921451075 0.32731914857203848 0 -0.49703354506598713 0.34759711953555122 0 -0.4992899921451075 0.32731914857203848 0 -0.48121002056386808 0.3369363626790518 0 -0.49703354506598713 0.34759711953555122 0 -0.5 0.34812631329607491 0 -0.4992899921451075 0.32731914857203848 0 -0.46933267881425472 0.34565439271282838 0 -0.48121002056386808 0.3369363626790518 0 -0.46237537498267961 0.3340906367225393 0 -0.48121002056386808 0.3369363626790518 0 -0.47890896772952718 0.31636292681222472 0 -0.46237537498267961 0.3340906367225393 0 -0.47890896772952718 0.31636292681222472 0 -0.45636509730576869 0.32029680939338251 0 -0.45852794331394758 0.30540670505240958 0 -0.47890896772952718 0.31636292681222472 0 -0.45636509730576869 0.32029680939338251 0 -0.46237537498267961 0.3340906367225393 0 -0.45575207180717081 0.34762579988211101 0 -0.46933267881425472 0.34565439271282838 0 -0.46237537498267961 0.3340906367225393 0 -0.45575207180717081 0.34762579988211101 0 -0.46237537498267961 0.3340906367225393 0 -0.43843079740841773 0.33787066219507811 0 -0.45636509730576869 0.32029680939338251 0 -0.46237537498267961 0.3340906367225393 0 -0.43843079740841773 0.33787066219507811 0 -0.45636509730576869 0.32029680939338251 0 -0.43843079740841773 0.33787066219507811 0 -0.44001701522470671 0.31606260091672289 0 -0.45636509730576869 0.32029680939338251 0 -0.44001701522470671 0.31606260091672289 0 -0.45852794331394758 0.30540670505240958 0 -0.4381469188983681 0.2944504832925946 0 -0.45852794331394758 0.30540670505240958 0 -0.44001701522470671 0.31606260091672289 0 -0.4381469188983681 0.2944504832925946 0 -0.45852794331394758 0.30540670505240958 0 -0.4381469188983681 0.2944504832925946 0 -0.4447805513699985 0.27737231294201392 0 -0.43100963400813791 0.27862602522793672 0 -0.4381469188983681 0.2944504832925946 0 -0.45724976864254441 0.28334965182257721 0 -0.4447805513699985 0.27737231294201392 0 -0.4381469188983681 0.2944504832925946 0 -0.45724976864254441 0.28334965182257721 0 -0.45852794331394758 0.30540670505240958 0 -0.45724976864254441 0.28334965182257721 0 -0.45852794331394758 0.30540670505240958 0 -0.47789586146606378 0.29814868652574811 0 -0.47890896772952718 0.31636292681222472 0 -0.45852794331394758 0.30540670505240958 0 -0.47890896772952718 0.31636292681222472 0 -0.47789586146606378 0.29814868652574811 0 -0.48920120729889771 0.30786362236022019 0 -0.47890896772952718 0.31636292681222472 0 -0.45852794331394758 0.30540670505240958 0 -0.47789586146606378 0.29814868652574811 0 -0.45724976864254441 0.28334965182257721 0 -0.47789586146606378 0.29814868652574811 0 -0.48102565218130672 0.27929705551177292 0 -0.5 0.29600434190405073 0 -0.5 0.27107014960924369 0 -0.48102565218130672 0.27929705551177292 0 -0.47789586146606378 0.29814868652574811 0 -0.5 0.29600434190405073 0 -0.48102565218130672 0.27929705551177292 0 -0.47789586146606378 0.29814868652574811 0 -0.5 0.29600434190405073 0 -0.48920120729889771 0.30786362236022019 0 -0.49999999999999989 0.32093853419885771 0 -0.5 0.29600434190405073 0 -0.48920120729889771 0.30786362236022019 0 -0.48177750529808522 0.24619974485466931 0 -0.5 0.2461359573144368 0 -0.48654709528280549 0.26072196503438649 0 -0.5 0.2461359573144368 0 -0.48654709528280549 0.26072196503438649 0 -0.5 0.27107014960924369 0 -0.48654709528280549 0.26072196503438649 0 -0.5 0.27107014960924369 0 -0.48102565218130672 0.27929705551177292 0 -0.48654709528280549 0.26072196503438649 0 -0.48102565218130672 0.27929705551177292 0 -0.46993231893463527 0.26090691788180947 0 -0.45724976864254441 0.28334965182257721 0 -0.48102565218130672 0.27929705551177292 0 -0.46993231893463527 0.26090691788180947 0 -0.48177750529808522 0.24619974485466931 0 -0.48654709528280549 0.26072196503438649 0 -0.46993231893463527 0.26090691788180947 0 -0.45710504060219709 0.23686107433279269 0 -0.46993231893463527 0.26090691788180947 0 -0.44707755271196942 0.2637365605125353 0 -0.45724976864254441 0.28334965182257721 0 -0.46993231893463527 0.26090691788180947 0 -0.44707755271196942 0.2637365605125353 0 -0.45724976864254441 0.28334965182257721 0 -0.4447805513699985 0.27737231294201392 0 -0.44707755271196942 0.2637365605125353 0 -0.4447805513699985 0.27737231294201392 0 -0.44707755271196942 0.2637365605125353 0 -0.43100963400813791 0.27862602522793672 0 -0.45710504060219709 0.23686107433279269 0 -0.44707755271196942 0.2637365605125353 0 -0.44707755271196942 0.2637365605125353 0 -0.4367416388518679 0.25264877063821017 0 -0.43100963400813791 0.27862602522793672 0 -0.45710504060219709 0.23686107433279269 0 -0.44707755271196942 0.2637365605125353 0 -0.4367416388518679 0.25264877063821017 0 -0.4367416388518679 0.25264877063821017 0 -0.41175872593851298 0.2549478601346914 0 -0.41885046316002428 0.26850948483906401 0 -0.41175872593851298 0.2549478601346914 0 -0.41885046316002428 0.26850948483906401 0 -0.3976364837244763 0.27421361628784369 0 -0.41885046316002428 0.26850948483906401 0 -0.41710583327712653 0.28211115190663788 0 -0.3976364837244763 0.27421361628784369 0 -0.41885046316002428 0.26850948483906401 0 -0.43100963400813791 0.27862602522793672 0 -0.41710583327712653 0.28211115190663788 0 -0.4367416388518679 0.25264877063821017 0 -0.43100963400813791 0.27862602522793672 0 -0.4367416388518679 0.25264877063821017 0 -0.41885046316002428 0.26850948483906401 0 -0.43100963400813791 0.27862602522793672 0 -0.4381469188983681 0.2944504832925946 0 -0.43100963400813791 0.27862602522793672 0 -0.42527762916440792 0.30460327981766322 0 -0.43100963400813791 0.27862602522793672 0 -0.42527762916440792 0.30460327981766322 0 -0.41710583327712653 0.28211115190663788 0 -0.43100963400813791 0.27862602522793672 0 -0.42527762916440792 0.30460327981766322 0 -0.44001701522470671 0.31606260091672289 0 -0.4381469188983681 0.2944504832925946 0 -0.42527762916440792 0.30460327981766322 0 -0.40602554896887638 0.32011992980008452 0 -0.42527762916440792 0.30460327981766322 0 -0.4014269901009333 0.29495587648231503 0 -0.41710583327712653 0.28211115190663788 0 -0.4014269901009333 0.29495587648231503 0 -0.42527762916440792 0.30460327981766322 0 -0.41710583327712653 0.28211115190663788 0 -0.4014269901009333 0.29495587648231503 0 -0.41710583327712653 0.28211115190663788 0 -0.4014269901009333 0.29495587648231503 0 -0.3976364837244763 0.27421361628784369 0 -0.4014269901009333 0.29495587648231503 0 -0.38389766901197209 0.2919764357376447 0 -0.3976364837244763 0.27421361628784369 0 -0.4014269901009333 0.29495587648231503 0 -0.3976364837244763 0.27421361628784369 0 -0.39350880394476312 0.31593875705230262 0 -0.40602554896887638 0.32011992980008452 0 -0.4014269901009333 0.29495587648231503 0 -0.4014269901009333 0.29495587648231503 0 -0.38336946241093189 0.30974931290420182 0 -0.40602554896887638 0.32011992980008452 0 -0.4014269901009333 0.29495587648231503 0 -0.39350880394476312 0.31593875705230262 0 -0.4014269901009333 0.29495587648231503 0 -0.38336946241093189 0.30974931290420182 0 -0.38336946241093189 0.30974931290420182 0 -0.38389766901197209 0.2919764357376447 0 -0.36596935852520629 0.30787018431111951 0 -0.4014269901009333 0.29495587648231503 0 -0.38336946241093189 0.30974931290420182 0 -0.38389766901197209 0.2919764357376447 0 -0.38389766901197209 0.2919764357376447 0 -0.3839238193794226 0.27871888045260418 0 -0.3976364837244763 0.27421361628784369 0 -0.38389766901197209 0.2919764357376447 0 -0.3839238193794226 0.27871888045260418 0 -0.3703732677084236 0.2804332674389724 0 -0.3839238193794226 0.27871888045260418 0 -0.38378785707281859 0.2682522023459562 0 -0.3703732677084236 0.2804332674389724 0 -0.38378785707281859 0.2682522023459562 0 -0.37477717689163992 0.25299635056682518 0 -0.3703732677084236 0.2804332674389724 0 -0.3839238193794226 0.27871888045260418 0 -0.38378785707281859 0.2682522023459562 0 -0.3976364837244763 0.27421361628784369 0 -0.38378785707281859 0.2682522023459562 0 -0.39384597734802013 0.25347135609337229 0 -0.37477717689163992 0.25299635056682518 0 -0.39384597734802013 0.25347135609337229 0 -0.3976364837244763 0.27421361628784369 0 -0.41175872593851298 0.2549478601346914 0 -0.39384597734802013 0.25347135609337229 0 -0.3976364837244763 0.27421361628784369 0 -0.38378785707281859 0.2682522023459562 0 -0.39384597734802013 0.25347135609337229 0 -0.3976364837244763 0.27421361628784369 0 -0.35834524103505527 0.27479395617319979 0 -0.34490227433735798 0.27909378963084902 0 -0.35045174428906722 0.28677843618767362 0 -0.35834524103505527 0.27479395617319979 0 -0.34490227433735798 0.27909378963084902 0 -0.34728570068091402 0.2661688508290645 0 -0.34728570068091402 0.2661688508290645 0 -0.35464358931248319 0.25491115920099722 0 -0.34150965816976359 0.25817059719828012 0 -0.33845336435013867 0.242079554605789 0 -0.35464358931248319 0.25491115920099722 0 -0.34150965816976359 0.25817059719828012 0 -0.35834524103505527 0.27479395617319979 0 -0.34728570068091402 0.2661688508290645 0 -0.35464358931248319 0.25491115920099722 0 -0.35834524103505527 0.27479395617319979 0 -0.37477717689163992 0.25299635056682518 0 -0.35834524103505527 0.27479395617319979 0 -0.35464358931248319 0.25491115920099722 0 -0.37477717689163992 0.25299635056682518 0 -0.37477717689163992 0.25299635056682518 0 -0.3703732677084236 0.2804332674389724 0 -0.35834524103505527 0.27479395617319979 0 -0.37477717689163992 0.25299635056682518 0 -0.3703732677084236 0.2804332674389724 0 -0.3703732677084236 0.2804332674389724 0 -0.36596935852520629 0.30787018431111951 0 -0.38389766901197209 0.2919764357376447 0 -0.3703732677084236 0.2804332674389724 0 -0.36596935852520629 0.30787018431111951 0 -0.35834524103505527 0.27479395617319979 0 -0.3703732677084236 0.2804332674389724 0 -0.35925388220638338 0.290827281626163 0 -0.3703732677084236 0.2804332674389724 0 -0.36596935852520629 0.30787018431111951 0 -0.35925388220638338 0.290827281626163 0 -0.36596935852520629 0.30787018431111951 0 -0.35645499353340299 0.30154574554434233 0 -0.35925388220638338 0.290827281626163 0 -0.36596935852520629 0.30787018431111951 0 -0.35645499353340299 0.30154574554434233 0 -0.35774913989266272 0.31391262040183171 0 -0.35645499353340299 0.30154574554434233 0 -0.35013945535461871 0.3105838988596446 0 -0.35774913989266272 0.31391262040183171 0 -0.35645499353340299 0.30154574554434233 0 -0.34780240298166087 0.30288468022079579 0 -0.35285886900803182 0.29452238055293539 0 -0.34780240298166087 0.30288468022079579 0 -0.34622635383862083 0.29383585221412489 0 -0.33932813284697128 0.29730713825443927 0 -0.34780240298166087 0.30288468022079579 0 -0.35285886900803182 0.29452238055293539 0 -0.34622635383862083 0.29383585221412489 0 -0.34780240298166087 0.30288468022079579 0 -0.34514961405368982 0.30758965292055213 0 -0.33997231501418312 0.30473657218964828 0 -0.35645499353340299 0.30154574554434233 0 -0.34780240298166087 0.30288468022079579 0 -0.35013945535461871 0.3105838988596446 0 -0.34780240298166087 0.30288468022079579 0 -0.34514961405368982 0.30758965292055213 0 -0.35013945535461871 0.3105838988596446 0 -0.34514961405368982 0.30758965292055213 0 -0.35013945535461871 0.3105838988596446 0 -0.34268428286429659 0.31215346041211978 0 -0.35834524103505527 0.27479395617319979 0 -0.35925388220638338 0.290827281626163 0 -0.35045174428906722 0.28677843618767362 0 -0.35645499353340299 0.30154574554434233 0 -0.35925388220638338 0.290827281626163 0 -0.35285886900803182 0.29452238055293539 0 -0.35925388220638338 0.290827281626163 0 -0.35285886900803182 0.29452238055293539 0 -0.35045174428906722 0.28677843618767362 0 -0.35285886900803182 0.29452238055293539 0 -0.34622635383862083 0.29383585221412489 0 -0.35045174428906722 0.28677843618767362 0 -0.34622635383862083 0.29383585221412489 0 -0.35045174428906722 0.28677843618767362 0 -0.34088660642111013 0.2879281286912172 0 -0.34490227433735798 0.27909378963084902 0 -0.35045174428906722 0.28677843618767362 0 -0.34088660642111013 0.2879281286912172 0 -0.34490227433735798 0.27909378963084902 0 -0.34088660642111013 0.2879281286912172 0 -0.33262910378125132 0.278293493462413 0 -0.34088660642111013 0.2879281286912172 0 -0.33227483086849752 0.29261385498347509 0 -0.33932813284697128 0.29730713825443927 0 -0.34622635383862083 0.29383585221412489 0 -0.34088660642111013 0.2879281286912172 0 -0.33932813284697128 0.29730713825443927 0 -0.33227483086849752 0.29261385498347509 0 -0.32398535199451511 0.28524421774589648 0 -0.33262910378125132 0.278293493462413 0 -0.34088660642111013 0.2879281286912172 0 -0.33227483086849752 0.29261385498347509 0 -0.33262910378125132 0.278293493462413 0 -0.33718535734333338 0.30882123026638569 0 -0.34268428286429659 0.31215346041211978 0 -0.33477104767585758 0.31524888829805342 0 -0.33718535734333338 0.30882123026638569 0 -0.34268428286429659 0.31215346041211978 0 -0.33997231501418312 0.30473657218964828 0 -0.34514961405368982 0.30758965292055213 0 -0.34268428286429659 0.31215346041211978 0 -0.33997231501418312 0.30473657218964828 0 -0.33718535734333338 0.30882123026638569 0 -0.33997231501418312 0.30473657218964828 0 -0.33396296217470239 0.30554582684384218 0 -0.33997231501418312 0.30473657218964828 0 -0.33932813284697128 0.29730713825443927 0 -0.33396296217470239 0.30554582684384218 0 -0.34780240298166087 0.30288468022079579 0 -0.33997231501418312 0.30473657218964828 0 -0.33932813284697128 0.29730713825443927 0 -0.33227483086849752 0.29261385498347509 0 -0.33396296217470239 0.30554582684384218 0 -0.32251037119006698 0.3031431883822347 0 -0.33227483086849752 0.29261385498347509 0 -0.33932813284697128 0.29730713825443927 0 -0.33396296217470239 0.30554582684384218 0 -0.33718535734333338 0.30882123026638569 0 -0.33396296217470239 0.30554582684384218 0 -0.33477104767585758 0.31524888829805342 0 -0.33396296217470239 0.30554582684384218 0 -0.32251037119006698 0.3031431883822347 0 -0.33219148171911272 0.31730370811833031 0 -0.32251037119006698 0.3031431883822347 0 -0.31456388983813333 0.31636814557902659 0 -0.33219148171911272 0.31730370811833031 0 -0.32251037119006698 0.3031431883822347 0 -0.31282926066102218 0.28898266864613842 0 -0.30402337591517081 0.3051012194244167 0 -0.32251037119006698 0.3031431883822347 0 -0.30402337591517081 0.3051012194244167 0 -0.31456388983813333 0.31636814557902659 0 -0.32251037119006698 0.3031431883822347 0 -0.33219148171911272 0.31730370811833031 0 -0.33227483086849752 0.29261385498347509 0 -0.32251037119006698 0.3031431883822347 0 -0.32398535199451511 0.28524421774589648 0 -0.32251037119006698 0.3031431883822347 0 -0.32398535199451511 0.28524421774589648 0 -0.31282926066102218 0.28898266864613842 0 -0.32251037119006698 0.3031431883822347 0 -0.31282926066102218 0.28898266864613842 0 -0.31282926066102218 0.28898266864613842 0 -0.32065101258715689 0.274665503564473 0 -0.32398535199451511 0.28524421774589648 0 -0.31282926066102218 0.28898266864613842 0 -0.32065101258715689 0.274665503564473 0 -0.32065101258715689 0.274665503564473 0 -0.32847276451329022 0.26034833848280681 0 -0.31199410965335322 0.26463258327439948 0 -0.32065101258715689 0.274665503564473 0 -0.33262910378125132 0.278293493462413 0 -0.32847276451329022 0.26034833848280681 0 -0.31282926066102218 0.28898266864613842 0 -0.32065101258715689 0.274665503564473 0 -0.30403346053568642 0.27611708872161922 0 -0.32065101258715689 0.274665503564473 0 -0.32847276451329022 0.26034833848280681 0 -0.32398535199451511 0.28524421774589648 0 -0.32065101258715689 0.274665503564473 0 -0.33262910378125132 0.278293493462413 0 -0.33262910378125132 0.278293493462413 0 -0.33869287199199061 0.26734508287274228 0 -0.32847276451329022 0.26034833848280681 0 -0.34490227433735798 0.27909378963084902 0 -0.34728570068091402 0.2661688508290645 0 -0.33869287199199061 0.26734508287274228 0 -0.34490227433735798 0.27909378963084902 0 -0.33262910378125132 0.278293493462413 0 -0.33869287199199061 0.26734508287274228 0 -0.33845336435013867 0.242079554605789 0 -0.34150965816976359 0.25817059719828012 0 -0.32847276451329022 0.26034833848280681 0 -0.33845336435013867 0.242079554605789 0 -0.32847276451329022 0.26034833848280681 0 -0.34728570068091402 0.2661688508290645 0 -0.33869287199199061 0.26734508287274228 0 -0.34150965816976359 0.25817059719828012 0 -0.33869287199199061 0.26734508287274228 0 -0.34150965816976359 0.25817059719828012 0 -0.32847276451329022 0.26034833848280681 0 -0.33869287199199061 0.26734508287274228 0 -0.32847276451329022 0.26034833848280681 0 -0.311575650220281 0.24878047680599949 0 -0.32847276451329022 0.26034833848280681 0 -0.311575650220281 0.24878047680599949 0 -0.32847276451329022 0.26034833848280681 0 -0.31199410965335322 0.26463258327439948 0 -0.32455092720978362 0.24357057421839101 0 -0.311575650220281 0.24878047680599949 0 -0.32847276451329022 0.26034833848280681 0 -0.311575650220281 0.24878047680599949 0 -0.31199410965335322 0.26463258327439948 0 -0.29523766041035199 0.26325150879709891 0 -0.30403346053568642 0.27611708872161922 0 -0.29523766041035199 0.26325150879709891 0 -0.29574151564778611 0.28671646758259889 0 -0.31199410965335322 0.26463258327439948 0 -0.30403346053568642 0.27611708872161922 0 -0.29523766041035199 0.26325150879709891 0 -0.32065101258715689 0.274665503564473 0 -0.31199410965335322 0.26463258327439948 0 -0.30403346053568642 0.27611708872161922 0 -0.30403346053568642 0.27611708872161922 0 -0.29523766041035199 0.26325150879709891 0 -0.28985028671148488 0.25537141990030859 0 -0.26863301980023729 0.26794771562718522 0 -0.28534189936007232 0.28197220440765719 0 -0.29523766041035199 0.26325150879709891 0 -0.29574151564778611 0.28671646758259889 0 -0.29523766041035199 0.26325150879709891 0 -0.29574151564778611 0.28671646758259889 0 -0.28534189936007232 0.28197220440765719 0 -0.28985028671148488 0.25537141990030859 0 -0.29523766041035199 0.26325150879709891 0 -0.28534189936007232 0.28197220440765719 0 -0.28985028671148488 0.25537141990030859 0 -0.28534189936007232 0.28197220440765719 0 -0.29467853592727078 0.23721261512919359 0 -0.29523766041035199 0.26325150879709891 0 -0.29467853592727078 0.23721261512919359 0 -0.28985028671148488 0.25537141990030859 0 -0.29523766041035199 0.26325150879709891 0 -0.28985028671148488 0.25537141990030859 0 -0.29523766041035199 0.26325150879709891 0 -0.28985028671148488 0.25537141990030859 0 -0.2724296921133022 0.25217156250687062 0 -0.26863301980023729 0.26794771562718522 0 -0.2724296921133022 0.25217156250687062 0 -0.26863301980023729 0.26794771562718522 0 -0.25693865295534157 0.25278860643768353 0 -0.26863301980023729 0.26794771562718522 0 -0.26277913973510902 0.29023342414179659 0 -0.28534189936007232 0.28197220440765719 0 -0.26277913973510902 0.29023342414179659 0 -0.2447247674615598 0.2718938593685879 0 -0.26863301980023729 0.26794771562718522 0 -0.26277913973510902 0.29023342414179659 0 -0.2447247674615598 0.2718938593685879 0 -0.26863301980023729 0.26794771562718522 0 -0.25693865295534157 0.25278860643768353 0 -0.2447247674615598 0.2718938593685879 0 -0.26277913973510902 0.29023342414179659 0 -0.25757488899104952 0.31786411623381933 0 -0.2366570207200871 0.30010935915934539 0 -0.26277913973510902 0.29023342414179659 0 -0.28083351200865853 0.30857298891500562 0 -0.28534189936007232 0.28197220440765719 0 -0.26277913973510902 0.29023342414179659 0 -0.28083351200865853 0.30857298891500562 0 -0.26277913973510902 0.29023342414179659 0 -0.28083351200865853 0.30857298891500562 0 -0.25757488899104952 0.31786411623381933 0 -0.28083351200865853 0.30857298891500562 0 -0.29574151564778611 0.28671646758259889 0 -0.30402337591517081 0.3051012194244167 0 -0.28083351200865853 0.30857298891500562 0 -0.29574151564778611 0.28671646758259889 0 -0.28534189936007232 0.28197220440765719 0 -0.28083351200865853 0.30857298891500562 0 -0.28534189936007232 0.28197220440765719 0 -0.31282926066102218 0.28898266864613842 0 -0.29574151564778611 0.28671646758259889 0 -0.30402337591517081 0.3051012194244167 0 -0.31282926066102218 0.28898266864613842 0 -0.30403346053568642 0.27611708872161922 0 -0.29574151564778611 0.28671646758259889 0 -0.31282926066102218 0.28898266864613842 0 -0.30403346053568642 0.27611708872161922 0 -0.31282926066102218 0.28898266864613842 0 -0.30402337591517081 0.3051012194244167 0 -0.30402337591517081 0.3051012194244167 0 -0.29932851783868691 0.32736014762988469 0 -0.31456388983813333 0.31636814557902659 0 -0.29932851783868691 0.32736014762988469 0 -0.31400963374603508 0.33178692824556621 0 -0.31456388983813333 0.31636814557902659 0 -0.29582778577295937 0.3462701483728044 0 -0.31354931950312093 0.34747342072874071 0 -0.31400963374603508 0.33178692824556621 0 -0.29582778577295937 0.3462701483728044 0 -0.31400963374603508 0.33178692824556621 0 -0.29932851783868691 0.32736014762988469 0 -0.29582778577295937 0.3462701483728044 0 -0.31400963374603508 0.33178692824556621 0 -0.29932851783868691 0.32736014762988469 0 -0.27670802547122531 0.33291454828341721 0 -0.29582778577295937 0.3462701483728044 0 -0.27670802547122531 0.33291454828341721 0 -0.29582778577295937 0.3462701483728044 0 -0.28186865011063378 0.34863084123191301 0 -0.28083351200865853 0.30857298891500562 0 -0.30402337591517081 0.3051012194244167 0 -0.29932851783868691 0.32736014762988469 0 -0.28083351200865853 0.30857298891500562 0 -0.29932851783868691 0.32736014762988469 0 -0.28083351200865853 0.30857298891500562 0 -0.29932851783868691 0.32736014762988469 0 -0.27670802547122531 0.33291454828341721 0 -0.28083351200865853 0.30857298891500562 0 -0.27670802547122531 0.33291454828341721 0 -0.25757488899104952 0.31786411623381933 0 -0.28083351200865853 0.30857298891500562 0 -0.27670802547122531 0.33291454828341721 0 -0.27670802547122531 0.33291454828341721 0 -0.25757488899104952 0.31786411623381933 0 -0.25368472498167011 0.34420349485172652 0 -0.2613799420943046 0.36179346951182628 0 -0.25453646971320443 0.37462232419521813 0 -0.26689531734350652 0.36931705260985792 0 -0.2613799420943046 0.36179346951182628 0 -0.25453646971320443 0.37462232419521813 0 -0.24822911175635759 0.36217347122335058 0 -0.25368472498167011 0.34420349485172652 0 -0.27258253893379292 0.35725610765182902 0 -0.2613799420943046 0.36179346951182628 0 -0.25368472498167011 0.34420349485172652 0 -0.24822911175635759 0.36217347122335058 0 -0.2613799420943046 0.36179346951182628 0 -0.25368472498167011 0.34420349485172652 0 -0.27258253893379292 0.35725610765182902 0 -0.27670802547122531 0.33291454828341721 0 -0.27258253893379292 0.35725610765182902 0 -0.27670802547122531 0.33291454828341721 0 -0.27258253893379292 0.35725610765182902 0 -0.28186865011063378 0.34863084123191301 0 -0.27670802547122531 0.33291454828341721 0 -0.25368472498167011 0.34420349485172652 0 -0.27258253893379292 0.35725610765182902 0 -0.27258253893379292 0.35725610765182902 0 -0.27764593779988228 0.36075336850004069 0 -0.28186865011063378 0.34863084123191301 0 -0.27258253893379292 0.35725610765182902 0 -0.27764593779988228 0.36075336850004069 0 -0.27764593779988228 0.36075336850004069 0 -0.27110701654299552 0.36596211494311248 0 -0.28943519450698252 0.3688961411714532 0 -0.27110701654299552 0.36596211494311248 0 -0.28943519450698252 0.3688961411714532 0 -0.27110701654299552 0.36596211494311248 0 -0.28943519450698252 0.3688961411714532 0 -0.28084635904778937 0.37544065550995409 0 -0.27258253893379292 0.35725610765182902 0 -0.27764593779988228 0.36075336850004069 0 -0.27110701654299552 0.36596211494311248 0 -0.27764593779988228 0.36075336850004069 0 -0.27110701654299552 0.36596211494311248 0 -0.2613799420943046 0.36179346951182628 0 -0.27258253893379292 0.35725610765182902 0 -0.27110701654299552 0.36596211494311248 0 -0.2613799420943046 0.36179346951182628 0 -0.27110701654299552 0.36596211494311248 0 -0.26689531734350652 0.36931705260985792 0 -0.27258253893379292 0.35725610765182902 0 -0.27110701654299552 0.36596211494311248 0 -0.27110701654299552 0.36596211494311248 0 -0.26689531734350652 0.36931705260985792 0 -0.27110701654299552 0.36596211494311248 0 -0.28084635904778937 0.37544065550995409 0 -0.27663284499009211 0.37939207802828528 0 -0.28943519450698252 0.3688961411714532 0 -0.28685204816290072 0.37621819500323123 0 -0.28084635904778937 0.37544065550995409 0 -0.27764593779988228 0.36075336850004069 0 -0.28943519450698252 0.3688961411714532 0 -0.29551252006441958 0.37309371542857861 0 -0.28943519450698252 0.3688961411714532 0 -0.28685204816290072 0.37621819500323123 0 -0.29551252006441958 0.37309371542857861 0 -0.28943519450698252 0.3688961411714532 0 -0.27764593779988228 0.36075336850004069 0 -0.29582778577295937 0.3462701483728044 0 -0.27764593779988228 0.36075336850004069 0 -0.29582778577295937 0.3462701483728044 0 -0.28186865011063378 0.34863084123191301 0 -0.28943519450698252 0.3688961411714532 0 -0.29582778577295937 0.3462701483728044 0 -0.30300283950081008 0.36051339397403093 0 -0.27764593779988228 0.36075336850004069 0 -0.28943519450698252 0.3688961411714532 0 -0.29582778577295937 0.3462701483728044 0 -0.29582778577295937 0.3462701483728044 0 -0.30300283950081008 0.36051339397403093 0 -0.31354931950312093 0.34747342072874071 0 -0.28943519450698252 0.3688961411714532 0 -0.31408843612631249 0.37197903781600761 0 -0.28943519450698252 0.3688961411714532 0 -0.30300283950081008 0.36051339397403093 0 -0.31408843612631249 0.37197903781600761 0 -0.29551252006441958 0.37309371542857861 0 -0.28943519450698252 0.3688961411714532 0 -0.31408843612631249 0.37197903781600761 0 -0.30300283950081008 0.36051339397403093 0 -0.31408843612631249 0.37197903781600761 0 -0.32472866683278162 0.35786931268145811 0 -0.31408843612631249 0.37197903781600761 0 -0.32472866683278162 0.35786931268145811 0 -0.33874167774564268 0.3750619344605613 0 -0.31408843612631249 0.37197903781600761 0 -0.33874167774564268 0.3750619344605613 0 -0.33942470910854639 0.36092010030626542 0 -0.32472866683278162 0.35786931268145811 0 -0.33874167774564268 0.3750619344605613 0 -0.33942470910854639 0.36092010030626542 0 -0.3497530714632448 0.36534695126967459 0 -0.33874167774564268 0.3750619344605613 0 -0.33815763529499693 0.35089104021064632 0 -0.32472866683278162 0.35786931268145811 0 -0.33017767166301859 0.34092732036984391 0 -0.33815763529499693 0.35089104021064632 0 -0.33017767166301859 0.34092732036984391 0 -0.34251680356524339 0.34321741671518669 0 -0.33815763529499693 0.35089104021064632 0 -0.3460879504978186 0.35511096805544279 0 -0.34556584107983002 0.34849125976349993 0 -0.33815763529499693 0.35089104021064632 0 -0.34251680356524339 0.34321741671518669 0 -0.34556584107983002 0.34849125976349993 0 -0.33942470910854639 0.36092010030626542 0 -0.33815763529499693 0.35089104021064632 0 -0.3460879504978186 0.35511096805544279 0 -0.33942470910854639 0.36092010030626542 0 -0.33815763529499693 0.35089104021064632 0 -0.32472866683278162 0.35786931268145811 0 -0.31354931950312093 0.34747342072874071 0 -0.32472866683278162 0.35786931268145811 0 -0.33017767166301859 0.34092732036984391 0 -0.30300283950081008 0.36051339397403093 0 -0.31354931950312093 0.34747342072874071 0 -0.32472866683278162 0.35786931268145811 0 -0.31400963374603508 0.33178692824556621 0 -0.33219148171911272 0.31730370811833031 0 -0.33017767166301859 0.34092732036984391 0 -0.31354931950312093 0.34747342072874071 0 -0.31400963374603508 0.33178692824556621 0 -0.33017767166301859 0.34092732036984391 0 -0.31400963374603508 0.33178692824556621 0 -0.33219148171911272 0.31730370811833031 0 -0.31400963374603508 0.33178692824556621 0 -0.31456388983813333 0.31636814557902659 0 -0.33219148171911272 0.31730370811833031 0 -0.33477104767585758 0.31524888829805342 0 -0.33219148171911272 0.31730370811833031 0 -0.34795343649956839 0.3209401758966518 0 -0.33219148171911272 0.31730370811833031 0 -0.34725440703092858 0.33933618574797492 0 -0.34795343649956839 0.3209401758966518 0 -0.33396296217470239 0.30554582684384218 0 -0.33477104767585758 0.31524888829805342 0 -0.33219148171911272 0.31730370811833031 0 -0.33477104767585758 0.31524888829805342 0 -0.33219148171911272 0.31730370811833031 0 -0.34268428286429659 0.31215346041211978 0 -0.33477104767585758 0.31524888829805342 0 -0.34795343649956839 0.3209401758966518 0 -0.33219148171911272 0.31730370811833031 0 -0.34725440703092858 0.33933618574797492 0 -0.33219148171911272 0.31730370811833031 0 -0.33017767166301859 0.34092732036984391 0 -0.34725440703092858 0.33933618574797492 0 -0.33017767166301859 0.34092732036984391 0 -0.34251680356524339 0.34321741671518669 0 -0.34725440703092858 0.33933618574797492 0 -0.34725440703092858 0.33933618574797492 0 -0.34795343649956839 0.3209401758966518 0 -0.36531193472093021 0.32454274932608829 0 -0.34251680356524339 0.34321741671518669 0 -0.35002774160894051 0.34339273059465159 0 -0.34725440703092858 0.33933618574797492 0 -0.34725440703092858 0.33933618574797492 0 -0.35848812135385522 0.33902175933596412 0 -0.36531193472093021 0.32454274932608829 0 -0.34725440703092858 0.33933618574797492 0 -0.36531193472093021 0.32454274932608829 0 -0.34251680356524339 0.34321741671518669 0 -0.34725440703092858 0.33933618574797492 0 -0.35002774160894051 0.34339273059465159 0 -0.34725440703092858 0.33933618574797492 0 -0.35002774160894051 0.34339273059465159 0 -0.35848812135385522 0.33902175933596412 0 -0.35712059876301439 0.34740413424876382 0 -0.35002774160894051 0.34339273059465159 0 -0.34725440703092858 0.33933618574797492 0 -0.35848812135385522 0.33902175933596412 0 -0.34795343649956839 0.3209401758966518 0 -0.35774913989266272 0.31391262040183171 0 -0.36531193472093021 0.32454274932608829 0 -0.35013945535461871 0.3105838988596446 0 -0.34268428286429659 0.31215346041211978 0 -0.34795343649956839 0.3209401758966518 0 -0.35013945535461871 0.3105838988596446 0 -0.34795343649956839 0.3209401758966518 0 -0.35774913989266272 0.31391262040183171 0 -0.38336946241093189 0.30974931290420182 0 -0.36596935852520629 0.30787018431111951 0 -0.36531193472093021 0.32454274932608829 0 -0.36596935852520629 0.30787018431111951 0 -0.35774913989266272 0.31391262040183171 0 -0.36531193472093021 0.32454274932608829 0 -0.37580907906339922 0.33647878059299557 0 -0.38201615891261242 0.31564575533693578 0 -0.36531193472093021 0.32454274932608829 0 -0.38336946241093189 0.30974931290420182 0 -0.36531193472093021 0.32454274932608829 0 -0.35848812135385522 0.33902175933596412 0 -0.36629538785756799 0.33494858662202331 0 -0.36491865814174967 0.34450616947628299 0 -0.35848812135385522 0.33902175933596412 0 -0.36491865814174967 0.34450616947628299 0 -0.35712059876301439 0.34740413424876382 0 -0.35848812135385522 0.33902175933596412 0 -0.36531193472093021 0.32454274932608829 0 -0.36629538785756799 0.33494858662202331 0 -0.37580907906339922 0.33647878059299557 0 -0.36531193472093021 0.32454274932608829 0 -0.36629538785756799 0.33494858662202331 0 -0.37580907906339922 0.33647878059299557 0 -0.36629538785756799 0.33494858662202331 0 -0.36491865814174967 0.34450616947628299 0 -0.37580907906339922 0.33647878059299557 0 -0.36491865814174967 0.34450616947628299 0 -0.36960199921418602 0.35731180584905542 0 -0.37580907906339922 0.33647878059299557 0 -0.36960199921418602 0.35731180584905542 0 -0.36491865814174967 0.34450616947628299 0 -0.36204010283369881 0.35293053614415609 0 -0.35712059876301439 0.34740413424876382 0 -0.36491865814174967 0.34450616947628299 0 -0.36204010283369881 0.35293053614415609 0 -0.36960199921418602 0.35731180584905542 0 -0.36231373349064938 0.3583368008115923 0 -0.36204010283369881 0.35293053614415609 0 -0.35577634304253192 0.35617190760009498 0 -0.36231373349064938 0.3583368008115923 0 -0.36204010283369881 0.35293053614415609 0 -0.36960199921418602 0.35731180584905542 0 -0.36960199921418602 0.35731180584905542 0 -0.36339491936497281 0.37814483110511521 0 -0.36960199921418602 0.35731180584905542 0 -0.37158620997362618 0.36500042586936587 0 -0.36339491936497281 0.37814483110511521 0 -0.36960199921418602 0.35731180584905542 0 -0.36108579844600058 0.36545797327707619 0 -0.36339491936497281 0.37814483110511521 0 -0.38141148745950948 0.38039780936179463 0 -0.37158620997362618 0.36500042586936587 0 -0.36339491936497281 0.37814483110511521 0 -0.38070440212728118 0.35956436367519867 0 -0.36960199921418602 0.35731180584905542 0 -0.37158620997362618 0.36500042586936587 0 -0.36231373349064938 0.3583368008115923 0 -0.36108579844600058 0.36545797327707619 0 -0.35577634304253192 0.35617190760009498 0 -0.36231373349064938 0.3583368008115923 0 -0.36960199921418602 0.35731180584905542 0 -0.36108579844600058 0.36545797327707619 0 -0.36108579844600058 0.36545797327707619 0 -0.3497530714632448 0.36534695126967459 0 -0.35577634304253192 0.35617190760009498 0 -0.3497530714632448 0.36534695126967459 0 -0.36339491936497281 0.37814483110511521 0 -0.33874167774564268 0.3750619344605613 0 -0.36108579844600058 0.36545797327707619 0 -0.3497530714632448 0.36534695126967459 0 -0.36339491936497281 0.37814483110511521 0 -0.33942470910854639 0.36092010030626542 0 -0.3497530714632448 0.36534695126967459 0 -0.3460879504978186 0.35511096805544279 0 -0.3497530714632448 0.36534695126967459 0 -0.3460879504978186 0.35511096805544279 0 -0.35577634304253192 0.35617190760009498 0 -0.3460879504978186 0.35511096805544279 0 -0.35103907443215082 0.34984414324157243 0 -0.35577634304253192 0.35617190760009498 0 -0.3460879504978186 0.35511096805544279 0 -0.34556584107983002 0.34849125976349993 0 -0.35103907443215082 0.34984414324157243 0 -0.34251680356524339 0.34321741671518669 0 -0.35002774160894051 0.34339273059465159 0 -0.34556584107983002 0.34849125976349993 0 -0.35002774160894051 0.34339273059465159 0 -0.34556584107983002 0.34849125976349993 0 -0.35103907443215082 0.34984414324157243 0 -0.35103907443215082 0.34984414324157243 0 -0.35712059876301439 0.34740413424876382 0 -0.35577634304253192 0.35617190760009498 0 -0.35002774160894051 0.34339273059465159 0 -0.35103907443215082 0.34984414324157243 0 -0.35712059876301439 0.34740413424876382 0 -0.36204010283369881 0.35293053614415609 0 -0.35712059876301439 0.34740413424876382 0 -0.35577634304253192 0.35617190760009498 0 -0.35746143571760969 0.39805957647408341 0 -0.33700984602307921 0.4055687403903776 0 -0.35746143571760969 0.39805957647408341 0 -0.36339491936497281 0.37814483110511521 0 -0.33874167774564268 0.3750619344605613 0 -0.36339491936497281 0.37814483110511521 0 -0.33874167774564268 0.3750619344605613 0 -0.38141148745950948 0.38039780936179463 0 -0.37844474563582792 0.390355182046278 0 -0.36339491936497281 0.37814483110511521 0 -0.37844474563582792 0.390355182046278 0 -0.35746143571760969 0.39805957647408341 0 -0.36339491936497281 0.37814483110511521 0 -0.35746143571760969 0.39805957647408341 0 -0.36339491936497281 0.37814483110511521 0 -0.38141148745950948 0.38039780936179463 0 -0.36339491936497281 0.37814483110511521 0 -0.37668454372729859 0.41206883315114529 0 -0.37844474563582792 0.390355182046278 0 -0.35746143571760969 0.39805957647408341 0 -0.37844474563582792 0.390355182046278 0 -0.35746143571760969 0.39805957647408341 0 -0.37668454372729859 0.41206883315114529 0 -0.36778315087773072 0.43214877602771662 0 -0.35179051953527918 0.41709305806631919 0 -0.37668454372729859 0.41206883315114529 0 -0.35746143571760969 0.39805957647408341 0 -0.35179051953527918 0.41709305806631919 0 -0.37668454372729859 0.41206883315114529 0 -0.35179051953527918 0.41709305806631919 0 -0.36778315087773072 0.43214877602771662 0 -0.35179051953527918 0.41709305806631919 0 -0.34355933144160938 0.44471966407244162 0 -0.35179051953527918 0.41709305806631919 0 -0.34355933144160938 0.44471966407244162 0 -0.35746143571760969 0.39805957647408341 0 -0.35179051953527918 0.41709305806631919 0 -0.33700984602307921 0.4055687403903776 0 -0.35746143571760969 0.39805957647408341 0 -0.35179051953527918 0.41709305806631919 0 -0.35179051953527918 0.41709305806631919 0 -0.33092261172728182 0.42130471390500562 0 -0.33700984602307921 0.4055687403903776 0 -0.35179051953527918 0.41709305806631919 0 -0.33092261172728182 0.42130471390500562 0 -0.33092261172728182 0.42130471390500562 0 -0.31655825632854873 0.41307790430667191 0 -0.33700984602307921 0.4055687403903776 0 -0.35179051953527918 0.41709305806631919 0 -0.33092261172728182 0.42130471390500562 0 -0.34355933144160938 0.44471966407244162 0 -0.33092261172728182 0.42130471390500562 0 -0.32304151796324199 0.43794530689545591 0 -0.34355933144160938 0.44471966407244162 0 -0.33092261172728182 0.42130471390500562 0 -0.31005470391928353 0.42551636974368717 0 -0.32304151796324199 0.43794530689545591 0 -0.33092261172728182 0.42130471390500562 0 -0.31005470391928353 0.42551636974368717 0 -0.31005470391928353 0.42551636974368717 0 -0.30636015846579262 0.44081646755455739 0 -0.32304151796324199 0.43794530689545591 0 -0.31655825632854873 0.41307790430667191 0 -0.32178824989383492 0.40044082628072353 0 -0.33700984602307921 0.4055687403903776 0 -0.33092261172728182 0.42130471390500562 0 -0.31655825632854873 0.41307790430667191 0 -0.31005470391928353 0.42551636974368717 0 -0.31655825632854873 0.41307790430667191 0 -0.33700984602307921 0.4055687403903776 0 -0.31655825632854873 0.41307790430667191 0 -0.32178824989383492 0.40044082628072353 0 -0.30820761894760612 0.40180007281058999 0 -0.31589124725359768 0.39098578459502642 0 -0.32178824989383492 0.40044082628072353 0 -0.30820761894760612 0.40180007281058999 0 -0.31589124725359768 0.39098578459502642 0 -0.32178824989383492 0.40044082628072353 0 -0.33127428091634248 0.39077162930095188 0 -0.35746143571760969 0.39805957647408341 0 -0.33127428091634248 0.39077162930095188 0 -0.33700984602307921 0.4055687403903776 0 -0.32178824989383492 0.40044082628072353 0 -0.33127428091634248 0.39077162930095188 0 -0.33700984602307921 0.4055687403903776 0 -0.35746143571760969 0.39805957647408341 0 -0.33127428091634248 0.39077162930095188 0 -0.33874167774564268 0.3750619344605613 0 -0.31408843612631249 0.37197903781600761 0 -0.33127428091634248 0.39077162930095188 0 -0.33874167774564268 0.3750619344605613 0 -0.31408843612631249 0.37197903781600761 0 -0.31589124725359768 0.39098578459502642 0 -0.33127428091634248 0.39077162930095188 0 -0.29551252006441958 0.37309371542857861 0 -0.31408843612631249 0.37197903781600761 0 -0.30568017353146049 0.38157918508743732 0 -0.31408843612631249 0.37197903781600761 0 -0.31589124725359768 0.39098578459502642 0 -0.30568017353146049 0.38157918508743732 0 -0.31589124725359768 0.39098578459502642 0 -0.30568017353146049 0.38157918508743732 0 -0.30603649680964828 0.39194203915736708 0 -0.30568017353146049 0.38157918508743732 0 -0.29743858983336929 0.38628170497916159 0 -0.30603649680964828 0.39194203915736708 0 -0.29551252006441958 0.37309371542857861 0 -0.30568017353146049 0.38157918508743732 0 -0.29743858983336929 0.38628170497916159 0 -0.31589124725359768 0.39098578459502642 0 -0.30820761894760612 0.40180007281058999 0 -0.30603649680964828 0.39194203915736708 0 -0.30820761894760612 0.40180007281058999 0 -0.30603649680964828 0.39194203915736708 0 -0.29604813782321171 0.40003827384795049 0 -0.29743858983336929 0.38628170497916159 0 -0.30603649680964828 0.39194203915736708 0 -0.29604813782321171 0.40003827384795049 0 -0.30820761894760612 0.40180007281058999 0 -0.29604813782321171 0.40003827384795049 0 -0.2987408814332651 0.40933989620534528 0 -0.29604813782321171 0.40003827384795049 0 -0.28905057763704689 0.40562835892549581 0 -0.28392778011776681 0.39892722844600809 0 -0.29604813782321171 0.40003827384795049 0 -0.28905057763704689 0.40562835892549581 0 -0.2987408814332651 0.40933989620534528 0 -0.29604813782321171 0.40003827384795049 0 -0.28980128107673031 0.39400368344191522 0 -0.28392778011776681 0.39892722844600809 0 -0.29743858983336929 0.38628170497916159 0 -0.29604813782321171 0.40003827384795049 0 -0.28980128107673031 0.39400368344191522 0 -0.28980128107673031 0.39400368344191522 0 -0.28179061653257348 0.3907675264945405 0 -0.28392778011776681 0.39892722844600809 0 -0.28905057763704689 0.40562835892549581 0 -0.28392778011776681 0.39892722844600809 0 -0.27817781655911977 0.40726136879628272 0 -0.29743858983336929 0.38628170497916159 0 -0.28980128107673031 0.39400368344191522 0 -0.28179061653257348 0.3907675264945405 0 -0.29743858983336929 0.38628170497916159 0 -0.28179061653257348 0.3907675264945405 0 -0.28819376848868639 0.38228739672622841 0 -0.29743858983336929 0.38628170497916159 0 -0.28179061653257348 0.3907675264945405 0 -0.29551252006441958 0.37309371542857861 0 -0.29743858983336929 0.38628170497916159 0 -0.28819376848868639 0.38228739672622841 0 -0.29551252006441958 0.37309371542857861 0 -0.28819376848868639 0.38228739672622841 0 -0.28685204816290072 0.37621819500323123 0 -0.28179061653257348 0.3907675264945405 0 -0.28158428542699082 0.38279668863870758 0 -0.28819376848868639 0.38228739672622841 0 -0.28158428542699082 0.38279668863870758 0 -0.28819376848868639 0.38228739672622841 0 -0.28685204816290072 0.37621819500323123 0 -0.28158428542699082 0.38279668863870758 0 -0.28685204816290072 0.37621819500323123 0 -0.28084635904778937 0.37544065550995409 0 -0.27110701654299552 0.36596211494311248 0 -0.26614264323177789 0.39525334800991979 0 -0.27110701654299552 0.36596211494311248 0 -0.27663284499009211 0.37939207802828528 0 -0.27229768174870289 0.38438446135480281 0 -0.27110701654299552 0.36596211494311248 0 -0.27229768174870289 0.38438446135480281 0 -0.26614264323177789 0.39525334800991979 0 -0.27110701654299552 0.36596211494311248 0 -0.26689531734350652 0.36931705260985792 0 -0.26614264323177789 0.39525334800991979 0 -0.28158428542699082 0.38279668863870758 0 -0.28084635904778937 0.37544065550995409 0 -0.27663284499009211 0.37939207802828528 0 -0.27229768174870289 0.38438446135480281 0 -0.27641046434025379 0.38710393959788297 0 -0.26614264323177789 0.39525334800991979 0 -0.28179061653257348 0.3907675264945405 0 -0.28158428542699082 0.38279668863870758 0 -0.27641046434025379 0.38710393959788297 0 -0.27663284499009211 0.37939207802828528 0 -0.27229768174870289 0.38438446135480281 0 -0.27641046434025379 0.38710393959788297 0 -0.28158428542699082 0.38279668863870758 0 -0.27663284499009211 0.37939207802828528 0 -0.27641046434025379 0.38710393959788297 0 -0.28179061653257348 0.3907675264945405 0 -0.27641046434025379 0.38710393959788297 0 -0.26614264323177789 0.39525334800991979 0 -0.28179061653257348 0.3907675264945405 0 -0.27661435207820328 0.39472461325581981 0 -0.26614264323177789 0.39525334800991979 0 -0.28179061653257348 0.3907675264945405 0 -0.28392778011776681 0.39892722844600809 0 -0.27661435207820328 0.39472461325581981 0 -0.28179061653257348 0.3907675264945405 0 -0.26614264323177789 0.39525334800991979 0 -0.28392778011776681 0.39892722844600809 0 -0.27661435207820328 0.39472461325581981 0 -0.27572094251528112 0.40196054452149499 0 -0.28392778011776681 0.39892722844600809 0 -0.27572094251528112 0.40196054452149499 0 -0.27817781655911977 0.40726136879628272 0 -0.27572094251528112 0.40196054452149499 0 -0.26416382130603389 0.40692896758786917 0 -0.27817781655911977 0.40726136879628272 0 -0.27661435207820328 0.39472461325581981 0 -0.27572094251528112 0.40196054452149499 0 -0.26416382130603389 0.40692896758786917 0 -0.27661435207820328 0.39472461325581981 0 -0.26614264323177789 0.39525334800991979 0 -0.26416382130603389 0.40692896758786917 0 -0.27661435207820328 0.39472461325581981 0 -0.26416382130603389 0.40692896758786917 0 -0.26614264323177789 0.39525334800991979 0 -0.24781733580734391 0.38604582424895789 0 -0.24388213391773941 0.40163479241199579 0 -0.26614264323177789 0.39525334800991979 0 -0.25157066981256843 0.40894445920752592 0 -0.24388213391773941 0.40163479241199579 0 -0.26614264323177789 0.39525334800991979 0 -0.24388213391773941 0.40163479241199579 0 -0.26614264323177789 0.39525334800991979 0 -0.26416382130603389 0.40692896758786917 0 -0.26614264323177789 0.39525334800991979 0 -0.25157066981256843 0.40894445920752592 0 -0.26416382130603389 0.40692896758786917 0 -0.25453646971320443 0.37462232419521813 0 -0.26614264323177789 0.39525334800991979 0 -0.24781733580734391 0.38604582424895789 0 -0.25453646971320443 0.37462232419521813 0 -0.26689531734350652 0.36931705260985792 0 -0.26614264323177789 0.39525334800991979 0 -0.26107936510946472 0.42512814796255138 0 -0.25799490891289278 0.4433273283372331 0 -0.26107936510946472 0.42512814796255138 0 -0.27138668263498972 0.43431468825499642 0 -0.25799490891289278 0.4433273283372331 0 -0.26107936510946472 0.42512814796255138 0 -0.25799490891289278 0.4433273283372331 0 -0.24263019791012411 0.42803682032005991 0 -0.25799490891289278 0.4433273283372331 0 -0.24263019791012411 0.42803682032005991 0 -0.26107936510946472 0.42512814796255138 0 -0.26416382130603389 0.40692896758786917 0 -0.26107936510946472 0.42512814796255138 0 -0.26416382130603389 0.40692896758786917 0 -0.24263019791012411 0.42803682032005991 0 -0.26416382130603389 0.40692896758786917 0 -0.24263019791012411 0.42803682032005991 0 -0.25157066981256843 0.40894445920752592 0 -0.26416382130603389 0.40692896758786917 0 -0.24263019791012411 0.42803682032005991 0 -0.26107936510946472 0.42512814796255138 0 -0.26416382130603389 0.40692896758786917 0 -0.27370875903762831 0.41905129137381081 0 -0.26416382130603389 0.40692896758786917 0 -0.27817781655911977 0.40726136879628272 0 -0.27370875903762831 0.41905129137381081 0 -0.27817781655911977 0.40726136879628272 0 -0.27370875903762831 0.41905129137381081 0 -0.28647403122915938 0.41490769911839809 0 -0.27370875903762831 0.41905129137381081 0 -0.27138668263498972 0.43431468825499642 0 -0.28359142860916292 0.42646623900898489 0 -0.26107936510946472 0.42512814796255138 0 -0.27370875903762831 0.41905129137381081 0 -0.27138668263498972 0.43431468825499642 0 -0.27138668263498972 0.43431468825499642 0 -0.28359142860916292 0.42646623900898489 0 -0.28426041238301858 0.43930471826406531 0 -0.28359142860916292 0.42646623900898489 0 -0.29576073289665422 0.43347565529899762 0 -0.28426041238301858 0.43930471826406531 0 -0.28359142860916292 0.42646623900898489 0 -0.29576073289665422 0.43347565529899762 0 -0.29610666663401819 0.4205870682229661 0 -0.28905057763704689 0.40562835892549581 0 -0.27817781655911977 0.40726136879628272 0 -0.28647403122915938 0.41490769911839809 0 -0.27370875903762831 0.41905129137381081 0 -0.28359142860916292 0.42646623900898489 0 -0.28647403122915938 0.41490769911839809 0 -0.28359142860916292 0.42646623900898489 0 -0.28647403122915938 0.41490769911839809 0 -0.29610666663401819 0.4205870682229661 0 -0.28647403122915938 0.41490769911839809 0 -0.29610666663401819 0.4205870682229661 0 -0.2987408814332651 0.40933989620534528 0 -0.28905057763704689 0.40562835892549581 0 -0.28647403122915938 0.41490769911839809 0 -0.2987408814332651 0.40933989620534528 0 -0.31655825632854873 0.41307790430667191 0 -0.29610666663401819 0.4205870682229661 0 -0.2987408814332651 0.40933989620534528 0 -0.31655825632854873 0.41307790430667191 0 -0.29610666663401819 0.4205870682229661 0 -0.31005470391928353 0.42551636974368717 0 -0.31655825632854873 0.41307790430667191 0 -0.29610666663401819 0.4205870682229661 0 -0.31655825632854873 0.41307790430667191 0 -0.30820761894760612 0.40180007281058999 0 -0.2987408814332651 0.40933989620534528 0 -0.29576073289665422 0.43347565529899762 0 -0.31005470391928353 0.42551636974368717 0 -0.30636015846579262 0.44081646755455739 0 -0.29576073289665422 0.43347565529899762 0 -0.29610666663401819 0.4205870682229661 0 -0.31005470391928353 0.42551636974368717 0 -0.29576073289665422 0.43347565529899762 0 -0.30636015846579262 0.44081646755455739 0 -0.2944743431310044 0.45228094752776682 0 -0.30636015846579262 0.44081646755455739 0 -0.30512100021830008 0.46490456032657962 0 -0.30636015846579262 0.44081646755455739 0 -0.30512100021830008 0.46490456032657962 0 -0.2944743431310044 0.45228094752776682 0 -0.30636015846579262 0.44081646755455739 0 -0.30512100021830008 0.46490456032657962 0 -0.32381548421637429 0.45642326981327008 0 -0.30512100021830008 0.46490456032657962 0 -0.2944743431310044 0.45228094752776682 0 -0.28858619761816889 0.47377087817814589 0 -0.2944743431310044 0.45228094752776682 0 -0.27329055326553048 0.45854910325768988 0 -0.28858619761816889 0.47377087817814589 0 -0.2944743431310044 0.45228094752776682 0 -0.28426041238301858 0.43930471826406531 0 -0.27329055326553048 0.45854910325768988 0 -0.29576073289665422 0.43347565529899762 0 -0.2944743431310044 0.45228094752776682 0 -0.28426041238301858 0.43930471826406531 0 -0.27138668263498972 0.43431468825499642 0 -0.28426041238301858 0.43930471826406531 0 -0.27329055326553048 0.45854910325768988 0 -0.27138668263498972 0.43431468825499642 0 -0.27329055326553048 0.45854910325768988 0 -0.25799490891289278 0.4433273283372331 0 -0.27329055326553048 0.45854910325768988 0 -0.25799490891289278 0.4433273283372331 0 -0.27329055326553048 0.45854910325768988 0 -0.28858619761816889 0.47377087817814589 0 -0.27329055326553048 0.45854910325768988 0 -0.25438198006151169 0.46464464965965441 0 -0.25799490891289278 0.4433273283372331 0 -0.27329055326553048 0.45854910325768988 0 -0.25438198006151169 0.46464464965965441 0 -0.26859377699614329 0.4811575177290362 0 -0.25438198006151169 0.46464464965965441 0 -0.25799490891289278 0.4433273283372331 0 -0.25438198006151169 0.46464464965965441 0 -0.25799490891289278 0.4433273283372331 0 -0.24356894722331929 0.44821508210096461 0 -0.25080144613104921 0.5 0 -0.26859377699614329 0.4811575177290362 0 -0.2467553297522557 0.48147402383551691 0 -0.25080144613104921 0.5 0 -0.26859377699614329 0.4811575177290362 0 -0.27705851983630159 0.5 0 -0.25438198006151169 0.46464464965965441 0 -0.26859377699614329 0.4811575177290362 0 -0.2467553297522557 0.48147402383551691 0 -0.27329055326553048 0.45854910325768988 0 -0.26859377699614329 0.4811575177290362 0 -0.28858619761816889 0.47377087817814589 0 -0.26859377699614329 0.4811575177290362 0 -0.27705851983630159 0.5 0 -0.28830299895955541 0.48893487857068268 0 -0.27705851983630159 0.5 0 -0.28830299895955541 0.48893487857068268 0 -0.30331559354155391 0.49999999999999939 0 -0.26859377699614329 0.4811575177290362 0 -0.28830299895955541 0.48893487857068268 0 -0.28858619761816889 0.47377087817814589 0 -0.28830299895955541 0.48893487857068268 0 -0.28858619761816889 0.47377087817814589 0 -0.30388184197080759 0.48899265309860168 0 -0.28858619761816889 0.47377087817814589 0 -0.30388184197080759 0.48899265309860168 0 -0.30512100021830008 0.46490456032657962 0 -0.30388184197080759 0.48899265309860168 0 -0.30512100021830008 0.46490456032657962 0 -0.30388184197080759 0.48899265309860168 0 -0.31654611508668351 0.48621885406126381 0 -0.30512100021830008 0.46490456032657962 0 -0.28858619761816889 0.47377087817814589 0 -0.30388184197080759 0.48899265309860168 0 -0.30331559354155391 0.49999999999999939 0 -0.30388184197080759 0.48899265309860168 0 -0.28830299895955541 0.48893487857068268 0 -0.30331559354155391 0.49999999999999939 0 -0.30388184197080759 0.48899265309860168 0 -0.30388184197080759 0.48899265309860168 0 -0.31494260619507058 0.500000000000002 0 -0.31654611508668351 0.48621885406126381 0 -0.30331559354155391 0.49999999999999939 0 -0.30388184197080759 0.48899265309860168 0 -0.31494260619507058 0.500000000000002 0 -0.30388184197080759 0.48899265309860168 0 -0.31494260619507058 0.500000000000002 0 -0.31654611508668351 0.48621885406126381 0 -0.33275791060477139 0.5 0 -0.32602721644446891 0.47719705688113462 0 -0.31494260619507058 0.500000000000002 0 -0.31654611508668351 0.48621885406126381 0 -0.33275791060477139 0.5 0 -0.33275791060477139 0.5 0 -0.34200011506365208 0.48331572161184322 0 -0.32602721644446891 0.47719705688113462 0 -0.33275791060477139 0.5 0 -0.34200011506365208 0.48331572161184322 0 -0.35057321501447208 0.49999999999999872 0 -0.34200011506365208 0.48331572161184322 0 -0.32602721644446891 0.47719705688113462 0 -0.33593075250063148 0.46750731867274542 0 -0.34200011506365208 0.48331572161184322 0 -0.33593075250063148 0.46750731867274542 0 -0.35201810675435108 0.4676562019538536 0 -0.30512100021830008 0.46490456032657962 0 -0.31654611508668351 0.48621885406126381 0 -0.32602721644446891 0.47719705688113462 0 -0.30512100021830008 0.46490456032657962 0 -0.32602721644446891 0.47719705688113462 0 -0.32381548421637429 0.45642326981327008 0 -0.30636015846579262 0.44081646755455739 0 -0.32381548421637429 0.45642326981327008 0 -0.32304151796324199 0.43794530689545591 0 -0.32381548421637429 0.45642326981327008 0 -0.32304151796324199 0.43794530689545591 0 -0.34355933144160938 0.44471966407244162 0 -0.32381548421637429 0.45642326981327008 0 -0.34355933144160938 0.44471966407244162 0 -0.33593075250063148 0.46750731867274542 0 -0.32602721644446891 0.47719705688113462 0 -0.32381548421637429 0.45642326981327008 0 -0.33593075250063148 0.46750731867274542 0 -0.35201810675435108 0.4676562019538536 0 -0.36028404822733179 0.44939908513577981 0 -0.36566353784044697 0.46257036423753561 0 -0.34355933144160938 0.44471966407244162 0 -0.35201810675435108 0.4676562019538536 0 -0.36028404822733179 0.44939908513577981 0 -0.34355933144160938 0.44471966407244162 0 -0.33593075250063148 0.46750731867274542 0 -0.35201810675435108 0.4676562019538536 0 -0.36778315087773072 0.43214877602771662 0 -0.34355933144160938 0.44471966407244162 0 -0.36028404822733179 0.44939908513577981 0 -0.36778315087773072 0.43214877602771662 0 -0.36028404822733179 0.44939908513577981 0 -0.37376195539900242 0.45249759326054367 0 -0.37701653082709469 0.46900635458093531 0 -0.37376195539900242 0.45249759326054367 0 -0.36566353784044697 0.46257036423753561 0 -0.36028404822733179 0.44939908513577981 0 -0.37376195539900242 0.45249759326054367 0 -0.36566353784044697 0.46257036423753561 0 -0.36552159823955549 0.47691699748014749 0 -0.37220834978290879 0.49000150617251997 0 -0.35595833756876799 0.48470827593500232 0 -0.37701653082709469 0.46900635458093531 0 -0.36566353784044697 0.46257036423753561 0 -0.36552159823955549 0.47691699748014749 0 -0.37805640255927542 0.47903421333972468 0 -0.37701653082709469 0.46900635458093531 0 -0.36552159823955549 0.47691699748014749 0 -0.35201810675435108 0.4676562019538536 0 -0.36566353784044697 0.46257036423753561 0 -0.36552159823955549 0.47691699748014749 0 -0.37805640255927542 0.47903421333972468 0 -0.36552159823955549 0.47691699748014749 0 -0.37220834978290879 0.49000150617251997 0 -0.37220834978290879 0.49000150617251997 0 -0.35057321501447208 0.49999999999999872 0 -0.35595833756876799 0.48470827593500232 0 -0.37789332191386737 0.5 0 -0.37220834978290879 0.49000150617251997 0 -0.35057321501447208 0.49999999999999872 0 -0.37220834978290879 0.49000150617251997 0 -0.35057321501447208 0.49999999999999872 0 -0.34200011506365208 0.48331572161184322 0 -0.35057321501447208 0.49999999999999872 0 -0.35595833756876799 0.48470827593500232 0 -0.34200011506365208 0.48331572161184322 0 -0.35201810675435108 0.4676562019538536 0 -0.35595833756876799 0.48470827593500232 0 -0.35201810675435108 0.4676562019538536 0 -0.36552159823955549 0.47691699748014749 0 -0.35595833756876799 0.48470827593500232 0 -0.142080771754234 0.48212662116497451 0 -0.14744519938683801 0.47523243684594829 0 -0.1380962150490555 0.47248515407185221 0 -0.142080771754234 0.48212662116497451 0 -0.14744519938683801 0.47523243684594829 0 -0.15313912830386001 0.48632871978955722 0 -0.14744519938683801 0.47523243684594829 0 -0.1380962150490555 0.47248515407185221 0 -0.1446941887002707 0.46454185114692792 0 -0.14744519938683801 0.47523243684594829 0 -0.1446941887002707 0.46454185114692792 0 -0.15815775643206659 0.473198332503178 0 -0.14744519938683801 0.47523243684594829 0 -0.15313912830386001 0.48632871978955722 0 -0.15815775643206659 0.473198332503178 0 -0.142080771754234 0.48212662116497451 0 -0.15313912830386001 0.48632871978955722 0 -0.13803845513632401 0.5 0 -0.15313912830386001 0.48632871978955722 0 -0.13803845513632401 0.5 0 -0.1663114266205577 0.50000000000000011 0 -0.142080771754234 0.48212662116497451 0 -0.13803845513632401 0.5 0 -0.12908554574303099 0.47755934496718438 0 -0.13803845513632401 0.5 0 -0.12908554574303099 0.47755934496718438 0 -0.1160402402672886 0.48503019582547341 0 -0.142080771754234 0.48212662116497451 0 -0.12908554574303099 0.47755934496718438 0 -0.1380962150490555 0.47248515407185221 0 -0.12908554574303099 0.47755934496718438 0 -0.1380962150490555 0.47248515407185221 0 -0.13097929143795109 0.46459511115351071 0 -0.12908554574303099 0.47755934496718438 0 -0.13097929143795109 0.46459511115351071 0 -0.1176294132596279 0.46872710166108278 0 -0.13097929143795109 0.46459511115351071 0 -0.1351896940807357 0.45304119368279389 0 -0.1204057133641486 0.45504160574272429 0 -0.13097929143795109 0.46459511115351071 0 -0.1351896940807357 0.45304119368279389 0 -0.1446941887002707 0.46454185114692792 0 -0.1380962150490555 0.47248515407185221 0 -0.13097929143795109 0.46459511115351071 0 -0.1446941887002707 0.46454185114692792 0 -0.1351896940807357 0.45304119368279389 0 -0.13889501351409689 0.43598263237980822 0 -0.1242648033483075 0.43981492828754482 0 -0.1351896940807357 0.45304119368279389 0 -0.1242648033483075 0.43981492828754482 0 -0.1204057133641486 0.45504160574272429 0 -0.15017718620881049 0.45777983735391498 0 -0.13889501351409689 0.43598263237980822 0 -0.1351896940807357 0.45304119368279389 0 -0.15017718620881049 0.45777983735391498 0 -0.13889501351409689 0.43598263237980822 0 -0.15995177900170021 0.44572512983606088 0 -0.15376963845050121 0.4328235067909087 0 -0.13889501351409689 0.43598263237980822 0 -0.15017718620881049 0.45777983735391498 0 -0.15995177900170021 0.44572512983606088 0 -0.13889501351409689 0.43598263237980822 0 -0.15017718620881049 0.45777983735391498 0 -0.15995177900170021 0.44572512983606088 0 -0.1446941887002707 0.46454185114692792 0 -0.15017718620881049 0.45777983735391498 0 -0.1351896940807357 0.45304119368279389 0 -0.1446941887002707 0.46454185114692792 0 -0.15017718620881049 0.45777983735391498 0 -0.1446941887002707 0.46454185114692792 0 -0.15017718620881049 0.45777983735391498 0 -0.15815775643206659 0.473198332503178 0 -0.15017718620881049 0.45777983735391498 0 -0.15868634814382429 0.46531473325554851 0 -0.15815775643206659 0.473198332503178 0 -0.15017718620881049 0.45777983735391498 0 -0.15815775643206659 0.473198332503178 0 -0.160558198289461 0.46047642425523388 0 -0.1655661766345953 0.45099185016729298 0 -0.16585225164495951 0.46980433890986678 0 -0.1655661766345953 0.45099185016729298 0 -0.17867327812258871 0.46114583139567922 0 -0.16585225164495951 0.46980433890986678 0 -0.1655661766345953 0.45099185016729298 0 -0.16585225164495951 0.46980433890986678 0 -0.15868634814382429 0.46531473325554851 0 -0.160558198289461 0.46047642425523388 0 -0.16585225164495951 0.46980433890986678 0 -0.15017718620881049 0.45777983735391498 0 -0.15868634814382429 0.46531473325554851 0 -0.160558198289461 0.46047642425523388 0 -0.15017718620881049 0.45777983735391498 0 -0.160558198289461 0.46047642425523388 0 -0.15995177900170021 0.44572512983606088 0 -0.15995177900170021 0.44572512983606088 0 -0.1655661766345953 0.45099185016729298 0 -0.1697263717945888 0.43367042231820602 0 -0.160558198289461 0.46047642425523388 0 -0.15995177900170021 0.44572512983606088 0 -0.1655661766345953 0.45099185016729298 0 -0.15995177900170021 0.44572512983606088 0 -0.1697263717945888 0.43367042231820602 0 -0.1655661766345953 0.45099185016729298 0 -0.1926513277646352 0.45119866261047992 0 -0.1697263717945888 0.43367042231820602 0 -0.1926513277646352 0.45119866261047992 0 -0.1697263717945888 0.43367042231820602 0 -0.1926513277646352 0.45119866261047992 0 -0.18693863061853061 0.43491447939059907 0 -0.1697263717945888 0.43367042231820602 0 -0.1655661766345953 0.45099185016729298 0 -0.17867327812258871 0.46114583139567922 0 -0.1926513277646352 0.45119866261047992 0 -0.17867327812258871 0.46114583139567922 0 -0.17876854714149509 0.47093865696285842 0 -0.16585225164495951 0.46980433890986678 0 -0.17867327812258871 0.46114583139567922 0 -0.1899884502156329 0.46461586120334353 0 -0.1926513277646352 0.45119866261047992 0 -0.17867327812258871 0.46114583139567922 0 -0.17876854714149509 0.47093865696285842 0 -0.1899884502156329 0.46461586120334353 0 -0.17876854714149509 0.47093865696285842 0 -0.19138341924764241 0.47827032896460842 0 -0.1899884502156329 0.46461586120334353 0 -0.1757986315986971 0.48088398659212228 0 -0.17876854714149509 0.47093865696285842 0 -0.19138341924764241 0.47827032896460842 0 -0.1757986315986971 0.48088398659212228 0 -0.17876854714149509 0.47093865696285842 0 -0.16585225164495951 0.46980433890986678 0 -0.16585225164495951 0.46980433890986678 0 -0.16613832665532341 0.48861682765244069 0 -0.16585225164495951 0.46980433890986678 0 -0.15815775643206659 0.473198332503178 0 -0.16613832665532341 0.48861682765244069 0 -0.1757986315986971 0.48088398659212228 0 -0.16585225164495951 0.46980433890986678 0 -0.16613832665532341 0.48861682765244069 0 -0.15313912830386001 0.48632871978955722 0 -0.15815775643206659 0.473198332503178 0 -0.16613832665532341 0.48861682765244069 0 -0.15815775643206659 0.473198332503178 0 -0.16613832665532341 0.48861682765244069 0 -0.15868634814382429 0.46531473325554851 0 -0.16585225164495951 0.46980433890986678 0 -0.15815775643206659 0.473198332503178 0 -0.15313912830386001 0.48632871978955722 0 -0.16613832665532341 0.48861682765244069 0 -0.1663114266205577 0.50000000000000011 0 -0.16613832665532341 0.48861682765244069 0 -0.1720302250152923 0.50000000000000022 0 -0.16613832665532341 0.48861682765244069 0 -0.1663114266205577 0.50000000000000011 0 -0.1720302250152923 0.50000000000000022 0 -0.16613832665532341 0.48861682765244069 0 -0.1663114266205577 0.50000000000000011 0 -0.16613832665532341 0.48861682765244069 0 -0.17430115969348189 0.49501483184612438 0 -0.1720302250152923 0.50000000000000022 0 -0.17430115969348189 0.49501483184612438 0 -0.1720302250152923 0.50000000000000022 0 -0.1982872987205446 0.5 0 -0.1757986315986971 0.48088398659212228 0 -0.17430115969348189 0.49501483184612438 0 -0.19138341924764241 0.47827032896460842 0 -0.17430115969348189 0.49501483184612438 0 -0.19138341924764241 0.47827032896460842 0 -0.1757986315986971 0.48088398659212228 0 -0.16613832665532341 0.48861682765244069 0 -0.17430115969348189 0.49501483184612438 0 -0.17430115969348189 0.49501483184612438 0 -0.1982872987205446 0.5 0 -0.19138341924764241 0.47827032896460842 0 -0.1982872987205446 0.5 0 -0.19138341924764241 0.47827032896460842 0 -0.21217809917650449 0.48030286392854288 0 -0.19138341924764241 0.47827032896460842 0 -0.208465678801803 0.46152582608309223 0 -0.19138341924764241 0.47827032896460842 0 -0.21217809917650449 0.48030286392854288 0 -0.208465678801803 0.46152582608309223 0 -0.1982872987205446 0.5 0 -0.21217809917650449 0.48030286392854288 0 -0.22454437242579681 0.5 0 -0.22454437242579681 0.5 0 -0.2288960980978284 0.47674808914996208 0 -0.2467553297522557 0.48147402383551691 0 -0.21217809917650449 0.48030286392854288 0 -0.22454437242579681 0.5 0 -0.2288960980978284 0.47674808914996208 0 -0.21217809917650449 0.48030286392854288 0 -0.2288960980978284 0.47674808914996208 0 -0.22325063631842021 0.46203708915627778 0 -0.25438198006151169 0.46464464965965441 0 -0.2467553297522557 0.48147402383551691 0 -0.2372897108761052 0.46028528898629889 0 -0.2288960980978284 0.47674808914996208 0 -0.2467553297522557 0.48147402383551691 0 -0.2372897108761052 0.46028528898629889 0 -0.25080144613104921 0.5 0 -0.22454437242579681 0.5 0 -0.2467553297522557 0.48147402383551691 0 -0.24356894722331929 0.44821508210096461 0 -0.22554793835596351 0.44478132320157598 0 -0.24263019791012411 0.42803682032005991 0 -0.24356894722331929 0.44821508210096461 0 -0.2372897108761052 0.46028528898629889 0 -0.22554793835596351 0.44478132320157598 0 -0.25799490891289278 0.4433273283372331 0 -0.24356894722331929 0.44821508210096461 0 -0.24263019791012411 0.42803682032005991 0 -0.25438198006151169 0.46464464965965441 0 -0.24356894722331929 0.44821508210096461 0 -0.2372897108761052 0.46028528898629889 0 -0.2288960980978284 0.47674808914996208 0 -0.2372897108761052 0.46028528898629889 0 -0.22325063631842021 0.46203708915627778 0 -0.2372897108761052 0.46028528898629889 0 -0.22325063631842021 0.46203708915627778 0 -0.22554793835596351 0.44478132320157598 0 -0.22325063631842021 0.46203708915627778 0 -0.22554793835596351 0.44478132320157598 0 -0.208465678801803 0.46152582608309223 0 -0.22554793835596351 0.44478132320157598 0 -0.20785557032720109 0.44518798724498809 0 -0.21437917226951189 0.43588067273166847 0 -0.22554793835596351 0.44478132320157598 0 -0.20785557032720109 0.44518798724498809 0 -0.208465678801803 0.46152582608309223 0 -0.22554793835596351 0.44478132320157598 0 -0.208465678801803 0.46152582608309223 0 -0.21217809917650449 0.48030286392854288 0 -0.22325063631842021 0.46203708915627778 0 -0.208465678801803 0.46152582608309223 0 -0.19138341924764241 0.47827032896460842 0 -0.208465678801803 0.46152582608309223 0 -0.1899884502156329 0.46461586120334353 0 -0.208465678801803 0.46152582608309223 0 -0.1899884502156329 0.46461586120334353 0 -0.1926513277646352 0.45119866261047992 0 -0.20785557032720109 0.44518798724498809 0 -0.1926513277646352 0.45119866261047992 0 -0.18693863061853061 0.43491447939059907 0 -0.20785557032720109 0.44518798724498809 0 -0.208465678801803 0.46152582608309223 0 -0.1926513277646352 0.45119866261047992 0 -0.19176926968858449 0.42488004754311998 0 -0.20430089696141959 0.42856004989685992 0 -0.18693863061853061 0.43491447939059907 0 -0.20785557032720109 0.44518798724498809 0 -0.20430089696141959 0.42856004989685992 0 -0.18693863061853061 0.43491447939059907 0 -0.19176926968858449 0.42488004754311998 0 -0.19667758679306771 0.41738623802377928 0 -0.20430089696141959 0.42856004989685992 0 -0.19667758679306771 0.41738623802377928 0 -0.19460267291041519 0.40299123798476227 0 -0.182164522352502 0.41833083015148409 0 -0.19460267291041519 0.40299123798476227 0 -0.182164522352502 0.41833083015148409 0 -0.19176926968858449 0.42488004754311998 0 -0.19667758679306771 0.41738623802377928 0 -0.182164522352502 0.41833083015148409 0 -0.19667758679306771 0.41738623802377928 0 -0.2074030129404133 0.4163894186605448 0 -0.20430089696141959 0.42856004989685992 0 -0.19667758679306771 0.41738623802377928 0 -0.2074030129404133 0.4163894186605448 0 -0.19460267291041519 0.40299123798476227 0 -0.2074030129404133 0.4163894186605448 0 -0.21981228343346321 0.42499333058324978 0 -0.22162162460370111 0.40801623681407218 0 -0.2074030129404133 0.4163894186605448 0 -0.22162162460370111 0.40801623681407218 0 -0.19460267291041519 0.40299123798476227 0 -0.20785557032720109 0.44518798724498809 0 -0.20430089696141959 0.42856004989685992 0 -0.21437917226951189 0.43588067273166847 0 -0.2074030129404133 0.4163894186605448 0 -0.20430089696141959 0.42856004989685992 0 -0.21981228343346321 0.42499333058324978 0 -0.20430089696141959 0.42856004989685992 0 -0.21437917226951189 0.43588067273166847 0 -0.21981228343346321 0.42499333058324978 0 -0.22554793835596351 0.44478132320157598 0 -0.24263019791012411 0.42803682032005991 0 -0.22554793835596351 0.44478132320157598 0 -0.2313941741476824 0.42795323546389102 0 -0.24263019791012411 0.42803682032005991 0 -0.22554793835596351 0.44478132320157598 0 -0.21437917226951189 0.43588067273166847 0 -0.21981228343346321 0.42499333058324978 0 -0.22554793835596351 0.44478132320157598 0 -0.2313941741476824 0.42795323546389102 0 -0.21981228343346321 0.42499333058324978 0 -0.2313941741476824 0.42795323546389102 0 -0.21981228343346321 0.42499333058324978 0 -0.2301621318308705 0.41771135234831969 0 -0.2313941741476824 0.42795323546389102 0 -0.2301621318308705 0.41771135234831969 0 -0.23881831920799079 0.42424335086624981 0 -0.21981228343346321 0.42499333058324978 0 -0.22162162460370111 0.40801623681407218 0 -0.2301621318308705 0.41771135234831969 0 -0.22162162460370111 0.40801623681407218 0 -0.2301621318308705 0.41771135234831969 0 -0.241034552697166 0.41286836770778501 0 -0.25157066981256843 0.40894445920752592 0 -0.241034552697166 0.41286836770778501 0 -0.24263019791012411 0.42803682032005991 0 -0.241034552697166 0.41286836770778501 0 -0.24263019791012411 0.42803682032005991 0 -0.23881831920799079 0.42424335086624981 0 -0.22162162460370111 0.40801623681407218 0 -0.241034552697166 0.41286836770778501 0 -0.24388213391773941 0.40163479241199579 0 -0.2301621318308705 0.41771135234831969 0 -0.241034552697166 0.41286836770778501 0 -0.23881831920799079 0.42424335086624981 0 -0.25157066981256843 0.40894445920752592 0 -0.241034552697166 0.41286836770778501 0 -0.24388213391773941 0.40163479241199579 0 -0.2313941741476824 0.42795323546389102 0 -0.24263019791012411 0.42803682032005991 0 -0.23881831920799079 0.42424335086624981 0 -0.24263019791012411 0.42803682032005991 0 -0.23881831920799079 0.42424335086624981 0 -0.25453646971320443 0.37462232419521813 0 -0.24781733580734391 0.38604582424895789 0 -0.23735930512057779 0.37349779701461089 0 -0.2365264908337599 0.38834162546439549 0 -0.24781733580734391 0.38604582424895789 0 -0.23735930512057779 0.37349779701461089 0 -0.2365264908337599 0.38834162546439549 0 -0.24781733580734391 0.38604582424895789 0 -0.24388213391773941 0.40163479241199579 0 -0.22162162460370111 0.40801623681407218 0 -0.24388213391773941 0.40163479241199579 0 -0.22162162460370111 0.40801623681407218 0 -0.2365264908337599 0.38834162546439549 0 -0.2225569648072106 0.38059728391652659 0 -0.22162162460370111 0.40801623681407218 0 -0.2365264908337599 0.38834162546439549 0 -0.24388213391773941 0.40163479241199579 0 -0.2365264908337599 0.38834162546439549 0 -0.2225569648072106 0.38059728391652659 0 -0.23735930512057779 0.37349779701461089 0 -0.2225569648072106 0.38059728391652659 0 -0.20545957084956781 0.38789926664213359 0 -0.1994770785436861 0.36691897370504389 0 -0.22162162460370111 0.40801623681407218 0 -0.2225569648072106 0.38059728391652659 0 -0.20545957084956781 0.38789926664213359 0 -0.22162162460370111 0.40801623681407218 0 -0.20545957084956781 0.38789926664213359 0 -0.19460267291041519 0.40299123798476227 0 -0.20545957084956781 0.38789926664213359 0 -0.19460267291041519 0.40299123798476227 0 -0.18736095772118591 0.3836472042370111 0 -0.20545957084956781 0.38789926664213359 0 -0.18736095772118591 0.3836472042370111 0 -0.1994770785436861 0.36691897370504389 0 -0.18736095772118591 0.3836472042370111 0 -0.16248792359233191 0.38534127627451031 0 -0.17644948136236779 0.3976803029940168 0 -0.18736095772118591 0.3836472042370111 0 -0.16248792359233191 0.38534127627451031 0 -0.1741500565645078 0.37123080613525078 0 -0.16248792359233191 0.38534127627451031 0 -0.16330635783110381 0.4038062271485704 0 -0.14438589058212131 0.3948348353259919 0 -0.16248792359233191 0.38534127627451031 0 -0.16330635783110381 0.4038062271485704 0 -0.17644948136236779 0.3976803029940168 0 -0.19460267291041519 0.40299123798476227 0 -0.17644948136236779 0.3976803029940168 0 -0.17778078602166139 0.40821888849324761 0 -0.19460267291041519 0.40299123798476227 0 -0.18736095772118591 0.3836472042370111 0 -0.17644948136236779 0.3976803029940168 0 -0.16330635783110381 0.4038062271485704 0 -0.17644948136236779 0.3976803029940168 0 -0.17778078602166139 0.40821888849324761 0 -0.19460267291041519 0.40299123798476227 0 -0.182164522352502 0.41833083015148409 0 -0.17778078602166139 0.40821888849324761 0 -0.182164522352502 0.41833083015148409 0 -0.1723808956519178 0.41828584418740389 0 -0.17778078602166139 0.40821888849324761 0 -0.19176926968858449 0.42488004754311998 0 -0.182164522352502 0.41833083015148409 0 -0.18693863061853061 0.43491447939059907 0 -0.182164522352502 0.41833083015148409 0 -0.18693863061853061 0.43491447939059907 0 -0.1697263717945888 0.43367042231820602 0 -0.182164522352502 0.41833083015148409 0 -0.1697263717945888 0.43367042231820602 0 -0.182164522352502 0.41833083015148409 0 -0.1723808956519178 0.41828584418740389 0 -0.1697263717945888 0.43367042231820602 0 -0.15995177900170021 0.44572512983606088 0 -0.1697263717945888 0.43367042231820602 0 -0.15376963845050121 0.4328235067909087 0 -0.1697263717945888 0.43367042231820602 0 -0.14650538949161929 0.41591584262955861 0 -0.15376963845050121 0.4328235067909087 0 -0.1697263717945888 0.43367042231820602 0 -0.14650538949161929 0.41591584262955861 0 -0.1723808956519178 0.41828584418740389 0 -0.1697263717945888 0.43367042231820602 0 -0.14650538949161929 0.41591584262955861 0 -0.1723808956519178 0.41828584418740389 0 -0.14650538949161929 0.41591584262955861 0 -0.16330635783110381 0.4038062271485704 0 -0.1723808956519178 0.41828584418740389 0 -0.14650538949161929 0.41591584262955861 0 -0.16330635783110381 0.4038062271485704 0 -0.1723808956519178 0.41828584418740389 0 -0.17778078602166139 0.40821888849324761 0 -0.14650538949161929 0.41591584262955861 0 -0.15376963845050121 0.4328235067909087 0 -0.13889501351409689 0.43598263237980822 0 -0.13889501351409689 0.43598263237980822 0 -0.12761284081938409 0.41418542740570108 0 -0.14650538949161929 0.41591584262955861 0 -0.13889501351409689 0.43598263237980822 0 -0.12761284081938409 0.41418542740570108 0 -0.13889501351409689 0.43598263237980822 0 -0.12761284081938409 0.41418542740570108 0 -0.1242648033483075 0.43981492828754482 0 -0.14650538949161929 0.41591584262955861 0 -0.12761284081938409 0.41418542740570108 0 -0.12644786621320531 0.40058001872868543 0 -0.14650538949161929 0.41591584262955861 0 -0.12644786621320531 0.40058001872868543 0 -0.14650538949161929 0.41591584262955861 0 -0.12761284081938409 0.41418542740570108 0 -0.14650538949161929 0.41591584262955861 0 -0.12644786621320531 0.40058001872868543 0 -0.14438589058212131 0.3948348353259919 0 -0.12644786621320531 0.40058001872868543 0 -0.12826940643264259 0.38638828685515292 0 -0.14438589058212131 0.3948348353259919 0 -0.1399268433138337 0.37661104245066729 0 -0.12826940643264259 0.38638828685515292 0 -0.1198206075896991 0.37069234566290138 0 -0.1399268433138337 0.37661104245066729 0 -0.12826940643264259 0.38638828685515292 0 -0.14438589058212131 0.3948348353259919 0 -0.16248792359233191 0.38534127627451031 0 -0.1399268433138337 0.37661104245066729 0 -0.1571746455416145 0.36408416689185819 0 -0.16248792359233191 0.38534127627451031 0 -0.1399268433138337 0.37661104245066729 0 -0.14438589058212131 0.3948348353259919 0 -0.16330635783110381 0.4038062271485704 0 -0.14650538949161929 0.41591584262955861 0 -0.14438589058212131 0.3948348353259919 0 -0.1367685514822152 0.35851885971508118 0 -0.13367478836053351 0.33932016938713638 0 -0.15331730601663701 0.3395623532820784 0 -0.1367685514822152 0.35851885971508118 0 -0.15331730601663701 0.3395623532820784 0 -0.1571746455416145 0.36408416689185819 0 -0.1399268433138337 0.37661104245066729 0 -0.1367685514822152 0.35851885971508118 0 -0.1571746455416145 0.36408416689185819 0 -0.1399268433138337 0.37661104245066729 0 -0.1367685514822152 0.35851885971508118 0 -0.1198206075896991 0.37069234566290138 0 -0.1367685514822152 0.35851885971508118 0 -0.13367478836053351 0.33932016938713638 0 -0.1173066256070304 0.35104950557859033 0 -0.13367478836053351 0.33932016938713638 0 -0.1262409447270301 0.3211703831111522 0 -0.1175879007316586 0.33497855513245622 0 -0.13367478836053351 0.33932016938713638 0 -0.1262409447270301 0.3211703831111522 0 -0.14995133854557879 0.31573290008088639 0 -0.1262409447270301 0.3211703831111522 0 -0.14995133854557879 0.31573290008088639 0 -0.13170636281121431 0.30540396541675668 0 -0.13367478836053351 0.33932016938713638 0 -0.14995133854557879 0.31573290008088639 0 -0.15331730601663701 0.3395623532820784 0 -0.15331730601663701 0.3395623532820784 0 -0.17079439025487569 0.32494122108339912 0 -0.1763971922801616 0.3532406634935612 0 -0.14995133854557879 0.31573290008088639 0 -0.17079439025487569 0.32494122108339912 0 -0.167164841548782 0.29891422322321631 0 -0.14995133854557879 0.31573290008088639 0 -0.15331730601663701 0.3395623532820784 0 -0.17079439025487569 0.32494122108339912 0 -0.17079439025487569 0.32494122108339912 0 -0.19256976679114979 0.33165381796875049 0 -0.19699128312530151 0.30504565645142051 0 -0.17079439025487569 0.32494122108339912 0 -0.1763971922801616 0.3532406634935612 0 -0.19256976679114979 0.33165381796875049 0 -0.15331730601663701 0.3395623532820784 0 -0.1763971922801616 0.3532406634935612 0 -0.1571746455416145 0.36408416689185819 0 -0.15331730601663701 0.3395623532820784 0 -0.1763971922801616 0.3532406634935612 0 -0.1763971922801616 0.3532406634935612 0 -0.1571746455416145 0.36408416689185819 0 -0.1741500565645078 0.37123080613525078 0 -0.16248792359233191 0.38534127627451031 0 -0.1571746455416145 0.36408416689185819 0 -0.1741500565645078 0.37123080613525078 0 -0.18736095772118591 0.3836472042370111 0 -0.1741500565645078 0.37123080613525078 0 -0.1994770785436861 0.36691897370504389 0 -0.1763971922801616 0.3532406634935612 0 -0.1741500565645078 0.37123080613525078 0 -0.1994770785436861 0.36691897370504389 0 -0.1763971922801616 0.3532406634935612 0 -0.1994770785436861 0.36691897370504389 0 -0.1763971922801616 0.3532406634935612 0 -0.20127160642404629 0.34878804965207372 0 -0.19256976679114979 0.33165381796875049 0 -0.1763971922801616 0.3532406634935612 0 -0.1994770785436861 0.36691897370504389 0 -0.20127160642404629 0.34878804965207372 0 -0.1994770785436861 0.36691897370504389 0 -0.20127160642404629 0.34878804965207372 0 -0.22480168799342179 0.35512276170724633 0 -0.20127160642404629 0.34878804965207372 0 -0.22480168799342179 0.35512276170724633 0 -0.2131123065118124 0.33700403138576668 0 -0.2225569648072106 0.38059728391652659 0 -0.1994770785436861 0.36691897370504389 0 -0.2225569648072106 0.38059728391652659 0 -0.1994770785436861 0.36691897370504389 0 -0.22480168799342179 0.35512276170724633 0 -0.2225569648072106 0.38059728391652659 0 -0.22480168799342179 0.35512276170724633 0 -0.23735930512057779 0.37349779701461089 0 -0.25368472498167011 0.34420349485172652 0 -0.22480168799342179 0.35512276170724633 0 -0.24822911175635759 0.36217347122335058 0 -0.22480168799342179 0.35512276170724633 0 -0.24822911175635759 0.36217347122335058 0 -0.23735930512057779 0.37349779701461089 0 -0.25453646971320443 0.37462232419521813 0 -0.24822911175635759 0.36217347122335058 0 -0.23735930512057779 0.37349779701461089 0 -0.25757488899104952 0.31786411623381933 0 -0.23478691102954721 0.33115088205162452 0 -0.2366570207200871 0.30010935915934539 0 -0.25368472498167011 0.34420349485172652 0 -0.22480168799342179 0.35512276170724633 0 -0.23478691102954721 0.33115088205162452 0 -0.25368472498167011 0.34420349485172652 0 -0.23478691102954721 0.33115088205162452 0 -0.25757488899104952 0.31786411623381933 0 -0.25368472498167011 0.34420349485172652 0 -0.23478691102954721 0.33115088205162452 0 -0.23478691102954721 0.33115088205162452 0 -0.2158890970774244 0.31809826925152251 0 -0.2131123065118124 0.33700403138576668 0 -0.22480168799342179 0.35512276170724633 0 -0.23478691102954721 0.33115088205162452 0 -0.2131123065118124 0.33700403138576668 0 -0.23478691102954721 0.33115088205162452 0 -0.2158890970774244 0.31809826925152251 0 -0.2366570207200871 0.30010935915934539 0 -0.23478691102954721 0.33115088205162452 0 -0.2158890970774244 0.31809826925152251 0 -0.2158890970774244 0.31809826925152251 0 -0.2131123065118124 0.33700403138576668 0 -0.19256976679114979 0.33165381796875049 0 -0.20127160642404629 0.34878804965207372 0 -0.2131123065118124 0.33700403138576668 0 -0.19256976679114979 0.33165381796875049 0 -0.2158890970774244 0.31809826925152251 0 -0.19256976679114979 0.33165381796875049 0 -0.19699128312530151 0.30504565645142051 0 -0.19699128312530151 0.30504565645142051 0 -0.2044220976180971 0.2747921468301005 0 -0.18537993383704029 0.28397978744787411 0 -0.19699128312530151 0.30504565645142051 0 -0.21636901433909059 0.29447561219915308 0 -0.2044220976180971 0.2747921468301005 0 -0.2158890970774244 0.31809826925152251 0 -0.19699128312530151 0.30504565645142051 0 -0.21636901433909059 0.29447561219915308 0 -0.2158890970774244 0.31809826925152251 0 -0.19699128312530151 0.30504565645142051 0 -0.2158890970774244 0.31809826925152251 0 -0.21636901433909059 0.29447561219915308 0 -0.2366570207200871 0.30010935915934539 0 -0.21636901433909059 0.29447561219915308 0 -0.2366570207200871 0.30010935915934539 0 -0.2235041758045673 0.27405874977876837 0 -0.26277913973510902 0.29023342414179659 0 -0.2366570207200871 0.30010935915934539 0 -0.2447247674615598 0.2718938593685879 0 -0.2366570207200871 0.30010935915934539 0 -0.2447247674615598 0.2718938593685879 0 -0.2235041758045673 0.27405874977876837 0 -0.25693865295534157 0.25278860643768353 0 -0.2416444700809012 0.25186566196455601 0 -0.2447247674615598 0.2718938593685879 0 -0.2416444700809012 0.25186566196455601 0 -0.2447247674615598 0.2718938593685879 0 -0.22667039518801041 0.25355429459537898 0 -0.2447247674615598 0.2718938593685879 0 -0.22667039518801041 0.25355429459537898 0 -0.2447247674615598 0.2718938593685879 0 -0.2235041758045673 0.27405874977876837 0 -0.22667039518801041 0.25355429459537898 0 -0.2235041758045673 0.27405874977876837 0 -0.22667039518801041 0.25355429459537898 0 -0.21218175950055909 0.24952722652004439 0 -0.2044220976180971 0.2747921468301005 0 -0.1929026130837673 0.25762258695206858 0 -0.21218175950055909 0.24952722652004439 0 -0.2044220976180971 0.2747921468301005 0 -0.21218175950055909 0.24952722652004439 0 -0.2235041758045673 0.27405874977876837 0 -0.2044220976180971 0.2747921468301005 0 -0.21218175950055909 0.24952722652004439 0 -0.21636901433909059 0.29447561219915308 0 -0.2235041758045673 0.27405874977876837 0 -0.2044220976180971 0.2747921468301005 0 -0.2044220976180971 0.2747921468301005 0 -0.1929026130837673 0.25762258695206858 0 -0.18537993383704029 0.28397978744787411 0 -0.1929026130837673 0.25762258695206858 0 -0.16582228118094081 0.26466105519565358 0 -0.18651378479530609 0.23505073182760211 0 -0.1929026130837673 0.25762258695206858 0 -0.16582228118094081 0.26466105519565358 0 -0.18537993383704029 0.28397978744787411 0 -0.16582228118094081 0.26466105519565358 0 -0.167164841548782 0.29891422322321631 0 -0.14136362158270599 0.28508793949713551 0 -0.16582228118094081 0.26466105519565358 0 -0.18537993383704029 0.28397978744787411 0 -0.167164841548782 0.29891422322321631 0 -0.19699128312530151 0.30504565645142051 0 -0.18537993383704029 0.28397978744787411 0 -0.167164841548782 0.29891422322321631 0 -0.17079439025487569 0.32494122108339912 0 -0.19699128312530151 0.30504565645142051 0 -0.167164841548782 0.29891422322321631 0 -0.167164841548782 0.29891422322321631 0 -0.14136362158270599 0.28508793949713551 0 -0.14995133854557879 0.31573290008088639 0 -0.167164841548782 0.29891422322321631 0 -0.14136362158270599 0.28508793949713551 0 -0.14995133854557879 0.31573290008088639 0 -0.14136362158270599 0.28508793949713551 0 -0.13170636281121431 0.30540396541675668 0 -0.1262409447270301 0.3211703831111522 0 -0.13170636281121431 0.30540396541675668 0 -0.1173504618646501 0.30916380798395637 0 -0.14136362158270599 0.28508793949713551 0 -0.13170636281121431 0.30540396541675668 0 -0.1202787732923796 0.29457691953651272 0 -0.14136362158270599 0.28508793949713551 0 -0.1196693143642453 0.28329908912575552 0 -0.1202787732923796 0.29457691953651272 0 -0.14136362158270599 0.28508793949713551 0 -0.1155624016166297 0.27126165577105521 0 -0.1196693143642453 0.28329908912575552 0 -0.14136362158270599 0.28508793949713551 0 -0.1155624016166297 0.27126165577105521 0 -0.12872708527658799 0.25991420809329241 0 -0.1416417428525672 0.26777243923482702 0 -0.1155624016166297 0.27126165577105521 0 -0.14136362158270599 0.28508793949713551 0 -0.1416417428525672 0.26777243923482702 0 -0.1155624016166297 0.27126165577105521 0 -0.12872708527658799 0.25991420809329241 0 -0.14534546737678511 0.25129379472131641 0 -0.1416417428525672 0.26777243923482702 0 -0.12872708527658799 0.25991420809329241 0 -0.14534546737678511 0.25129379472131641 0 -0.12470300375741469 0.2457033751303839 0 -0.16582228118094081 0.26466105519565358 0 -0.14534546737678511 0.25129379472131641 0 -0.1416417428525672 0.26777243923482702 0 -0.16582228118094081 0.26466105519565358 0 -0.14136362158270599 0.28508793949713551 0 -0.1416417428525672 0.26777243923482702 0 -0.1083690905562489 0.27746201143443072 0 -0.10470287070229969 0.27376422074294909 0 -0.09206590757372593 0.27740472432850488 0 -0.099741497972773749 0.27068482051400677 0 -0.1098053558875477 0.27272524579145851 0 -0.092391857727521592 0.25884509119311472 0 -0.1155624016166297 0.27126165577105521 0 -0.1098053558875477 0.27272524579145851 0 -0.092391857727521592 0.25884509119311472 0 -0.099741497972773749 0.27068482051400677 0 -0.09206590757372593 0.27740472432850488 0 -0.092391857727521592 0.25884509119311472 0 -0.10470287070229969 0.27376422074294909 0 -0.099741497972773749 0.27068482051400677 0 -0.1098053558875477 0.27272524579145851 0 -0.1083690905562489 0.27746201143443072 0 -0.1098053558875477 0.27272524579145851 0 -0.1083690905562489 0.27746201143443072 0 -0.10470287070229969 0.27376422074294909 0 -0.1098053558875477 0.27272524579145851 0 -0.10470287070229969 0.27376422074294909 0 -0.099741497972773749 0.27068482051400677 0 -0.09206590757372593 0.27740472432850488 0 -0.1155624016166297 0.27126165577105521 0 -0.092391857727521592 0.25884509119311472 0 -0.11076524853809321 0.25238606884059173 0 -0.1155624016166297 0.27126165577105521 0 -0.092391857727521592 0.25884509119311472 0 -0.11076524853809321 0.25238606884059173 0 -0.1199394347971814 0.25731632695883078 0 -0.1155624016166297 0.27126165577105521 0 -0.12872708527658799 0.25991420809329241 0 -0.1199394347971814 0.25731632695883078 0 -0.12470300375741469 0.2457033751303839 0 -0.11076524853809321 0.25238606884059173 0 -0.1199394347971814 0.25731632695883078 0 -0.12470300375741469 0.2457033751303839 0 -0.12872708527658799 0.25991420809329241 0 -0.1199394347971814 0.25731632695883078 0 -0.1155624016166297 0.27126165577105521 0 -0.12872708527658799 0.25991420809329241 0 -0.1155624016166297 0.27126165577105521 0 -0.1083690905562489 0.27746201143443072 0 -0.1155624016166297 0.27126165577105521 0 -0.1196693143642453 0.28329908912575552 0 -0.1083690905562489 0.27746201143443072 0 -0.1155624016166297 0.27126165577105521 0 -0.1098053558875477 0.27272524579145851 0 -0.1083690905562489 0.27746201143443072 0 -0.1155624016166297 0.27126165577105521 0 -0.1083690905562489 0.27746201143443072 0 -0.1202787732923796 0.29457691953651272 0 -0.1003457715998239 0.30392270831765028 0 -0.1083690905562489 0.27746201143443072 0 -0.1196693143642453 0.28329908912575552 0 -0.1202787732923796 0.29457691953651272 0 -0.1202787732923796 0.29457691953651272 0 -0.1173504618646501 0.30916380798395637 0 -0.1003457715998239 0.30392270831765028 0 -0.13170636281121431 0.30540396541675668 0 -0.1202787732923796 0.29457691953651272 0 -0.1173504618646501 0.30916380798395637 0 -0.1173504618646501 0.30916380798395637 0 -0.1003457715998239 0.30392270831765028 0 -0.1081804568928026 0.32074506353771021 0 -0.1083690905562489 0.27746201143443072 0 -0.08834593029567378 0.29472120043351602 0 -0.09206590757372593 0.27740472432850488 0 -0.1083690905562489 0.27746201143443072 0 -0.1003457715998239 0.30392270831765028 0 -0.08834593029567378 0.29472120043351602 0 -0.1083690905562489 0.27746201143443072 0 -0.1003457715998239 0.30392270831765028 0 -0.1083690905562489 0.27746201143443072 0 -0.08834593029567378 0.29472120043351602 0 -0.08834593029567378 0.29472120043351602 0 -0.079344374197139078 0.28508182268507098 0 -0.09206590757372593 0.27740472432850488 0 -0.08834593029567378 0.29472120043351602 0 -0.072463929930227558 0.29930610977545041 0 -0.077617967212061698 0.29366907382828078 0 -0.08834593029567378 0.29472120043351602 0 -0.079344374197139078 0.28508182268507098 0 -0.077617967212061698 0.29366907382828078 0 -0.08834593029567378 0.29472120043351602 0 -0.087527931766016032 0.31235393694025021 0 -0.08121949171140587 0.31012908581564408 0 -0.08834593029567378 0.29472120043351602 0 -0.068322770035098762 0.31198038943260148 0 -0.1003457715998239 0.30392270831765028 0 -0.08834593029567378 0.29472120043351602 0 -0.087527931766016032 0.31235393694025021 0 -0.08834593029567378 0.29472120043351602 0 -0.08121949171140587 0.31012908581564408 0 -0.069852456288818351 0.31207980665071 0 -0.08834593029567378 0.29472120043351602 0 -0.068322770035098762 0.31198038943260148 0 -0.069852456288818351 0.31207980665071 0 -0.08834593029567378 0.29472120043351602 0 -0.072463929930227558 0.29930610977545041 0 -0.068322770035098762 0.31198038943260148 0 -0.072463929930227558 0.29930610977545041 0 -0.064179569528432873 0.29754197169583518 0 -0.063962500348327456 0.30379626580195229 0 -0.072463929930227558 0.29930610977545041 0 -0.063962500348327456 0.30379626580195229 0 -0.068322770035098762 0.31198038943260148 0 -0.068322770035098762 0.31198038943260148 0 -0.069852456288818351 0.31207980665071 0 -0.079344374197139078 0.28508182268507098 0 -0.070510141993048517 0.29225124769799787 0 -0.067485792004003509 0.28106498521306011 0 -0.079344374197139078 0.28508182268507098 0 -0.077617967212061698 0.29366907382828078 0 -0.070510141993048517 0.29225124769799787 0 -0.072463929930227558 0.29930610977545041 0 -0.077617967212061698 0.29366907382828078 0 -0.070510141993048517 0.29225124769799787 0 -0.064179569528432873 0.29754197169583518 0 -0.070510141993048517 0.29225124769799787 0 -0.059799020663136082 0.29068729405280619 0 -0.072463929930227558 0.29930610977545041 0 -0.064179569528432873 0.29754197169583518 0 -0.070510141993048517 0.29225124769799787 0 -0.070510141993048517 0.29225124769799787 0 -0.067485792004003509 0.28106498521306011 0 -0.059799020663136082 0.29068729405280619 0 -0.079344374197139078 0.28508182268507098 0 -0.077112635008727601 0.26938653581869981 0 -0.067485792004003509 0.28106498521306011 0 -0.077112635008727601 0.26938653581869981 0 -0.067485792004003509 0.28106498521306011 0 -0.060296114269721542 0.26705395206363342 0 -0.079344374197139078 0.28508182268507098 0 -0.077112635008727601 0.26938653581869981 0 -0.09206590757372593 0.27740472432850488 0 -0.077112635008727601 0.26938653581869981 0 -0.09206590757372593 0.27740472432850488 0 -0.092391857727521592 0.25884509119311472 0 -0.092391857727521592 0.25884509119311472 0 -0.069221313838413207 0.24642852661517459 0 -0.077112635008727601 0.26938653581869981 0 -0.092391857727521592 0.25884509119311472 0 -0.069221313838413207 0.24642852661517459 0 -0.077112635008727601 0.26938653581869981 0 -0.060296114269721542 0.26705395206363342 0 -0.069221313838413207 0.24642852661517459 0 -0.048126263350958612 0.25465777805589501 0 -0.060296114269721542 0.26705395206363342 0 -0.069221313838413207 0.24642852661517459 0 -0.048126263350958612 0.25465777805589501 0 -0.060296114269721542 0.26705395206363342 0 -0.041784573477856593 0.2719242686623195 0 -0.055384127889045079 0.27986410773994991 0 -0.060296114269721542 0.26705395206363342 0 -0.041784573477856593 0.2719242686623195 0 -0.055384127889045079 0.27986410773994991 0 -0.041784573477856593 0.2719242686623195 0 -0.044370237993260717 0.29032640624232281 0 -0.067485792004003509 0.28106498521306011 0 -0.055384127889045079 0.27986410773994991 0 -0.060296114269721542 0.26705395206363342 0 -0.041784573477856593 0.2719242686623195 0 -0.028053557715267439 0.25838243531431121 0 -0.02550209953536561 0.27186686885002359 0 -0.041784573477856593 0.2719242686623195 0 -0.02550209953536561 0.27186686885002359 0 -0.031040102747703489 0.28267752730564011 0 -0.048126263350958612 0.25465777805589501 0 -0.041784573477856593 0.2719242686623195 0 -0.028053557715267439 0.25838243531431121 0 -0.048126263350958612 0.25465777805589501 0 -0.028053557715267439 0.25838243531431121 0 -0.033382390283993792 0.24359412621706661 0 -0.028053557715267439 0.25838243531431121 0 -0.01504563196256534 0.26333196488375049 0 -0.01778818590069102 0.2421293126167848 0 -0.01504563196256534 0.26333196488375049 0 -0.01778818590069102 0.2421293126167848 0 -0.028053557715267439 0.25838243531431121 0 -0.02550209953536561 0.27186686885002359 0 -0.01504563196256534 0.26333196488375049 0 -0.028053557715267439 0.25838243531431121 0 -0.01504563196256534 0.26333196488375049 0 -0.02550209953536561 0.27186686885002359 0 -0.01214761008608776 0.28573653795517551 0 -0.031040102747703489 0.28267752730564011 0 -0.02550209953536561 0.27186686885002359 0 -0.01504563196256534 0.26333196488375049 0 -0.01214761008608776 0.28573653795517551 0 -0.001267499687089951 0.2776013217203892 0 -0.01504563196256534 0.26333196488375049 0 -0.01214761008608776 0.28573653795517551 0 -0.01504563196256534 0.26333196488375049 0 -0.01214761008608776 0.28573653795517551 0 -0.00067809962666212902 0.26216505597133072 0 -0.01504563196256534 0.26333196488375049 0 0.010965700908337589 0.27322930467739909 0 -0.001267499687089951 0.2776013217203892 0 -0.01504563196256534 0.26333196488375049 0 0.010965700908337589 0.27322930467739909 0 -0.01504563196256534 0.26333196488375049 0 0.010965700908337589 0.27322930467739909 0 -0.0087132352456033638 0.25173417187717928 0 -0.01504563196256534 0.26333196488375049 0 -0.01778818590069102 0.2421293126167848 0 -0.00067809962666212902 0.26216505597133072 0 -0.0087132352456033638 0.25173417187717928 0 0.0027594708259384838 0.25829047161104352 0 -0.00067809962666212902 0.26216505597133072 0 -0.0087132352456033638 0.25173417187717928 0 -0.01504563196256534 0.26333196488375049 0 -0.009249588209606344 0.30814111102660002 0 -0.01214761008608776 0.28573653795517551 0 0.0038021096493471361 0.29689124930627131 0 -0.009249588209606344 0.30814111102660002 0 -0.01214761008608776 0.28573653795517551 0 -0.01214761008608776 0.28573653795517551 0 0.002380999114604244 0.28599596302517022 0 0.0038021096493471361 0.29689124930627131 0 -0.001267499687089951 0.2776013217203892 0 -0.01214761008608776 0.28573653795517551 0 0.002380999114604244 0.28599596302517022 0 -0.009249588209606344 0.30814111102660002 0 -0.01214761008608776 0.28573653795517551 0 -0.02711874363180217 0.2953884665518679 0 -0.01214761008608776 0.28573653795517551 0 -0.031040102747703489 0.28267752730564011 0 -0.02711874363180217 0.2953884665518679 0 -0.009249588209606344 0.30814111102660002 0 -0.02711874363180217 0.2953884665518679 0 -0.038786179122352507 0.31006075022960111 0 -0.009249588209606344 0.30814111102660002 0 -0.038786179122352507 0.31006075022960111 0 -0.02711874363180217 0.2953884665518679 0 -0.038786179122352507 0.31006075022960111 0 -0.044370237993260717 0.29032640624232281 0 -0.038786179122352507 0.31006075022960111 0 -0.044370237993260717 0.29032640624232281 0 -0.054162254707424723 0.30166894115096898 0 -0.031040102747703489 0.28267752730564011 0 -0.02711874363180217 0.2953884665518679 0 -0.044370237993260717 0.29032640624232281 0 -0.041784573477856593 0.2719242686623195 0 -0.031040102747703489 0.28267752730564011 0 -0.044370237993260717 0.29032640624232281 0 -0.055384127889045079 0.27986410773994991 0 -0.044370237993260717 0.29032640624232281 0 -0.059799020663136082 0.29068729405280619 0 -0.044370237993260717 0.29032640624232281 0 -0.059799020663136082 0.29068729405280619 0 -0.054162254707424723 0.30166894115096898 0 -0.064179569528432873 0.29754197169583518 0 -0.059799020663136082 0.29068729405280619 0 -0.054162254707424723 0.30166894115096898 0 -0.067485792004003509 0.28106498521306011 0 -0.055384127889045079 0.27986410773994991 0 -0.059799020663136082 0.29068729405280619 0 -0.068322770035098762 0.31198038943260148 0 -0.038786179122352507 0.31006075022960111 0 -0.068322770035098762 0.31198038943260148 0 -0.038786179122352507 0.31006075022960111 0 -0.054162254707424723 0.30166894115096898 0 -0.064179569528432873 0.29754197169583518 0 -0.063962500348327456 0.30379626580195229 0 -0.054162254707424723 0.30166894115096898 0 -0.063962500348327456 0.30379626580195229 0 -0.068322770035098762 0.31198038943260148 0 -0.054162254707424723 0.30166894115096898 0 -0.068322770035098762 0.31198038943260148 0 -0.038786179122352507 0.31006075022960111 0 -0.053879496619987192 0.32442993198196868 0 -0.068322770035098762 0.31198038943260148 0 -0.053879496619987192 0.32442993198196868 0 -0.059045099567240703 0.33862263320968672 0 -0.059976501396798443 0.34640013057040159 0 -0.068046633572776155 0.34513696516333192 0 -0.053879496619987192 0.32442993198196868 0 -0.059045099567240703 0.33862263320968672 0 -0.06815446288386498 0.3263880450875648 0 -0.053879496619987192 0.32442993198196868 0 -0.059045099567240703 0.33862263320968672 0 -0.049717572699208172 0.33977374392884352 0 -0.053879496619987192 0.32442993198196868 0 -0.049717572699208172 0.33977374392884352 0 -0.039436223204876379 0.33687947453133682 0 -0.059045099567240703 0.33862263320968672 0 -0.049717572699208172 0.33977374392884352 0 -0.052933118771744558 0.34753778728834739 0 -0.049717572699208172 0.33977374392884352 0 -0.039436223204876379 0.33687947453133682 0 -0.045752302425533672 0.34929255203680049 0 -0.053879496619987192 0.32442993198196868 0 -0.039436223204876379 0.33687947453133682 0 -0.039359444206513459 0.32419621080282812 0 -0.053879496619987192 0.32442993198196868 0 -0.039436223204876379 0.33687947453133682 0 -0.039436223204876379 0.33687947453133682 0 -0.039359444206513459 0.32419621080282812 0 -0.02531264429424256 0.33765677836634578 0 -0.039436223204876379 0.33687947453133682 0 -0.02531264429424256 0.33765677836634578 0 -0.034795741464765127 0.3466441775467104 0 -0.038786179122352507 0.31006075022960111 0 -0.053879496619987192 0.32442993198196868 0 -0.039359444206513459 0.32419621080282812 0 -0.038786179122352507 0.31006075022960111 0 -0.039359444206513459 0.32419621080282812 0 -0.024068293084679539 0.32272721199300619 0 -0.009249588209606344 0.30814111102660002 0 -0.038786179122352507 0.31006075022960111 0 -0.024068293084679539 0.32272721199300619 0 -0.024068293084679539 0.32272721199300619 0 -0.02531264429424256 0.33765677836634578 0 -0.005758602284471958 0.33512988219008361 0 -0.039359444206513459 0.32419621080282812 0 -0.024068293084679539 0.32272721199300619 0 -0.02531264429424256 0.33765677836634578 0 -0.005758602284471958 0.33512988219008361 0 -0.0077202170519437719 0.34710906184019069 0 0.0082446038140756572 0.34376242611402219 0 -0.02531264429424256 0.33765677836634578 0 -0.005758602284471958 0.33512988219008361 0 -0.0077202170519437719 0.34710906184019069 0 -0.009249588209606344 0.30814111102660002 0 -0.005758602284471958 0.33512988219008361 0 0.0094307060340404689 0.32376070079746733 0 -0.009249588209606344 0.30814111102660002 0 -0.005758602284471958 0.33512988219008361 0 -0.009249588209606344 0.30814111102660002 0 -0.024068293084679539 0.32272721199300619 0 -0.005758602284471958 0.33512988219008361 0 -0.0045677851665312944 0.36532665559408428 0 -0.0087141207398781558 0.37710904293520409 0 0.0077169544749549623 0.36306791211952738 0 -0.0045677851665312944 0.36532665559408428 0 -0.019623601183504629 0.35541479533684739 0 -0.0087141207398781558 0.37710904293520409 0 -0.0087141207398781558 0.37710904293520409 0 0.0077169544749549623 0.36306791211952738 0 -0.0077202170519437719 0.34710906184019069 0 -0.019623601183504629 0.35541479533684739 0 0.0038095970876644218 0.35606187191015221 0 -0.019623601183504629 0.35541479533684739 0 0.0038095970876644218 0.35606187191015221 0 -0.0045677851665312944 0.36532665559408428 0 -0.019623601183504629 0.35541479533684739 0 0.0038095970876644218 0.35606187191015221 0 -0.02531264429424256 0.33765677836634578 0 -0.019623601183504629 0.35541479533684739 0 -0.034795741464765127 0.3466441775467104 0 -0.02531264429424256 0.33765677836634578 0 -0.0077202170519437719 0.34710906184019069 0 -0.019623601183504629 0.35541479533684739 0 -0.019623601183504629 0.35541479533684739 0 -0.034100997704691827 0.37295894625721099 0 -0.0087141207398781558 0.37710904293520409 0 -0.019623601183504629 0.35541479533684739 0 -0.034100997704691827 0.37295894625721099 0 -0.043056799454673583 0.35476771876354157 0 -0.034100997704691827 0.37295894625721099 0 -0.047131069669461997 0.36807368878450081 0 -0.054593457040109393 0.3822816536988497 0 -0.034100997704691827 0.37295894625721099 0 -0.043056799454673583 0.35476771876354157 0 -0.034100997704691827 0.37295894625721099 0 -0.043056799454673583 0.35476771876354157 0 -0.047131069669461997 0.36807368878450081 0 -0.019623601183504629 0.35541479533684739 0 -0.043056799454673583 0.35476771876354157 0 -0.019623601183504629 0.35541479533684739 0 -0.034795741464765127 0.3466441775467104 0 -0.043056799454673583 0.35476771876354157 0 -0.043056799454673583 0.35476771876354157 0 -0.045752302425533672 0.34929255203680049 0 -0.039436223204876379 0.33687947453133682 0 -0.034795741464765127 0.3466441775467104 0 -0.045752302425533672 0.34929255203680049 0 -0.034795741464765127 0.3466441775467104 0 -0.043056799454673583 0.35476771876354157 0 -0.045752302425533672 0.34929255203680049 0 -0.043056799454673583 0.35476771876354157 0 -0.052933118771744558 0.34753778728834739 0 -0.059881153675432383 0.35430313662024071 0 -0.043056799454673583 0.35476771876354157 0 -0.059881153675432383 0.35430313662024071 0 -0.051828064233363932 0.36038047858465339 0 -0.043056799454673583 0.35476771876354157 0 -0.059881153675432383 0.35430313662024071 0 -0.043056799454673583 0.35476771876354157 0 -0.045752302425533672 0.34929255203680049 0 -0.052933118771744558 0.34753778728834739 0 -0.049717572699208172 0.33977374392884352 0 -0.045752302425533672 0.34929255203680049 0 -0.052933118771744558 0.34753778728834739 0 -0.059881153675432383 0.35430313662024071 0 -0.051828064233363932 0.36038047858465339 0 -0.058626870601395778 0.36023180910453118 0 -0.059045099567240703 0.33862263320968672 0 -0.052933118771744558 0.34753778728834739 0 -0.059976501396798443 0.34640013057040159 0 -0.052933118771744558 0.34753778728834739 0 -0.059881153675432383 0.35430313662024071 0 -0.059976501396798443 0.34640013057040159 0 -0.047131069669461997 0.36807368878450081 0 -0.054116187566776573 0.36544526432200969 0 -0.058148679921659119 0.37186744297544022 0 -0.047131069669461997 0.36807368878450081 0 -0.058148679921659119 0.37186744297544022 0 -0.054593457040109393 0.3822816536988497 0 -0.043056799454673583 0.35476771876354157 0 -0.047131069669461997 0.36807368878450081 0 -0.051828064233363932 0.36038047858465339 0 -0.047131069669461997 0.36807368878450081 0 -0.051828064233363932 0.36038047858465339 0 -0.054116187566776573 0.36544526432200969 0 -0.054116187566776573 0.36544526432200969 0 -0.058626870601395778 0.36023180910453118 0 -0.058148679921659119 0.37186744297544022 0 -0.051828064233363932 0.36038047858465339 0 -0.054116187566776573 0.36544526432200969 0 -0.058626870601395778 0.36023180910453118 0 -0.058626870601395778 0.36023180910453118 0 -0.058148679921659119 0.37186744297544022 0 -0.076275814730551866 0.38330479896731001 0 -0.058626870601395778 0.36023180910453118 0 -0.071157696118109362 0.36170448025062218 0 -0.076275814730551866 0.38330479896731001 0 -0.071157696118109362 0.36170448025062218 0 -0.084299133686975572 0.35684410208409001 0 -0.076275814730551866 0.38330479896731001 0 -0.058626870601395778 0.36023180910453118 0 -0.076275814730551866 0.38330479896731001 0 -0.084299133686975572 0.35684410208409001 0 -0.089436666146690338 0.3774527594588406 0 -0.076275814730551866 0.38330479896731001 0 -0.084299133686975572 0.35684410208409001 0 -0.076275814730551866 0.38330479896731001 0 -0.093494049974744503 0.36523362229143391 0 -0.084299133686975572 0.35684410208409001 0 -0.089436666146690338 0.3774527594588406 0 -0.084299133686975572 0.35684410208409001 0 -0.076705507896191183 0.35383855447693902 0 -0.080753986599573127 0.33990497651870988 0 -0.084299133686975572 0.35684410208409001 0 -0.092322452643399749 0.33038340520087017 0 -0.095141502753968779 0.35097174187852381 0 -0.093494049974744503 0.36523362229143391 0 -0.084299133686975572 0.35684410208409001 0 -0.095141502753968779 0.35097174187852381 0 -0.059881153675432383 0.35430313662024071 0 -0.071157696118109362 0.36170448025062218 0 -0.076705507896191183 0.35383855447693902 0 -0.076705507896191183 0.35383855447693902 0 -0.068046633572776155 0.34513696516333192 0 -0.080753986599573127 0.33990497651870988 0 -0.059881153675432383 0.35430313662024071 0 -0.076705507896191183 0.35383855447693902 0 -0.068046633572776155 0.34513696516333192 0 -0.059881153675432383 0.35430313662024071 0 -0.076705507896191183 0.35383855447693902 0 -0.071157696118109362 0.36170448025062218 0 -0.084299133686975572 0.35684410208409001 0 -0.076705507896191183 0.35383855447693902 0 -0.059881153675432383 0.35430313662024071 0 -0.058626870601395778 0.36023180910453118 0 -0.071157696118109362 0.36170448025062218 0 -0.059881153675432383 0.35430313662024071 0 -0.059976501396798443 0.34640013057040159 0 -0.068046633572776155 0.34513696516333192 0 -0.06815446288386498 0.3263880450875648 0 -0.079151648495115301 0.32136139923810009 0 -0.080753986599573127 0.33990497651870988 0 -0.068046633572776155 0.34513696516333192 0 -0.06815446288386498 0.3263880450875648 0 -0.080753986599573127 0.33990497651870988 0 -0.059045099567240703 0.33862263320968672 0 -0.068046633572776155 0.34513696516333192 0 -0.06815446288386498 0.3263880450875648 0 -0.068322770035098762 0.31198038943260148 0 -0.069852456288818351 0.31207980665071 0 -0.06815446288386498 0.3263880450875648 0 -0.068322770035098762 0.31198038943260148 0 -0.053879496619987192 0.32442993198196868 0 -0.06815446288386498 0.3263880450875648 0 -0.08121949171140587 0.31012908581564408 0 -0.069852456288818351 0.31207980665071 0 -0.079151648495115301 0.32136139923810009 0 -0.069852456288818351 0.31207980665071 0 -0.06815446288386498 0.3263880450875648 0 -0.079151648495115301 0.32136139923810009 0 -0.087527931766016032 0.31235393694025021 0 -0.079151648495115301 0.32136139923810009 0 -0.092322452643399749 0.33038340520087017 0 -0.1003457715998239 0.30392270831765028 0 -0.087527931766016032 0.31235393694025021 0 -0.092322452643399749 0.33038340520087017 0 -0.087527931766016032 0.31235393694025021 0 -0.08121949171140587 0.31012908581564408 0 -0.079151648495115301 0.32136139923810009 0 -0.084299133686975572 0.35684410208409001 0 -0.092322452643399749 0.33038340520087017 0 -0.079151648495115301 0.32136139923810009 0 -0.092322452643399749 0.33038340520087017 0 -0.080753986599573127 0.33990497651870988 0 -0.084299133686975572 0.35684410208409001 0 -0.092322452643399749 0.33038340520087017 0 -0.080753986599573127 0.33990497651870988 0 -0.092322452643399749 0.33038340520087017 0 -0.10472406897533799 0.34168768652513631 0 -0.095141502753968779 0.35097174187852381 0 -0.092322452643399749 0.33038340520087017 0 -0.10472406897533799 0.34168768652513631 0 -0.1081804568928026 0.32074506353771021 0 -0.1003457715998239 0.30392270831765028 0 -0.092322452643399749 0.33038340520087017 0 -0.1003457715998239 0.30392270831765028 0 -0.092322452643399749 0.33038340520087017 0 -0.1081804568928026 0.32074506353771021 0 -0.1262409447270301 0.3211703831111522 0 -0.1173504618646501 0.30916380798395637 0 -0.1081804568928026 0.32074506353771021 0 -0.1262409447270301 0.3211703831111522 0 -0.1081804568928026 0.32074506353771021 0 -0.1175879007316586 0.33497855513245622 0 -0.13367478836053351 0.33932016938713638 0 -0.1175879007316586 0.33497855513245622 0 -0.1173066256070304 0.35104950557859033 0 -0.10472406897533799 0.34168768652513631 0 -0.1081804568928026 0.32074506353771021 0 -0.1175879007316586 0.33497855513245622 0 -0.10472406897533799 0.34168768652513631 0 -0.1175879007316586 0.33497855513245622 0 -0.1173066256070304 0.35104950557859033 0 -0.1173066256070304 0.35104950557859033 0 -0.1198206075896991 0.37069234566290138 0 -0.1030551893938276 0.35978992576853291 0 -0.1367685514822152 0.35851885971508118 0 -0.1173066256070304 0.35104950557859033 0 -0.1198206075896991 0.37069234566290138 0 -0.1198206075896991 0.37069234566290138 0 -0.1030551893938276 0.35978992576853291 0 -0.10026372758235801 0.37465761506622741 0 -0.093494049974744503 0.36523362229143391 0 -0.10026372758235801 0.37465761506622741 0 -0.089436666146690338 0.3774527594588406 0 -0.093494049974744503 0.36523362229143391 0 -0.1030551893938276 0.35978992576853291 0 -0.10026372758235801 0.37465761506622741 0 -0.10472406897533799 0.34168768652513631 0 -0.1030551893938276 0.35978992576853291 0 -0.095141502753968779 0.35097174187852381 0 -0.093494049974744503 0.36523362229143391 0 -0.1030551893938276 0.35978992576853291 0 -0.095141502753968779 0.35097174187852381 0 -0.10472406897533799 0.34168768652513631 0 -0.1173066256070304 0.35104950557859033 0 -0.1030551893938276 0.35978992576853291 0 -0.101128536279416 0.3977608810528192 0 -0.11378235269799521 0.38746486633725291 0 -0.11258596611237601 0.40408595479252452 0 -0.101128536279416 0.3977608810528192 0 -0.095244926421122186 0.38729621463576269 0 -0.11378235269799521 0.38746486633725291 0 -0.101128536279416 0.3977608810528192 0 -0.11258596611237601 0.40408595479252452 0 -0.097808874238227678 0.41145560844912898 0 -0.101128536279416 0.3977608810528192 0 -0.097808874238227678 0.41145560844912898 0 -0.087042344484389883 0.39738020370821953 0 -0.101128536279416 0.3977608810528192 0 -0.095244926421122186 0.38729621463576269 0 -0.087042344484389883 0.39738020370821953 0 -0.10026372758235801 0.37465761506622741 0 -0.095244926421122186 0.38729621463576269 0 -0.11378235269799521 0.38746486633725291 0 -0.10026372758235801 0.37465761506622741 0 -0.095244926421122186 0.38729621463576269 0 -0.089436666146690338 0.3774527594588406 0 -0.1198206075896991 0.37069234566290138 0 -0.10026372758235801 0.37465761506622741 0 -0.11378235269799521 0.38746486633725291 0 -0.12826940643264259 0.38638828685515292 0 -0.1198206075896991 0.37069234566290138 0 -0.11378235269799521 0.38746486633725291 0 -0.12644786621320531 0.40058001872868543 0 -0.12826940643264259 0.38638828685515292 0 -0.11378235269799521 0.38746486633725291 0 -0.12761284081938409 0.41418542740570108 0 -0.11378235269799521 0.38746486633725291 0 -0.12761284081938409 0.41418542740570108 0 -0.12644786621320531 0.40058001872868543 0 -0.11378235269799521 0.38746486633725291 0 -0.12761284081938409 0.41418542740570108 0 -0.11378235269799521 0.38746486633725291 0 -0.11258596611237601 0.40408595479252452 0 -0.12761284081938409 0.41418542740570108 0 -0.11258596611237601 0.40408595479252452 0 -0.097808874238227678 0.41145560844912898 0 -0.12761284081938409 0.41418542740570108 0 -0.1126245701039178 0.4308246085444013 0 -0.097808874238227678 0.41145560844912898 0 -0.12761284081938409 0.41418542740570108 0 -0.097808874238227678 0.41145560844912898 0 -0.12761284081938409 0.41418542740570108 0 -0.1126245701039178 0.4308246085444013 0 -0.1242648033483075 0.43981492828754482 0 -0.1126245701039178 0.4308246085444013 0 -0.096605527178418776 0.42311346390882398 0 -0.097170403390676049 0.43571281837191522 0 -0.1126245701039178 0.4308246085444013 0 -0.097170403390676049 0.43571281837191522 0 -0.10338783084247161 0.44098956532991213 0 -0.1126245701039178 0.4308246085444013 0 -0.097808874238227678 0.41145560844912898 0 -0.1126245701039178 0.4308246085444013 0 -0.096605527178418776 0.42311346390882398 0 -0.097808874238227678 0.41145560844912898 0 -0.096605527178418776 0.42311346390882398 0 -0.097808874238227678 0.41145560844912898 0 -0.090623427087895073 0.41079747558654428 0 -0.097808874238227678 0.41145560844912898 0 -0.090623427087895073 0.41079747558654428 0 -0.096605527178418776 0.42311346390882398 0 -0.090623427087895073 0.41079747558654428 0 -0.084800361071377284 0.4267768085921303 0 -0.090623427087895073 0.41079747558654428 0 -0.084347825254610875 0.40943513047528779 0 -0.084800361071377284 0.4267768085921303 0 -0.084800361071377284 0.4267768085921303 0 -0.074925168374781331 0.40278603401425761 0 -0.084347825254610875 0.40943513047528779 0 -0.084800361071377284 0.4267768085921303 0 -0.074925168374781331 0.40278603401425761 0 -0.097808874238227678 0.41145560844912898 0 -0.090623427087895073 0.41079747558654428 0 -0.087042344484389883 0.39738020370821953 0 -0.096605527178418776 0.42311346390882398 0 -0.097170403390676049 0.43571281837191522 0 -0.084800361071377284 0.4267768085921303 0 -0.084800361071377284 0.4267768085921303 0 -0.077689053426030094 0.43734830183904833 0 -0.073740177733494089 0.43015549729097768 0 -0.084800361071377284 0.4267768085921303 0 -0.077689053426030094 0.43734830183904833 0 -0.085627028266785254 0.44117175463919189 0 -0.077689053426030094 0.43734830183904833 0 -0.073740177733494089 0.43015549729097768 0 -0.069373851585076945 0.43677151010665521 0 -0.084800361071377284 0.4267768085921303 0 -0.073740177733494089 0.43015549729097768 0 -0.074963529381557356 0.42372471124402672 0 -0.084800361071377284 0.4267768085921303 0 -0.074963529381557356 0.42372471124402672 0 -0.074207610301873977 0.415826985147286 0 -0.073740177733494089 0.43015549729097768 0 -0.07134827269677288 0.42521816639912852 0 -0.067010261651664849 0.42692585223643509 0 -0.073740177733494089 0.43015549729097768 0 -0.074963529381557356 0.42372471124402672 0 -0.07134827269677288 0.42521816639912852 0 -0.074963529381557356 0.42372471124402672 0 -0.07134827269677288 0.42521816639912852 0 -0.069903249343569923 0.42035209495099629 0 -0.06803153127557314 0.42418340705062968 0 -0.063864341410284964 0.42423751461595932 0 -0.069903249343569923 0.42035209495099629 0 -0.07134827269677288 0.42521816639912852 0 -0.06803153127557314 0.42418340705062968 0 -0.067010261651664849 0.42692585223643509 0 -0.07134827269677288 0.42521816639912852 0 -0.06803153127557314 0.42418340705062968 0 -0.069903249343569923 0.42035209495099629 0 -0.06803153127557314 0.42418340705062968 0 -0.063864341410284964 0.42423751461595932 0 -0.067010261651664849 0.42692585223643509 0 -0.063864341410284964 0.42423751461595932 0 -0.067010261651664849 0.42692585223643509 0 -0.067010261651664849 0.42692585223643509 0 -0.06657591115514655 0.43192586875325267 0 -0.062357688865182517 0.42920641545622512 0 -0.063864341410284964 0.42423751461595932 0 -0.067010261651664849 0.42692585223643509 0 -0.062357688865182517 0.42920641545622512 0 -0.063864341410284964 0.42423751461595932 0 -0.062357688865182517 0.42920641545622512 0 -0.073740177733494089 0.43015549729097768 0 -0.067010261651664849 0.42692585223643509 0 -0.06657591115514655 0.43192586875325267 0 -0.073740177733494089 0.43015549729097768 0 -0.06657591115514655 0.43192586875325267 0 -0.069373851585076945 0.43677151010665521 0 -0.06657591115514655 0.43192586875325267 0 -0.062750456602468974 0.43554137489064498 0 -0.062357688865182517 0.42920641545622512 0 -0.06657591115514655 0.43192586875325267 0 -0.062750456602468974 0.43554137489064498 0 -0.069373851585076945 0.43677151010665521 0 -0.063864341410284964 0.42423751461595932 0 -0.069903249343569923 0.42035209495099629 0 -0.070070078070418332 0.40377115679163461 0 -0.074207610301873977 0.415826985147286 0 -0.069903249343569923 0.42035209495099629 0 -0.070070078070418332 0.40377115679163461 0 -0.063864341410284964 0.42423751461595932 0 -0.070070078070418332 0.40377115679163461 0 -0.058881304157308093 0.40804381518971672 0 -0.063864341410284964 0.42423751461595932 0 -0.070070078070418332 0.40377115679163461 0 -0.084800361071377284 0.4267768085921303 0 -0.074207610301873977 0.415826985147286 0 -0.074925168374781331 0.40278603401425761 0 -0.074207610301873977 0.415826985147286 0 -0.070070078070418332 0.40377115679163461 0 -0.074925168374781331 0.40278603401425761 0 -0.074963529381557356 0.42372471124402672 0 -0.074207610301873977 0.415826985147286 0 -0.069903249343569923 0.42035209495099629 0 -0.070070078070418332 0.40377115679163461 0 -0.064506344576777661 0.39145758865641178 0 -0.076275814730551866 0.38330479896731001 0 -0.070070078070418332 0.40377115679163461 0 -0.074925168374781331 0.40278603401425761 0 -0.076275814730551866 0.38330479896731001 0 -0.070070078070418332 0.40377115679163461 0 -0.076275814730551866 0.38330479896731001 0 -0.070070078070418332 0.40377115679163461 0 -0.064506344576777661 0.39145758865641178 0 -0.057086028466031037 0.39647274516785291 0 -0.074925168374781331 0.40278603401425761 0 -0.087042344484389883 0.39738020370821953 0 -0.076275814730551866 0.38330479896731001 0 -0.084347825254610875 0.40943513047528779 0 -0.074925168374781331 0.40278603401425761 0 -0.087042344484389883 0.39738020370821953 0 -0.097808874238227678 0.41145560844912898 0 -0.087042344484389883 0.39738020370821953 0 -0.090623427087895073 0.41079747558654428 0 -0.084347825254610875 0.40943513047528779 0 -0.087042344484389883 0.39738020370821953 0 -0.087042344484389883 0.39738020370821953 0 -0.089436666146690338 0.3774527594588406 0 -0.076275814730551866 0.38330479896731001 0 -0.095244926421122186 0.38729621463576269 0 -0.087042344484389883 0.39738020370821953 0 -0.089436666146690338 0.3774527594588406 0 -0.087042344484389883 0.39738020370821953 0 -0.076275814730551866 0.38330479896731001 0 -0.064506344576777661 0.39145758865641178 0 -0.076275814730551866 0.38330479896731001 0 -0.054593457040109393 0.3822816536988497 0 -0.058148679921659119 0.37186744297544022 0 -0.076275814730551866 0.38330479896731001 0 -0.054593457040109393 0.3822816536988497 0 -0.064506344576777661 0.39145758865641178 0 -0.054593457040109393 0.3822816536988497 0 -0.057086028466031037 0.39647274516785291 0 -0.054593457040109393 0.3822816536988497 0 -0.057086028466031037 0.39647274516785291 0 -0.042391572779214973 0.39096282696345341 0 -0.057086028466031037 0.39647274516785291 0 -0.042391572779214973 0.39096282696345341 0 -0.044504768682498037 0.40769384418342008 0 -0.070070078070418332 0.40377115679163461 0 -0.057086028466031037 0.39647274516785291 0 -0.058881304157308093 0.40804381518971672 0 -0.057086028466031037 0.39647274516785291 0 -0.044504768682498037 0.40769384418342008 0 -0.058881304157308093 0.40804381518971672 0 -0.02514519595471108 0.39115017375088101 0 -0.044504768682498037 0.40769384418342008 0 -0.042391572779214973 0.39096282696345341 0 -0.02514519595471108 0.39115017375088101 0 -0.044504768682498037 0.40769384418342008 0 -0.034100997704691827 0.37295894625721099 0 -0.054593457040109393 0.3822816536988497 0 -0.042391572779214973 0.39096282696345341 0 -0.034100997704691827 0.37295894625721099 0 -0.042391572779214973 0.39096282696345341 0 -0.02514519595471108 0.39115017375088101 0 -0.034100997704691827 0.37295894625721099 0 -0.02514519595471108 0.39115017375088101 0 -0.034100997704691827 0.37295894625721099 0 -0.02514519595471108 0.39115017375088101 0 -0.0087141207398781558 0.37710904293520409 0 -0.02514519595471108 0.39115017375088101 0 -0.0087141207398781558 0.37710904293520409 0 -0.02514519595471108 0.39115017375088101 0 -0.014810785045769751 0.41214166341376801 0 -0.02514519595471108 0.39115017375088101 0 -0.014810785045769751 0.41214166341376801 0 -0.044504768682498037 0.40769384418342008 0 -0.0068648610501423502 0.39382000907293813 0 -0.014810785045769751 0.41214166341376801 0 0.0046995574085186929 0.41194005205042061 0 -0.02514519595471108 0.39115017375088101 0 -0.0068648610501423502 0.39382000907293813 0 -0.014810785045769751 0.41214166341376801 0 -0.02514519595471108 0.39115017375088101 0 -0.0068648610501423502 0.39382000907293813 0 -0.0087141207398781558 0.37710904293520409 0 -0.0068648610501423502 0.39382000907293813 0 -0.0087141207398781558 0.37710904293520409 0 0.0053185270157129726 0.37689571945341471 0 -0.0044763741368290672 0.43313315307665529 0 -0.014810785045769751 0.41214166341376801 0 -0.0044763741368290672 0.43313315307665529 0 -0.014810785045769751 0.41214166341376801 0 -0.026116443713473419 0.4246575807879529 0 -0.0044763741368290672 0.43313315307665529 0 -0.014810785045769751 0.41214166341376801 0 0.0046995574085186929 0.41194005205042061 0 -0.014810785045769751 0.41214166341376801 0 -0.026116443713473419 0.4246575807879529 0 -0.044504768682498037 0.40769384418342008 0 -0.0044763741368290672 0.43313315307665529 0 -0.026116443713473419 0.4246575807879529 0 -0.02623027688729573 0.44118750916919391 0 -0.026116443713473419 0.4246575807879529 0 -0.040560013814974517 0.42913173409672722 0 -0.02623027688729573 0.44118750916919391 0 -0.040560013814974517 0.42913173409672722 0 -0.048293098329248912 0.43867666423002288 0 -0.039090066940739521 0.44352471403713711 0 -0.026116443713473419 0.4246575807879529 0 -0.040560013814974517 0.42913173409672722 0 -0.044504768682498037 0.40769384418342008 0 -0.040560013814974517 0.42913173409672722 0 -0.044504768682498037 0.40769384418342008 0 -0.051886787429848112 0.42350176277299723 0 -0.063864341410284964 0.42423751461595932 0 -0.044504768682498037 0.40769384418342008 0 -0.058881304157308093 0.40804381518971672 0 -0.063864341410284964 0.42423751461595932 0 -0.044504768682498037 0.40769384418342008 0 -0.051886787429848112 0.42350176277299723 0 -0.063864341410284964 0.42423751461595932 0 -0.044504768682498037 0.40769384418342008 0 -0.053936434918908913 0.43159717611494758 0 -0.057641003333182179 0.44086754716312743 0 -0.048293098329248912 0.43867666423002288 0 -0.040560013814974517 0.42913173409672722 0 -0.053936434918908913 0.43159717611494758 0 -0.048293098329248912 0.43867666423002288 0 -0.040560013814974517 0.42913173409672722 0 -0.053936434918908913 0.43159717611494758 0 -0.051886787429848112 0.42350176277299723 0 -0.053936434918908913 0.43159717611494758 0 -0.051886787429848112 0.42350176277299723 0 -0.062357688865182517 0.42920641545622512 0 -0.063864341410284964 0.42423751461595932 0 -0.051886787429848112 0.42350176277299723 0 -0.062357688865182517 0.42920641545622512 0 -0.062750456602468974 0.43554137489064498 0 -0.053936434918908913 0.43159717611494758 0 -0.062357688865182517 0.42920641545622512 0 -0.062750456602468974 0.43554137489064498 0 -0.053936434918908913 0.43159717611494758 0 -0.057641003333182179 0.44086754716312743 0 -0.062750456602468974 0.43554137489064498 0 -0.057641003333182179 0.44086754716312743 0 -0.065491549478626135 0.44200233464982802 0 -0.057641003333182179 0.44086754716312743 0 -0.062398417199954148 0.4499603094023914 0 -0.065491549478626135 0.44200233464982802 0 -0.057641003333182179 0.44086754716312743 0 -0.062398417199954148 0.4499603094023914 0 -0.050237972638439453 0.44826214973817502 0 -0.057641003333182179 0.44086754716312743 0 -0.050237972638439453 0.44826214973817502 0 -0.048293098329248912 0.43867666423002288 0 -0.062398417199954148 0.4499603094023914 0 -0.050230730183752688 0.46259696058471089 0 -0.064501224992871267 0.46542691543905351 0 -0.062398417199954148 0.4499603094023914 0 -0.050237972638439453 0.44826214973817502 0 -0.050230730183752688 0.46259696058471089 0 -0.050230730183752688 0.46259696058471089 0 -0.035748626011326709 0.45858167758110602 0 -0.046040344352481867 0.47841272498986082 0 -0.050237972638439453 0.44826214973817502 0 -0.050230730183752688 0.46259696058471089 0 -0.035748626011326709 0.45858167758110602 0 -0.035748626011326709 0.45858167758110602 0 -0.039090066940739521 0.44352471403713711 0 -0.02623027688729573 0.44118750916919391 0 -0.050237972638439453 0.44826214973817502 0 -0.048293098329248912 0.43867666423002288 0 -0.039090066940739521 0.44352471403713711 0 -0.050237972638439453 0.44826214973817502 0 -0.035748626011326709 0.45858167758110602 0 -0.039090066940739521 0.44352471403713711 0 -0.040560013814974517 0.42913173409672722 0 -0.039090066940739521 0.44352471403713711 0 -0.02623027688729573 0.44118750916919391 0 -0.035748626011326709 0.45858167758110602 0 -0.02623027688729573 0.44118750916919391 0 -0.01728298942402769 0.45556140426229003 0 -0.0044763741368290672 0.43313315307665529 0 -0.02623027688729573 0.44118750916919391 0 -0.01728298942402769 0.45556140426229003 0 -0.035748626011326709 0.45858167758110602 0 -0.01728298942402769 0.45556140426229003 0 -0.022784747477638551 0.4775754860453762 0 -0.01728298942402769 0.45556140426229003 0 -0.0062093312902834459 0.46527566221073008 0 0.006403582431216831 0.45126676372832991 0 -0.01728298942402769 0.45556140426229003 0 -0.0062093312902834459 0.46527566221073008 0 -0.022784747477638551 0.4775754860453762 0 -0.0044763741368290672 0.43313315307665529 0 -0.01728298942402769 0.45556140426229003 0 0.006403582431216831 0.45126676372832991 0 -0.0062093312902834459 0.46527566221073008 0 -0.022784747477638551 0.4775754860453762 0 0.0095498935665802413 0.47810272379952351 0 -0.022784747477638551 0.4775754860453762 0 -0.021427984417146221 0.5 0 0.0095498935665802413 0.47810272379952351 0 -0.021427984417146221 0.5 0 0.0095498935665802413 0.47810272379952351 0 0.0086042794582089632 0.5 0 -0.022784747477638551 0.4775754860453762 0 -0.021427984417146221 0.5 0 -0.046040344352481867 0.47841272498986082 0 -0.021427984417146221 0.5 0 -0.046040344352481867 0.47841272498986082 0 -0.051460248292501398 0.5 0 -0.035748626011326709 0.45858167758110602 0 -0.022784747477638551 0.4775754860453762 0 -0.046040344352481867 0.47841272498986082 0 -0.046040344352481867 0.47841272498986082 0 -0.067939054777113927 0.48291587414950521 0 -0.064501224992871267 0.46542691543905351 0 -0.050230730183752688 0.46259696058471089 0 -0.046040344352481867 0.47841272498986082 0 -0.064501224992871267 0.46542691543905351 0 -0.046040344352481867 0.47841272498986082 0 -0.051460248292501398 0.5 0 -0.067939054777113927 0.48291587414950521 0 -0.051460248292501398 0.5 0 -0.081492512167856565 0.50000000000000011 0 -0.067939054777113927 0.48291587414950521 0 -0.081492512167856565 0.50000000000000011 0 -0.085878896958769185 0.47675925450649242 0 -0.067939054777113927 0.48291587414950521 0 -0.081492512167856565 0.50000000000000011 0 -0.085878896958769185 0.47675925450649242 0 -0.099362977551805121 0.48745008538217821 0 -0.081492512167856565 0.50000000000000011 0 -0.085878896958769185 0.47675925450649242 0 -0.085878896958769185 0.47675925450649242 0 -0.075452149305044958 0.46933040044586682 0 -0.067939054777113927 0.48291587414950521 0 -0.075452149305044958 0.46933040044586682 0 -0.067939054777113927 0.48291587414950521 0 -0.064501224992871267 0.46542691543905351 0 -0.064501224992871267 0.46542691543905351 0 -0.075214053997903707 0.45912990264989012 0 -0.070315415620740368 0.45334812155980347 0 -0.062398417199954148 0.4499603094023914 0 -0.064501224992871267 0.46542691543905351 0 -0.070315415620740368 0.45334812155980347 0 -0.075214053997903707 0.45912990264989012 0 -0.070315415620740368 0.45334812155980347 0 -0.081419329692844739 0.44979703694502599 0 -0.075452149305044958 0.46933040044586682 0 -0.064501224992871267 0.46542691543905351 0 -0.075214053997903707 0.45912990264989012 0 -0.075452149305044958 0.46933040044586682 0 -0.075214053997903707 0.45912990264989012 0 -0.082509194984251868 0.46007906520350089 0 -0.069373851585076945 0.43677151010665521 0 -0.065491549478626135 0.44200233464982802 0 -0.073041418115067244 0.44511613748665291 0 -0.062750456602468974 0.43554137489064498 0 -0.069373851585076945 0.43677151010665521 0 -0.065491549478626135 0.44200233464982802 0 -0.062398417199954148 0.4499603094023914 0 -0.065491549478626135 0.44200233464982802 0 -0.073041418115067244 0.44511613748665291 0 -0.062398417199954148 0.4499603094023914 0 -0.070315415620740368 0.45334812155980347 0 -0.073041418115067244 0.44511613748665291 0 -0.070315415620740368 0.45334812155980347 0 -0.073041418115067244 0.44511613748665291 0 -0.081419329692844739 0.44979703694502599 0 -0.073041418115067244 0.44511613748665291 0 -0.07941018481149445 0.44345804230003222 0 -0.081419329692844739 0.44979703694502599 0 -0.077689053426030094 0.43734830183904833 0 -0.069373851585076945 0.43677151010665521 0 -0.073041418115067244 0.44511613748665291 0 -0.077689053426030094 0.43734830183904833 0 -0.073041418115067244 0.44511613748665291 0 -0.07941018481149445 0.44345804230003222 0 -0.097170403390676049 0.43571281837191522 0 -0.084800361071377284 0.4267768085921303 0 -0.094675553767973264 0.45076758317000298 0 -0.084800361071377284 0.4267768085921303 0 -0.094675553767973264 0.45076758317000298 0 -0.084800361071377284 0.4267768085921303 0 -0.085627028266785254 0.44117175463919189 0 -0.094675553767973264 0.45076758317000298 0 -0.085627028266785254 0.44117175463919189 0 -0.07941018481149445 0.44345804230003222 0 -0.081419329692844739 0.44979703694502599 0 -0.077689053426030094 0.43734830183904833 0 -0.085627028266785254 0.44117175463919189 0 -0.07941018481149445 0.44345804230003222 0 -0.085627028266785254 0.44117175463919189 0 -0.081419329692844739 0.44979703694502599 0 -0.088082484801868088 0.44854024150695748 0 -0.081419329692844739 0.44979703694502599 0 -0.086047819819581178 0.45134535453790131 0 -0.088082484801868088 0.44854024150695748 0 -0.085627028266785254 0.44117175463919189 0 -0.088082484801868088 0.44854024150695748 0 -0.094675553767973264 0.45076758317000298 0 -0.086047819819581178 0.45134535453790131 0 -0.088082484801868088 0.44854024150695748 0 -0.090265281749681819 0.45351850901298468 0 -0.088082484801868088 0.44854024150695748 0 -0.090265281749681819 0.45351850901298468 0 -0.094675553767973264 0.45076758317000298 0 -0.085878896958769185 0.47675925450649242 0 -0.075452149305044958 0.46933040044586682 0 -0.082509194984251868 0.46007906520350089 0 -0.085878896958769185 0.47675925450649242 0 -0.090265281749681819 0.45351850901298468 0 -0.085878896958769185 0.47675925450649242 0 -0.090265281749681819 0.45351850901298468 0 -0.093944937474792503 0.46462082789344678 0 -0.085878896958769185 0.47675925450649242 0 -0.082509194984251868 0.46007906520350089 0 -0.090265281749681819 0.45351850901298468 0 -0.081419329692844739 0.44979703694502599 0 -0.086047819819581178 0.45134535453790131 0 -0.082509194984251868 0.46007906520350089 0 -0.075214053997903707 0.45912990264989012 0 -0.081419329692844739 0.44979703694502599 0 -0.082509194984251868 0.46007906520350089 0 -0.090265281749681819 0.45351850901298468 0 -0.093944937474792503 0.46462082789344678 0 -0.094675553767973264 0.45076758317000298 0 -0.086047819819581178 0.45134535453790131 0 -0.082509194984251868 0.46007906520350089 0 -0.090265281749681819 0.45351850901298468 0 -0.093944937474792503 0.46462082789344678 0 -0.094675553767973264 0.45076758317000298 0 -0.1045507464645692 0.47475835774787573 0 -0.094675553767973264 0.45076758317000298 0 -0.1045507464645692 0.47475835774787573 0 -0.1087715055698807 0.4588247561088431 0 -0.094675553767973264 0.45076758317000298 0 -0.1045507464645692 0.47475835774787573 0 -0.1126245701039178 0.4308246085444013 0 -0.1090807961073193 0.44665325123332839 0 -0.10338783084247161 0.44098956532991213 0 -0.097170403390676049 0.43571281837191522 0 -0.094675553767973264 0.45076758317000298 0 -0.10338783084247161 0.44098956532991213 0 -0.1087715055698807 0.4588247561088431 0 -0.094675553767973264 0.45076758317000298 0 -0.1090807961073193 0.44665325123332839 0 -0.094675553767973264 0.45076758317000298 0 -0.1090807961073193 0.44665325123332839 0 -0.10338783084247161 0.44098956532991213 0 -0.1126245701039178 0.4308246085444013 0 -0.1090807961073193 0.44665325123332839 0 -0.1242648033483075 0.43981492828754482 0 -0.1090807961073193 0.44665325123332839 0 -0.1242648033483075 0.43981492828754482 0 -0.1204057133641486 0.45504160574272429 0 -0.1087715055698807 0.4588247561088431 0 -0.1176294132596279 0.46872710166108278 0 -0.1045507464645692 0.47475835774787573 0 -0.1087715055698807 0.4588247561088431 0 -0.1204057133641486 0.45504160574272429 0 -0.1176294132596279 0.46872710166108278 0 -0.1087715055698807 0.4588247561088431 0 -0.1090807961073193 0.44665325123332839 0 -0.1204057133641486 0.45504160574272429 0 -0.13097929143795109 0.46459511115351071 0 -0.1204057133641486 0.45504160574272429 0 -0.1176294132596279 0.46872710166108278 0 -0.12908554574303099 0.47755934496718438 0 -0.1176294132596279 0.46872710166108278 0 -0.1160402402672886 0.48503019582547341 0 -0.1176294132596279 0.46872710166108278 0 -0.1160402402672886 0.48503019582547341 0 -0.1045507464645692 0.47475835774787573 0 -0.13803845513632401 0.5 0 -0.1097654836520903 0.5 0 -0.1160402402672886 0.48503019582547341 0 -0.1097654836520903 0.5 0 -0.1160402402672886 0.48503019582547341 0 -0.099362977551805121 0.48745008538217821 0 -0.081492512167856565 0.50000000000000011 0 -0.1097654836520903 0.5 0 -0.099362977551805121 0.48745008538217821 0 -0.085878896958769185 0.47675925450649242 0 -0.093944937474792503 0.46462082789344678 0 -0.1045507464645692 0.47475835774787573 0 -0.085878896958769185 0.47675925450649242 0 -0.099362977551805121 0.48745008538217821 0 -0.1045507464645692 0.47475835774787573 0 -0.1160402402672886 0.48503019582547341 0 -0.099362977551805121 0.48745008538217821 0 -0.1045507464645692 0.47475835774787573 0 -0.15850742705232401 0.077073165420907211 0 -0.17832815471062741 0.080370175701138483 0 -0.15596223049933161 0.089669487892629185 0 -0.17128916945913089 0.092189477241546317 0 -0.17832815471062741 0.080370175701138483 0 -0.15596223049933161 0.089669487892629185 0 -0.17832815471062741 0.080370175701138483 0 -0.15596223049933161 0.089669487892629185 0 -0.15850742705232401 0.077073165420907211 0 -0.16907692184479731 0.071953328836937142 0 -0.17832815471062741 0.080370175701138483 0 -0.15850742705232401 0.077073165420907211 0 -0.15722519427174569 0.065058312825911402 0 -0.16907692184479731 0.071953328836937142 0 -0.16907692184479731 0.071953328836937142 0 -0.1809864334298861 0.069780609401686525 0 -0.17832815471062741 0.080370175701138483 0 -0.16907692184479731 0.071953328836937142 0 -0.1809864334298861 0.069780609401686525 0 -0.18167022033174851 0.056262687610226528 0 -0.1809864334298861 0.069780609401686525 0 -0.17832815471062741 0.080370175701138483 0 -0.20069407892192309 0.071070863509647808 0 -0.1809864334298861 0.069780609401686525 0 -0.18167022033174851 0.056262687610226528 0 -0.1876556690991136 0.063313821709693935 0 -0.17128916945913089 0.092189477241546317 0 -0.18444466814129201 0.081023499242751457 0 -0.17631468167186989 0.1066384650542631 0 -0.17128916945913089 0.092189477241546317 0 -0.18444466814129201 0.081023499242751457 0 -0.17832815471062741 0.080370175701138483 0 -0.18444466814129201 0.081023499242751457 0 -0.17631468167186989 0.1066384650542631 0 -0.19937405773042491 0.1071019237599893 0 -0.17631468167186989 0.1066384650542631 0 -0.16393492635195239 0.1245978723337525 0 -0.1795193575176991 0.1294692331289829 0 -0.17631468167186989 0.1066384650542631 0 -0.19937405773042491 0.1071019237599893 0 -0.1795193575176991 0.1294692331289829 0 -0.16393492635195239 0.1245978723337525 0 -0.16139611227253359 0.1032457583169494 0 -0.15311233888185891 0.1152965378839053 0 -0.17631468167186989 0.1066384650542631 0 -0.16393492635195239 0.1245978723337525 0 -0.16139611227253359 0.1032457583169494 0 -0.17128916945913089 0.092189477241546317 0 -0.17631468167186989 0.1066384650542631 0 -0.16139611227253359 0.1032457583169494 0 -0.17128916945913089 0.092189477241546317 0 -0.16139611227253359 0.1032457583169494 0 -0.15596223049933161 0.089669487892629185 0 -0.16139611227253359 0.1032457583169494 0 -0.13359630628803579 0.098968800084119873 0 -0.15596223049933161 0.089669487892629185 0 -0.16139611227253359 0.1032457583169494 0 -0.15311233888185891 0.1152965378839053 0 -0.13359630628803579 0.098968800084119873 0 -0.13359630628803579 0.098968800084119873 0 -0.15596223049933161 0.089669487892629185 0 -0.15311233888185891 0.1152965378839053 0 -0.13930859898956699 0.1145050369687237 0 -0.153752621985453 0.14073392350839439 0 -0.15311233888185891 0.1152965378839053 0 -0.13930859898956699 0.1145050369687237 0 -0.13359630628803579 0.098968800084119873 0 -0.13930859898956699 0.1145050369687237 0 -0.12607259725238279 0.11330641960449821 0 -0.12916618827146031 0.12390190950899049 0 -0.13930859898956699 0.1145050369687237 0 -0.12607259725238279 0.11330641960449821 0 -0.13359630628803579 0.098968800084119873 0 -0.13359630628803579 0.098968800084119873 0 -0.12697672020224329 0.087309090757334687 0 -0.14089006822782121 0.082531143958766096 0 -0.12697672020224329 0.087309090757334687 0 -0.14089006822782121 0.082531143958766096 0 -0.12697985749263241 0.07630636069427757 0 -0.15850742705232401 0.077073165420907211 0 -0.14089006822782121 0.082531143958766096 0 -0.15596223049933161 0.089669487892629185 0 -0.13359630628803579 0.098968800084119873 0 -0.14089006822782121 0.082531143958766096 0 -0.15596223049933161 0.089669487892629185 0 -0.15850742705232401 0.077073165420907211 0 -0.14089006822782121 0.082531143958766096 0 -0.14764327064684279 0.071644858797684771 0 -0.15722519427174569 0.065058312825911402 0 -0.14764327064684279 0.071644858797684771 0 -0.1471722955607111 0.059591957907519158 0 -0.15850742705232401 0.077073165420907211 0 -0.15722519427174569 0.065058312825911402 0 -0.14764327064684279 0.071644858797684771 0 -0.14089006822782121 0.082531143958766096 0 -0.14764327064684279 0.071644858797684771 0 -0.13666502121529681 0.069478967649866344 0 -0.14764327064684279 0.071644858797684771 0 -0.13666502121529681 0.069478967649866344 0 -0.1471722955607111 0.059591957907519158 0 -0.14089006822782121 0.082531143958766096 0 -0.13666502121529681 0.069478967649866344 0 -0.12697985749263241 0.07630636069427757 0 -0.13666502121529681 0.069478967649866344 0 -0.12697985749263241 0.07630636069427757 0 -0.12509646681095879 0.065597408261105467 0 -0.13666502121529681 0.069478967649866344 0 -0.12509646681095879 0.065597408261105467 0 -0.13233523162579211 0.057527865090889828 0 -0.13233523162579211 0.057527865090889828 0 -0.1197320338084647 0.057760070231756527 0 -0.1244920148619628 0.050381604022983993 0 -0.12509646681095879 0.065597408261105467 0 -0.13233523162579211 0.057527865090889828 0 -0.1197320338084647 0.057760070231756527 0 -0.13666502121529681 0.069478967649866344 0 -0.13233523162579211 0.057527865090889828 0 -0.1471722955607111 0.059591957907519158 0 -0.13233523162579211 0.057527865090889828 0 -0.131277092146349 0.043237905602295942 0 -0.1435202772377579 0.047601805401877667 0 -0.13233523162579211 0.057527865090889828 0 -0.131277092146349 0.043237905602295942 0 -0.1244920148619628 0.050381604022983993 0 -0.131277092146349 0.043237905602295942 0 -0.14194951185496399 0.035172378083737049 0 -0.12424451236807239 0.027069144312366941 0 -0.131277092146349 0.043237905602295942 0 -0.12424451236807239 0.027069144312366941 0 -0.12075472355362291 0.04122338309529356 0 -0.131277092146349 0.043237905602295942 0 -0.12075472355362291 0.04122338309529356 0 -0.1244920148619628 0.050381604022983993 0 -0.131277092146349 0.043237905602295942 0 -0.14194951185496399 0.035172378083737049 0 -0.1435202772377579 0.047601805401877667 0 -0.14194951185496399 0.035172378083737049 0 -0.15126073753592009 0.02487777788828089 0 -0.1637260562540532 0.045028253166508762 0 -0.14194951185496399 0.035172378083737049 0 -0.1435202772377579 0.047601805401877667 0 -0.1637260562540532 0.045028253166508762 0 -0.15722519427174569 0.065058312825911402 0 -0.1471722955607111 0.059591957907519158 0 -0.1637260562540532 0.045028253166508762 0 -0.1471722955607111 0.059591957907519158 0 -0.1435202772377579 0.047601805401877667 0 -0.1637260562540532 0.045028253166508762 0 -0.13233523162579211 0.057527865090889828 0 -0.1471722955607111 0.059591957907519158 0 -0.1435202772377579 0.047601805401877667 0 -0.1244522405185825 -0.00038769298458709092 0 -0.1310798501921922 0.016754836893075501 0 -0.12424451236807239 0.027069144312366941 0 -0.1244522405185825 -0.00038769298458709092 0 -0.13302987177733741 0.0072862060594841918 0 -0.1310798501921922 0.016754836893075501 0 -0.13796817939809339 -7.5853332940862265e-05 0 -0.13302987177733741 0.0072862060594841918 0 -0.13861921700048169 0.01285353366238922 0 -0.1244522405185825 -0.00038769298458709092 0 -0.13796817939809339 -7.5853332940862265e-05 0 -0.13302987177733741 0.0072862060594841918 0 -0.13302987177733741 0.0072862060594841918 0 -0.13861921700048169 0.01285353366238922 0 -0.1310798501921922 0.016754836893075501 0 -0.14194951185496399 0.035172378083737049 0 -0.1395360945068517 0.023372288850015029 0 -0.12424451236807239 0.027069144312366941 0 -0.13861921700048169 0.01285353366238922 0 -0.1395360945068517 0.023372288850015029 0 -0.1310798501921922 0.016754836893075501 0 -0.1395360945068517 0.023372288850015029 0 -0.1310798501921922 0.016754836893075501 0 -0.12424451236807239 0.027069144312366941 0 -0.14194951185496399 0.035172378083737049 0 -0.1395360945068517 0.023372288850015029 0 -0.15126073753592009 0.02487777788828089 0 -0.15126073753592009 0.02487777788828089 0 -0.15188271994169991 0.01786916074884114 0 -0.14657132146084931 0.01677767438903701 0 -0.15126073753592009 0.02487777788828089 0 -0.15837519066330749 0.018103177496080571 0 -0.1567842680697151 0.017821512483746641 0 -0.15126073753592009 0.02487777788828089 0 -0.15188271994169991 0.01786916074884114 0 -0.1567842680697151 0.017821512483746641 0 -0.1543123506052223 0.01567032783345056 0 -0.15188271994169991 0.01786916074884114 0 -0.1567842680697151 0.017821512483746641 0 -0.13861921700048169 0.01285353366238922 0 -0.1395360945068517 0.023372288850015029 0 -0.14657132146084931 0.01677767438903701 0 -0.1395360945068517 0.023372288850015029 0 -0.15126073753592009 0.02487777788828089 0 -0.14657132146084931 0.01677767438903701 0 -0.15381676672243971 -0.0048344028756085976 0 -0.13796817939809339 -7.5853332940862265e-05 0 -0.14598604308907309 0.0075397954886723484 0 -0.15381676672243971 -0.0048344028756085976 0 -0.15837519066330749 0.018103177496080571 0 -0.15381676672243971 -0.0048344028756085976 0 -0.15182406541376531 0.011854288846745499 0 -0.15837519066330749 0.018103177496080571 0 -0.15381676672243971 -0.0048344028756085976 0 -0.15182406541376531 0.011854288846745499 0 -0.14598604308907309 0.0075397954886723484 0 -0.13861921700048169 0.01285353366238922 0 -0.14657132146084931 0.01677767438903701 0 -0.14598604308907309 0.0075397954886723484 0 -0.14657132146084931 0.01677767438903701 0 -0.15182406541376531 0.011854288846745499 0 -0.14598604308907309 0.0075397954886723484 0 -0.15188271994169991 0.01786916074884114 0 -0.14657132146084931 0.01677767438903701 0 -0.15182406541376531 0.011854288846745499 0 -0.1543123506052223 0.01567032783345056 0 -0.15182406541376531 0.011854288846745499 0 -0.15837519066330749 0.018103177496080571 0 -0.1543123506052223 0.01567032783345056 0 -0.15188271994169991 0.01786916074884114 0 -0.15182406541376531 0.011854288846745499 0 -0.13796817939809339 -7.5853332940862265e-05 0 -0.13861921700048169 0.01285353366238922 0 -0.14598604308907309 0.0075397954886723484 0 -0.15381676672243971 -0.0048344028756085976 0 -0.16872927738725291 0.0066655648670224509 0 -0.15837519066330749 0.018103177496080571 0 -0.16872927738725291 0.0066655648670224509 0 -0.15837519066330749 0.018103177496080571 0 -0.17312315274812851 0.016956976572924821 0 -0.15837519066330749 0.018103177496080571 0 -0.17088268452158301 0.030303691123205939 0 -0.18416549926151529 0.022669224655560441 0 -0.15837519066330749 0.018103177496080571 0 -0.17088268452158301 0.030303691123205939 0 -0.1637260562540532 0.045028253166508762 0 -0.15126073753592009 0.02487777788828089 0 -0.15837519066330749 0.018103177496080571 0 -0.1637260562540532 0.045028253166508762 0 -0.15837519066330749 0.018103177496080571 0 -0.18416549926151529 0.022669224655560441 0 -0.1543123506052223 0.01567032783345056 0 -0.15837519066330749 0.018103177496080571 0 -0.1567842680697151 0.017821512483746641 0 -0.15837519066330749 0.018103177496080571 0 -0.1567842680697151 0.017821512483746641 0 -0.15837519066330749 0.018103177496080571 0 -0.18416549926151529 0.022669224655560441 0 -0.17312315274812851 0.016956976572924821 0 -0.17088268452158301 0.030303691123205939 0 -0.18416549926151529 0.022669224655560441 0 -0.1815242396402782 0.037713578252632912 0 -0.18416549926151529 0.022669224655560441 0 -0.17919408738426101 0.017592611389363012 0 -0.18518118592807509 0.0154377595936586 0 -0.18416549926151529 0.022669224655560441 0 -0.17312315274812851 0.016956976572924821 0 -0.17919408738426101 0.017592611389363012 0 -0.1785064095432054 -0.0066611219507198768 0 -0.16872927738725291 0.0066655648670224509 0 -0.193034969706537 0.00064734206737222756 0 -0.16872927738725291 0.0066655648670224509 0 -0.193034969706537 0.00064734206737222756 0 -0.16872927738725291 0.0066655648670224509 0 -0.18518118592807509 0.0154377595936586 0 -0.193034969706537 0.00064734206737222756 0 -0.16872927738725291 0.0066655648670224509 0 -0.17919408738426101 0.017592611389363012 0 -0.18518118592807509 0.0154377595936586 0 -0.16872927738725291 0.0066655648670224509 0 -0.17312315274812851 0.016956976572924821 0 -0.17919408738426101 0.017592611389363012 0 -0.16907692184479731 0.071953328836937142 0 -0.1637260562540532 0.045028253166508762 0 -0.18167022033174851 0.056262687610226528 0 -0.15722519427174569 0.065058312825911402 0 -0.16907692184479731 0.071953328836937142 0 -0.1637260562540532 0.045028253166508762 0 -0.16907692184479731 0.071953328836937142 0 -0.1637260562540532 0.045028253166508762 0 -0.15837519066330749 0.018103177496080571 0 -0.1637260562540532 0.045028253166508762 0 -0.17088268452158301 0.030303691123205939 0 -0.1637260562540532 0.045028253166508762 0 -0.1815242396402782 0.037713578252632912 0 -0.1815242396402782 0.037713578252632912 0 -0.18167022033174851 0.056262687610226528 0 -0.1948999673891425 0.045815662425189529 0 -0.1637260562540532 0.045028253166508762 0 -0.1815242396402782 0.037713578252632912 0 -0.18167022033174851 0.056262687610226528 0 -0.18416549926151529 0.022669224655560441 0 -0.1815242396402782 0.037713578252632912 0 -0.19539241544158811 0.034915353149486399 0 -0.19598386328254799 0.058823167906541372 0 -0.20873259774339259 0.055173182954087172 0 -0.20069407892192309 0.071070863509647808 0 -0.18167022033174851 0.056262687610226528 0 -0.19598386328254799 0.058823167906541372 0 -0.1876556690991136 0.063313821709693935 0 -0.19598386328254799 0.058823167906541372 0 -0.1948999673891425 0.045815662425189529 0 -0.20873259774339259 0.055173182954087172 0 -0.18167022033174851 0.056262687610226528 0 -0.19598386328254799 0.058823167906541372 0 -0.1948999673891425 0.045815662425189529 0 -0.1815242396402782 0.037713578252632912 0 -0.1948999673891425 0.045815662425189529 0 -0.19539241544158811 0.034915353149486399 0 -0.1948999673891425 0.045815662425189529 0 -0.19539241544158811 0.034915353149486399 0 -0.20641656305728129 0.041143028599009299 0 -0.20641656305728129 0.041143028599009299 0 -0.20995580785972329 0.027235271815039791 0 -0.22080882119384479 0.043900986742667819 0 -0.19539241544158811 0.034915353149486399 0 -0.20641656305728129 0.041143028599009299 0 -0.20995580785972329 0.027235271815039791 0 -0.20641656305728129 0.041143028599009299 0 -0.20873259774339259 0.055173182954087172 0 -0.22080882119384479 0.043900986742667819 0 -0.20873259774339259 0.055173182954087172 0 -0.2267202713125637 0.058975611642501508 0 -0.2176358721649875 0.072186860311035453 0 -0.1948999673891425 0.045815662425189529 0 -0.20641656305728129 0.041143028599009299 0 -0.20873259774339259 0.055173182954087172 0 -0.20993853639106591 -0.0035380738047605968 0 -0.2009137908539024 0.01431144198083124 0 -0.193034969706537 0.00064734206737222756 0 -0.18518118592807509 0.0154377595936586 0 -0.2009137908539024 0.01431144198083124 0 -0.193034969706537 0.00064734206737222756 0 -0.18518118592807509 0.0154377595936586 0 -0.193034969706537 0.00064734206737222756 0 -0.18416549926151529 0.022669224655560441 0 -0.20995580785972329 0.027235271815039791 0 -0.18416549926151529 0.022669224655560441 0 -0.18518118592807509 0.0154377595936586 0 -0.2009137908539024 0.01431144198083124 0 -0.18416549926151529 0.022669224655560441 0 -0.2009137908539024 0.01431144198083124 0 -0.20995580785972329 0.027235271815039791 0 -0.18416549926151529 0.022669224655560441 0 -0.19539241544158811 0.034915353149486399 0 -0.20995580785972329 0.027235271815039791 0 -0.2009137908539024 0.01431144198083124 0 -0.20995580785972329 0.027235271815039791 0 -0.21568563774484731 0.0082874278720449449 0 -0.20993853639106591 -0.0035380738047605968 0 -0.2009137908539024 0.01431144198083124 0 -0.21568563774484731 0.0082874278720449449 0 -0.22684210307559549 -0.0077234896768903086 0 -0.21568563774484731 0.0082874278720449449 0 -0.23077795054394901 0.01115198904600462 0 -0.22684210307559549 -0.0077234896768903086 0 -0.23077795054394901 0.01115198904600462 0 -0.20995580785972329 0.027235271815039791 0 -0.21568563774484731 0.0082874278720449449 0 -0.23077795054394901 0.01115198904600462 0 -0.20995580785972329 0.027235271815039791 0 -0.2357461164579312 0.03180131897451912 0 -0.20995580785972329 0.027235271815039791 0 -0.23077795054394901 0.01115198904600462 0 -0.2357461164579312 0.03180131897451912 0 -0.23077795054394901 0.01115198904600462 0 -0.24854849079604721 0.020569936005881421 0 -0.2357461164579312 0.03180131897451912 0 -0.26153642505613889 0.036367366133998442 0 -0.24854849079604721 0.020569936005881421 0 -0.2357461164579312 0.03180131897451912 0 -0.23077795054394901 0.01115198904600462 0 -0.24854849079604721 0.020569936005881421 0 -0.24598119983726671 0.0037338506766126851 0 -0.22684210307559549 -0.0077234896768903086 0 -0.23077795054394901 0.01115198904600462 0 -0.24598119983726671 0.0037338506766126851 0 -0.20873259774339259 0.055173182954087172 0 -0.2267202713125637 0.058975611642501508 0 -0.22080882119384479 0.043900986742667819 0 -0.2267202713125637 0.058975611642501508 0 -0.22080882119384479 0.043900986742667819 0 -0.239388393447095 0.04766651035075449 0 -0.22080882119384479 0.043900986742667819 0 -0.2357461164579312 0.03180131897451912 0 -0.239388393447095 0.04766651035075449 0 -0.20995580785972329 0.027235271815039791 0 -0.22080882119384479 0.043900986742667819 0 -0.2357461164579312 0.03180131897451912 0 -0.26153642505613889 0.036367366133998442 0 -0.2357461164579312 0.03180131897451912 0 -0.26153642505613889 0.036367366133998442 0 -0.2357461164579312 0.03180131897451912 0 -0.239388393447095 0.04766651035075449 0 -0.25116276906762952 0.054241108780248931 0 -0.239388393447095 0.04766651035075449 0 -0.24035595759446179 0.060712669830591162 0 -0.2267202713125637 0.058975611642501508 0 -0.239388393447095 0.04766651035075449 0 -0.24035595759446179 0.060712669830591162 0 -0.25116276906762952 0.054241108780248931 0 -0.24035595759446179 0.060712669830591162 0 -0.24829977196364941 0.065213336215906109 0 -0.2267202713125637 0.058975611642501508 0 -0.24035595759446179 0.060712669830591162 0 -0.23791909572611269 0.075142721002645518 0 -0.24035595759446179 0.060712669830591162 0 -0.24829977196364941 0.065213336215906109 0 -0.23791909572611269 0.075142721002645518 0 -0.25064083865024739 0.073628726666345984 0 -0.23791909572611269 0.075142721002645518 0 -0.24857020570659841 0.081659589420377987 0 -0.25064083865024739 0.073628726666345984 0 -0.24829977196364941 0.065213336215906109 0 -0.23791909572611269 0.075142721002645518 0 -0.23791909572611269 0.075142721002645518 0 -0.2427234934652894 0.090762762990284518 0 -0.22646138453880821 0.085461994072224837 0 -0.25413031243694739 0.089521027236778197 0 -0.2427234934652894 0.090762762990284518 0 -0.24857020570659841 0.081659589420377987 0 -0.23791909572611269 0.075142721002645518 0 -0.2427234934652894 0.090762762990284518 0 -0.24857020570659841 0.081659589420377987 0 -0.2267202713125637 0.058975611642501508 0 -0.23791909572611269 0.075142721002645518 0 -0.2176358721649875 0.072186860311035453 0 -0.23791909572611269 0.075142721002645518 0 -0.22646138453880821 0.085461994072224837 0 -0.2176358721649875 0.072186860311035453 0 -0.20873259774339259 0.055173182954087172 0 -0.2176358721649875 0.072186860311035453 0 -0.20069407892192309 0.071070863509647808 0 -0.2176358721649875 0.072186860311035453 0 -0.20525373999263671 0.08640341449760941 0 -0.20069407892192309 0.071070863509647808 0 -0.22646138453880821 0.085461994072224837 0 -0.2176358721649875 0.072186860311035453 0 -0.20525373999263671 0.08640341449760941 0 -0.22646138453880821 0.085461994072224837 0 -0.20525373999263671 0.08640341449760941 0 -0.2161514522581473 0.1006972439961434 0 -0.18444466814129201 0.081023499242751457 0 -0.20525373999263671 0.08640341449760941 0 -0.20069407892192309 0.071070863509647808 0 -0.18444466814129201 0.081023499242751457 0 -0.20525373999263671 0.08640341449760941 0 -0.19937405773042491 0.1071019237599893 0 -0.17832815471062741 0.080370175701138483 0 -0.20069407892192309 0.071070863509647808 0 -0.18444466814129201 0.081023499242751457 0 -0.17832815471062741 0.080370175701138483 0 -0.20069407892192309 0.071070863509647808 0 -0.1809864334298861 0.069780609401686525 0 -0.1876556690991136 0.063313821709693935 0 -0.20069407892192309 0.071070863509647808 0 -0.19598386328254799 0.058823167906541372 0 -0.1876556690991136 0.063313821709693935 0 -0.20069407892192309 0.071070863509647808 0 -0.19937405773042491 0.1071019237599893 0 -0.2161514522581473 0.1006972439961434 0 -0.21430344731955769 0.133180348277227 0 -0.19937405773042491 0.1071019237599893 0 -0.19727411993202021 0.1275714443648302 0 -0.1795193575176991 0.1294692331289829 0 -0.18444466814129201 0.081023499242751457 0 -0.19937405773042491 0.1071019237599893 0 -0.20525373999263671 0.08640341449760941 0 -0.19937405773042491 0.1071019237599893 0 -0.2161514522581473 0.1006972439961434 0 -0.19937405773042491 0.1071019237599893 0 -0.21430344731955769 0.133180348277227 0 -0.19937405773042491 0.1071019237599893 0 -0.19727411993202021 0.1275714443648302 0 -0.21430344731955769 0.133180348277227 0 -0.2161514522581473 0.1006972439961434 0 -0.23231730930006211 0.10853516007106349 0 -0.21430344731955769 0.133180348277227 0 -0.2427234934652894 0.090762762990284518 0 -0.22646138453880821 0.085461994072224837 0 -0.23231730930006211 0.10853516007106349 0 -0.22646138453880821 0.085461994072224837 0 -0.2161514522581473 0.1006972439961434 0 -0.23231730930006211 0.10853516007106349 0 -0.25610310449345419 0.1041046972302731 0 -0.2427234934652894 0.090762762990284518 0 -0.23231730930006211 0.10853516007106349 0 -0.25610310449345419 0.1041046972302731 0 -0.23231730930006211 0.10853516007106349 0 -0.2495823492922267 0.12121763785839371 0 -0.23231730930006211 0.10853516007106349 0 -0.2495823492922267 0.12121763785839371 0 -0.23849568892714909 0.13696143350773771 0 -0.23231730930006211 0.10853516007106349 0 -0.23849568892714909 0.13696143350773771 0 -0.25477231595188199 0.13792181725732239 0 -0.2495823492922267 0.12121763785839371 0 -0.23849568892714909 0.13696143350773771 0 -0.23231730930006211 0.10853516007106349 0 -0.23849568892714909 0.13696143350773771 0 -0.21430344731955769 0.133180348277227 0 -0.23849568892714909 0.13696143350773771 0 -0.22923283690869051 0.15925877279446471 0 -0.21430344731955769 0.133180348277227 0 -0.22923283690869051 0.15925877279446471 0 -0.21430344731955769 0.133180348277227 0 -0.2543915534089356 0.15018751405662761 0 -0.23849568892714909 0.13696143350773771 0 -0.24467406855423091 0.1653877069444131 0 -0.23849568892714909 0.13696143350773771 0 -0.24467406855423091 0.1653877069444131 0 -0.22923283690869051 0.15925877279446471 0 -0.2543915534089356 0.15018751405662761 0 -0.25477231595188199 0.13792181725732239 0 -0.23849568892714909 0.13696143350773771 0 -0.23849568892714909 0.13696143350773771 0 -0.24467406855423091 0.1653877069444131 0 -0.24467406855423091 0.1653877069444131 0 -0.2350219134637796 0.18103954803765679 0 -0.22379977898383499 0.16989282922580509 0 -0.24467406855423091 0.1653877069444131 0 -0.24947341468037071 0.1874691479585941 0 -0.2350219134637796 0.18103954803765679 0 -0.24467406855423091 0.1653877069444131 0 -0.24947341468037071 0.1874691479585941 0 -0.2350219134637796 0.18103954803765679 0 -0.22004124654446131 0.18611549732905991 0 -0.22379977898383499 0.16989282922580509 0 -0.24467406855423091 0.1653877069444131 0 -0.22379977898383499 0.16989282922580509 0 -0.22923283690869051 0.15925877279446471 0 -0.22379977898383499 0.16989282922580509 0 -0.22923283690869051 0.15925877279446471 0 -0.20989634202023699 0.1560844752241346 0 -0.24467406855423091 0.1653877069444131 0 -0.22379977898383499 0.16989282922580509 0 -0.22379977898383499 0.16989282922580509 0 -0.20292548941343971 0.17439795150720031 0 -0.20989634202023699 0.1560844752241346 0 -0.20292548941343971 0.17439795150720031 0 -0.20989634202023699 0.1560844752241346 0 -0.17833905569944569 0.15756593750779829 0 -0.22379977898383499 0.16989282922580509 0 -0.20292548941343971 0.17439795150720031 0 -0.22004124654446131 0.18611549732905991 0 -0.22379977898383499 0.16989282922580509 0 -0.20292548941343971 0.17439795150720031 0 -0.22004124654446131 0.18611549732905991 0 -0.20292548941343971 0.17439795150720031 0 -0.22004124654446131 0.18611549732905991 0 -0.20292548941343971 0.17439795150720031 0 -0.20568385543668641 0.19260324117033031 0 -0.20292548941343971 0.17439795150720031 0 -0.1757122088887666 0.1802711648698879 0 -0.20292548941343971 0.17439795150720031 0 -0.1897130520823497 0.19444680225630501 0 -0.1757122088887666 0.1802711648698879 0 -0.20292548941343971 0.17439795150720031 0 -0.20568385543668641 0.19260324117033031 0 -0.1897130520823497 0.19444680225630501 0 -0.20292548941343971 0.17439795150720031 0 -0.17833905569944569 0.15756593750779829 0 -0.19589961716039911 0.1405342722931214 0 -0.20989634202023699 0.1560844752241346 0 -0.17833905569944569 0.15756593750779829 0 -0.19727411993202021 0.1275714443648302 0 -0.19589961716039911 0.1405342722931214 0 -0.1795193575176991 0.1294692331289829 0 -0.19727411993202021 0.1275714443648302 0 -0.19589961716039911 0.1405342722931214 0 -0.21430344731955769 0.133180348277227 0 -0.22923283690869051 0.15925877279446471 0 -0.21430344731955769 0.133180348277227 0 -0.20989634202023699 0.1560844752241346 0 -0.19589961716039911 0.1405342722931214 0 -0.21430344731955769 0.133180348277227 0 -0.20989634202023699 0.1560844752241346 0 -0.23288038931281729 0.23888496135878451 0 -0.21994142138302111 0.22426230620998819 0 -0.21218175950055909 0.24952722652004439 0 -0.22667039518801041 0.25355429459537898 0 -0.23288038931281729 0.23888496135878451 0 -0.21218175950055909 0.24952722652004439 0 -0.2416444700809012 0.25186566196455601 0 -0.22667039518801041 0.25355429459537898 0 -0.23288038931281729 0.23888496135878451 0 -0.2416444700809012 0.25186566196455601 0 -0.23288038931281729 0.23888496135878451 0 -0.2470081454867771 0.2422065880623451 0 -0.25693865295534157 0.25278860643768353 0 -0.2416444700809012 0.25186566196455601 0 -0.2470081454867771 0.2422065880623451 0 -0.25109603964961891 0.234366577265785 0 -0.2470081454867771 0.2422065880623451 0 -0.24424918889796191 0.23342051569475999 0 -0.23288038931281729 0.23888496135878451 0 -0.2470081454867771 0.2422065880623451 0 -0.24424918889796191 0.23342051569475999 0 -0.23288038931281729 0.23888496135878451 0 -0.24424918889796191 0.23342051569475999 0 -0.2396805993576108 0.22455316273993289 0 -0.24424918889796191 0.23342051569475999 0 -0.249817319625419 0.2274340479663062 0 -0.2396805993576108 0.22455316273993289 0 -0.25109603964961891 0.234366577265785 0 -0.24424918889796191 0.23342051569475999 0 -0.249817319625419 0.2274340479663062 0 -0.249817319625419 0.2274340479663062 0 -0.24904636230289101 0.22050689045355901 0 -0.2396805993576108 0.22455316273993289 0 -0.24904636230289101 0.22050689045355901 0 -0.2396805993576108 0.22455316273993289 0 -0.24333230173327219 0.21221501244476959 0 -0.2396805993576108 0.22455316273993289 0 -0.21994142138302111 0.22426230620998819 0 -0.23304733008138001 0.21339205942673259 0 -0.23288038931281729 0.23888496135878451 0 -0.2396805993576108 0.22455316273993289 0 -0.21994142138302111 0.22426230620998819 0 -0.21994142138302111 0.22426230620998819 0 -0.22770108326548311 0.19899738589993199 0 -0.210353022999335 0.20567537760669019 0 -0.21994142138302111 0.22426230620998819 0 -0.23304733008138001 0.21339205942673259 0 -0.22770108326548311 0.19899738589993199 0 -0.21994142138302111 0.22426230620998819 0 -0.22770108326548311 0.19899738589993199 0 -0.23304733008138001 0.21339205942673259 0 -0.2346933251094325 0.20523388649383931 0 -0.22770108326548311 0.19899738589993199 0 -0.25427276080650663 0.20955058897277601 0 -0.23715700367548431 0.1978330431509176 0 -0.2396805993576108 0.22455316273993289 0 -0.23304733008138001 0.21339205942673259 0 -0.24333230173327219 0.21221501244476959 0 -0.25427276080650663 0.20955058897277601 0 -0.24333230173327219 0.21221501244476959 0 -0.23715700367548431 0.1978330431509176 0 -0.25561524088587501 0.21572724177218369 0 -0.24904636230289101 0.22050689045355901 0 -0.24333230173327219 0.21221501244476959 0 -0.24333230173327219 0.21221501244476959 0 -0.2346933251094325 0.20523388649383931 0 -0.23715700367548431 0.1978330431509176 0 -0.23304733008138001 0.21339205942673259 0 -0.24333230173327219 0.21221501244476959 0 -0.2346933251094325 0.20523388649383931 0 -0.25427276080650663 0.20955058897277601 0 -0.24947341468037071 0.1874691479585941 0 -0.23715700367548431 0.1978330431509176 0 -0.24947341468037071 0.1874691479585941 0 -0.2350219134637796 0.18103954803765679 0 -0.23715700367548431 0.1978330431509176 0 -0.22004124654446131 0.18611549732905991 0 -0.23715700367548431 0.1978330431509176 0 -0.22004124654446131 0.18611549732905991 0 -0.23715700367548431 0.1978330431509176 0 -0.22770108326548311 0.19899738589993199 0 -0.2350219134637796 0.18103954803765679 0 -0.22004124654446131 0.18611549732905991 0 -0.23715700367548431 0.1978330431509176 0 -0.2346933251094325 0.20523388649383931 0 -0.23715700367548431 0.1978330431509176 0 -0.22770108326548311 0.19899738589993199 0 -0.22004124654446131 0.18611549732905991 0 -0.22770108326548311 0.19899738589993199 0 -0.21594480206149139 0.19584787550150309 0 -0.22770108326548311 0.19899738589993199 0 -0.21594480206149139 0.19584787550150309 0 -0.210353022999335 0.20567537760669019 0 -0.22004124654446131 0.18611549732905991 0 -0.21594480206149139 0.19584787550150309 0 -0.20568385543668641 0.19260324117033031 0 -0.21594480206149139 0.19584787550150309 0 -0.20568385543668641 0.19260324117033031 0 -0.210353022999335 0.20567537760669019 0 -0.20568385543668641 0.19260324117033031 0 -0.19800517532583911 0.2033181044808495 0 -0.210353022999335 0.20567537760669019 0 -0.20568385543668641 0.19260324117033031 0 -0.1897130520823497 0.19444680225630501 0 -0.19800517532583911 0.2033181044808495 0 -0.1897130520823497 0.19444680225630501 0 -0.19800517532583911 0.2033181044808495 0 -0.1863200837324982 0.20555600776477401 0 -0.19800517532583911 0.2033181044808495 0 -0.19795586237832599 0.21830909360614789 0 -0.210353022999335 0.20567537760669019 0 -0.19800517532583911 0.2033181044808495 0 -0.19795586237832599 0.21830909360614789 0 -0.1863200837324982 0.20555600776477401 0 -0.19795586237832599 0.21830909360614789 0 -0.18240126852579899 0.21930684119835961 0 -0.1863200837324982 0.20555600776477401 0 -0.21994142138302111 0.22426230620998819 0 -0.19795586237832599 0.21830909360614789 0 -0.210353022999335 0.20567537760669019 0 -0.21994142138302111 0.22426230620998819 0 -0.19795586237832599 0.21830909360614789 0 -0.20314208847108339 0.23556135501649109 0 -0.19795586237832599 0.21830909360614789 0 -0.18651378479530609 0.23505073182760211 0 -0.18240126852579899 0.21930684119835961 0 -0.19795586237832599 0.21830909360614789 0 -0.20314208847108339 0.23556135501649109 0 -0.18651378479530609 0.23505073182760211 0 -0.1929026130837673 0.25762258695206858 0 -0.20314208847108339 0.23556135501649109 0 -0.18651378479530609 0.23505073182760211 0 -0.1929026130837673 0.25762258695206858 0 -0.20314208847108339 0.23556135501649109 0 -0.21218175950055909 0.24952722652004439 0 -0.21994142138302111 0.22426230620998819 0 -0.21218175950055909 0.24952722652004439 0 -0.21994142138302111 0.22426230620998819 0 -0.20314208847108339 0.23556135501649109 0 -0.21218175950055909 0.24952722652004439 0 -0.16582228118094081 0.26466105519565358 0 -0.18651378479530609 0.23505073182760211 0 -0.1608218935138386 0.23306973899941771 0 -0.16582228118094081 0.26466105519565358 0 -0.14534546737678511 0.25129379472131641 0 -0.1608218935138386 0.23306973899941771 0 -0.18651378479530609 0.23505073182760211 0 -0.1608218935138386 0.23306973899941771 0 -0.18651378479530609 0.23505073182760211 0 -0.18240126852579899 0.21930684119835961 0 -0.1608218935138386 0.23306973899941771 0 -0.1608218935138386 0.23306973899941771 0 -0.16716432822862029 0.21469463307327219 0 -0.14537567171977789 0.21373021027012479 0 -0.18240126852579899 0.21930684119835961 0 -0.1608218935138386 0.23306973899941771 0 -0.16716432822862029 0.21469463307327219 0 -0.16716432822862029 0.21469463307327219 0 -0.15728284033457929 0.19872471446884221 0 -0.14537567171977789 0.21373021027012479 0 -0.16716432822862029 0.21469463307327219 0 -0.1863200837324982 0.20555600776477401 0 -0.15728284033457929 0.19872471446884221 0 -0.18240126852579899 0.21930684119835961 0 -0.16716432822862029 0.21469463307327219 0 -0.1863200837324982 0.20555600776477401 0 -0.1863200837324982 0.20555600776477401 0 -0.1747365466553682 0.1940095109997643 0 -0.15728284033457929 0.19872471446884221 0 -0.1897130520823497 0.19444680225630501 0 -0.1863200837324982 0.20555600776477401 0 -0.1747365466553682 0.1940095109997643 0 -0.1897130520823497 0.19444680225630501 0 -0.1747365466553682 0.1940095109997643 0 -0.1757122088887666 0.1802711648698879 0 -0.1747365466553682 0.1940095109997643 0 -0.16534449221108169 0.19019064904669619 0 -0.1757122088887666 0.1802711648698879 0 -0.1863200837324982 0.20555600776477401 0 -0.15728284033457929 0.19872471446884221 0 -0.1747365466553682 0.1940095109997643 0 -0.16534449221108169 0.19019064904669619 0 -0.15728284033457929 0.19872471446884221 0 -0.16534449221108169 0.19019064904669619 0 -0.15728284033457929 0.19872471446884221 0 -0.15629575781976141 0.184461654133797 0 -0.15728284033457929 0.19872471446884221 0 -0.12824559693666041 0.19189342117291039 0 -0.15629575781976141 0.184461654133797 0 -0.15728284033457929 0.19872471446884221 0 -0.12824559693666041 0.19189342117291039 0 -0.14537567171977789 0.21373021027012479 0 -0.15728284033457929 0.19872471446884221 0 -0.12824559693666041 0.19189342117291039 0 -0.12824559693666041 0.19189342117291039 0 -0.14537567171977789 0.21373021027012479 0 -0.1242544958201173 0.21504107598638081 0 -0.1608218935138386 0.23306973899941771 0 -0.14537567171977789 0.21373021027012479 0 -0.13513000223237101 0.23108874617123329 0 -0.1608218935138386 0.23306973899941771 0 -0.13513000223237101 0.23108874617123329 0 -0.14537567171977789 0.21373021027012479 0 -0.13513000223237101 0.23108874617123329 0 -0.1242544958201173 0.21504107598638081 0 -0.14534546737678511 0.25129379472131641 0 -0.13513000223237101 0.23108874617123329 0 -0.12470300375741469 0.2457033751303839 0 -0.14534546737678511 0.25129379472131641 0 -0.1608218935138386 0.23306973899941771 0 -0.13513000223237101 0.23108874617123329 0 -0.17833905569944569 0.15756593750779829 0 -0.1561619761378806 0.16047685630827471 0 -0.153752621985453 0.14073392350839439 0 -0.1795193575176991 0.1294692331289829 0 -0.17833905569944569 0.15756593750779829 0 -0.153752621985453 0.14073392350839439 0 -0.17833905569944569 0.15756593750779829 0 -0.153752621985453 0.14073392350839439 0 -0.16393492635195239 0.1245978723337525 0 -0.15311233888185891 0.1152965378839053 0 -0.153752621985453 0.14073392350839439 0 -0.16393492635195239 0.1245978723337525 0 -0.1795193575176991 0.1294692331289829 0 -0.153752621985453 0.14073392350839439 0 -0.19589961716039911 0.1405342722931214 0 -0.1795193575176991 0.1294692331289829 0 -0.17833905569944569 0.15756593750779829 0 -0.20292548941343971 0.17439795150720031 0 -0.17833905569944569 0.15756593750779829 0 -0.1757122088887666 0.1802711648698879 0 -0.1897130520823497 0.19444680225630501 0 -0.1757122088887666 0.1802711648698879 0 -0.16534449221108169 0.19019064904669619 0 -0.1757122088887666 0.1802711648698879 0 -0.15629575781976141 0.184461654133797 0 -0.1757122088887666 0.1802711648698879 0 -0.15629575781976141 0.184461654133797 0 -0.1757122088887666 0.1802711648698879 0 -0.15629575781976141 0.184461654133797 0 -0.1561619761378806 0.16047685630827471 0 -0.17833905569944569 0.15756593750779829 0 -0.1757122088887666 0.1802711648698879 0 -0.1561619761378806 0.16047685630827471 0 -0.1757122088887666 0.1802711648698879 0 -0.1561619761378806 0.16047685630827471 0 -0.1561619761378806 0.16047685630827471 0 -0.14126926821389521 0.17232478353634881 0 -0.1371080151487378 0.15864895140394189 0 -0.15629575781976141 0.184461654133797 0 -0.1561619761378806 0.16047685630827471 0 -0.14126926821389521 0.17232478353634881 0 -0.12824559693666041 0.19189342117291039 0 -0.15629575781976141 0.184461654133797 0 -0.14126926821389521 0.17232478353634881 0 -0.12824559693666041 0.19189342117291039 0 -0.14126926821389521 0.17232478353634881 0 -0.1248941403316576 0.1686438139500778 0 -0.14126926821389521 0.17232478353634881 0 -0.1371080151487378 0.15864895140394189 0 -0.1248941403316576 0.1686438139500778 0 -0.1371080151487378 0.15864895140394189 0 -0.1239269324459726 0.1539154783358255 0 -0.1248941403316576 0.1686438139500778 0 -0.1371080151487378 0.15864895140394189 0 -0.13661174338699569 0.1406825477466605 0 -0.1239269324459726 0.1539154783358255 0 -0.1561619761378806 0.16047685630827471 0 -0.13661174338699569 0.1406825477466605 0 -0.1561619761378806 0.16047685630827471 0 -0.13661174338699569 0.1406825477466605 0 -0.153752621985453 0.14073392350839439 0 -0.1561619761378806 0.16047685630827471 0 -0.1371080151487378 0.15864895140394189 0 -0.13661174338699569 0.1406825477466605 0 -0.12916618827146031 0.12390190950899049 0 -0.153752621985453 0.14073392350839439 0 -0.13930859898956699 0.1145050369687237 0 -0.12916618827146031 0.12390190950899049 0 -0.153752621985453 0.14073392350839439 0 -0.13661174338699569 0.1406825477466605 0 -0.11706151063611089 0.1208882391850464 0 -0.12916618827146031 0.12390190950899049 0 -0.13661174338699569 0.1406825477466605 0 -0.11706151063611089 0.1208882391850464 0 -0.12916618827146031 0.12390190950899049 0 -0.13661174338699569 0.1406825477466605 0 -0.153752621985453 0.14073392350839439 0 -0.13661174338699569 0.1406825477466605 0 -0.11473911200363 0.13153944404780621 0 -0.1132109842275667 0.1430328284895945 0 -0.13661174338699569 0.1406825477466605 0 -0.11473911200363 0.13153944404780621 0 -0.11706151063611089 0.1208882391850464 0 -0.11473911200363 0.13153944404780621 0 -0.1039338124667491 0.13009472872812991 0 -0.1132109842275667 0.1430328284895945 0 -0.11473911200363 0.13153944404780621 0 -0.1039338124667491 0.13009472872812991 0 -0.10601879130899509 0.12208205668825579 0 -0.1039338124667491 0.13009472872812991 0 -0.093398168270057425 0.14218175111966569 0 -0.093946486761182085 0.1175508364221631 0 -0.1039338124667491 0.13009472872812991 0 -0.1132109842275667 0.1430328284895945 0 -0.093398168270057425 0.14218175111966569 0 -0.1078097791349048 0.15856925008885259 0 -0.089544080768145809 0.16137822361845131 0 -0.093398168270057425 0.14218175111966569 0 -0.1132109842275667 0.1430328284895945 0 -0.1078097791349048 0.15856925008885259 0 -0.093398168270057425 0.14218175111966569 0 -0.13661174338699569 0.1406825477466605 0 -0.1132109842275667 0.1430328284895945 0 -0.1239269324459726 0.1539154783358255 0 -0.1132109842275667 0.1430328284895945 0 -0.1239269324459726 0.1539154783358255 0 -0.1078097791349048 0.15856925008885259 0 -0.1248941403316576 0.1686438139500778 0 -0.099208353538741523 0.18506212787697859 0 -0.1078097791349048 0.15856925008885259 0 -0.1239269324459726 0.1539154783358255 0 -0.1248941403316576 0.1686438139500778 0 -0.1078097791349048 0.15856925008885259 0 -0.12824559693666041 0.19189342117291039 0 -0.1248941403316576 0.1686438139500778 0 -0.099208353538741523 0.18506212787697859 0 -0.099208353538741523 0.18506212787697859 0 -0.1078097791349048 0.15856925008885259 0 -0.089544080768145809 0.16137822361845131 0 -0.089544080768145809 0.16137822361845131 0 -0.070171110140822543 0.1782308345810468 0 -0.074669823138777097 0.15727584041375819 0 -0.099208353538741523 0.18506212787697859 0 -0.089544080768145809 0.16137822361845131 0 -0.070171110140822543 0.1782308345810468 0 -0.099208353538741523 0.18506212787697859 0 -0.070171110140822543 0.1782308345810468 0 -0.070171110140822543 0.1782308345810468 0 -0.074669823138777097 0.15727584041375819 0 -0.057722578482997257 0.16273086802879619 0 -0.074669823138777097 0.15727584041375819 0 -0.066369438716585821 0.14892706699039879 0 -0.057722578482997257 0.16273086802879619 0 -0.074669823138777097 0.15727584041375819 0 -0.066369438716585821 0.14892706699039879 0 -0.074733199104357148 0.14603812585323231 0 -0.074669823138777097 0.15727584041375819 0 -0.074733199104357148 0.14603812585323231 0 -0.082756465015383474 0.1492386270883771 0 -0.074733199104357148 0.14603812585323231 0 -0.067315024607703278 0.13662092079142449 0 -0.081437053795579945 0.1393191944367777 0 -0.066369438716585821 0.14892706699039879 0 -0.074733199104357148 0.14603812585323231 0 -0.067315024607703278 0.13662092079142449 0 -0.066369438716585821 0.14892706699039879 0 -0.067315024607703278 0.13662092079142449 0 -0.054361576129613079 0.15178129246158931 0 -0.067315024607703278 0.13662092079142449 0 -0.088852304720190942 0.12644129241805541 0 -0.067315024607703278 0.13662092079142449 0 -0.088852304720190942 0.12644129241805541 0 -0.075786521408142987 0.12443322189858901 0 -0.067315024607703278 0.13662092079142449 0 -0.062016764747578973 0.12884034001808189 0 -0.075786521408142987 0.12443322189858901 0 -0.088852304720190942 0.12644129241805541 0 -0.093398168270057425 0.14218175111966569 0 -0.093946486761182085 0.1175508364221631 0 -0.067315024607703278 0.13662092079142449 0 -0.081437053795579945 0.1393191944367777 0 -0.088852304720190942 0.12644129241805541 0 -0.093398168270057425 0.14218175111966569 0 -0.093946486761182085 0.1175508364221631 0 -0.081437053795579945 0.1393191944367777 0 -0.088852304720190942 0.12644129241805541 0 -0.093398168270057425 0.14218175111966569 0 -0.089544080768145809 0.16137822361845131 0 -0.093398168270057425 0.14218175111966569 0 -0.082756465015383474 0.1492386270883771 0 -0.089544080768145809 0.16137822361845131 0 -0.074669823138777097 0.15727584041375819 0 -0.082756465015383474 0.1492386270883771 0 -0.074733199104357148 0.14603812585323231 0 -0.081437053795579945 0.1393191944367777 0 -0.082756465015383474 0.1492386270883771 0 -0.081437053795579945 0.1393191944367777 0 -0.093398168270057425 0.14218175111966569 0 -0.082756465015383474 0.1492386270883771 0 -0.11076524853809321 0.25238606884059173 0 -0.1094381109509034 0.22910775334304889 0 -0.091345724210048884 0.23566487628332011 0 -0.11076524853809321 0.25238606884059173 0 -0.092391857727521592 0.25884509119311472 0 -0.091345724210048884 0.23566487628332011 0 -0.13513000223237101 0.23108874617123329 0 -0.12470300375741469 0.2457033751303839 0 -0.1094381109509034 0.22910775334304889 0 -0.11076524853809321 0.25238606884059173 0 -0.12470300375741469 0.2457033751303839 0 -0.1094381109509034 0.22910775334304889 0 -0.13513000223237101 0.23108874617123329 0 -0.1094381109509034 0.22910775334304889 0 -0.13513000223237101 0.23108874617123329 0 -0.1094381109509034 0.22910775334304889 0 -0.1242544958201173 0.21504107598638081 0 -0.1094381109509034 0.22910775334304889 0 -0.10308309726087379 0.20938524897458621 0 -0.091345724210048884 0.23566487628332011 0 -0.1094381109509034 0.22910775334304889 0 -0.10308309726087379 0.20938524897458621 0 -0.1242544958201173 0.21504107598638081 0 -0.12824559693666041 0.19189342117291039 0 -0.10308309726087379 0.20938524897458621 0 -0.1242544958201173 0.21504107598638081 0 -0.12824559693666041 0.19189342117291039 0 -0.099208353538741523 0.18506212787697859 0 -0.12824559693666041 0.19189342117291039 0 -0.099208353538741523 0.18506212787697859 0 -0.10308309726087379 0.20938524897458621 0 -0.099208353538741523 0.18506212787697859 0 -0.070171110140822543 0.1782308345810468 0 -0.078220861930521898 0.21057701145176541 0 -0.070171110140822543 0.1782308345810468 0 -0.078220861930521898 0.21057701145176541 0 -0.056949983849450658 0.19269083667038239 0 -0.099208353538741523 0.18506212787697859 0 -0.10308309726087379 0.20938524897458621 0 -0.078220861930521898 0.21057701145176541 0 -0.078220861930521898 0.21057701145176541 0 -0.056178602179823331 0.21732906463454121 0 -0.056949983849450658 0.19269083667038239 0 -0.10308309726087379 0.20938524897458621 0 -0.078220861930521898 0.21057701145176541 0 -0.091345724210048884 0.23566487628332011 0 -0.078220861930521898 0.21057701145176541 0 -0.069221313838413207 0.24642852661517459 0 -0.091345724210048884 0.23566487628332011 0 -0.078220861930521898 0.21057701145176541 0 -0.069221313838413207 0.24642852661517459 0 -0.056178602179823331 0.21732906463454121 0 -0.092391857727521592 0.25884509119311472 0 -0.069221313838413207 0.24642852661517459 0 -0.091345724210048884 0.23566487628332011 0 -0.033382390283993792 0.24359412621706661 0 -0.046050769949304807 0.23401196203723451 0 -0.025866468353912139 0.2289639569827632 0 -0.048126263350958612 0.25465777805589501 0 -0.033382390283993792 0.24359412621706661 0 -0.046050769949304807 0.23401196203723451 0 -0.048126263350958612 0.25465777805589501 0 -0.069221313838413207 0.24642852661517459 0 -0.046050769949304807 0.23401196203723451 0 -0.069221313838413207 0.24642852661517459 0 -0.046050769949304807 0.23401196203723451 0 -0.069221313838413207 0.24642852661517459 0 -0.046050769949304807 0.23401196203723451 0 -0.056178602179823331 0.21732906463454121 0 -0.046050769949304807 0.23401196203723451 0 -0.03692704292774221 0.2147422921961073 0 -0.025866468353912139 0.2289639569827632 0 -0.046050769949304807 0.23401196203723451 0 -0.03692704292774221 0.2147422921961073 0 -0.056178602179823331 0.21732906463454121 0 -0.03692704292774221 0.2147422921961073 0 -0.056178602179823331 0.21732906463454121 0 -0.044221089124866657 0.20193605474889509 0 -0.03692704292774221 0.2147422921961073 0 -0.044221089124866657 0.20193605474889509 0 -0.032331133115066808 0.19858524020914661 0 -0.056178602179823331 0.21732906463454121 0 -0.056949983849450658 0.19269083667038239 0 -0.044221089124866657 0.20193605474889509 0 -0.056949983849450658 0.19269083667038239 0 -0.040360849617421202 0.18777351164107661 0 -0.044221089124866657 0.20193605474889509 0 -0.040360849617421202 0.18777351164107661 0 -0.032331133115066808 0.19858524020914661 0 -0.026751027678188599 0.18229597604057349 0 -0.040360849617421202 0.18777351164107661 0 -0.044221089124866657 0.20193605474889509 0 -0.032331133115066808 0.19858524020914661 0 -0.016914194843479571 0.2076274745640635 0 -0.026751027678188599 0.18229597604057349 0 -0.032331133115066808 0.19858524020914661 0 -0.016914194843479571 0.2076274745640635 0 -0.026751027678188599 0.18229597604057349 0 -0.01405220631290922 0.19352016069679451 0 -0.016914194843479571 0.2076274745640635 0 -0.026751027678188599 0.18229597604057349 0 -0.01405220631290922 0.19352016069679451 0 -0.0012364494800765971 0.1960628175593882 0 -0.01891215499648707 0.1765136475382359 0 -0.01405220631290922 0.19352016069679451 0 -0.0012364494800765971 0.1960628175593882 0 -0.0064787008301582438 0.20475797647738719 0 -0.0012364494800765971 0.1960628175593882 0 -0.0064787008301582438 0.20475797647738719 0 0.003893562275735573 0.2064819102401671 0 -0.01405220631290922 0.19352016069679451 0 -0.0064787008301582438 0.20475797647738719 0 -0.016914194843479571 0.2076274745640635 0 -0.0045317147067566524 0.21522543551468479 0 -0.016914194843479571 0.2076274745640635 0 -0.0070773620087705444 0.23295897308755351 0 -0.0064787008301582438 0.20475797647738719 0 -0.0045317147067566524 0.21522543551468479 0 -0.016914194843479571 0.2076274745640635 0 -0.0064787008301582438 0.20475797647738719 0 -0.0045317147067566524 0.21522543551468479 0 0.003893562275735573 0.2064819102401671 0 -0.03692704292774221 0.2147422921961073 0 -0.016914194843479571 0.2076274745640635 0 -0.025866468353912139 0.2289639569827632 0 -0.03692704292774221 0.2147422921961073 0 -0.032331133115066808 0.19858524020914661 0 -0.016914194843479571 0.2076274745640635 0 -0.016914194843479571 0.2076274745640635 0 -0.025866468353912139 0.2289639569827632 0 -0.0070773620087705444 0.23295897308755351 0 -0.016914194843479571 0.2076274745640635 0 -0.0070773620087705444 0.23295897308755351 0 -0.0045317147067566524 0.21522543551468479 0 -0.0070773620087705444 0.23295897308755351 0 0.0038866256090455522 0.2239579318999283 0 -0.0070773620087705444 0.23295897308755351 0 0.001894876929373096 0.24743045501984201 0 0.0027594708259384838 0.25829047161104352 0 -0.0070773620087705444 0.23295897308755351 0 0.0027594708259384838 0.25829047161104352 0 -0.0087132352456033638 0.25173417187717928 0 -0.0070773620087705444 0.23295897308755351 0 -0.01778818590069102 0.2421293126167848 0 -0.0087132352456033638 0.25173417187717928 0 -0.0070773620087705444 0.23295897308755351 0 0.0027594708259384838 0.25829047161104352 0 -0.025866468353912139 0.2289639569827632 0 -0.0070773620087705444 0.23295897308755351 0 -0.01778818590069102 0.2421293126167848 0 -0.028053557715267439 0.25838243531431121 0 -0.033382390283993792 0.24359412621706661 0 -0.01778818590069102 0.2421293126167848 0 -0.033382390283993792 0.24359412621706661 0 -0.025866468353912139 0.2289639569827632 0 -0.01778818590069102 0.2421293126167848 0 -0.044416936009294992 0.14744373737619401 0 -0.030319635528424791 0.14770209815471691 0 -0.021396469969749188 0.1374028974533886 0 -0.044416936009294992 0.14744373737619401 0 -0.030319635528424791 0.14770209815471691 0 -0.027639103276038759 0.15537380566908321 0 -0.044416936009294992 0.14744373737619401 0 -0.038116788675066252 0.15302723042411279 0 -0.027639103276038759 0.15537380566908321 0 -0.044416936009294992 0.14744373737619401 0 -0.041458398192443832 0.13942314763129199 0 -0.021396469969749188 0.1374028974533886 0 -0.044416936009294992 0.14744373737619401 0 -0.027639103276038759 0.15537380566908321 0 -0.044416936009294992 0.14744373737619401 0 -0.021396469969749188 0.1374028974533886 0 -0.044416936009294992 0.14744373737619401 0 -0.036587860512897558 0.15696447751708351 0 -0.044416936009294992 0.14744373737619401 0 -0.047012455662473793 0.15786975055381819 0 -0.036587860512897558 0.15696447751708351 0 -0.044416936009294992 0.14744373737619401 0 -0.038116788675066252 0.15302723042411279 0 -0.036587860512897558 0.15696447751708351 0 -0.038116788675066252 0.15302723042411279 0 -0.036587860512897558 0.15696447751708351 0 -0.027639103276038759 0.15537380566908321 0 -0.038116788675066252 0.15302723042411279 0 -0.036587860512897558 0.15696447751708351 0 -0.037500573576258918 0.13069979942664511 0 -0.041458398192443832 0.13942314763129199 0 -0.021396469969749188 0.1374028974533886 0 -0.037500573576258918 0.13069979942664511 0 -0.028643554108799551 0.12806760582925611 0 -0.034668926388748328 0.1237436995229996 0 -0.037500573576258918 0.13069979942664511 0 -0.047589673205635397 0.1324549890601831 0 -0.046884900963607742 0.11986348336078891 0 -0.037500573576258918 0.13069979942664511 0 -0.041458398192443832 0.13942314763129199 0 -0.047589673205635397 0.1324549890601831 0 -0.044416936009294992 0.14744373737619401 0 -0.041458398192443832 0.13942314763129199 0 -0.047589673205635397 0.1324549890601831 0 -0.067315024607703278 0.13662092079142449 0 -0.044416936009294992 0.14744373737619401 0 -0.062016764747578973 0.12884034001808189 0 -0.044416936009294992 0.14744373737619401 0 -0.062016764747578973 0.12884034001808189 0 -0.044416936009294992 0.14744373737619401 0 -0.047589673205635397 0.1324549890601831 0 -0.062016764747578973 0.12884034001808189 0 -0.047589673205635397 0.1324549890601831 0 -0.062016764747578973 0.12884034001808189 0 -0.046884900963607742 0.11986348336078891 0 -0.067315024607703278 0.13662092079142449 0 -0.044416936009294992 0.14744373737619401 0 -0.054361576129613079 0.15178129246158931 0 -0.067315024607703278 0.13662092079142449 0 -0.044416936009294992 0.14744373737619401 0 -0.044416936009294992 0.14744373737619401 0 -0.054361576129613079 0.15178129246158931 0 -0.044416936009294992 0.14744373737619401 0 -0.054361576129613079 0.15178129246158931 0 -0.047012455662473793 0.15786975055381819 0 -0.066369438716585821 0.14892706699039879 0 -0.054361576129613079 0.15178129246158931 0 -0.057722578482997257 0.16273086802879619 0 -0.057722578482997257 0.16273086802879619 0 -0.050411583818504503 0.1777900037548745 0 -0.045636115300606919 0.16650756778262649 0 -0.054361576129613079 0.15178129246158931 0 -0.057722578482997257 0.16273086802879619 0 -0.047012455662473793 0.15786975055381819 0 -0.057722578482997257 0.16273086802879619 0 -0.047012455662473793 0.15786975055381819 0 -0.045636115300606919 0.16650756778262649 0 -0.070171110140822543 0.1782308345810468 0 -0.056949983849450658 0.19269083667038239 0 -0.050411583818504503 0.1777900037548745 0 -0.070171110140822543 0.1782308345810468 0 -0.057722578482997257 0.16273086802879619 0 -0.050411583818504503 0.1777900037548745 0 -0.056949983849450658 0.19269083667038239 0 -0.040360849617421202 0.18777351164107661 0 -0.050411583818504503 0.1777900037548745 0 -0.040360849617421202 0.18777351164107661 0 -0.050411583818504503 0.1777900037548745 0 -0.039949487385523758 0.17426630734724691 0 -0.050411583818504503 0.1777900037548745 0 -0.039949487385523758 0.17426630734724691 0 -0.045636115300606919 0.16650756778262649 0 -0.040360849617421202 0.18777351164107661 0 -0.039949487385523758 0.17426630734724691 0 -0.026751027678188599 0.18229597604057349 0 -0.039949487385523758 0.17426630734724691 0 -0.036587860512897558 0.15696447751708351 0 -0.026751027678188599 0.18229597604057349 0 -0.036587860512897558 0.15696447751708351 0 -0.026751027678188599 0.18229597604057349 0 -0.039949487385523758 0.17426630734724691 0 -0.045636115300606919 0.16650756778262649 0 -0.036587860512897558 0.15696447751708351 0 -0.047012455662473793 0.15786975055381819 0 -0.045636115300606919 0.16650756778262649 0 -0.036587860512897558 0.15696447751708351 0 -0.01891215499648707 0.1765136475382359 0 -0.010861270542782259 0.1633038739619718 0 -0.027639103276038759 0.15537380566908321 0 -0.010861270542782259 0.1633038739619718 0 -0.027639103276038759 0.15537380566908321 0 -0.036587860512897558 0.15696447751708351 0 -0.01891215499648707 0.1765136475382359 0 -0.036587860512897558 0.15696447751708351 0 -0.01891215499648707 0.1765136475382359 0 -0.027639103276038759 0.15537380566908321 0 -0.01405220631290922 0.19352016069679451 0 -0.01891215499648707 0.1765136475382359 0 -0.026751027678188599 0.18229597604057349 0 -0.036587860512897558 0.15696447751708351 0 -0.01891215499648707 0.1765136475382359 0 -0.026751027678188599 0.18229597604057349 0 -0.01891215499648707 0.1765136475382359 0 -0.010861270542782259 0.1633038739619718 0 0.00061104658230836653 0.17769045695541219 0 -0.0012364494800765971 0.1960628175593882 0 -0.01891215499648707 0.1765136475382359 0 0.00061104658230836653 0.17769045695541219 0 -0.0012364494800765971 0.1960628175593882 0 -0.01891215499648707 0.1765136475382359 0 -0.010861270542782259 0.1633038739619718 0 0.001788155555331062 0.1557637096651584 0 0.00061104658230836653 0.17769045695541219 0 -0.01542264584752753 0.14956457798035719 0 -0.015783289274076458 0.13495459563681389 0 0.001788155555331062 0.1557637096651584 0 -0.015783289274076458 0.13495459563681389 0 0.001788155555331062 0.1557637096651584 0 0.01185912902997375 0.14130758542593569 0 -0.010861270542782259 0.1633038739619718 0 -0.01542264584752753 0.14956457798035719 0 0.001788155555331062 0.1557637096651584 0 -0.015783289274076458 0.13495459563681389 0 0.001788155555331062 0.1557637096651584 0 -0.01542264584752753 0.14956457798035719 0 -0.023159931299824549 0.14839209377580129 0 -0.027639103276038759 0.15537380566908321 0 -0.010861270542782259 0.1633038739619718 0 -0.01542264584752753 0.14956457798035719 0 -0.027639103276038759 0.15537380566908321 0 -0.01542264584752753 0.14956457798035719 0 -0.023159931299824549 0.14839209377580129 0 -0.021396469969749188 0.1374028974533886 0 -0.01542264584752753 0.14956457798035719 0 -0.021396469969749188 0.1374028974533886 0 -0.015783289274076458 0.13495459563681389 0 -0.030319635528424791 0.14770209815471691 0 -0.021396469969749188 0.1374028974533886 0 -0.023159931299824549 0.14839209377580129 0 -0.030319635528424791 0.14770209815471691 0 -0.021396469969749188 0.1374028974533886 0 -0.023159931299824549 0.14839209377580129 0 -0.030319635528424791 0.14770209815471691 0 -0.027639103276038759 0.15537380566908321 0 -0.028643554108799551 0.12806760582925611 0 -0.017506847497941139 0.13291345901070739 0 -0.032144953111298558 0.1155781737325411 0 -0.037500573576258918 0.13069979942664511 0 -0.028643554108799551 0.12806760582925611 0 -0.021396469969749188 0.1374028974533886 0 -0.021396469969749188 0.1374028974533886 0 -0.015783289274076458 0.13495459563681389 0 -0.017506847497941139 0.13291345901070739 0 -0.021396469969749188 0.1374028974533886 0 -0.015783289274076458 0.13495459563681389 0 -0.021396469969749188 0.1374028974533886 0 -0.017506847497941139 0.13291345901070739 0 -0.015783289274076458 0.13495459563681389 0 -0.017506847497941139 0.13291345901070739 0 -0.028643554108799551 0.12806760582925611 0 -0.021396469969749188 0.1374028974533886 0 -0.017506847497941139 0.13291345901070739 0 -0.015783289274076458 0.13495459563681389 0 -0.017506847497941139 0.13291345901070739 0 -0.0052228475358298988 0.1187351519746004 0 -0.015783289274076458 0.13495459563681389 0 -0.0052228475358298988 0.1187351519746004 0 0.0081407562022233586 0.1245196413435004 0 -0.017506847497941139 0.13291345901070739 0 -0.0052228475358298988 0.1187351519746004 0 -0.015783289274076458 0.13495459563681389 0 0.0081407562022233586 0.1245196413435004 0 -0.0052228475358298988 0.1187351519746004 0 -0.0040597014752050652 0.1051126182356364 0 -0.02761291541641378 0.1090435214711212 0 -0.017506847497941139 0.13291345901070739 0 -0.0052228475358298988 0.1187351519746004 0 -0.019344259015361451 0.119617058157429 0 -0.0040597014752050652 0.1051126182356364 0 -0.01533391803445322 0.09737838425916874 0 0.0051087594610210148 0.080527692295617709 0 -0.0052228475358298988 0.1187351519746004 0 -0.0040597014752050652 0.1051126182356364 0 0.0092582498306486675 0.1020209346744549 0 -0.0040597014752050652 0.1051126182356364 0 -0.01533391803445322 0.09737838425916874 0 -0.02761291541641378 0.1090435214711212 0 -0.01533391803445322 0.09737838425916874 0 -0.027797722535604891 0.095528124355643507 0 -0.02761291541641378 0.1090435214711212 0 -0.0052228475358298988 0.1187351519746004 0 -0.02761291541641378 0.1090435214711212 0 -0.019344259015361451 0.119617058157429 0 -0.017506847497941139 0.13291345901070739 0 -0.019344259015361451 0.119617058157429 0 -0.032144953111298558 0.1155781737325411 0 -0.02761291541641378 0.1090435214711212 0 -0.019344259015361451 0.119617058157429 0 -0.032144953111298558 0.1155781737325411 0 -0.0052228475358298988 0.1187351519746004 0 -0.02761291541641378 0.1090435214711212 0 -0.017506847497941139 0.13291345901070739 0 -0.032144953111298558 0.1155781737325411 0 -0.0012292332505543029 0.06378464068123596 0 -0.011084303888442551 0.081696622097620714 0 -0.018620569400409771 0.06708533464306303 0 -0.0012292332505543029 0.06378464068123596 0 -0.011084303888442551 0.081696622097620714 0 0.0051087594610210148 0.080527692295617709 0 -0.01533391803445322 0.09737838425916874 0 -0.011084303888442551 0.081696622097620714 0 0.0051087594610210148 0.080527692295617709 0 -0.01533391803445322 0.09737838425916874 0 0.0051087594610210148 0.080527692295617709 0 -0.011084303888442551 0.081696622097620714 0 0.0051087594610210148 0.080527692295617709 0 -0.027797722535604891 0.095528124355643507 0 -0.011084303888442551 0.081696622097620714 0 -0.032921925083363349 0.0833654898886593 0 -0.01533391803445322 0.09737838425916874 0 -0.027797722535604891 0.095528124355643507 0 -0.011084303888442551 0.081696622097620714 0 -0.018620569400409771 0.06708533464306303 0 -0.031868141831282552 0.069818555696904067 0 -0.028283535649973771 0.053358049395037133 0 -0.018620569400409771 0.06708533464306303 0 -0.031868141831282552 0.069818555696904067 0 -0.032921925083363349 0.0833654898886593 0 -0.011084303888442551 0.081696622097620714 0 -0.018620569400409771 0.06708533464306303 0 -0.032921925083363349 0.0833654898886593 0 -0.046276495737503101 0.06795068115397529 0 -0.032921925083363349 0.0833654898886593 0 -0.055882409073029139 0.082732437330199013 0 -0.046276495737503101 0.06795068115397529 0 -0.031868141831282552 0.069818555696904067 0 -0.028283535649973771 0.053358049395037133 0 -0.046276495737503101 0.06795068115397529 0 -0.031868141831282552 0.069818555696904067 0 -0.032921925083363349 0.0833654898886593 0 -0.027797722535604891 0.095528124355643507 0 -0.032921925083363349 0.0833654898886593 0 -0.050002983296997462 0.099351890967641507 0 -0.032921925083363349 0.0833654898886593 0 -0.055882409073029139 0.082732437330199013 0 -0.050002983296997462 0.099351890967641507 0 -0.055882409073029139 0.082732437330199013 0 -0.050002983296997462 0.099351890967641507 0 -0.072393051177581158 0.089660260464161839 0 -0.046276495737503101 0.06795068115397529 0 -0.055882409073029139 0.082732437330199013 0 -0.062589921296568873 0.06642957971461419 0 -0.032144953111298558 0.1155781737325411 0 -0.050002983296997462 0.099351890967641507 0 -0.046884900963607742 0.11986348336078891 0 -0.037500573576258918 0.13069979942664511 0 -0.034668926388748328 0.1237436995229996 0 -0.046884900963607742 0.11986348336078891 0 -0.028643554108799551 0.12806760582925611 0 -0.034668926388748328 0.1237436995229996 0 -0.032144953111298558 0.1155781737325411 0 -0.034668926388748328 0.1237436995229996 0 -0.032144953111298558 0.1155781737325411 0 -0.046884900963607742 0.11986348336078891 0 -0.027797722535604891 0.095528124355643507 0 -0.02761291541641378 0.1090435214711212 0 -0.050002983296997462 0.099351890967641507 0 -0.02761291541641378 0.1090435214711212 0 -0.050002983296997462 0.099351890967641507 0 -0.02761291541641378 0.1090435214711212 0 -0.032144953111298558 0.1155781737325411 0 -0.050002983296997462 0.099351890967641507 0 -0.050002983296997462 0.099351890967641507 0 -0.072393051177581158 0.089660260464161839 0 -0.050002983296997462 0.099351890967641507 0 -0.062115440392200259 0.1100516779477724 0 -0.072393051177581158 0.089660260464161839 0 -0.062016764747578973 0.12884034001808189 0 -0.062115440392200259 0.1100516779477724 0 -0.046884900963607742 0.11986348336078891 0 -0.050002983296997462 0.099351890967641507 0 -0.062115440392200259 0.1100516779477724 0 -0.046884900963607742 0.11986348336078891 0 -0.062016764747578973 0.12884034001808189 0 -0.062115440392200259 0.1100516779477724 0 -0.07825578499994286 0.1108801308713713 0 -0.062016764747578973 0.12884034001808189 0 -0.07825578499994286 0.1108801308713713 0 -0.062016764747578973 0.12884034001808189 0 -0.075786521408142987 0.12443322189858901 0 -0.07825578499994286 0.1108801308713713 0 -0.088852304720190942 0.12644129241805541 0 -0.075786521408142987 0.12443322189858901 0 -0.083719546898917335 0.119699814685821 0 -0.083719546898917335 0.119699814685821 0 -0.07825578499994286 0.1108801308713713 0 -0.093946486761182085 0.1175508364221631 0 -0.075786521408142987 0.12443322189858901 0 -0.083719546898917335 0.119699814685821 0 -0.07825578499994286 0.1108801308713713 0 -0.088852304720190942 0.12644129241805541 0 -0.083719546898917335 0.119699814685821 0 -0.093946486761182085 0.1175508364221631 0 -0.07825578499994286 0.1108801308713713 0 -0.072393051177581158 0.089660260464161839 0 -0.094494805252306774 0.092919921724660626 0 -0.07825578499994286 0.1108801308713713 0 -0.094494805252306774 0.092919921724660626 0 -0.093946486761182085 0.1175508364221631 0 -0.07825578499994286 0.1108801308713713 0 -0.094494805252306774 0.092919921724660626 0 -0.062115440392200259 0.1100516779477724 0 -0.07825578499994286 0.1108801308713713 0 -0.072393051177581158 0.089660260464161839 0 -0.055882409073029139 0.082732437330199013 0 -0.072393051177581158 0.089660260464161839 0 -0.062589921296568873 0.06642957971461419 0 -0.072393051177581158 0.089660260464161839 0 -0.062589921296568873 0.06642957971461419 0 -0.079461892795990779 0.070449194571112136 0 -0.062589921296568873 0.06642957971461419 0 -0.079461892795990779 0.070449194571112136 0 -0.072380178782229632 0.053292134703331731 0 -0.079461892795990779 0.070449194571112136 0 -0.094783119058163612 0.079968629960679383 0 -0.095163193665411511 0.062895368012773595 0 -0.072393051177581158 0.089660260464161839 0 -0.079461892795990779 0.070449194571112136 0 -0.094783119058163612 0.079968629960679383 0 -0.072393051177581158 0.089660260464161839 0 -0.094494805252306774 0.092919921724660626 0 -0.094783119058163612 0.079968629960679383 0 -0.072393051177581158 0.089660260464161839 0 -0.094783119058163612 0.079968629960679383 0 -0.094494805252306774 0.092919921724660626 0 -0.1072570836689255 0.074569224449017327 0 -0.1143352617609841 0.070976556735617355 0 -0.094494805252306774 0.092919921724660626 0 -0.094783119058163612 0.079968629960679383 0 -0.1072570836689255 0.074569224449017327 0 -0.094494805252306774 0.092919921724660626 0 -0.094783119058163612 0.079968629960679383 0 -0.094494805252306774 0.092919921724660626 0 -0.1143352617609841 0.070976556735617355 0 -0.11134444788944529 0.091345452974062963 0 -0.094494805252306774 0.092919921724660626 0 -0.1143352617609841 0.070976556735617355 0 -0.094783119058163612 0.079968629960679383 0 -0.095163193665411511 0.062895368012773595 0 -0.094783119058163612 0.079968629960679383 0 -0.095163193665411511 0.062895368012773595 0 -0.1072570836689255 0.074569224449017327 0 -0.095163193665411511 0.062895368012773595 0 -0.1143352617609841 0.070976556735617355 0 -0.1079186055395126 0.059947093390224047 0 -0.095163193665411511 0.062895368012773595 0 -0.1072570836689255 0.074569224449017327 0 -0.1143352617609841 0.070976556735617355 0 -0.095163193665411511 0.062895368012773595 0 -0.1143352617609841 0.070976556735617355 0 -0.094783119058163612 0.079968629960679383 0 -0.1072570836689255 0.074569224449017327 0 -0.1131683311422218 0.062814464837820119 0 -0.1163519950294771 0.068746068028026575 0 -0.1143352617609841 0.070976556735617355 0 -0.1131683311422218 0.062814464837820119 0 -0.1143352617609841 0.070976556735617355 0 -0.1079186055395126 0.059947093390224047 0 -0.1131683311422218 0.062814464837820119 0 -0.1163519950294771 0.068746068028026575 0 -0.1185872066977806 0.063729502839677182 0 -0.1163519950294771 0.068746068028026575 0 -0.1143352617609841 0.070976556735617355 0 -0.12697985749263241 0.07630636069427757 0 -0.1143352617609841 0.070976556735617355 0 -0.12697985749263241 0.07630636069427757 0 -0.1143352617609841 0.070976556735617355 0 -0.1200161930876608 0.081776906418299489 0 -0.12697985749263241 0.07630636069427757 0 -0.1163519950294771 0.068746068028026575 0 -0.1143352617609841 0.070976556735617355 0 -0.12697985749263241 0.07630636069427757 0 -0.12509646681095879 0.065597408261105467 0 -0.1163519950294771 0.068746068028026575 0 -0.12509646681095879 0.065597408261105467 0 -0.1163519950294771 0.068746068028026575 0 -0.1185872066977806 0.063729502839677182 0 -0.13359630628803579 0.098968800084119873 0 -0.12697672020224329 0.087309090757334687 0 -0.11134444788944529 0.091345452974062963 0 -0.1143352617609841 0.070976556735617355 0 -0.11134444788944529 0.091345452974062963 0 -0.1200161930876608 0.081776906418299489 0 -0.12697672020224329 0.087309090757334687 0 -0.11134444788944529 0.091345452974062963 0 -0.1200161930876608 0.081776906418299489 0 -0.12697672020224329 0.087309090757334687 0 -0.12697985749263241 0.07630636069427757 0 -0.1200161930876608 0.081776906418299489 0 -0.12607259725238279 0.11330641960449821 0 -0.13359630628803579 0.098968800084119873 0 -0.11123038207674001 0.1082681122756106 0 -0.13359630628803579 0.098968800084119873 0 -0.11134444788944529 0.091345452974062963 0 -0.11123038207674001 0.1082681122756106 0 -0.13359630628803579 0.098968800084119873 0 -0.11123038207674001 0.1082681122756106 0 -0.11134444788944529 0.091345452974062963 0 -0.11123038207674001 0.1082681122756106 0 -0.1057361510920251 0.099277959283072717 0 -0.12607259725238279 0.11330641960449821 0 -0.11123038207674001 0.1082681122756106 0 -0.11706151063611089 0.1208882391850464 0 -0.12607259725238279 0.11330641960449821 0 -0.12916618827146031 0.12390190950899049 0 -0.11706151063611089 0.1208882391850464 0 -0.11473911200363 0.13153944404780621 0 -0.11706151063611089 0.1208882391850464 0 -0.10601879130899509 0.12208205668825579 0 -0.1036345166478785 0.1154037657297244 0 -0.093946486761182085 0.1175508364221631 0 -0.097511277885226108 0.1010939306234323 0 -0.11123038207674001 0.1082681122756106 0 -0.11706151063611089 0.1208882391850464 0 -0.097511277885226108 0.1010939306234323 0 -0.11706151063611089 0.1208882391850464 0 -0.1036345166478785 0.1154037657297244 0 -0.097511277885226108 0.1010939306234323 0 -0.11706151063611089 0.1208882391850464 0 -0.097511277885226108 0.1010939306234323 0 -0.11706151063611089 0.1208882391850464 0 -0.1036345166478785 0.1154037657297244 0 -0.10601879130899509 0.12208205668825579 0 -0.1039338124667491 0.13009472872812991 0 -0.10601879130899509 0.12208205668825579 0 -0.093946486761182085 0.1175508364221631 0 -0.1036345166478785 0.1154037657297244 0 -0.10601879130899509 0.12208205668825579 0 -0.093946486761182085 0.1175508364221631 0 -0.094494805252306774 0.092919921724660626 0 -0.11134444788944529 0.091345452974062963 0 -0.1057361510920251 0.099277959283072717 0 -0.094494805252306774 0.092919921724660626 0 -0.093946486761182085 0.1175508364221631 0 -0.094494805252306774 0.092919921724660626 0 -0.093946486761182085 0.1175508364221631 0 -0.097511277885226108 0.1010939306234323 0 -0.094494805252306774 0.092919921724660626 0 -0.097511277885226108 0.1010939306234323 0 -0.1057361510920251 0.099277959283072717 0 -0.11123038207674001 0.1082681122756106 0 -0.097511277885226108 0.1010939306234323 0 -0.1057361510920251 0.099277959283072717 0 -0.1001339578063882 0.022436777626384768 0 -0.09536928659882779 0.01424719335382847 0 -0.1128440433065038 0.01636018592503535 0 -0.1001339578063882 0.022436777626384768 0 -0.1128440433065038 0.01636018592503535 0 -0.1012358460944251 0.033108064834657697 0 -0.1128440433065038 0.01636018592503535 0 -0.11393466639619521 0.035004472642448957 0 -0.1012358460944251 0.033108064834657697 0 -0.1128440433065038 0.01636018592503535 0 -0.1012358460944251 0.033108064834657697 0 -0.1001339578063882 0.022436777626384768 0 -0.1012358460944251 0.033108064834657697 0 -0.091086655225796079 0.026031666392017531 0 -0.1001339578063882 0.022436777626384768 0 -0.09536928659882779 0.01424719335382847 0 -0.091086655225796079 0.026031666392017531 0 -0.10394313851700079 0.0020556251079679459 0 -0.09536928659882779 0.01424719335382847 0 -0.085958893623968774 0.001514634656162053 0 -0.10394313851700079 0.0020556251079679459 0 -0.09536928659882779 0.01424719335382847 0 -0.1128440433065038 0.01636018592503535 0 -0.1244522405185825 -0.00038769298458709092 0 -0.12424451236807239 0.027069144312366941 0 -0.1244522405185825 -0.00038769298458709092 0 -0.1128440433065038 0.01636018592503535 0 -0.12424451236807239 0.027069144312366941 0 -0.1244522405185825 -0.00038769298458709092 0 -0.1128440433065038 0.01636018592503535 0 -0.1244522405185825 -0.00038769298458709092 0 -0.10394313851700079 0.0020556251079679459 0 -0.1128440433065038 0.01636018592503535 0 -0.1128440433065038 0.01636018592503535 0 -0.12424451236807239 0.027069144312366941 0 -0.11393466639619521 0.035004472642448957 0 -0.12424451236807239 0.027069144312366941 0 -0.12075472355362291 0.04122338309529356 0 -0.11393466639619521 0.035004472642448957 0 -0.12075472355362291 0.04122338309529356 0 -0.1244920148619628 0.050381604022983993 0 -0.1151670195775447 0.0482238646449 0 -0.11393466639619521 0.035004472642448957 0 -0.1151670195775447 0.0482238646449 0 -0.10635909785250069 0.04125385698526951 0 -0.12075472355362291 0.04122338309529356 0 -0.11393466639619521 0.035004472642448957 0 -0.1151670195775447 0.0482238646449 0 -0.12509646681095879 0.065597408261105467 0 -0.1185872066977806 0.063729502839677182 0 -0.1197320338084647 0.057760070231756527 0 -0.1197320338084647 0.057760070231756527 0 -0.1244920148619628 0.050381604022983993 0 -0.1151670195775447 0.0482238646449 0 -0.1151670195775447 0.0482238646449 0 -0.1125210466915524 0.054978807834542787 0 -0.1051700993263314 0.050476507920077678 0 -0.1197320338084647 0.057760070231756527 0 -0.1151670195775447 0.0482238646449 0 -0.1125210466915524 0.054978807834542787 0 -0.1131683311422218 0.062814464837820119 0 -0.1197320338084647 0.057760070231756527 0 -0.1125210466915524 0.054978807834542787 0 -0.1131683311422218 0.062814464837820119 0 -0.1125210466915524 0.054978807834542787 0 -0.1079186055395126 0.059947093390224047 0 -0.1131683311422218 0.062814464837820119 0 -0.1185872066977806 0.063729502839677182 0 -0.1197320338084647 0.057760070231756527 0 -0.095163193665411511 0.062895368012773595 0 -0.1051700993263314 0.050476507920077678 0 -0.095336714328198874 0.041619114628837717 0 -0.095163193665411511 0.062895368012773595 0 -0.095336714328198874 0.041619114628837717 0 -0.1125210466915524 0.054978807834542787 0 -0.1079186055395126 0.059947093390224047 0 -0.1051700993263314 0.050476507920077678 0 -0.095163193665411511 0.062895368012773595 0 -0.1079186055395126 0.059947093390224047 0 -0.1051700993263314 0.050476507920077678 0 -0.11393466639619521 0.035004472642448957 0 -0.10635909785250069 0.04125385698526951 0 -0.1012358460944251 0.033108064834657697 0 -0.1051700993263314 0.050476507920077678 0 -0.10635909785250069 0.04125385698526951 0 -0.095336714328198874 0.041619114628837717 0 -0.1151670195775447 0.0482238646449 0 -0.1051700993263314 0.050476507920077678 0 -0.10635909785250069 0.04125385698526951 0 -0.095336714328198874 0.041619114628837717 0 -0.1012358460944251 0.033108064834657697 0 -0.08853862327275358 0.036894035852943478 0 -0.10635909785250069 0.04125385698526951 0 -0.095336714328198874 0.041619114628837717 0 -0.1012358460944251 0.033108064834657697 0 -0.095336714328198874 0.041619114628837717 0 -0.1012358460944251 0.033108064834657697 0 -0.1012358460944251 0.033108064834657697 0 -0.08853862327275358 0.036894035852943478 0 -0.091086655225796079 0.026031666392017531 0 -0.08853862327275358 0.036894035852943478 0 -0.081088353484909961 0.032020518526829703 0 -0.091086655225796079 0.026031666392017531 0 -0.08853862327275358 0.036894035852943478 0 -0.079654612676290371 0.043453985766932421 0 -0.089627648882346422 0.049855943744280047 0 -0.095336714328198874 0.041619114628837717 0 -0.08853862327275358 0.036894035852943478 0 -0.089627648882346422 0.049855943744280047 0 -0.095336714328198874 0.041619114628837717 0 -0.089627648882346422 0.049855943744280047 0 -0.08853862327275358 0.036894035852943478 0 -0.079654612676290371 0.043453985766932421 0 -0.081088353484909961 0.032020518526829703 0 -0.095163193665411511 0.062895368012773595 0 -0.089627648882346422 0.049855943744280047 0 -0.072380178782229632 0.053292134703331731 0 -0.095163193665411511 0.062895368012773595 0 -0.095336714328198874 0.041619114628837717 0 -0.089627648882346422 0.049855943744280047 0 -0.095163193665411511 0.062895368012773595 0 -0.072380178782229632 0.053292134703331731 0 -0.079461892795990779 0.070449194571112136 0 -0.095163193665411511 0.062895368012773595 0 -0.072380178782229632 0.053292134703331731 0 -0.079654612676290371 0.043453985766932421 0 -0.089627648882346422 0.049855943744280047 0 -0.072380178782229632 0.053292134703331731 0 -0.079654612676290371 0.043453985766932421 0 -0.072380178782229632 0.053292134703331731 0 -0.065785112224924183 0.037111289768743512 0 -0.072380178782229632 0.053292134703331731 0 -0.065785112224924183 0.037111289768743512 0 -0.049597163899048183 0.043688901393888827 0 -0.079654612676290371 0.043453985766932421 0 -0.081088353484909961 0.032020518526829703 0 -0.065785112224924183 0.037111289768743512 0 -0.081088353484909961 0.032020518526829703 0 -0.065785112224924183 0.037111289768743512 0 -0.069646162847898541 0.026335067629459381 0 -0.069646162847898541 0.026335067629459381 0 -0.076118231742993758 0.01527396050979404 0 -0.05559295393876626 0.02093450171247024 0 -0.065785112224924183 0.037111289768743512 0 -0.069646162847898541 0.026335067629459381 0 -0.05559295393876626 0.02093450171247024 0 -0.081088353484909961 0.032020518526829703 0 -0.069646162847898541 0.026335067629459381 0 -0.076118231742993758 0.01527396050979404 0 -0.081088353484909961 0.032020518526829703 0 -0.091086655225796079 0.026031666392017531 0 -0.076118231742993758 0.01527396050979404 0 -0.09536928659882779 0.01424719335382847 0 -0.091086655225796079 0.026031666392017531 0 -0.076118231742993758 0.01527396050979404 0 -0.09536928659882779 0.01424719335382847 0 -0.085958893623968774 0.001514634656162053 0 -0.076118231742993758 0.01527396050979404 0 -0.076118231742993758 0.01527396050979404 0 -0.065648076432031049 0.00090955339710942099 0 -0.05559295393876626 0.02093450171247024 0 -0.085958893623968774 0.001514634656162053 0 -0.076118231742993758 0.01527396050979404 0 -0.065648076432031049 0.00090955339710942099 0 -0.045118160941850949 -0.00049033847668307538 0 -0.065648076432031049 0.00090955339710942099 0 -0.05559295393876626 0.02093450171247024 0 -0.05559295393876626 0.02093450171247024 0 -0.041197297059898302 0.028587588038626519 0 -0.049597163899048183 0.043688901393888827 0 -0.05559295393876626 0.02093450171247024 0 -0.032784921385912158 0.01564128096370114 0 -0.041197297059898302 0.028587588038626519 0 -0.032784921385912158 0.01564128096370114 0 -0.041197297059898302 0.028587588038626519 0 -0.02681414901586664 0.034085668084445887 0 -0.045118160941850949 -0.00049033847668307538 0 -0.05559295393876626 0.02093450171247024 0 -0.032784921385912158 0.01564128096370114 0 -0.045118160941850949 -0.00049033847668307538 0 -0.027025641752002061 -0.0079319500279313396 0 -0.032784921385912158 0.01564128096370114 0 -0.062589921296568873 0.06642957971461419 0 -0.072380178782229632 0.053292134703331731 0 -0.049597163899048183 0.043688901393888827 0 -0.046276495737503101 0.06795068115397529 0 -0.062589921296568873 0.06642957971461419 0 -0.049597163899048183 0.043688901393888827 0 -0.072380178782229632 0.053292134703331731 0 -0.049597163899048183 0.043688901393888827 0 -0.065785112224924183 0.037111289768743512 0 -0.05559295393876626 0.02093450171247024 0 -0.049597163899048183 0.043688901393888827 0 -0.049597163899048183 0.043688901393888827 0 -0.02681414901586664 0.034085668084445887 0 -0.041197297059898302 0.028587588038626519 0 -0.049597163899048183 0.043688901393888827 0 -0.02681414901586664 0.034085668084445887 0 -0.049597163899048183 0.043688901393888827 0 -0.028283535649973771 0.053358049395037133 0 -0.02681414901586664 0.034085668084445887 0 -0.046276495737503101 0.06795068115397529 0 -0.028283535649973771 0.053358049395037133 0 -0.046276495737503101 0.06795068115397529 0 -0.049597163899048183 0.043688901393888827 0 -0.028283535649973771 0.053358049395037133 0 -0.028283535649973771 0.053358049395037133 0 -0.010290575562444429 0.038765417636098962 0 -0.0097640400442320502 0.053032197103308337 0 -0.018620569400409771 0.06708533464306303 0 -0.028283535649973771 0.053358049395037133 0 -0.0097640400442320502 0.053032197103308337 0 -0.028283535649973771 0.053358049395037133 0 -0.010290575562444429 0.038765417636098962 0 -0.02681414901586664 0.034085668084445887 0 -0.010290575562444429 0.038765417636098962 0 -0.020835528804160591 0.022374223573919171 0 -0.028283535649973771 0.053358049395037133 0 -0.02681414901586664 0.034085668084445887 0 -0.010290575562444429 0.038765417636098962 0 -0.010290575562444429 0.038765417636098962 0 0.0077023845250848884 0.024172785877160811 0 -0.010290575562444429 0.038765417636098962 0 -0.0034349793211087142 0.044893397967285961 0 0.0047272217829380687 0.036246676438490527 0 -0.010290575562444429 0.038765417636098962 0 -0.0034349793211087142 0.044893397967285961 0 -0.0097640400442320502 0.053032197103308337 0 -0.0012292332505543029 0.06378464068123596 0 -0.018620569400409771 0.06708533464306303 0 -0.0097640400442320502 0.053032197103308337 0 -0.0034349793211087142 0.044893397967285961 0 -0.0097640400442320502 0.053032197103308337 0 0.0015874765393035599 0.051529300691246019 0 -0.0012292332505543029 0.06378464068123596 0 -0.0097640400442320502 0.053032197103308337 0 0.0015874765393035599 0.051529300691246019 0 -0.027025641752002061 -0.0079319500279313396 0 -0.032784921385912158 0.01564128096370114 0 -0.01566814095190756 0.010235570601176981 0 -0.032784921385912158 0.01564128096370114 0 -0.02681414901586664 0.034085668084445887 0 -0.020835528804160591 0.022374223573919171 0 -0.032784921385912158 0.01564128096370114 0 -0.01566814095190756 0.010235570601176981 0 -0.020835528804160591 0.022374223573919171 0 -0.010290575562444429 0.038765417636098962 0 -0.020835528804160591 0.022374223573919171 0 -0.0077262750329500059 0.02266504195052366 0 -0.01566814095190756 0.010235570601176981 0 -0.020835528804160591 0.022374223573919171 0 -0.0077262750329500059 0.02266504195052366 0 -0.010290575562444429 0.038765417636098962 0 -0.0077262750329500059 0.02266504195052366 0 0.0077023845250848884 0.024172785877160811 0 -0.0091716063734174208 -0.003332990253060792 0 -0.01566814095190756 0.010235570601176981 0 0.001118487675879971 0.0096665619175221752 0 -0.0091716063734174208 -0.003332990253060792 0 0.001118487675879971 0.0096665619175221752 0 0.006935528729737548 -0.0054826371559186567 0 -0.01566814095190756 0.010235570601176981 0 -0.0077262750329500059 0.02266504195052366 0 0.001118487675879971 0.0096665619175221752 0 0.001118487675879971 0.0096665619175221752 0 0.0077023845250848884 0.024172785877160811 0 0.025695344612614111 0.0095801541182225364 0 0.001118487675879971 0.0096665619175221752 0 0.025695344612614111 0.0095801541182225364 0 0.006935528729737548 -0.0054826371559186567 0 -0.0077262750329500059 0.02266504195052366 0 0.001118487675879971 0.0096665619175221752 0 0.0077023845250848884 0.024172785877160811 0 0.0077023845250848884 0.024172785877160811 0 0.024648998497944961 0.02642224341189468 0 0.015911730558903318 0.034762274935307848 0 0.024648998497944961 0.02642224341189468 0 0.025695344612614111 0.0095801541182225364 0 0.038363400138324961 0.019751697241263279 0 0.0077023845250848884 0.024172785877160811 0 0.024648998497944961 0.02642224341189468 0 0.025695344612614111 0.0095801541182225364 0 0.0077023845250848884 0.024172785877160811 0 0.025695344612614111 0.0095801541182225364 0 0.025695344612614111 0.0095801541182225364 0 0.006935528729737548 -0.0054826371559186567 0 0.01459521235494949 0.061710637509134872 0 0.0047272217829380687 0.036246676438490527 0 -0.0012292332505543029 0.06378464068123596 0 0.01459521235494949 0.061710637509134872 0 0.0015874765393035599 0.051529300691246019 0 0.01459521235494949 0.061710637509134872 0 0.0015874765393035599 0.051529300691246019 0 0.0047272217829380687 0.036246676438490527 0 0.01459521235494949 0.061710637509134872 0 0.0047272217829380687 0.036246676438490527 0 0.016570281580619739 0.045526930476817662 0 -0.010290575562444429 0.038765417636098962 0 0.0077023845250848884 0.024172785877160811 0 0.0047272217829380687 0.036246676438490527 0 -0.0034349793211087142 0.044893397967285961 0 0.0015874765393035599 0.051529300691246019 0 0.0047272217829380687 0.036246676438490527 0 0.0047272217829380687 0.036246676438490527 0 0.015911730558903318 0.034762274935307848 0 0.016570281580619739 0.045526930476817662 0 0.0077023845250848884 0.024172785877160811 0 0.0047272217829380687 0.036246676438490527 0 0.015911730558903318 0.034762274935307848 0 0.024648998497944961 0.02642224341189468 0 0.015911730558903318 0.034762274935307848 0 0.025892041879535671 0.039420421904702428 0 0.024648998497944961 0.02642224341189468 0 0.025892041879535671 0.039420421904702428 0 0.038236142792751733 0.035111405712831077 0 0.015911730558903318 0.034762274935307848 0 0.025892041879535671 0.039420421904702428 0 0.016570281580619739 0.045526930476817662 0 0.025892041879535671 0.039420421904702428 0 0.016570281580619739 0.045526930476817662 0 0.021716339062575678 0.05448348331271597 0 0.01459521235494949 0.061710637509134872 0 0.016570281580619739 0.045526930476817662 0 0.021716339062575678 0.05448348331271597 0 0.01459521235494949 0.061710637509134872 0 0.021716339062575678 0.05448348331271597 0 0.030459386295035529 0.05963142741263059 0 0.01459521235494949 0.061710637509134872 0 0.030459386295035529 0.05963142741263059 0 0.021716339062575678 0.05448348331271597 0 0.030459386295035529 0.05963142741263059 0 0.032703710623893968 0.046893395464013943 0 0.025892041879535671 0.039420421904702428 0 0.021716339062575678 0.05448348331271597 0 0.032703710623893968 0.046893395464013943 0 0.030459386295035529 0.05963142741263059 0 0.032703710623893968 0.046893395464013943 0 0.047214643089571059 0.045820238977188371 0 0.030459386295035529 0.05963142741263059 0 0.04797297407010033 0.057336039788577382 0 0.030459386295035529 0.05963142741263059 0 0.04797297407010033 0.057336039788577382 0 0.027635028654909001 0.06907575978797427 0 0.030459386295035529 0.05963142741263059 0 0.047214643089571059 0.045820238977188371 0 0.04797297407010033 0.057336039788577382 0 0.030459386295035529 0.05963142741263059 0 0.047214643089571059 0.045820238977188371 0 0.038236142792751733 0.035111405712831077 0 0.047214643089571059 0.045820238977188371 0 0.051031455664035288 0.029923240364304559 0 0.032703710623893968 0.046893395464013943 0 0.038236142792751733 0.035111405712831077 0 0.047214643089571059 0.045820238977188371 0 0.025892041879535671 0.039420421904702428 0 0.032703710623893968 0.046893395464013943 0 0.038236142792751733 0.035111405712831077 0 0.062359133547200143 0.040731400683572692 0 0.047214643089571059 0.045820238977188371 0 0.063969899884107562 0.032009050541747332 0 0.047214643089571059 0.045820238977188371 0 0.063969899884107562 0.032009050541747332 0 0.047214643089571059 0.045820238977188371 0 0.051031455664035288 0.029923240364304559 0 0.063969899884107562 0.032009050541747332 0 0.062359133547200143 0.040731400683572692 0 0.04797297407010033 0.057336039788577382 0 0.072379857481358154 0.054137194478101919 0 0.04797297407010033 0.057336039788577382 0 0.072379857481358154 0.054137194478101919 0 0.062359133547200143 0.040731400683572692 0 0.04797297407010033 0.057336039788577382 0 0.062359133547200143 0.040731400683572692 0 0.047214643089571059 0.045820238977188371 0 0.04797297407010033 0.057336039788577382 0 0.04797297407010033 0.057336039788577382 0 0.072379857481358154 0.054137194478101919 0 0.06072113176624426 0.066105246874810966 0 0.040835927619124697 0.0088703260301804514 0 0.038363400138324961 0.019751697241263279 0 0.051939500327619889 0.017318508583630769 0 0.040835927619124697 0.0088703260301804514 0 0.046640351189982193 0.001482106492276504 0 0.040314465242246092 -0.002276229875846851 0 0.025695344612614111 0.0095801541182225364 0 0.040314465242246092 -0.002276229875846851 0 0.025695344612614111 0.0095801541182225364 0 0.040835927619124697 0.0088703260301804514 0 0.040314465242246092 -0.002276229875846851 0 0.025695344612614111 0.0095801541182225364 0 0.040835927619124697 0.0088703260301804514 0 0.038363400138324961 0.019751697241263279 0 0.025695344612614111 0.0095801541182225364 0 0.038363400138324961 0.019751697241263279 0 0.024648998497944961 0.02642224341189468 0 0.038236142792751733 0.035111405712831077 0 0.038363400138324961 0.019751697241263279 0 0.038363400138324961 0.019751697241263279 0 0.051031455664035288 0.029923240364304559 0 0.038236142792751733 0.035111405712831077 0 0.038363400138324961 0.019751697241263279 0 0.051031455664035288 0.029923240364304559 0 0.038363400138324961 0.019751697241263279 0 0.051939500327619889 0.017318508583630769 0 0.051031455664035288 0.029923240364304559 0 0.051031455664035288 0.029923240364304559 0 0.062107590562420073 0.0228568457980407 0 0.063969899884107562 0.032009050541747332 0 0.051939500327619889 0.017318508583630769 0 0.062107590562420073 0.0228568457980407 0 0.064696567818308529 0.01472149906873369 0 0.051939500327619889 0.017318508583630769 0 0.051031455664035288 0.029923240364304559 0 0.062107590562420073 0.0228568457980407 0 0.055514373943813228 0.0067304088365214816 0 0.075461568133428525 0.0044331687040122013 0 0.049896637954744763 -0.0073960790217490677 0 0.051939500327619889 0.017318508583630769 0 0.055514373943813228 0.0067304088365214816 0 0.064696567818308529 0.01472149906873369 0 0.040835927619124697 0.0088703260301804514 0 0.051939500327619889 0.017318508583630769 0 0.055514373943813228 0.0067304088365214816 0 0.046640351189982193 0.001482106492276504 0 0.055514373943813228 0.0067304088365214816 0 0.049896637954744763 -0.0073960790217490677 0 0.040835927619124697 0.0088703260301804514 0 0.046640351189982193 0.001482106492276504 0 0.055514373943813228 0.0067304088365214816 0 0.075461568133428525 0.0044331687040122013 0 0.064696567818308529 0.01472149906873369 0 0.08072515667864405 0.018197862106306289 0 0.055514373943813228 0.0067304088365214816 0 0.075461568133428525 0.0044331687040122013 0 0.064696567818308529 0.01472149906873369 0 0.075461568133428525 0.0044331687040122013 0 0.1010264983121123 0.016262416429773479 0 0.075461568133428525 0.0044331687040122013 0 0.1010264983121123 0.016262416429773479 0 0.098011391193308373 -0.0056982583262641584 0 0.075461568133428525 0.0044331687040122013 0 0.08072515667864405 0.018197862106306289 0 0.1010264983121123 0.016262416429773479 0 0.088041666307225416 0.02743399724937181 0 0.08072515667864405 0.018197862106306289 0 0.1010264983121123 0.016262416429773479 0 0.088041666307225416 0.02743399724937181 0 0.08072515667864405 0.018197862106306289 0 0.076745293024301803 0.02412676157856956 0 0.088041666307225416 0.02743399724937181 0 0.076745293024301803 0.02412676157856956 0 0.082258845210710349 0.03253561428057717 0 0.08072515667864405 0.018197862106306289 0 0.076745293024301803 0.02412676157856956 0 0.063969899884107562 0.032009050541747332 0 0.062107590562420073 0.0228568457980407 0 0.064696567818308529 0.01472149906873369 0 0.08072515667864405 0.018197862106306289 0 0.08072515667864405 0.018197862106306289 0 0.063969899884107562 0.032009050541747332 0 0.062107590562420073 0.0228568457980407 0 0.08072515667864405 0.018197862106306289 0 0.063969899884107562 0.032009050541747332 0 0.062359133547200143 0.040731400683572692 0 0.076745293024301803 0.02412676157856956 0 0.062359133547200143 0.040731400683572692 0 0.076745293024301803 0.02412676157856956 0 0.076375628159171968 0.038405412939545532 0 0.062359133547200143 0.040731400683572692 0 0.076745293024301803 0.02412676157856956 0 0.063969899884107562 0.032009050541747332 0 0.062359133547200143 0.040731400683572692 0 0.076375628159171968 0.038405412939545532 0 0.072379857481358154 0.054137194478101919 0 0.072379857481358154 0.054137194478101919 0 0.087872793352142223 0.040176285354821803 0 0.096786740892615686 0.050938349167624693 0 0.072379857481358154 0.054137194478101919 0 0.096786740892615686 0.050938349167624693 0 0.072379857481358154 0.054137194478101919 0 0.096786740892615686 0.050938349167624693 0 0.089592915186254174 0.067390154600646832 0 0.076375628159171968 0.038405412939545532 0 0.072379857481358154 0.054137194478101919 0 0.087872793352142223 0.040176285354821803 0 0.076375628159171968 0.038405412939545532 0 0.082258845210710349 0.03253561428057717 0 0.087872793352142223 0.040176285354821803 0 0.076745293024301803 0.02412676157856956 0 0.076375628159171968 0.038405412939545532 0 0.082258845210710349 0.03253561428057717 0 0.088041666307225416 0.02743399724937181 0 0.087872793352142223 0.040176285354821803 0 0.098246025398924644 0.032379674771496843 0 0.088041666307225416 0.02743399724937181 0 0.082258845210710349 0.03253561428057717 0 0.087872793352142223 0.040176285354821803 0 0.098246025398924644 0.032379674771496843 0 0.09859813872304253 0.041737690340159041 0 0.1063796333462841 0.038668109643535398 0 0.087872793352142223 0.040176285354821803 0 0.098246025398924644 0.032379674771496843 0 0.09859813872304253 0.041737690340159041 0 0.087872793352142223 0.040176285354821803 0 0.09859813872304253 0.041737690340159041 0 0.096786740892615686 0.050938349167624693 0 0.09859813872304253 0.041737690340159041 0 0.1037055006252459 0.04652603276331644 0 0.096786740892615686 0.050938349167624693 0 0.1037055006252459 0.04652603276331644 0 0.1091701701315707 0.045405346223324289 0 0.1063796333462841 0.038668109643535398 0 0.09859813872304253 0.041737690340159041 0 0.1037055006252459 0.04652603276331644 0 0.1063796333462841 0.038668109643535398 0 0.098246025398924644 0.032379674771496843 0 0.1063796333462841 0.038668109643535398 0 0.1080469394596527 0.029312409717345649 0 0.1063796333462841 0.038668109643535398 0 0.11369005285381351 0.036564640387925021 0 0.1080469394596527 0.029312409717345649 0 0.10140855114010359 0.056741753968867333 0 0.1082136550722141 0.059696613986540442 0 0.089592915186254174 0.067390154600646832 0 0.10140855114010359 0.056741753968867333 0 0.096786740892615686 0.050938349167624693 0 0.089592915186254174 0.067390154600646832 0 0.10140855114010359 0.056741753968867333 0 0.096786740892615686 0.050938349167624693 0 0.1040187002827474 0.052009313231975308 0 0.1037055006252459 0.04652603276331644 0 0.096786740892615686 0.050938349167624693 0 0.1040187002827474 0.052009313231975308 0 0.1037055006252459 0.04652603276331644 0 0.10828434687670541 0.049049973369521209 0 0.1040187002827474 0.052009313231975308 0 0.1037055006252459 0.04652603276331644 0 0.1091701701315707 0.045405346223324289 0 0.10828434687670541 0.049049973369521209 0 0.10828434687670541 0.049049973369521209 0 0.1040187002827474 0.052009313231975308 0 0.1085923347430168 0.054888678040205661 0 0.10140855114010359 0.056741753968867333 0 0.1040187002827474 0.052009313231975308 0 0.1085923347430168 0.054888678040205661 0 0.10140855114010359 0.056741753968867333 0 0.1085923347430168 0.054888678040205661 0 0.1082136550722141 0.059696613986540442 0 0.1082136550722141 0.059696613986540442 0 0.12683439495817461 0.052003073372435288 0 0.1085923347430168 0.054888678040205661 0 0.1082136550722141 0.059696613986540442 0 0.12683439495817461 0.052003073372435288 0 0.1082136550722141 0.059696613986540442 0 0.1213053233293625 0.063977455960140386 0 0.12683439495817461 0.052003073372435288 0 0.1085923347430168 0.054888678040205661 0 0.11545296983014219 0.044674578582556468 0 0.12683439495817461 0.052003073372435288 0 0.1085923347430168 0.054888678040205661 0 0.11545296983014219 0.044674578582556468 0 0.10828434687670541 0.049049973369521209 0 0.1085923347430168 0.054888678040205661 0 0.11545296983014219 0.044674578582556468 0 0.11545296983014219 0.044674578582556468 0 0.12683439495817461 0.052003073372435288 0 0.11545296983014219 0.044674578582556468 0 0.12659142849079691 0.028091664155532971 0 0.13015300311198849 0.040381385354086502 0 0.11369005285381351 0.036564640387925021 0 0.11545296983014219 0.044674578582556468 0 0.12659142849079691 0.028091664155532971 0 0.11369005285381351 0.036564640387925021 0 0.1080469394596527 0.029312409717345649 0 0.12659142849079691 0.028091664155532971 0 0.11545296983014219 0.044674578582556468 0 0.12659142849079691 0.028091664155532971 0 0.1091701701315707 0.045405346223324289 0 0.1063796333462841 0.038668109643535398 0 0.11316657253878901 0.043202368340974628 0 0.11369005285381351 0.036564640387925021 0 0.11316657253878901 0.043202368340974628 0 0.11545296983014219 0.044674578582556468 0 0.1063796333462841 0.038668109643535398 0 0.11369005285381351 0.036564640387925021 0 0.11316657253878901 0.043202368340974628 0 0.1091701701315707 0.045405346223324289 0 0.10828434687670541 0.049049973369521209 0 0.11545296983014219 0.044674578582556468 0 0.1091701701315707 0.045405346223324289 0 0.11316657253878901 0.043202368340974628 0 0.11545296983014219 0.044674578582556468 0 0.11316657253878901 0.043202368340974628 0 0.11545296983014219 0.044674578582556468 0 0.11545296983014219 0.044674578582556468 0 0.13015300311198849 0.040381385354086502 0 0.12683439495817461 0.052003073372435288 0 0.11882011836095251 0.0065886106746579649 0 0.1010264983121123 0.016262416429773479 0 0.12659142849079691 0.028091664155532971 0 0.1010264983121123 0.016262416429773479 0 0.12659142849079691 0.028091664155532971 0 0.1010264983121123 0.016262416429773479 0 0.1080469394596527 0.029312409717345649 0 0.12659142849079691 0.028091664155532971 0 0.11882011836095251 0.0065886106746579649 0 0.1010264983121123 0.016262416429773479 0 0.098011391193308373 -0.0056982583262641584 0 0.088041666307225416 0.02743399724937181 0 0.098246025398924644 0.032379674771496843 0 0.1010264983121123 0.016262416429773479 0 0.098246025398924644 0.032379674771496843 0 0.1010264983121123 0.016262416429773479 0 0.1080469394596527 0.029312409717345649 0 0.102028599401492 0.1079210482782756 0 0.1185648575779607 0.095458187827811403 0 0.097454497296707604 0.093489332089851121 0 0.102028599401492 0.1079210482782756 0 0.094862282777670462 0.1196438628042634 0 0.1117522404438802 0.12667258555115829 0 0.123281054128593 0.11724462113534739 0 0.1117522404438802 0.12667258555115829 0 0.13947052033133081 0.1245003570974072 0 0.102028599401492 0.1079210482782756 0 0.123281054128593 0.11724462113534739 0 0.1117522404438802 0.12667258555115829 0 0.102028599401492 0.1079210482782756 0 0.123281054128593 0.11724462113534739 0 0.102028599401492 0.1079210482782756 0 0.123281054128593 0.11724462113534739 0 0.1185648575779607 0.095458187827811403 0 0.1185648575779607 0.095458187827811403 0 0.10766661625946521 0.081617344394697103 0 0.12679961534922851 0.075073796793526271 0 0.1127439035567581 0.069567645006608142 0 0.10766661625946521 0.081617344394697103 0 0.12679961534922851 0.075073796793526271 0 0.1213053233293625 0.063977455960140386 0 0.1127439035567581 0.069567645006608142 0 0.12679961534922851 0.075073796793526271 0 0.1082136550722141 0.059696613986540442 0 0.1213053233293625 0.063977455960140386 0 0.1127439035567581 0.069567645006608142 0 0.1082136550722141 0.059696613986540442 0 0.089592915186254174 0.067390154600646832 0 0.1014387622560044 0.070574023901201433 0 0.10766661625946521 0.081617344394697103 0 0.08998097741878798 0.081820185866337797 0 0.1082136550722141 0.059696613986540442 0 0.1014387622560044 0.070574023901201433 0 0.089592915186254174 0.067390154600646832 0 0.1082136550722141 0.059696613986540442 0 0.1127439035567581 0.069567645006608142 0 0.1014387622560044 0.070574023901201433 0 0.1127439035567581 0.069567645006608142 0 0.1014387622560044 0.070574023901201433 0 0.10766661625946521 0.081617344394697103 0 0.1185648575779607 0.095458187827811403 0 0.097454497296707604 0.093489332089851121 0 0.10766661625946521 0.081617344394697103 0 0.097454497296707604 0.093489332089851121 0 0.10766661625946521 0.081617344394697103 0 0.08998097741878798 0.081820185866337797 0 0.097454497296707604 0.093489332089851121 0 0.08998097741878798 0.081820185866337797 0 0.080776144674391009 0.098597475421203867 0 0.08998097741878798 0.081820185866337797 0 0.071888117261322881 0.075707086101057836 0 0.080776144674391009 0.098597475421203867 0 0.08998097741878798 0.081820185866337797 0 0.089592915186254174 0.067390154600646832 0 0.071888117261322881 0.075707086101057836 0 0.1014387622560044 0.070574023901201433 0 0.08998097741878798 0.081820185866337797 0 0.089592915186254174 0.067390154600646832 0 0.072379857481358154 0.054137194478101919 0 0.089592915186254174 0.067390154600646832 0 0.071888117261322881 0.075707086101057836 0 0.072379857481358154 0.054137194478101919 0 0.071888117261322881 0.075707086101057836 0 0.06072113176624426 0.066105246874810966 0 0.071888117261322881 0.075707086101057836 0 0.080776144674391009 0.098597475421203867 0 0.059523689947290133 0.089273902564132146 0 0.069834633883481517 0.1065625652268001 0 0.059315065316452309 0.1025539410383776 0 0.059523689947290133 0.089273902564132146 0 0.080776144674391009 0.098597475421203867 0 0.059523689947290133 0.089273902564132146 0 0.069834633883481517 0.1065625652268001 0 0.080776144674391009 0.098597475421203867 0 0.081634330708880196 0.1151370033827101 0 0.069834633883481517 0.1065625652268001 0 0.080776144674391009 0.098597475421203867 0 0.059523689947290133 0.089273902564132146 0 0.069834633883481517 0.1065625652268001 0 0.064307476710745728 0.1098785041095611 0 0.059315065316452309 0.1025539410383776 0 0.102028599401492 0.1079210482782756 0 0.080776144674391009 0.098597475421203867 0 0.081634330708880196 0.1151370033827101 0 0.102028599401492 0.1079210482782756 0 0.080776144674391009 0.098597475421203867 0 0.102028599401492 0.1079210482782756 0 0.097454497296707604 0.093489332089851121 0 0.080776144674391009 0.098597475421203867 0 0.102028599401492 0.1079210482782756 0 0.094862282777670462 0.1196438628042634 0 0.081634330708880196 0.1151370033827101 0 0.094862282777670462 0.1196438628042634 0 0.081634330708880196 0.1151370033827101 0 0.084033960556429532 0.12884481400490949 0 0.081634330708880196 0.1151370033827101 0 0.071861500007931359 0.1232467005620789 0 0.084033960556429532 0.12884481400490949 0 0.081634330708880196 0.1151370033827101 0 0.071861500007931359 0.1232467005620789 0 0.068543873750645412 0.1149277749384955 0 0.069834633883481517 0.1065625652268001 0 0.081634330708880196 0.1151370033827101 0 0.068543873750645412 0.1149277749384955 0 0.068543873750645412 0.1149277749384955 0 0.064307476710745728 0.1098785041095611 0 0.059536333892403683 0.1154697352345713 0 0.069834633883481517 0.1065625652268001 0 0.068543873750645412 0.1149277749384955 0 0.064307476710745728 0.1098785041095611 0 0.071861500007931359 0.1232467005620789 0 0.068543873750645412 0.1149277749384955 0 0.059536333892403683 0.1154697352345713 0 0.056458373241313059 0.1220229844831647 0 0.046980594318971967 0.103944553472415 0 0.044984286063853948 0.1144984098979744 0 0.056458373241313059 0.1220229844831647 0 0.059536333892403683 0.1154697352345713 0 0.047111977694586651 0.095143209078012936 0 0.056458373241313059 0.1220229844831647 0 0.047823074661834691 0.1229743903388081 0 0.044984286063853948 0.1144984098979744 0 0.056458373241313059 0.1220229844831647 0 0.047111977694586651 0.095143209078012936 0 0.056458373241313059 0.1220229844831647 0 0.047111977694586651 0.095143209078012936 0 0.046980594318971967 0.103944553472415 0 0.059536333892403683 0.1154697352345713 0 0.059315065316452309 0.1025539410383776 0 0.048250118395506067 0.092934788779969885 0 0.064307476710745728 0.1098785041095611 0 0.059536333892403683 0.1154697352345713 0 0.059315065316452309 0.1025539410383776 0 0.059536333892403683 0.1154697352345713 0 0.047111977694586651 0.095143209078012936 0 0.048250118395506067 0.092934788779969885 0 0.059536333892403683 0.1154697352345713 0 0.048250118395506067 0.092934788779969885 0 0.059315065316452309 0.1025539410383776 0 0.059523689947290133 0.089273902564132146 0 0.048250118395506067 0.092934788779969885 0 0.046980594318971967 0.103944553472415 0 0.031997015267580219 0.10661530464401089 0 0.044984286063853948 0.1144984098979744 0 0.046980594318971967 0.103944553472415 0 0.039592722901722707 0.099159129702000026 0 0.031997015267580219 0.10661530464401089 0 0.047111977694586651 0.095143209078012936 0 0.046980594318971967 0.103944553472415 0 0.044236279529428407 0.098362398272746204 0 0.043259823202432338 0.095202700838556822 0 0.039592722901722707 0.099159129702000026 0 0.040006298791842428 0.091064350555588536 0 0.047111977694586651 0.095143209078012936 0 0.043259823202432338 0.095202700838556822 0 0.043326765309194368 0.091114650811160686 0 0.047111977694586651 0.095143209078012936 0 0.043259823202432338 0.095202700838556822 0 0.044236279529428407 0.098362398272746204 0 0.046980594318971967 0.103944553472415 0 0.044236279529428407 0.098362398272746204 0 0.039592722901722707 0.099159129702000026 0 0.043259823202432338 0.095202700838556822 0 0.044236279529428407 0.098362398272746204 0 0.039592722901722707 0.099159129702000026 0 0.039592722901722707 0.099159129702000026 0 0.040006298791842428 0.091064350555588536 0 0.033999193661208522 0.092549709374426317 0 0.039592722901722707 0.099159129702000026 0 0.031997015267580219 0.10661530464401089 0 0.033999193661208522 0.092549709374426317 0 0.031997015267580219 0.10661530464401089 0 0.044984286063853948 0.1144984098979744 0 0.040254683338031831 0.12792389191371131 0 0.031997015267580219 0.10661530464401089 0 0.027418588341799281 0.11951208787462859 0 0.040254683338031831 0.12792389191371131 0 0.031997015267580219 0.10661530464401089 0 0.040254683338031831 0.12792389191371131 0 0.047823074661834691 0.1229743903388081 0 0.044984286063853948 0.1144984098979744 0 0.040254683338031831 0.12792389191371131 0 0.071888117261322881 0.075707086101057836 0 0.050643578252195447 0.077240667131504986 0 0.06072113176624426 0.066105246874810966 0 0.071888117261322881 0.075707086101057836 0 0.050643578252195447 0.077240667131504986 0 0.04797297407010033 0.057336039788577382 0 0.050643578252195447 0.077240667131504986 0 0.06072113176624426 0.066105246874810966 0 0.059523689947290133 0.089273902564132146 0 0.048250118395506067 0.092934788779969885 0 0.038271235220189187 0.079950329707060411 0 0.050643578252195447 0.077240667131504986 0 0.059523689947290133 0.089273902564132146 0 0.038271235220189187 0.079950329707060411 0 0.059523689947290133 0.089273902564132146 0 0.038271235220189187 0.079950329707060411 0 0.071888117261322881 0.075707086101057836 0 0.050643578252195447 0.077240667131504986 0 0.059523689947290133 0.089273902564132146 0 0.050643578252195447 0.077240667131504986 0 0.038271235220189187 0.079950329707060411 0 0.029399039243067929 0.078774248161950916 0 0.043326765309194368 0.091114650811160686 0 0.040006298791842428 0.091064350555588536 0 0.038271235220189187 0.079950329707060411 0 0.048250118395506067 0.092934788779969885 0 0.043326765309194368 0.091114650811160686 0 0.038271235220189187 0.079950329707060411 0 0.047111977694586651 0.095143209078012936 0 0.048250118395506067 0.092934788779969885 0 0.043326765309194368 0.091114650811160686 0 0.043259823202432338 0.095202700838556822 0 0.043326765309194368 0.091114650811160686 0 0.040006298791842428 0.091064350555588536 0 0.040006298791842428 0.091064350555588536 0 0.033999193661208522 0.092549709374426317 0 0.035112272261912547 0.085996705185296951 0 0.033999193661208522 0.092549709374426317 0 0.035112272261912547 0.085996705185296951 0 0.030562463090829231 0.085656845023995995 0 0.040006298791842428 0.091064350555588536 0 0.035112272261912547 0.085996705185296951 0 0.038271235220189187 0.079950329707060411 0 0.035112272261912547 0.085996705185296951 0 0.038271235220189187 0.079950329707060411 0 0.029399039243067929 0.078774248161950916 0 0.035112272261912547 0.085996705185296951 0 0.029399039243067929 0.078774248161950916 0 0.030562463090829231 0.085656845023995995 0 0.04797297407010033 0.057336039788577382 0 0.027635028654909001 0.06907575978797427 0 0.029399039243067929 0.078774248161950916 0 0.04797297407010033 0.057336039788577382 0 0.050643578252195447 0.077240667131504986 0 0.029399039243067929 0.078774248161950916 0 0.050643578252195447 0.077240667131504986 0 0.029399039243067929 0.078774248161950916 0 0.04797297407010033 0.057336039788577382 0 0.029399039243067929 0.078774248161950916 0 0.01459521235494949 0.061710637509134872 0 0.030459386295035529 0.05963142741263059 0 0.017825248683011649 0.070045619055208203 0 0.01459521235494949 0.061710637509134872 0 0.017825248683011649 0.070045619055208203 0 0.030459386295035529 0.05963142741263059 0 0.017825248683011649 0.070045619055208203 0 0.030459386295035529 0.05963142741263059 0 0.017825248683011649 0.070045619055208203 0 0.027635028654909001 0.06907575978797427 0 0.027635028654909001 0.06907575978797427 0 0.021430743364398389 0.07934945609652827 0 0.029399039243067929 0.078774248161950916 0 0.017825248683011649 0.070045619055208203 0 0.027635028654909001 0.06907575978797427 0 0.021430743364398389 0.07934945609652827 0 0.017825248683011649 0.070045619055208203 0 0.021430743364398389 0.07934945609652827 0 0.023739347197128589 0.085306717374310406 0 0.0092582498306486675 0.1020209346744549 0 0.021430743364398389 0.07934945609652827 0 0.023739347197128589 0.085306717374310406 0 0.01369104835205702 0.085774757015682671 0 0.021430743364398389 0.07934945609652827 0 0.023739347197128589 0.085306717374310406 0 0.021430743364398389 0.07934945609652827 0 0.029399039243067929 0.078774248161950916 0 0.023739347197128589 0.085306717374310406 0 0.021430743364398389 0.07934945609652827 0 0.029399039243067929 0.078774248161950916 0 0.029399039243067929 0.078774248161950916 0 0.030562463090829231 0.085656845023995995 0 0.023739347197128589 0.085306717374310406 0 0.029399039243067929 0.078774248161950916 0 0.023739347197128589 0.085306717374310406 0 0.033999193661208522 0.092549709374426317 0 0.030562463090829231 0.085656845023995995 0 0.023739347197128589 0.085306717374310406 0 0.023739347197128589 0.085306717374310406 0 0.01369104835205702 0.085774757015682671 0 0.0092582498306486675 0.1020209346744549 0 0.0051087594610210148 0.080527692295617709 0 0.01369104835205702 0.085774757015682671 0 0.0092582498306486675 0.1020209346744549 0 0.021430743364398389 0.07934945609652827 0 0.0051087594610210148 0.080527692295617709 0 0.021430743364398389 0.07934945609652827 0 0.0051087594610210148 0.080527692295617709 0 0.01369104835205702 0.085774757015682671 0 -0.0012292332505543029 0.06378464068123596 0 0.01459521235494949 0.061710637509134872 0 -0.0012292332505543029 0.06378464068123596 0 0.01459521235494949 0.061710637509134872 0 0.0080955592782806732 0.069159055867407046 0 0.017825248683011649 0.070045619055208203 0 0.021430743364398389 0.07934945609652827 0 0.0051087594610210148 0.080527692295617709 0 -0.0012292332505543029 0.06378464068123596 0 0.0051087594610210148 0.080527692295617709 0 0.0080955592782806732 0.069159055867407046 0 0.017825248683011649 0.070045619055208203 0 0.0051087594610210148 0.080527692295617709 0 0.0080955592782806732 0.069159055867407046 0 0.017825248683011649 0.070045619055208203 0 0.0051087594610210148 0.080527692295617709 0 0.01459521235494949 0.061710637509134872 0 0.017825248683011649 0.070045619055208203 0 0.0080955592782806732 0.069159055867407046 0 0.019482067178466251 0.1107491432724047 0 0.017356945103072018 0.1204998149293544 0 0.027418588341799281 0.11951208787462859 0 0.017356945103072018 0.1204998149293544 0 0.027418588341799281 0.11951208787462859 0 0.028136896369567631 0.1331750506540591 0 0.031997015267580219 0.10661530464401089 0 0.019482067178466251 0.1107491432724047 0 0.027418588341799281 0.11951208787462859 0 0.031997015267580219 0.10661530464401089 0 0.033999193661208522 0.092549709374426317 0 0.023739347197128589 0.085306717374310406 0 0.023739347197128589 0.085306717374310406 0 0.02108550348152554 0.10082233348119581 0 0.0092582498306486675 0.1020209346744549 0 0.031997015267580219 0.10661530464401089 0 0.023739347197128589 0.085306717374310406 0 0.031997015267580219 0.10661530464401089 0 0.023739347197128589 0.085306717374310406 0 0.02108550348152554 0.10082233348119581 0 0.031997015267580219 0.10661530464401089 0 0.019482067178466251 0.1107491432724047 0 0.02108550348152554 0.10082233348119581 0 0.019482067178466251 0.1107491432724047 0 0.02108550348152554 0.10082233348119581 0 0.0092582498306486675 0.1020209346744549 0 -0.0040597014752050652 0.1051126182356364 0 0.0051087594610210148 0.080527692295617709 0 0.0092582498306486675 0.1020209346744549 0 0.019482067178466251 0.1107491432724047 0 0.0092582498306486675 0.1020209346744549 0 0.0097761010461718117 0.1150243840307837 0 -0.0052228475358298988 0.1187351519746004 0 0.0092582498306486675 0.1020209346744549 0 -0.0052228475358298988 0.1187351519746004 0 0.0092582498306486675 0.1020209346744549 0 0.0097761010461718117 0.1150243840307837 0 0.019482067178466251 0.1107491432724047 0 0.017356945103072018 0.1204998149293544 0 0.0097761010461718117 0.1150243840307837 0 0.017356945103072018 0.1204998149293544 0 0.0081407562022233586 0.1245196413435004 0 0.017356945103072018 0.1204998149293544 0 0.0097761010461718117 0.1150243840307837 0 0.0081407562022233586 0.1245196413435004 0 -0.0052228475358298988 0.1187351519746004 0 0.0097761010461718117 0.1150243840307837 0 0.0081407562022233586 0.1245196413435004 0 -0.0052228475358298988 0.1187351519746004 0 0.0081407562022233586 0.1245196413435004 0 -0.015783289274076458 0.13495459563681389 0 0.0081407562022233586 0.1245196413435004 0 0.01185912902997375 0.14130758542593569 0 0.017356945103072018 0.1204998149293544 0 0.0081407562022233586 0.1245196413435004 0 0.028136896369567631 0.1331750506540591 0 0.0081407562022233586 0.1245196413435004 0 0.028136896369567631 0.1331750506540591 0 0.0081407562022233586 0.1245196413435004 0 0.028136896369567631 0.1331750506540591 0 0.01185912902997375 0.14130758542593569 0 0.028136896369567631 0.1331750506540591 0 0.0267736462585265 0.15269096182544131 0 0.035919394343652343 0.14075559589415579 0 0.028136896369567631 0.1331750506540591 0 0.0267736462585265 0.15269096182544131 0 0.01185912902997375 0.14130758542593569 0 0.0267736462585265 0.15269096182544131 0 0.001788155555331062 0.1557637096651584 0 0.01185912902997375 0.14130758542593569 0 0.001788155555331062 0.1557637096651584 0 0.00061104658230836653 0.17769045695541219 0 0.019359600384737739 0.17657282369350361 0 0.001788155555331062 0.1557637096651584 0 0.019359600384737739 0.17657282369350361 0 0.00061104658230836653 0.17769045695541219 0 0.019359600384737739 0.17657282369350361 0 0.017852612557627559 0.19656860209324539 0 0.019359600384737739 0.17657282369350361 0 0.036931045214144441 0.19738193772184889 0 0.0267736462585265 0.15269096182544131 0 0.001788155555331062 0.1557637096651584 0 0.019359600384737739 0.17657282369350361 0 0.0267736462585265 0.15269096182544131 0 0.019359600384737739 0.17657282369350361 0 0.038399134829123632 0.17159850230738899 0 0.0267736462585265 0.15269096182544131 0 0.038399134829123632 0.17159850230738899 0 0.048512351408483409 0.1492324791834117 0 0.019359600384737739 0.17657282369350361 0 0.038399134829123632 0.17159850230738899 0 0.036931045214144441 0.19738193772184889 0 0.038399134829123632 0.17159850230738899 0 0.053915020648589329 0.181809847856817 0 0.036931045214144441 0.19738193772184889 0 0.053915020648589329 0.181809847856817 0 0.056298621576963533 0.16595151756685289 0 0.075151164334765874 0.17578253529346821 0 0.038399134829123632 0.17159850230738899 0 0.053915020648589329 0.181809847856817 0 0.056298621576963533 0.16595151756685289 0 0.038399134829123632 0.17159850230738899 0 0.056298621576963533 0.16595151756685289 0 0.048512351408483409 0.1492324791834117 0 0.048512351408483409 0.1492324791834117 0 0.055211699142625699 0.13746009370018761 0 0.065804768788039439 0.14890275988831639 0 0.056298621576963533 0.16595151756685289 0 0.048512351408483409 0.1492324791834117 0 0.065804768788039439 0.14890275988831639 0 0.048512351408483409 0.1492324791834117 0 0.055211699142625699 0.13746009370018761 0 0.049904412172306151 0.13036597214331841 0 0.056458373241313059 0.1220229844831647 0 0.059536333892403683 0.1154697352345713 0 0.070822549389301243 0.1380046816891726 0 0.056458373241313059 0.1220229844831647 0 0.055211699142625699 0.13746009370018761 0 0.065804768788039439 0.14890275988831639 0 0.056458373241313059 0.1220229844831647 0 0.065804768788039439 0.14890275988831639 0 0.056458373241313059 0.1220229844831647 0 0.047823074661834691 0.1229743903388081 0 0.049904412172306151 0.13036597214331841 0 0.056458373241313059 0.1220229844831647 0 0.055211699142625699 0.13746009370018761 0 0.049904412172306151 0.13036597214331841 0 0.048512351408483409 0.1492324791834117 0 0.040254683338031831 0.12792389191371131 0 0.048512351408483409 0.1492324791834117 0 0.040254683338031831 0.12792389191371131 0 0.035919394343652343 0.14075559589415579 0 0.048512351408483409 0.1492324791834117 0 0.049904412172306151 0.13036597214331841 0 0.040254683338031831 0.12792389191371131 0 0.047823074661834691 0.1229743903388081 0 0.049904412172306151 0.13036597214331841 0 0.040254683338031831 0.12792389191371131 0 0.027418588341799281 0.11951208787462859 0 0.028136896369567631 0.1331750506540591 0 0.040254683338031831 0.12792389191371131 0 0.028136896369567631 0.1331750506540591 0 0.040254683338031831 0.12792389191371131 0 0.035919394343652343 0.14075559589415579 0 0.0267736462585265 0.15269096182544131 0 0.048512351408483409 0.1492324791834117 0 0.035919394343652343 0.14075559589415579 0 0.020197736684044801 0.2291273398277828 0 0.034114961552744377 0.23516115760169301 0 0.036501911092354018 0.25177276941539839 0 0.018629400856135309 0.24429501886194191 0 0.020197736684044801 0.2291273398277828 0 0.02692674034290404 0.25134916217479408 0 0.020197736684044801 0.2291273398277828 0 0.02692674034290404 0.25134916217479408 0 0.036501911092354018 0.25177276941539839 0 0.020197736684044801 0.2291273398277828 0 0.036501911092354018 0.25177276941539839 0 0.018629400856135309 0.24429501886194191 0 0.0082785766384091443 0.23618007315607359 0 0.020197736684044801 0.2291273398277828 0 0.018629400856135309 0.24429501886194191 0 0.012944211518790589 0.24639919126045251 0 0.0082785766384091443 0.23618007315607359 0 0.012944211518790589 0.24639919126045251 0 0.001894876929373096 0.24743045501984201 0 0.0082785766384091443 0.23618007315607359 0 -0.0070773620087705444 0.23295897308755351 0 0.001894876929373096 0.24743045501984201 0 0.0082785766384091443 0.23618007315607359 0 0.0082785766384091443 0.23618007315607359 0 0.0038866256090455522 0.2239579318999283 0 0.020197736684044801 0.2291273398277828 0 0.0038866256090455522 0.2239579318999283 0 0.020197736684044801 0.2291273398277828 0 0.003893562275735573 0.2064819102401671 0 -0.0070773620087705444 0.23295897308755351 0 0.0082785766384091443 0.23618007315607359 0 0.0038866256090455522 0.2239579318999283 0 0.01643925603633389 0.21561198758054059 0 0.035370792182188207 0.216260201755786 0 0.034114961552744377 0.23516115760169301 0 0.020197736684044801 0.2291273398277828 0 0.01643925603633389 0.21561198758054059 0 0.034114961552744377 0.23516115760169301 0 0.01643925603633389 0.21561198758054059 0 0.034114961552744377 0.23516115760169301 0 0.017852612557627559 0.19656860209324539 0 0.036931045214144441 0.19738193772184889 0 0.035370792182188207 0.216260201755786 0 0.01643925603633389 0.21561198758054059 0 0.017852612557627559 0.19656860209324539 0 0.035370792182188207 0.216260201755786 0 0.020197736684044801 0.2291273398277828 0 0.003893562275735573 0.2064819102401671 0 -0.0045317147067566524 0.21522543551468479 0 0.0038866256090455522 0.2239579318999283 0 0.003893562275735573 0.2064819102401671 0 -0.0012364494800765971 0.1960628175593882 0 0.01643925603633389 0.21561198758054059 0 -0.0012364494800765971 0.1960628175593882 0 0.01643925603633389 0.21561198758054059 0 0.003893562275735573 0.2064819102401671 0 0.020197736684044801 0.2291273398277828 0 0.01643925603633389 0.21561198758054059 0 0.003893562275735573 0.2064819102401671 0 -0.0012364494800765971 0.1960628175593882 0 0.01643925603633389 0.21561198758054059 0 0.017852612557627559 0.19656860209324539 0 -0.0012364494800765971 0.1960628175593882 0 0.00061104658230836653 0.17769045695541219 0 0.017852612557627559 0.19656860209324539 0 0.019359600384737739 0.17657282369350361 0 0.017852612557627559 0.19656860209324539 0 0.036931045214144441 0.19738193772184889 0 0.053915020648589329 0.181809847856817 0 0.036931045214144441 0.19738193772184889 0 0.062795137287949193 0.19833474639452611 0 0.036931045214144441 0.19738193772184889 0 0.054502490043551163 0.2181910517501941 0 0.062795137287949193 0.19833474639452611 0 0.036931045214144441 0.19738193772184889 0 0.054502490043551163 0.2181910517501941 0 0.036931045214144441 0.19738193772184889 0 0.054502490043551163 0.2181910517501941 0 0.035370792182188207 0.216260201755786 0 0.054502490043551163 0.2181910517501941 0 0.035370792182188207 0.216260201755786 0 0.034114961552744377 0.23516115760169301 0 0.054502490043551163 0.2181910517501941 0 0.055174909047777811 0.2396291133956362 0 0.034114961552744377 0.23516115760169301 0 0.054502490043551163 0.2181910517501941 0 0.055174909047777811 0.2396291133956362 0 0.072073934872957782 0.23900016577853919 0 0.055174909047777811 0.2396291133956362 0 0.034114961552744377 0.23516115760169301 0 0.051790667069154861 0.2547103276228454 0 0.055174909047777811 0.2396291133956362 0 0.051790667069154861 0.2547103276228454 0 0.063392491700480919 0.2510828642249095 0 0.034114961552744377 0.23516115760169301 0 0.036501911092354018 0.25177276941539839 0 0.051790667069154861 0.2547103276228454 0 0.034114961552744377 0.23516115760169301 0 0.051790667069154861 0.2547103276228454 0 0.072073934872957782 0.23900016577853919 0 0.093843955428218759 0.229542086103772 0 0.089645379702363526 0.25980927980688501 0 0.072073934872957782 0.23900016577853919 0 0.089645379702363526 0.25980927980688501 0 0.055174909047777811 0.2396291133956362 0 0.072073934872957782 0.23900016577853919 0 0.063392491700480919 0.2510828642249095 0 0.072073934872957782 0.23900016577853919 0 0.063392491700480919 0.2510828642249095 0 0.074261774750864804 0.25289133929391111 0 0.054502490043551163 0.2181910517501941 0 0.072073934872957782 0.23900016577853919 0 0.054502490043551163 0.2181910517501941 0 0.072073934872957782 0.23900016577853919 0 0.07691655231929137 0.22036312128655 0 0.072073934872957782 0.23900016577853919 0 0.07691655231929137 0.22036312128655 0 0.093843955428218759 0.229542086103772 0 0.084497559881492323 0.20266231069862009 0 0.1011551627426199 0.2154511434485995 0 0.093843955428218759 0.229542086103772 0 0.084497559881492323 0.20266231069862009 0 0.093843955428218759 0.229542086103772 0 0.07691655231929137 0.22036312128655 0 0.084497559881492323 0.20266231069862009 0 0.093843955428218759 0.229542086103772 0 0.07691655231929137 0.22036312128655 0 0.062795137287949193 0.19833474639452611 0 0.084497559881492323 0.20266231069862009 0 0.054502490043551163 0.2181910517501941 0 0.07691655231929137 0.22036312128655 0 0.062795137287949193 0.19833474639452611 0 0.062795137287949193 0.19833474639452611 0 0.084497559881492323 0.20266231069862009 0 0.075151164334765874 0.17578253529346821 0 0.084497559881492323 0.20266231069862009 0 0.075151164334765874 0.17578253529346821 0 0.084497559881492323 0.20266231069862009 0 0.10184565838461331 0.1924014028594688 0 0.093394980383096363 0.18307457459837531 0 0.084497559881492323 0.20266231069862009 0 0.10184565838461331 0.1924014028594688 0 0.10260278643249959 0.20376756124449391 0 0.10184565838461331 0.1924014028594688 0 0.1105875138732399 0.1994169567440035 0 0.10260278643249959 0.20376756124449391 0 0.10184565838461331 0.1924014028594688 0 0.1131184160342838 0.18994185980391479 0 0.1105875138732399 0.1994169567440035 0 0.10184565838461331 0.1924014028594688 0 0.1131184160342838 0.18994185980391479 0 0.1054525685194168 0.18020148819897211 0 0.1131184160342838 0.18994185980391479 0 0.1210814068145178 0.19423580856195369 0 0.1131184160342838 0.18994185980391479 0 0.1210814068145178 0.19423580856195369 0 0.1196286990311512 0.18236386641526309 0 0.1210814068145178 0.19423580856195369 0 0.11958782189190099 0.20227867846385961 0 0.13241563583181001 0.2003476577346209 0 0.1131184160342838 0.18994185980391479 0 0.1210814068145178 0.19423580856195369 0 0.11958782189190099 0.20227867846385961 0 0.1131184160342838 0.18994185980391479 0 0.11958782189190099 0.20227867846385961 0 0.1105875138732399 0.1994169567440035 0 0.11958782189190099 0.20227867846385961 0 0.1105875138732399 0.1994169567440035 0 0.11467542950451071 0.21015036581969679 0 0.11958782189190099 0.20227867846385961 0 0.11467542950451071 0.21015036581969679 0 0.12714211421566091 0.2115365522170618 0 0.11467542950451071 0.21015036581969679 0 0.1287590091161889 0.22454109023782651 0 0.12714211421566091 0.2115365522170618 0 0.11467542950451071 0.21015036581969679 0 0.1011551627426199 0.2154511434485995 0 0.1117838155087727 0.22779371718329239 0 0.084497559881492323 0.20266231069862009 0 0.10260278643249959 0.20376756124449391 0 0.1011551627426199 0.2154511434485995 0 0.1105875138732399 0.1994169567440035 0 0.11467542950451071 0.21015036581969679 0 0.10260278643249959 0.20376756124449391 0 0.11467542950451071 0.21015036581969679 0 0.10260278643249959 0.20376756124449391 0 0.1011551627426199 0.2154511434485995 0 0.1011551627426199 0.2154511434485995 0 0.093843955428218759 0.229542086103772 0 0.1117838155087727 0.22779371718329239 0 0.11467542950451071 0.21015036581969679 0 0.1117838155087727 0.22779371718329239 0 0.1287590091161889 0.22454109023782651 0 0.1117838155087727 0.22779371718329239 0 0.1287590091161889 0.22454109023782651 0 0.116065923487036 0.25155424759680489 0 0.093843955428218759 0.229542086103772 0 0.089645379702363526 0.25980927980688501 0 0.116065923487036 0.25155424759680489 0 0.093843955428218759 0.229542086103772 0 0.1117838155087727 0.22779371718329239 0 0.116065923487036 0.25155424759680489 0 0.085867858697711436 0.14453522140638461 0 0.070822549389301243 0.1380046816891726 0 0.082108764886198796 0.1605396281437739 0 0.085867858697711436 0.14453522140638461 0 0.082108764886198796 0.1605396281437739 0 0.098061838006449922 0.1524476624703702 0 0.085867858697711436 0.14453522140638461 0 0.084033960556429532 0.12884481400490949 0 0.098019367542785563 0.1407790739484335 0 0.085867858697711436 0.14453522140638461 0 0.084033960556429532 0.12884481400490949 0 0.070822549389301243 0.1380046816891726 0 0.071861500007931359 0.1232467005620789 0 0.059536333892403683 0.1154697352345713 0 0.070822549389301243 0.1380046816891726 0 0.059536333892403683 0.1154697352345713 0 0.070822549389301243 0.1380046816891726 0 0.056458373241313059 0.1220229844831647 0 0.070822549389301243 0.1380046816891726 0 0.065804768788039439 0.14890275988831639 0 0.071861500007931359 0.1232467005620789 0 0.084033960556429532 0.12884481400490949 0 0.070822549389301243 0.1380046816891726 0 0.070822549389301243 0.1380046816891726 0 0.082108764886198796 0.1605396281437739 0 0.070822549389301243 0.1380046816891726 0 0.065804768788039439 0.14890275988831639 0 0.082108764886198796 0.1605396281437739 0 0.056298621576963533 0.16595151756685289 0 0.065804768788039439 0.14890275988831639 0 0.075151164334765874 0.17578253529346821 0 0.065804768788039439 0.14890275988831639 0 0.075151164334765874 0.17578253529346821 0 0.082108764886198796 0.1605396281437739 0 0.065804768788039439 0.14890275988831639 0 0.075151164334765874 0.17578253529346821 0 0.053915020648589329 0.181809847856817 0 0.062795137287949193 0.19833474639452611 0 0.075151164334765874 0.17578253529346821 0 0.075151164334765874 0.17578253529346821 0 0.093394980383096363 0.18307457459837531 0 0.082108764886198796 0.1605396281437739 0 0.084497559881492323 0.20266231069862009 0 0.075151164334765874 0.17578253529346821 0 0.093394980383096363 0.18307457459837531 0 0.093394980383096363 0.18307457459837531 0 0.082108764886198796 0.1605396281437739 0 0.1017810834163356 0.16778327145988009 0 0.093394980383096363 0.18307457459837531 0 0.082108764886198796 0.1605396281437739 0 0.082108764886198796 0.1605396281437739 0 0.1017810834163356 0.16778327145988009 0 0.098061838006449922 0.1524476624703702 0 0.1017810834163356 0.16778327145988009 0 0.1094413004412432 0.1568441156191657 0 0.098061838006449922 0.1524476624703702 0 0.10184565838461331 0.1924014028594688 0 0.093394980383096363 0.18307457459837531 0 0.1054525685194168 0.18020148819897211 0 0.093394980383096363 0.18307457459837531 0 0.1017810834163356 0.16778327145988009 0 0.1054525685194168 0.18020148819897211 0 0.1017810834163356 0.16778327145988009 0 0.1054525685194168 0.18020148819897211 0 0.1143103312636523 0.17467474260035151 0 0.1131184160342838 0.18994185980391479 0 0.1132877880089454 0.18182979361660931 0 0.1196286990311512 0.18236386641526309 0 0.1131184160342838 0.18994185980391479 0 0.1054525685194168 0.18020148819897211 0 0.1132877880089454 0.18182979361660931 0 0.1054525685194168 0.18020148819897211 0 0.1132877880089454 0.18182979361660931 0 0.1143103312636523 0.17467474260035151 0 0.1132877880089454 0.18182979361660931 0 0.1143103312636523 0.17467474260035151 0 0.1196286990311512 0.18236386641526309 0 0.1143103312636523 0.17467474260035151 0 0.1229466648353691 0.17360959233997481 0 0.1196286990311512 0.18236386641526309 0 0.1229466648353691 0.17360959233997481 0 0.1196286990311512 0.18236386641526309 0 0.1315359285025598 0.17914174819028489 0 0.1210814068145178 0.19423580856195369 0 0.1196286990311512 0.18236386641526309 0 0.1315359285025598 0.17914174819028489 0 0.1017810834163356 0.16778327145988009 0 0.1143103312636523 0.17467474260035151 0 0.11826309888899959 0.1638296446882945 0 0.1017810834163356 0.16778327145988009 0 0.1094413004412432 0.1568441156191657 0 0.11826309888899959 0.1638296446882945 0 0.1094413004412432 0.1568441156191657 0 0.11826309888899959 0.1638296446882945 0 0.12116198843957229 0.15461983439099389 0 0.1143103312636523 0.17467474260035151 0 0.1229466648353691 0.17360959233997481 0 0.11826309888899959 0.1638296446882945 0 0.1229466648353691 0.17360959233997481 0 0.11826309888899959 0.1638296446882945 0 0.1286748755814317 0.16568949079043779 0 0.11826309888899959 0.1638296446882945 0 0.12116198843957229 0.15461983439099389 0 0.1286748755814317 0.16568949079043779 0 0.12116198843957229 0.15461983439099389 0 0.1235319134973574 0.14279740261083959 0 0.11069945258584669 0.14552439304262721 0 0.1094413004412432 0.1568441156191657 0 0.12116198843957229 0.15461983439099389 0 0.11069945258584669 0.14552439304262721 0 0.1094413004412432 0.1568441156191657 0 0.11069945258584669 0.14552439304262721 0 0.098061838006449922 0.1524476624703702 0 0.11069945258584669 0.14552439304262721 0 0.098019367542785563 0.1407790739484335 0 0.098061838006449922 0.1524476624703702 0 0.085867858697711436 0.14453522140638461 0 0.098019367542785563 0.1407790739484335 0 0.098061838006449922 0.1524476624703702 0 0.084033960556429532 0.12884481400490949 0 0.1117522404438802 0.12667258555115829 0 0.094862282777670462 0.1196438628042634 0 0.084033960556429532 0.12884481400490949 0 0.1117522404438802 0.12667258555115829 0 0.084033960556429532 0.12884481400490949 0 0.098019367542785563 0.1407790739484335 0 0.1117522404438802 0.12667258555115829 0 0.11069945258584669 0.14552439304262721 0 0.098019367542785563 0.1407790739484335 0 0.1117522404438802 0.12667258555115829 0 0.1235319134973574 0.14279740261083959 0 0.11069945258584669 0.14552439304262721 0 0.1117522404438802 0.12667258555115829 0 0.1235319134973574 0.14279740261083959 0 0.1117522404438802 0.12667258555115829 0 0.1338250830151082 0.13680555700437169 0 0.1117522404438802 0.12667258555115829 0 0.1338250830151082 0.13680555700437169 0 0.13947052033133081 0.1245003570974072 0 0.1117522404438802 0.12667258555115829 0 0.13947052033133081 0.1245003570974072 0 0.1338250830151082 0.13680555700437169 0 0.14773514824261011 0.13994704674368119 0 0.13947052033133081 0.1245003570974072 0 0.14773514824261011 0.13994704674368119 0 0.13947052033133081 0.1245003570974072 0 0.16718880021878149 0.12232812864365609 0 0.14773514824261011 0.13994704674368119 0 0.1492794596183103 0.15557552201751701 0 0.16307655427518189 0.1461583771030025 0 0.14773514824261011 0.13994704674368119 0 0.1492794596183103 0.15557552201751701 0 0.13636128964255501 0.15303395959459851 0 0.1235319134973574 0.14279740261083959 0 0.1338250830151082 0.13680555700437169 0 0.13636128964255501 0.15303395959459851 0 0.1338250830151082 0.13680555700437169 0 0.14773514824261011 0.13994704674368119 0 0.13636128964255501 0.15303395959459851 0 0.12116198843957229 0.15461983439099389 0 0.1235319134973574 0.14279740261083959 0 0.13636128964255501 0.15303395959459851 0 0.12116198843957229 0.15461983439099389 0 0.13636128964255501 0.15303395959459851 0 0.1286748755814317 0.16568949079043779 0 0.13636128964255501 0.15303395959459851 0 0.1286748755814317 0.16568949079043779 0 0.1402599975996246 0.1687496010839549 0 0.1286748755814317 0.16568949079043779 0 0.1402599975996246 0.1687496010839549 0 0.1315359285025598 0.17914174819028489 0 0.1210814068145178 0.19423580856195369 0 0.1315359285025598 0.17914174819028489 0 0.14172685770208041 0.18088834424850889 0 0.1229466648353691 0.17360959233997481 0 0.1286748755814317 0.16568949079043779 0 0.1315359285025598 0.17914174819028489 0 0.1402599975996246 0.1687496010839549 0 0.1315359285025598 0.17914174819028489 0 0.14172685770208041 0.18088834424850889 0 0.1315359285025598 0.17914174819028489 0 0.14172685770208041 0.18088834424850889 0 0.14172685770208041 0.18088834424850889 0 0.1589643083315804 0.1699886255623487 0 0.15664227980061579 0.1834446584897341 0 0.14172685770208041 0.18088834424850889 0 0.1589643083315804 0.1699886255623487 0 0.1402599975996246 0.1687496010839549 0 0.14172685770208041 0.18088834424850889 0 0.1589643083315804 0.1699886255623487 0 0.14172685770208041 0.18088834424850889 0 0.15664227980061579 0.1834446584897341 0 0.14735069213281321 0.19092796682168489 0 0.14172685770208041 0.18088834424850889 0 0.15664227980061579 0.1834446584897341 0 0.1492794596183103 0.15557552201751701 0 0.1402599975996246 0.1687496010839549 0 0.1589643083315804 0.1699886255623487 0 0.1492794596183103 0.15557552201751701 0 0.13636128964255501 0.15303395959459851 0 0.1402599975996246 0.1687496010839549 0 0.1492794596183103 0.15557552201751701 0 0.1589643083315804 0.1699886255623487 0 0.16307655427518189 0.1461583771030025 0 0.1589643083315804 0.1699886255623487 0 0.1832181015668064 0.15465227861531949 0 0.16307655427518189 0.1461583771030025 0 0.1589643083315804 0.1699886255623487 0 0.16307655427518189 0.1461583771030025 0 0.1589643083315804 0.1699886255623487 0 0.1832181015668064 0.15465227861531949 0 0.1589643083315804 0.1699886255623487 0 0.15664227980061579 0.1834446584897341 0 0.17367876449497299 0.17356388092826039 0 0.15664227980061579 0.1834446584897341 0 0.17803712215301101 0.18711146321258301 0 0.15664227980061579 0.1834446584897341 0 0.17367876449497299 0.17356388092826039 0 0.17803712215301101 0.18711146321258301 0 0.1589643083315804 0.1699886255623487 0 0.15664227980061579 0.1834446584897341 0 0.17367876449497299 0.17356388092826039 0 0.17803712215301101 0.18711146321258301 0 0.1915320106228488 0.17262237876131631 0 0.1589643083315804 0.1699886255623487 0 0.17367876449497299 0.17356388092826039 0 0.1832181015668064 0.15465227861531949 0 0.17367876449497299 0.17356388092826039 0 0.1832181015668064 0.15465227861531949 0 0.1915320106228488 0.17262237876131631 0 0.1832181015668064 0.15465227861531949 0 0.18154761934540289 0.13534417850528041 0 0.16307655427518189 0.1461583771030025 0 0.18154761934540289 0.13534417850528041 0 0.19370351113240411 0.1202502215829211 0 0.16718880021878149 0.12232812864365609 0 0.16307655427518189 0.1461583771030025 0 0.16718880021878149 0.12232812864365609 0 0.14773514824261011 0.13994704674368119 0 0.16307655427518189 0.1461583771030025 0 0.16718880021878149 0.12232812864365609 0 0.18154761934540289 0.13534417850528041 0 0.16307655427518189 0.1461583771030025 0 0.16718880021878149 0.12232812864365609 0 0.14248646727170791 0.24329921538672239 0 0.16890701105638031 0.23504418317664161 0 0.14248646727170791 0.24329921538672239 0 0.116065923487036 0.25155424759680489 0 0.14248646727170791 0.24329921538672239 0 0.1287590091161889 0.22454109023782651 0 0.116065923487036 0.25155424759680489 0 0.14248646727170791 0.24329921538672239 0 0.1287590091161889 0.22454109023782651 0 0.14216045677169509 0.2226427774354276 0 0.1287590091161889 0.22454109023782651 0 0.14216045677169509 0.2226427774354276 0 0.13903299807830019 0.21154409335764149 0 0.14248646727170791 0.24329921538672239 0 0.14216045677169509 0.2226427774354276 0 0.16890701105638031 0.23504418317664161 0 0.14216045677169509 0.2226427774354276 0 0.1513137794066001 0.21432303737238931 0 0.16890701105638031 0.23504418317664161 0 0.15183105921464751 0.210852851725322 0 0.13241563583181001 0.2003476577346209 0 0.15183105921464751 0.210852851725322 0 0.13903299807830019 0.21154409335764149 0 0.13241563583181001 0.2003476577346209 0 0.1513137794066001 0.21432303737238931 0 0.15183105921464751 0.210852851725322 0 0.14522842943996589 0.21534193400985699 0 0.1513137794066001 0.21432303737238931 0 0.15183105921464751 0.210852851725322 0 0.15183105921464751 0.210852851725322 0 0.14522842943996589 0.21534193400985699 0 0.13903299807830019 0.21154409335764149 0 0.14216045677169509 0.2226427774354276 0 0.1513137794066001 0.21432303737238931 0 0.14522842943996589 0.21534193400985699 0 0.14216045677169509 0.2226427774354276 0 0.14522842943996589 0.21534193400985699 0 0.13903299807830019 0.21154409335764149 0 0.1287590091161889 0.22454109023782651 0 0.13903299807830019 0.21154409335764149 0 0.12714211421566091 0.2115365522170618 0 0.11958782189190099 0.20227867846385961 0 0.12714211421566091 0.2115365522170618 0 0.13241563583181001 0.2003476577346209 0 0.13903299807830019 0.21154409335764149 0 0.12714211421566091 0.2115365522170618 0 0.13241563583181001 0.2003476577346209 0 0.1210814068145178 0.19423580856195369 0 0.13241563583181001 0.2003476577346209 0 0.13808072668616231 0.19149491569441959 0 0.1210814068145178 0.19423580856195369 0 0.14172685770208041 0.18088834424850889 0 0.13808072668616231 0.19149491569441959 0 0.1210814068145178 0.19423580856195369 0 0.14172685770208041 0.18088834424850889 0 0.1210814068145178 0.19423580856195369 0 0.13241563583181001 0.2003476577346209 0 0.15664227980061579 0.1834446584897341 0 0.15183105921464751 0.210852851725322 0 0.14735069213281321 0.19092796682168489 0 0.14172685770208041 0.18088834424850889 0 0.13808072668616231 0.19149491569441959 0 0.14735069213281321 0.19092796682168489 0 0.15183105921464751 0.210852851725322 0 0.13808072668616231 0.19149491569441959 0 0.14735069213281321 0.19092796682168489 0 0.15664227980061579 0.1834446584897341 0 0.15183105921464751 0.210852851725322 0 0.15183105921464751 0.210852851725322 0 0.13241563583181001 0.2003476577346209 0 0.13808072668616231 0.19149491569441959 0 0.15183105921464751 0.210852851725322 0 0.13808072668616231 0.19149491569441959 0 0.15664227980061579 0.1834446584897341 0 0.17803712215301101 0.18711146321258301 0 0.17078007948547791 0.20461318166966591 0 0.15664227980061579 0.1834446584897341 0 0.15183105921464751 0.210852851725322 0 0.17078007948547791 0.20461318166966591 0 0.17803712215301101 0.18711146321258301 0 0.18699821765939811 0.20575379358823331 0 0.17078007948547791 0.20461318166966591 0 0.18699821765939811 0.20575379358823331 0 0.18150256540618689 0.21619068467845909 0 0.17078007948547791 0.20461318166966591 0 0.18150256540618689 0.21619068467845909 0 0.17078007948547791 0.20461318166966591 0 0.1696832039875637 0.2204437538389574 0 0.15183105921464751 0.210852851725322 0 0.1696832039875637 0.2204437538389574 0 0.15183105921464751 0.210852851725322 0 0.17078007948547791 0.20461318166966591 0 0.1696832039875637 0.2204437538389574 0 0.15183105921464751 0.210852851725322 0 0.16890701105638031 0.23504418317664161 0 0.15183105921464751 0.210852851725322 0 0.1696832039875637 0.2204437538389574 0 0.16890701105638031 0.23504418317664161 0 0.1513137794066001 0.21432303737238931 0 0.15183105921464751 0.210852851725322 0 0.16890701105638031 0.23504418317664161 0 0.1696832039875637 0.2204437538389574 0 0.1730962958839812 0.23373525170759399 0 0.16890701105638031 0.23504418317664161 0 0.18150256540618689 0.21619068467845909 0 0.1696832039875637 0.2204437538389574 0 0.1874551123034256 0.23002704556275291 0 0.1696832039875637 0.2204437538389574 0 0.1874551123034256 0.23002704556275291 0 0.1730962958839812 0.23373525170759399 0 0.1696832039875637 0.2204437538389574 0 0.1874551123034256 0.23002704556275291 0 0.16890701105638031 0.23504418317664161 0 0.18564289691528729 0.25868749876629671 0 0.1821848497420967 0.24129823675235251 0 0.16890701105638031 0.23504418317664161 0 0.18564289691528729 0.25868749876629671 0 0.1730962958839812 0.23373525170759399 0 0.1821848497420967 0.24129823675235251 0 0.16890701105638031 0.23504418317664161 0 0.1874551123034256 0.23002704556275291 0 0.1730962958839812 0.23373525170759399 0 0.1821848497420967 0.24129823675235251 0 0.14248646727170791 0.24329921538672239 0 0.16890701105638031 0.23504418317664161 0 0.1631161995596529 0.25657386530356069 0 0.1730962958839812 0.23373525170759399 0 0.16890701105638031 0.23504418317664161 0 0.2052270206192876 0.23961033728654851 0 0.2245441737887168 0.23093760545441711 0 0.21458810326103989 0.25029177234766842 0 0.2052270206192876 0.23961033728654851 0 0.2050239072751949 0.2492833193895482 0 0.21458810326103989 0.25029177234766842 0 0.2052270206192876 0.23961033728654851 0 0.2050239072751949 0.2492833193895482 0 0.1956251304139873 0.24830732682566101 0 0.1874551123034256 0.23002704556275291 0 0.1821848497420967 0.24129823675235251 0 0.1956251304139873 0.24830732682566101 0 0.1874551123034256 0.23002704556275291 0 0.2052270206192876 0.23961033728654851 0 0.1821848497420967 0.24129823675235251 0 0.1956251304139873 0.24830732682566101 0 0.18564289691528729 0.25868749876629671 0 0.1874551123034256 0.23002704556275291 0 0.2052270206192876 0.23961033728654851 0 0.1956251304139873 0.24830732682566101 0 0.1874551123034256 0.23002704556275291 0 0.2052270206192876 0.23961033728654851 0 0.20110338325899621 0.22697869990708769 0 0.18150256540618689 0.21619068467845909 0 0.1874551123034256 0.23002704556275291 0 0.19422843088031849 0.2167901493339745 0 0.1874551123034256 0.23002704556275291 0 0.20110338325899621 0.22697869990708769 0 0.19422843088031849 0.2167901493339745 0 0.20110338325899621 0.22697869990708769 0 0.2086865974780466 0.21738525977654841 0 0.19422843088031849 0.2167901493339745 0 0.2052270206192876 0.23961033728654851 0 0.21155197229915221 0.22775520817690251 0 0.2245441737887168 0.23093760545441711 0 0.20110338325899621 0.22697869990708769 0 0.21155197229915221 0.22775520817690251 0 0.2086865974780466 0.21738525977654841 0 0.2052270206192876 0.23961033728654851 0 0.20110338325899621 0.22697869990708769 0 0.21155197229915221 0.22775520817690251 0 0.21155197229915221 0.22775520817690251 0 0.2086865974780466 0.21738525977654841 0 0.22156171208109349 0.2232889965660497 0 0.211417792929007 0.20448623071467029 0 0.2086865974780466 0.21738525977654841 0 0.22411523440486891 0.2128525325182862 0 0.2086865974780466 0.21738525977654841 0 0.22411523440486891 0.2128525325182862 0 0.22156171208109349 0.2232889965660497 0 0.211417792929007 0.20448623071467029 0 0.2086865974780466 0.21738525977654841 0 0.19996516513116139 0.20542151256053021 0 0.2086865974780466 0.21738525977654841 0 0.19422843088031849 0.2167901493339745 0 0.19996516513116139 0.20542151256053021 0 0.18699821765939811 0.20575379358823331 0 0.18150256540618689 0.21619068467845909 0 0.19422843088031849 0.2167901493339745 0 0.18699821765939811 0.20575379358823331 0 0.19422843088031849 0.2167901493339745 0 0.19996516513116139 0.20542151256053021 0 0.18699821765939811 0.20575379358823331 0 0.19996516513116139 0.20542151256053021 0 0.19943196450540629 0.19077826793543179 0 0.17803712215301101 0.18711146321258301 0 0.19943196450540629 0.19077826793543179 0 0.17803712215301101 0.18711146321258301 0 0.18699821765939811 0.20575379358823331 0 0.19943196450540629 0.19077826793543179 0 0.211417792929007 0.20448623071467029 0 0.19943196450540629 0.19077826793543179 0 0.22082680685780151 0.19444507265828059 0 0.19943196450540629 0.19077826793543179 0 0.22082680685780151 0.19444507265828059 0 0.211417792929007 0.20448623071467029 0 0.19996516513116139 0.20542151256053021 0 0.19943196450540629 0.19077826793543179 0 0.22082680685780151 0.19444507265828059 0 0.2418323282778008 0.1922485172988235 0 0.23200417938957321 0.20455559625434991 0 0.22082680685780151 0.19444507265828059 0 0.2418323282778008 0.1922485172988235 0 0.2298041727050075 0.1787595393801808 0 0.2418323282778008 0.1922485172988235 0 0.24124234801782149 0.21867626254200909 0 0.2418323282778008 0.1922485172988235 0 0.24124234801782149 0.21867626254200909 0 0.25471258750952741 0.20148162901819469 0 0.2418323282778008 0.1922485172988235 0 0.24124234801782149 0.21867626254200909 0 0.23200417938957321 0.20455559625434991 0 0.24124234801782149 0.21867626254200909 0 0.25357276657721323 0.21641202867955539 0 0.25471258750952741 0.20148162901819469 0 0.24124234801782149 0.21867626254200909 0 0.22411523440486891 0.2128525325182862 0 0.2303270751280653 0.22194856436908961 0 0.211417792929007 0.20448623071467029 0 0.22082680685780151 0.19444507265828059 0 0.22411523440486891 0.2128525325182862 0 0.22082680685780151 0.19444507265828059 0 0.23200417938957321 0.20455559625434991 0 0.22411523440486891 0.2128525325182862 0 0.24124234801782149 0.21867626254200909 0 0.23200417938957321 0.20455559625434991 0 0.22411523440486891 0.2128525325182862 0 0.22411523440486891 0.2128525325182862 0 0.22156171208109349 0.2232889965660497 0 0.2303270751280653 0.22194856436908961 0 0.22156171208109349 0.2232889965660497 0 0.2245441737887168 0.23093760545441711 0 0.2301452193877111 0.22885480910105491 0 0.21155197229915221 0.22775520817690251 0 0.22156171208109349 0.2232889965660497 0 0.2245441737887168 0.23093760545441711 0 0.2301452193877111 0.22885480910105491 0 0.23408043491912681 0.23335190051361199 0 0.23787356880598759 0.22384871304106421 0 0.2301452193877111 0.22885480910105491 0 0.23408043491912681 0.23335190051361199 0 0.2258394828391487 0.23585902185418811 0 0.2245441737887168 0.23093760545441711 0 0.2301452193877111 0.22885480910105491 0 0.2258394828391487 0.23585902185418811 0 0.2301452193877111 0.22885480910105491 0 0.2303270751280653 0.22194856436908961 0 0.23787356880598759 0.22384871304106421 0 0.22156171208109349 0.2232889965660497 0 0.2301452193877111 0.22885480910105491 0 0.2303270751280653 0.22194856436908961 0 0.24124234801782149 0.21867626254200909 0 0.2303270751280653 0.22194856436908961 0 0.23787356880598759 0.22384871304106421 0 0.24124234801782149 0.21867626254200909 0 0.23787356880598759 0.22384871304106421 0 0.25357276657721323 0.21641202867955539 0 0.23408043491912681 0.23335190051361199 0 0.24868260911088891 0.2303107595792985 0 0.25357276657721323 0.21641202867955539 0 0.23408043491912681 0.23335190051361199 0 0.23787356880598759 0.22384871304106421 0 0.25357276657721323 0.21641202867955539 0 0.23408043491912681 0.23335190051361199 0 0.25357276657721323 0.21641202867955539 0 0.24868260911088891 0.2303107595792985 0 0.2392512687495113 0.23539683186585869 0 0.2471090749199483 0.2357199094212839 0 0.23408043491912681 0.23335190051361199 0 0.24868260911088891 0.2303107595792985 0 0.2392512687495113 0.23539683186585869 0 0.23408043491912681 0.23335190051361199 0 0.2356673672060029 0.23553231024254659 0 0.23369101455560959 0.23545012385447089 0 0.2356673672060029 0.23553231024254659 0 0.23652425047500741 0.24096462129343871 0 0.23369101455560959 0.23545012385447089 0 0.23652425047500741 0.24096462129343871 0 0.2392512687495113 0.23539683186585869 0 0.24523436150048811 0.24199469982198529 0 0.2356673672060029 0.23553231024254659 0 0.23652425047500741 0.24096462129343871 0 0.2392512687495113 0.23539683186585869 0 0.23408043491912681 0.23335190051361199 0 0.2356673672060029 0.23553231024254659 0 0.2392512687495113 0.23539683186585869 0 0.24523436150048811 0.24199469982198529 0 0.2471090749199483 0.2357199094212839 0 0.25452501640087027 0.2374112721999547 0 0.2392512687495113 0.23539683186585869 0 0.24523436150048811 0.24199469982198529 0 0.2471090749199483 0.2357199094212839 0 0.24523436150048811 0.24199469982198529 0 0.23995652529561701 0.25039133628829258 0 0.25404003316197471 0.25208422786308371 0 0.23652425047500741 0.24096462129343871 0 0.24523436150048811 0.24199469982198529 0 0.23995652529561701 0.25039133628829258 0 0.23652425047500741 0.24096462129343871 0 0.23169913173193779 0.25404958449575432 0 0.23995652529561701 0.25039133628829258 0 0.23369101455560959 0.23545012385447089 0 0.2170338530129477 0.25958452376210089 0 0.21458810326103989 0.25029177234766842 0 0.23408043491912681 0.23335190051361199 0 0.23369101455560959 0.23545012385447089 0 0.21458810326103989 0.25029177234766842 0 0.23408043491912681 0.23335190051361199 0 0.21458810326103989 0.25029177234766842 0 0.2245441737887168 0.23093760545441711 0 0.21458810326103989 0.25029177234766842 0 0.23408043491912681 0.23335190051361199 0 0.2258394828391487 0.23585902185418811 0 0.21458810326103989 0.25029177234766842 0 0.23369101455560959 0.23545012385447089 0 0.2170338530129477 0.25958452376210089 0 0.23169913173193779 0.25404958449575432 0 0.23652425047500741 0.24096462129343871 0 0.23369101455560959 0.23545012385447089 0 0.23169913173193779 0.25404958449575432 0 0.23369101455560959 0.23545012385447089 0 0.2170338530129477 0.25958452376210089 0 0.2245441737887168 0.23093760545441711 0 0.2258394828391487 0.23585902185418811 0 0.21458810326103989 0.25029177234766842 0 0.2074718948020329 0.13931593166829101 0 0.2035930282546865 0.1573108976369578 0 0.22801201431925219 0.15227861461809999 0 0.2074718948020329 0.13931593166829101 0 0.22815060196587239 0.13250420183309389 0 0.2202182220460269 0.1181723145221887 0 0.2074718948020329 0.13931593166829101 0 0.2202182220460269 0.1181723145221887 0 0.19370351113240411 0.1202502215829211 0 0.18154761934540289 0.13534417850528041 0 0.2074718948020329 0.13931593166829101 0 0.19370351113240411 0.1202502215829211 0 0.1832181015668064 0.15465227861531949 0 0.2074718948020329 0.13931593166829101 0 0.1832181015668064 0.15465227861531949 0 0.18154761934540289 0.13534417850528041 0 0.2074718948020329 0.13931593166829101 0 0.1832181015668064 0.15465227861531949 0 0.2074718948020329 0.13931593166829101 0 0.2035930282546865 0.1573108976369578 0 0.1832181015668064 0.15465227861531949 0 0.1915320106228488 0.17262237876131631 0 0.2035930282546865 0.1573108976369578 0 0.1915320106228488 0.17262237876131631 0 0.21309098299550949 0.1707274381193544 0 0.2035930282546865 0.1573108976369578 0 0.19943196450540629 0.19077826793543179 0 0.1915320106228488 0.17262237876131631 0 0.21309098299550949 0.1707274381193544 0 0.17803712215301101 0.18711146321258301 0 0.19943196450540629 0.19077826793543179 0 0.1915320106228488 0.17262237876131631 0 0.19943196450540629 0.19077826793543179 0 0.22082680685780151 0.19444507265828059 0 0.21309098299550949 0.1707274381193544 0 0.21309098299550949 0.1707274381193544 0 0.2035930282546865 0.1573108976369578 0 0.22801201431925219 0.15227861461809999 0 0.2298041727050075 0.1787595393801808 0 0.2424223085377801 0.16582077205563811 0 0.22801201431925219 0.15227861461809999 0 0.21309098299550949 0.1707274381193544 0 0.2298041727050075 0.1787595393801808 0 0.22801201431925219 0.15227861461809999 0 0.22082680685780151 0.19444507265828059 0 0.21309098299550949 0.1707274381193544 0 0.2298041727050075 0.1787595393801808 0 0.2418323282778008 0.1922485172988235 0 0.2424223085377801 0.16582077205563811 0 0.2418323282778008 0.1922485172988235 0 0.2424223085377801 0.16582077205563811 0 0.26032431562704572 0.18342712708893841 0 0.2418323282778008 0.1922485172988235 0 0.2298041727050075 0.1787595393801808 0 0.2424223085377801 0.16582077205563811 0 0.2424223085377801 0.16582077205563811 0 0.24301228879775941 0.13939302681245261 0 0.2424223085377801 0.16582077205563811 0 0.24301228879775941 0.13939302681245261 0 0.25486404381895789 0.1523024957907583 0 0.22801201431925219 0.15227861461809999 0 0.23648687609860089 0.13476882232929049 0 0.24301228879775941 0.13939302681245261 0 0.2424223085377801 0.16582077205563811 0 0.22801201431925219 0.15227861461809999 0 0.24301228879775941 0.13939302681245261 0 0.2074718948020329 0.13931593166829101 0 0.22801201431925219 0.15227861461809999 0 0.22815060196587239 0.13250420183309389 0 0.22815060196587239 0.13250420183309389 0 0.24420216851797599 0.1292372680552665 0 0.2202182220460269 0.1181723145221887 0 0.22801201431925219 0.15227861461809999 0 0.22815060196587239 0.13250420183309389 0 0.23648687609860089 0.13476882232929049 0 0.22815060196587239 0.13250420183309389 0 0.23648687609860089 0.13476882232929049 0 0.24420216851797599 0.1292372680552665 0 0.23648687609860089 0.13476882232929049 0 0.24301228879775941 0.13939302681245261 0 0.24420216851797599 0.1292372680552665 0 0.24646482385440791 0.1109165710353929 0 0.23770217468454991 0.11680213067385049 0 0.255186127323073 0.11543194682551421 0 0.24420216851797599 0.1292372680552665 0 0.23770217468454991 0.11680213067385049 0 0.255186127323073 0.11543194682551421 0 0.23770217468454991 0.11680213067385049 0 0.255186127323073 0.11543194682551421 0 0.23770217468454991 0.11680213067385049 0 0.24055722746134861 0.1095612663226197 0 0.23538797832625211 0.10692464088038291 0 0.24646482385440791 0.1109165710353929 0 0.23770217468454991 0.11680213067385049 0 0.24055722746134861 0.1095612663226197 0 0.24174744587836799 0.1033548466348798 0 0.22816008327650389 0.097918375238235045 0 0.24736227196270541 0.090270970101712061 0 0.22816008327650389 0.097918375238235045 0 0.24736227196270541 0.090270970101712061 0 0.24174744587836799 0.1033548466348798 0 0.24736227196270541 0.090270970101712061 0 0.25459763100830068 0.096141582858552177 0 0.24174744587836799 0.1033548466348798 0 0.25459763100830068 0.096141582858552177 0 0.24646482385440791 0.1109165710353929 0 0.24174744587836799 0.1033548466348798 0 0.25655208948606423 0.10927836717886751 0 0.24174744587836799 0.1033548466348798 0 0.25655208948606423 0.10927836717886751 0 0.24646482385440791 0.1109165710353929 0 0.24055722746134861 0.1095612663226197 0 0.24174744587836799 0.1033548466348798 0 0.23538797832625211 0.10692464088038291 0 0.24174744587836799 0.1033548466348798 0 0.22816008327650389 0.097918375238235045 0 0.24055722746134861 0.1095612663226197 0 0.23538797832625211 0.10692464088038291 0 0.24174744587836799 0.1033548466348798 0 0.23538797832625211 0.10692464088038291 0 0.24174744587836799 0.1033548466348798 0 0.24174744587836799 0.1033548466348798 0 0.22816008327650389 0.097918375238235045 0 0.23538797832625211 0.10692464088038291 0 0.22816008327650389 0.097918375238235045 0 0.22436085098549791 0.1097634104313145 0 0.23770217468454991 0.11680213067385049 0 0.2202182220460269 0.1181723145221887 0 0.23770217468454991 0.11680213067385049 0 0.2202182220460269 0.1181723145221887 0 0.22436085098549791 0.1097634104313145 0 0.24420216851797599 0.1292372680552665 0 0.23770217468454991 0.11680213067385049 0 0.2202182220460269 0.1181723145221887 0 0.24420216851797599 0.1292372680552665 0 0.2202182220460269 0.1181723145221887 0 0.23770217468454991 0.11680213067385049 0 0.23538797832625211 0.10692464088038291 0 0.22436085098549791 0.1097634104313145 0 0.2202182220460269 0.1181723145221887 0 0.20033579659415629 0.10899959084191641 0 0.19370351113240411 0.1202502215829211 0 0.2202182220460269 0.1181723145221887 0 0.20033579659415629 0.10899959084191641 0 0.2202182220460269 0.1181723145221887 0 0.19370351113240411 0.1202502215829211 0 0.2202182220460269 0.1181723145221887 0 0.22436085098549791 0.1097634104313145 0 0.20033579659415629 0.10899959084191641 0 0.22816008327650389 0.097918375238235045 0 0.22436085098549791 0.1097634104313145 0 0.20033579659415629 0.10899959084191641 0 0.22816008327650389 0.097918375238235045 0 0.20033579659415629 0.10899959084191641 0 0.2016134769563831 0.087296750559026068 0 0.22816008327650389 0.097918375238235045 0 0.20033579659415629 0.10899959084191641 0 0.20033579659415629 0.10899959084191641 0 0.18422746814952201 0.1154148446289336 0 0.1860496622757298 0.1024087067025775 0 0.20033579659415629 0.10899959084191641 0 0.2016134769563831 0.087296750559026068 0 0.1860496622757298 0.1024087067025775 0 0.20033579659415629 0.10899959084191641 0 0.1860496622757298 0.1024087067025775 0 0.20033579659415629 0.10899959084191641 0 0.19370351113240411 0.1202502215829211 0 0.18422746814952201 0.1154148446289336 0 0.20033579659415629 0.10899959084191641 0 0.18422746814952201 0.1154148446289336 0 0.19220101611619109 0.069455466931817506 0 0.2016134769563831 0.087296750559026068 0 0.22553753830923129 0.072562856517635971 0 0.19220101611619109 0.069455466931817506 0 0.22553753830923129 0.072562856517635971 0 0.20371280465575431 0.054854742933563613 0 0.19220101611619109 0.069455466931817506 0 0.2016134769563831 0.087296750559026068 0 0.17506687063626211 0.076675125879817507 0 0.2016134769563831 0.087296750559026068 0 0.17506687063626211 0.076675125879817507 0 0.2016134769563831 0.087296750559026068 0 0.1860496622757298 0.1024087067025775 0 0.17954517331912459 0.085943521096986275 0 0.22816008327650389 0.097918375238235045 0 0.2016134769563831 0.087296750559026068 0 0.22553753830923129 0.072562856517635971 0 0.22816008327650389 0.097918375238235045 0 0.2016134769563831 0.087296750559026068 0 0.22553753830923129 0.072562856517635971 0 0.20371280465575431 0.054854742933563613 0 0.22816008327650389 0.097918375238235045 0 0.22553753830923129 0.072562856517635971 0 0.24736227196270541 0.090270970101712061 0 0.22553753830923129 0.072562856517635971 0 0.24736227196270541 0.090270970101712061 0 0.22553753830923129 0.072562856517635971 0 0.24736227196270541 0.090270970101712061 0 0.24874122334595 0.07170785510379532 0 0.22553753830923129 0.072562856517635971 0 0.24874122334595 0.07170785510379532 0 0.24629062771517271 0.052820950830226497 0 0.24629062771517271 0.052820950830226497 0 0.22540450977275331 0.044226989078737088 0 0.24629062771517271 0.052820950830226497 0 0.2492733855269578 0.041579555173777823 0 0.22540450977275331 0.044226989078737088 0 0.2492733855269578 0.041579555173777823 0 0.23050941707716249 0.025621187905106171 0 0.2492733855269578 0.041579555173777823 0 0.22540450977275331 0.044226989078737088 0 0.23050941707716249 0.025621187905106171 0 0.22540450977275331 0.044226989078737088 0 0.23050941707716249 0.025621187905106171 0 0.21805144048265651 0.031797176764528597 0 0.22553753830923129 0.072562856517635971 0 0.24629062771517271 0.052820950830226497 0 0.22540450977275331 0.044226989078737088 0 0.23790413247208811 0.0091049515404343275 0 0.25322369798355371 0.0032948183560677501 0 0.2464198669495459 -0.012097030270161889 0 0.23790413247208811 0.0091049515404343275 0 0.25442723867738032 0.016379625870619269 0 0.25322369798355371 0.0032948183560677501 0 0.2492733855269578 0.041579555173777823 0 0.24818833723327199 0.02644705719899533 0 0.23050941707716249 0.025621187905106171 0 0.23790413247208811 0.0091049515404343275 0 0.24818833723327199 0.02644705719899533 0 0.25442723867738032 0.016379625870619269 0 0.23790413247208811 0.0091049515404343275 0 0.24818833723327199 0.02644705719899533 0 0.23050941707716249 0.025621187905106171 0 0.23050941707716249 0.025621187905106171 0 0.2117734432503762 0.02170750274702346 0 0.21805144048265651 0.031797176764528597 0 0.23050941707716249 0.025621187905106171 0 0.21174544862736719 0.0096628206364345465 0 0.23050941707716249 0.025621187905106171 0 0.22518260227175371 0.0072623370788317187 0 0.21174544862736719 0.0096628206364345465 0 0.23790413247208811 0.0091049515404343275 0 0.22518260227175371 0.0072623370788317187 0 0.2300866381754704 -0.0072438550720441714 0 0.23790413247208811 0.0091049515404343275 0 0.23050941707716249 0.025621187905106171 0 0.22518260227175371 0.0072623370788317187 0 0.21174544862736719 0.0096628206364345465 0 0.2117734432503762 0.02170750274702346 0 0.20589386385567829 -0.0063134785331596111 0 0.2117734432503762 0.02170750274702346 0 0.19985428483697371 0.01027601627170664 0 0.20589386385567829 -0.0063134785331596111 0 0.2117734432503762 0.02170750274702346 0 0.20589386385567829 -0.0063134785331596111 0 0.22518260227175371 0.0072623370788317187 0 0.21174544862736719 0.0096628206364345465 0 0.2185782736923042 -0.0038367730406402641 0 0.23050941707716249 0.025621187905106171 0 0.21174544862736719 0.0096628206364345465 0 0.2117734432503762 0.02170750274702346 0 0.2117734432503762 0.02170750274702346 0 0.19994459845139961 0.023663902980434019 0 0.19985428483697371 0.01027601627170664 0 0.2117734432503762 0.02170750274702346 0 0.21805144048265651 0.031797176764528597 0 0.20451839183033399 0.035633027327247678 0 0.2117734432503762 0.02170750274702346 0 0.19994459845139961 0.023663902980434019 0 0.20451839183033399 0.035633027327247678 0 0.19994459845139961 0.023663902980434019 0 0.20451839183033399 0.035633027327247678 0 0.1836322738879155 0.027039065575756291 0 0.19994459845139961 0.023663902980434019 0 0.19985428483697371 0.01027601627170664 0 0.1836322738879155 0.027039065575756291 0 0.19985428483697371 0.01027601627170664 0 0.20589386385567829 -0.0063134785331596111 0 0.18863989258252481 -0.001979820774580698 0 0.19985428483697371 0.01027601627170664 0 0.1836322738879155 0.027039065575756291 0 0.18863989258252481 -0.001979820774580698 0 0.22553753830923129 0.072562856517635971 0 0.22540450977275331 0.044226989078737088 0 0.20371280465575431 0.054854742933563613 0 0.22540450977275331 0.044226989078737088 0 0.20451839183033399 0.035633027327247678 0 0.22540450977275331 0.044226989078737088 0 0.21805144048265651 0.031797176764528597 0 0.20451839183033399 0.035633027327247678 0 0.22540450977275331 0.044226989078737088 0 0.20371280465575431 0.054854742933563613 0 0.20451839183033399 0.035633027327247678 0 0.20451839183033399 0.035633027327247678 0 0.1818880710022803 0.03714662934948755 0 0.1836322738879155 0.027039065575756291 0 0.20371280465575431 0.054854742933563613 0 0.20451839183033399 0.035633027327247678 0 0.1818880710022803 0.03714662934948755 0 0.20371280465575431 0.054854742933563613 0 0.1818880710022803 0.03714662934948755 0 0.20451839183033399 0.035633027327247678 0 0.1836322738879155 0.027039065575756291 0 0.20371280465575431 0.054854742933563613 0 0.17847747081927551 0.05691087761465332 0 0.1818880710022803 0.03714662934948755 0 0.19220101611619109 0.069455466931817506 0 0.20371280465575431 0.054854742933563613 0 0.17847747081927551 0.05691087761465332 0 0.17847747081927551 0.05691087761465332 0 0.1818880710022803 0.03714662934948755 0 0.17847747081927551 0.05691087761465332 0 0.1818880710022803 0.03714662934948755 0 0.1636569447874848 0.036789081642687432 0 0.1818880710022803 0.03714662934948755 0 0.1836322738879155 0.027039065575756291 0 0.1818880710022803 0.03714662934948755 0 0.1636569447874848 0.036789081642687432 0 0.1620242678869008 0.02102957209859084 0 0.17847747081927551 0.05691087761465332 0 0.1636569447874848 0.036789081642687432 0 0.15962551614652079 0.053115759904931073 0 0.17847747081927551 0.05691087761465332 0 0.15962551614652079 0.053115759904931073 0 0.16641746421004469 0.065589342706300277 0 0.15962551614652079 0.053115759904931073 0 0.15045482833334159 0.067212260357143019 0 0.16641746421004469 0.065589342706300277 0 0.1716695151525548 0.011722155214289249 0 0.17506184651935949 -0.0021247232161890161 0 0.18863989258252481 -0.001979820774580698 0 0.1836322738879155 0.027039065575756291 0 0.18863989258252481 -0.001979820774580698 0 0.1836322738879155 0.027039065575756291 0 0.1716695151525548 0.011722155214289249 0 0.18863989258252481 -0.001979820774580698 0 0.1818880710022803 0.03714662934948755 0 0.1730573255808272 0.02268781650565178 0 0.1620242678869008 0.02102957209859084 0 0.1818880710022803 0.03714662934948755 0 0.1620242678869008 0.02102957209859084 0 0.1730573255808272 0.02268781650565178 0 0.1836322738879155 0.027039065575756291 0 0.1716695151525548 0.011722155214289249 0 0.1730573255808272 0.02268781650565178 0 0.1836322738879155 0.027039065575756291 0 0.1818880710022803 0.03714662934948755 0 0.1730573255808272 0.02268781650565178 0 0.1836322738879155 0.027039065575756291 0 0.1636569447874848 0.036789081642687432 0 0.1620242678869008 0.02102957209859084 0 0.15032019737810451 0.03113296745297477 0 0.1730573255808272 0.02268781650565178 0 0.1620242678869008 0.02102957209859084 0 0.1716695151525548 0.011722155214289249 0 0.1620242678869008 0.02102957209859084 0 0.1716695151525548 0.011722155214289249 0 0.15871689523486121 0.010399441389301141 0 0.1716695151525548 0.011722155214289249 0 0.15871689523486121 0.010399441389301141 0 0.1628037813635097 0.0015330777282007481 0 0.15871689523486121 0.010399441389301141 0 0.1628037813635097 0.0015330777282007481 0 0.15453230216132671 0.0032055715019124438 0 0.1716695151525548 0.011722155214289249 0 0.1628037813635097 0.0015330777282007481 0 0.17506184651935949 -0.0021247232161890161 0 0.1620242678869008 0.02102957209859084 0 0.14216046477152491 0.0049125148476896544 0 0.15871689523486121 0.010399441389301141 0 0.14216046477152491 0.0049125148476896544 0 0.15453230216132671 0.0032055715019124438 0 0.14216046477152491 0.0049125148476896544 0 0.15453230216132671 0.0032055715019124438 0 0.15849764294065671 -0.0060544572746906826 0 0.1620242678869008 0.02102957209859084 0 0.15871689523486121 0.010399441389301141 0 0.14216046477152491 0.0049125148476896544 0 0.1620242678869008 0.02102957209859084 0 0.14216046477152491 0.0049125148476896544 0 0.1432298655490542 0.02239521632663263 0 0.1620242678869008 0.02102957209859084 0 0.1432298655490542 0.02239521632663263 0 0.15032019737810451 0.03113296745297477 0 0.1432298655490542 0.02239521632663263 0 0.15032019737810451 0.03113296745297477 0 0.1366405524080008 0.032741533152345258 0 0.1432298655490542 0.02239521632663263 0 0.12659142849079691 0.028091664155532971 0 0.1366405524080008 0.032741533152345258 0 0.14216046477152491 0.0049125148476896544 0 0.1432298655490542 0.02239521632663263 0 0.12659142849079691 0.028091664155532971 0 0.14216046477152491 0.0049125148476896544 0 0.12659142849079691 0.028091664155532971 0 0.1323442420055404 0.014884056975098 0 0.14216046477152491 0.0049125148476896544 0 0.12659142849079691 0.028091664155532971 0 0.11882011836095251 0.0065886106746579649 0 0.12659142849079691 0.028091664155532971 0 0.1323442420055404 0.014884056975098 0 0.12659142849079691 0.028091664155532971 0 0.1366405524080008 0.032741533152345258 0 0.11882011836095251 0.0065886106746579649 0 0.1323442420055404 0.014884056975098 0 0.13735218555535891 0.001011181807127467 0 0.1323442420055404 0.014884056975098 0 0.13735218555535891 0.001011181807127467 0 0.14216046477152491 0.0049125148476896544 0 0.1323442420055404 0.014884056975098 0 0.13735218555535891 0.001011181807127467 0 0.14216046477152491 0.0049125148476896544 0 0.13735218555535891 0.001011181807127467 0 0.15962551614652079 0.053115759904931073 0 0.1452456698728295 0.044396077507560729 0 0.15045482833334159 0.067212260357143019 0 0.1452456698728295 0.044396077507560729 0 0.12683439495817461 0.052003073372435288 0 0.15045482833334159 0.067212260357143019 0 0.1636569447874848 0.036789081642687432 0 0.15032019737810451 0.03113296745297477 0 0.1452456698728295 0.044396077507560729 0 0.1636569447874848 0.036789081642687432 0 0.15962551614652079 0.053115759904931073 0 0.1452456698728295 0.044396077507560729 0 0.1636569447874848 0.036789081642687432 0 0.1452456698728295 0.044396077507560729 0 0.15032019737810451 0.03113296745297477 0 0.1452456698728295 0.044396077507560729 0 0.1366405524080008 0.032741533152345258 0 0.1452456698728295 0.044396077507560729 0 0.13015300311198849 0.040381385354086502 0 0.12683439495817461 0.052003073372435288 0 0.1452456698728295 0.044396077507560729 0 0.1366405524080008 0.032741533152345258 0 0.13015300311198849 0.040381385354086502 0 0.12659142849079691 0.028091664155532971 0 0.1366405524080008 0.032741533152345258 0 0.13015300311198849 0.040381385354086502 0 0.12683439495817461 0.052003073372435288 0 0.13134854049252651 0.064566646620811727 0 0.15045482833334159 0.067212260357143019 0 0.1452456698728295 0.044396077507560729 0 0.12683439495817461 0.052003073372435288 0 0.12683439495817461 0.052003073372435288 0 0.15045482833334159 0.067212260357143019 0 0.1213053233293625 0.063977455960140386 0 0.12683439495817461 0.052003073372435288 0 0.13134854049252651 0.064566646620811727 0 0.13134854049252651 0.064566646620811727 0 0.12679961534922851 0.075073796793526271 0 0.15045482833334159 0.067212260357143019 0 0.1213053233293625 0.063977455960140386 0 0.13134854049252651 0.064566646620811727 0 0.12679961534922851 0.075073796793526271 0 0.12679961534922851 0.075073796793526271 0 0.15045482833334159 0.067212260357143019 0 0.1492815716532653 0.085445809678383625 0 0.1185648575779607 0.095458187827811403 0 0.12679961534922851 0.075073796793526271 0 0.13332649773741079 0.089989738391902788 0 0.1492815716532653 0.085445809678383625 0 0.13332649773741079 0.089989738391902788 0 0.13865994636918871 0.10398115926788989 0 0.12679961534922851 0.075073796793526271 0 0.1492815716532653 0.085445809678383625 0 0.12679961534922851 0.075073796793526271 0 0.1492815716532653 0.085445809678383625 0 0.13332649773741079 0.089989738391902788 0 0.123281054128593 0.11724462113534739 0 0.1185648575779607 0.095458187827811403 0 0.13865994636918871 0.10398115926788989 0 0.1185648575779607 0.095458187827811403 0 0.13332649773741079 0.089989738391902788 0 0.13865994636918871 0.10398115926788989 0 0.123281054128593 0.11724462113534739 0 0.13865994636918871 0.10398115926788989 0 0.13947052033133081 0.1245003570974072 0 0.13947052033133081 0.1245003570974072 0 0.15026369300765779 0.1129544164764977 0 0.16718880021878149 0.12232812864365609 0 0.13947052033133081 0.1245003570974072 0 0.16718880021878149 0.12232812864365609 0 0.13865994636918871 0.10398115926788989 0 0.13947052033133081 0.1245003570974072 0 0.15026369300765779 0.1129544164764977 0 0.1492815716532653 0.085445809678383625 0 0.13865994636918871 0.10398115926788989 0 0.15573550511132991 0.1010080208970377 0 0.13865994636918871 0.10398115926788989 0 0.15026369300765779 0.1129544164764977 0 0.15573550511132991 0.1010080208970377 0 0.15573550511132991 0.1010080208970377 0 0.17176352795730221 0.095817822563241214 0 0.16718880021878149 0.12232812864365609 0 0.17176352795730221 0.095817822563241214 0 0.16718880021878149 0.12232812864365609 0 0.1492815716532653 0.085445809678383625 0 0.15573550511132991 0.1010080208970377 0 0.17176352795730221 0.095817822563241214 0 0.15026369300765779 0.1129544164764977 0 0.15573550511132991 0.1010080208970377 0 0.16718880021878149 0.12232812864365609 0 0.16718880021878149 0.12232812864365609 0 0.18422746814952201 0.1154148446289336 0 0.17176352795730221 0.095817822563241214 0 0.16718880021878149 0.12232812864365609 0 0.18422746814952201 0.1154148446289336 0 0.19370351113240411 0.1202502215829211 0 0.16718880021878149 0.12232812864365609 0 0.19370351113240411 0.1202502215829211 0 0.16718880021878149 0.12232812864365609 0 0.18422746814952201 0.1154148446289336 0 0.17176352795730221 0.095817822563241214 0 0.18422746814952201 0.1154148446289336 0 0.1860496622757298 0.1024087067025775 0 0.17176352795730221 0.095817822563241214 0 0.1860496622757298 0.1024087067025775 0 0.17954517331912459 0.085943521096986275 0 0.17176352795730221 0.095817822563241214 0 0.1860496622757298 0.1024087067025775 0 0.2016134769563831 0.087296750559026068 0 0.17954517331912459 0.085943521096986275 0 0.17506687063626211 0.076675125879817507 0 0.17176352795730221 0.095817822563241214 0 0.17407526170850959 0.082421447341849294 0 0.17176352795730221 0.095817822563241214 0 0.17954517331912459 0.085943521096986275 0 0.17407526170850959 0.082421447341849294 0 0.17954517331912459 0.085943521096986275 0 0.17407526170850959 0.082421447341849294 0 0.17506687063626211 0.076675125879817507 0 0.17407526170850959 0.082421447341849294 0 0.17506687063626211 0.076675125879817507 0 0.17954517331912459 0.085943521096986275 0 0.17407526170850959 0.082421447341849294 0 0.17847747081927551 0.05691087761465332 0 0.17506687063626211 0.076675125879817507 0 0.19220101611619109 0.069455466931817506 0 0.17847747081927551 0.05691087761465332 0 0.17506687063626211 0.076675125879817507 0 0.17847747081927551 0.05691087761465332 0 0.17506687063626211 0.076675125879817507 0 0.16641746421004469 0.065589342706300277 0 0.17407526170850959 0.082421447341849294 0 0.17506687063626211 0.076675125879817507 0 0.16846263511482451 0.074032689774956653 0 0.15045482833334159 0.067212260357143019 0 0.16846263511482451 0.074032689774956653 0 0.16641746421004469 0.065589342706300277 0 0.17506687063626211 0.076675125879817507 0 0.16846263511482451 0.074032689774956653 0 0.16641746421004469 0.065589342706300277 0 0.15045482833334159 0.067212260357143019 0 0.17407526170850959 0.082421447341849294 0 0.16846263511482451 0.074032689774956653 0 0.17506687063626211 0.076675125879817507 0 0.16846263511482451 0.074032689774956653 0 0.15045482833334159 0.067212260357143019 0 0.17407526170850959 0.082421447341849294 0 0.1492815716532653 0.085445809678383625 0 0.17176352795730221 0.095817822563241214 0 0.1492815716532653 0.085445809678383625 0 0.17176352795730221 0.095817822563241214 0 0.17407526170850959 0.082421447341849294 0 0.15045482833334159 0.067212260357143019 0 0.1492815716532653 0.085445809678383625 0 0.17407526170850959 0.082421447341849294 0 0.094789198081262169 0.47221984895451657 0 0.09870107108427445 0.5 0 0.1248616532684987 0.47476888169724352 0 0.09870107108427445 0.5 0 0.1248616532684987 0.47476888169724352 0 0.1287333349596296 0.50000000000000233 0 0.1248616532684987 0.47476888169724352 0 0.1154926134483955 0.45328817880533262 0 0.094789198081262169 0.47221984895451657 0 0.1248616532684987 0.47476888169724352 0 0.1154926134483955 0.45328817880533262 0 0.1248616532684987 0.47476888169724352 0 0.1205619018159948 0.44674810255646558 0 0.1248616532684987 0.47476888169724352 0 0.1154926134483955 0.45328817880533262 0 0.1205619018159948 0.44674810255646558 0 0.1154926134483955 0.45328817880533262 0 0.106123573628292 0.43180747591342172 0 0.1154926134483955 0.45328817880533262 0 0.1205619018159948 0.44674810255646558 0 0.106123573628292 0.43180747591342172 0 0.1154926134483955 0.45328817880533262 0 0.096722182691352548 0.44869154901932268 0 0.106123573628292 0.43180747591342172 0 0.094789198081262169 0.47221984895451657 0 0.1154926134483955 0.45328817880533262 0 0.096722182691352548 0.44869154901932268 0 0.094789198081262169 0.47221984895451657 0 0.077453222292990773 0.45016302493177879 0 0.067202034968243438 0.47028323083424428 0 0.094789198081262169 0.47221984895451657 0 0.096722182691352548 0.44869154901932268 0 0.077453222292990773 0.45016302493177879 0 0.096722182691352548 0.44869154901932268 0 0.077453222292990773 0.45016302493177879 0 0.085233479690329184 0.42595657570789891 0 0.077453222292990773 0.45016302493177879 0 0.085233479690329184 0.42595657570789891 0 0.077453222292990773 0.45016302493177879 0 0.055846149836862702 0.43889490050586683 0 0.065639666334966471 0.42409002317344818 0 0.077453222292990773 0.45016302493177879 0 0.067202034968243438 0.47028323083424428 0 0.051776939420019832 0.45519588853091181 0 0.094789198081262169 0.47221984895451657 0 0.067202034968243438 0.47028323083424428 0 0.068668807208919325 0.5 0 0.094789198081262169 0.47221984895451657 0 0.09870107108427445 0.5 0 0.068668807208919325 0.5 0 0.068668807208919325 0.5 0 0.043814234576468783 0.4752156274217324 0 0.038636543333564137 0.5 0 0.067202034968243438 0.47028323083424428 0 0.068668807208919325 0.5 0 0.043814234576468783 0.4752156274217324 0 0.038636543333564137 0.5 0 0.0095498935665802413 0.47810272379952351 0 0.0086042794582089632 0.5 0 0.043814234576468783 0.4752156274217324 0 0.038636543333564137 0.5 0 0.0095498935665802413 0.47810272379952351 0 0.043814234576468783 0.4752156274217324 0 0.0095498935665802413 0.47810272379952351 0 0.02936257191825143 0.45548825099001988 0 -0.0044763741368290672 0.43313315307665529 0 0.006403582431216831 0.45126676372832991 0 0.01131617767293759 0.43066417693356068 0 0.006403582431216831 0.45126676372832991 0 0.024585063983693121 0.43937755350337049 0 0.01131617767293759 0.43066417693356068 0 -0.0062093312902834459 0.46527566221073008 0 0.0095498935665802413 0.47810272379952351 0 0.006403582431216831 0.45126676372832991 0 0.0095498935665802413 0.47810272379952351 0 0.006403582431216831 0.45126676372832991 0 0.02936257191825143 0.45548825099001988 0 0.02936257191825143 0.45548825099001988 0 0.024585063983693121 0.43937755350337049 0 0.039439570502417587 0.44016889882154447 0 0.006403582431216831 0.45126676372832991 0 0.02936257191825143 0.45548825099001988 0 0.024585063983693121 0.43937755350337049 0 0.02936257191825143 0.45548825099001988 0 0.039439570502417587 0.44016889882154447 0 0.051776939420019832 0.45519588853091181 0 0.043814234576468783 0.4752156274217324 0 0.02936257191825143 0.45548825099001988 0 0.051776939420019832 0.45519588853091181 0 0.067202034968243438 0.47028323083424428 0 0.043814234576468783 0.4752156274217324 0 0.051776939420019832 0.45519588853091181 0 0.039439570502417587 0.44016889882154447 0 0.051776939420019832 0.45519588853091181 0 0.055846149836862702 0.43889490050586683 0 0.077453222292990773 0.45016302493177879 0 0.051776939420019832 0.45519588853091181 0 0.055846149836862702 0.43889490050586683 0 0.055846149836862702 0.43889490050586683 0 0.044352211855280779 0.42435697566478181 0 0.065639666334966471 0.42409002317344818 0 0.054179592762823331 0.4124556941646933 0 0.065774511826563423 0.40583773171119408 0 0.065639666334966471 0.42409002317344818 0 0.054179592762823331 0.4124556941646933 0 0.044352211855280779 0.42435697566478181 0 0.042551786202842029 0.40583695196884878 0 0.054179592762823331 0.4124556941646933 0 0.044352211855280779 0.42435697566478181 0 0.065639666334966471 0.42409002317344818 0 0.054179592762823331 0.4124556941646933 0 0.052579787594463898 0.40215678830519391 0 0.065774511826563423 0.40583773171119408 0 0.054179592762823331 0.4124556941646933 0 0.042551786202842029 0.40583695196884878 0 0.052579787594463898 0.40215678830519391 0 0.031615607723292562 0.41237007764590089 0 0.044352211855280779 0.42435697566478181 0 0.042551786202842029 0.40583695196884878 0 0.031615607723292562 0.41237007764590089 0 0.044352211855280779 0.42435697566478181 0 0.029348552931666359 0.42650056435783129 0 0.039439570502417587 0.44016889882154447 0 0.055846149836862702 0.43889490050586683 0 0.044352211855280779 0.42435697566478181 0 0.039439570502417587 0.44016889882154447 0 0.044352211855280779 0.42435697566478181 0 0.029348552931666359 0.42650056435783129 0 0.024585063983693121 0.43937755350337049 0 0.039439570502417587 0.44016889882154447 0 0.029348552931666359 0.42650056435783129 0 0.024585063983693121 0.43937755350337049 0 0.029348552931666359 0.42650056435783129 0 0.01131617767293759 0.43066417693356068 0 0.029348552931666359 0.42650056435783129 0 0.019479081626689841 0.41692126840220728 0 0.01131617767293759 0.43066417693356068 0 0.031615607723292562 0.41237007764590089 0 0.029348552931666359 0.42650056435783129 0 0.019479081626689841 0.41692126840220728 0 0.031615607723292562 0.41237007764590089 0 0.019479081626689841 0.41692126840220728 0 0.02210553341445062 0.40298972327242938 0 0.019479081626689841 0.41692126840220728 0 0.0046995574085186929 0.41194005205042061 0 0.02210553341445062 0.40298972327242938 0 0.019479081626689841 0.41692126840220728 0 0.0046995574085186929 0.41194005205042061 0 0.01131617767293759 0.43066417693356068 0 -0.0044763741368290672 0.43313315307665529 0 0.0046995574085186929 0.41194005205042061 0 0.01131617767293759 0.43066417693356068 0 -0.0068648610501423502 0.39382000907293813 0 0.0053185270157129726 0.37689571945341471 0 0.0079727676898529512 0.39395805239723503 0 0.0053185270157129726 0.37689571945341471 0 0.0079727676898529512 0.39395805239723503 0 0.017055050774382831 0.3783760363496293 0 0.0053185270157129726 0.37689571945341471 0 0.017055050774382831 0.3783760363496293 0 0.014905446519761849 0.37011919055753012 0 -0.0068648610501423502 0.39382000907293813 0 0.0046995574085186929 0.41194005205042061 0 0.0079727676898529512 0.39395805239723503 0 0.0046995574085186929 0.41194005205042061 0 0.0079727676898529512 0.39395805239723503 0 0.02210553341445062 0.40298972327242938 0 0.0079727676898529512 0.39395805239723503 0 0.02210553341445062 0.40298972327242938 0 0.02735486101880703 0.39232044610694311 0 0.031615607723292562 0.41237007764590089 0 0.02210553341445062 0.40298972327242938 0 0.03492587150599015 0.39714318271575322 0 0.02210553341445062 0.40298972327242938 0 0.02735486101880703 0.39232044610694311 0 0.03492587150599015 0.39714318271575322 0 0.0079727676898529512 0.39395805239723503 0 0.02735486101880703 0.39232044610694311 0 0.033420514628485373 0.38302977191180709 0 0.017055050774382831 0.3783760363496293 0 0.033420514628485373 0.38302977191180709 0 0.023779055828078009 0.37097747554075361 0 0.0079727676898529512 0.39395805239723503 0 0.017055050774382831 0.3783760363496293 0 0.033420514628485373 0.38302977191180709 0 0.0079727676898529512 0.39395805239723503 0 0.033420514628485373 0.38302977191180709 0 0.02735486101880703 0.39232044610694311 0 0.032859848824407727 0.38560668074253002 0 0.033420514628485373 0.38302977191180709 0 0.02735486101880703 0.39232044610694311 0 0.032859848824407727 0.38560668074253002 0 0.032844630049655758 0.3911952656019041 0 0.033420514628485373 0.38302977191180709 0 0.040531910439000007 0.38820627445006711 0 0.055078026168592691 0.37372917012189599 0 0.033420514628485373 0.38302977191180709 0 0.055078026168592691 0.37372917012189599 0 0.032859848824407727 0.38560668074253002 0 0.033420514628485373 0.38302977191180709 0 0.032859848824407727 0.38560668074253002 0 0.040531910439000007 0.38820627445006711 0 0.032844630049655758 0.3911952656019041 0 0.032859848824407727 0.38560668074253002 0 0.033420514628485373 0.38302977191180709 0 0.040531910439000007 0.38820627445006711 0 0.031615607723292562 0.41237007764590089 0 0.03492587150599015 0.39714318271575322 0 0.042551786202842029 0.40583695196884878 0 0.040531910439000007 0.38820627445006711 0 0.03492587150599015 0.39714318271575322 0 0.032844630049655758 0.3911952656019041 0 0.02735486101880703 0.39232044610694311 0 0.03492587150599015 0.39714318271575322 0 0.032844630049655758 0.3911952656019041 0 0.040531910439000007 0.38820627445006711 0 0.03492587150599015 0.39714318271575322 0 0.044409534997012647 0.39663533348309749 0 0.040531910439000007 0.38820627445006711 0 0.044409534997012647 0.39663533348309749 0 0.05145831924276717 0.38983346997562462 0 0.044409534997012647 0.39663533348309749 0 0.042551786202842029 0.40583695196884878 0 0.052579787594463898 0.40215678830519391 0 0.03492587150599015 0.39714318271575322 0 0.044409534997012647 0.39663533348309749 0 0.042551786202842029 0.40583695196884878 0 0.052579787594463898 0.40215678830519391 0 0.065929237187869999 0.38841376689227869 0 0.065774511826563423 0.40583773171119408 0 0.044409534997012647 0.39663533348309749 0 0.052579787594463898 0.40215678830519391 0 0.05145831924276717 0.38983346997562462 0 0.052579787594463898 0.40215678830519391 0 0.05145831924276717 0.38983346997562462 0 0.065929237187869999 0.38841376689227869 0 0.05145831924276717 0.38983346997562462 0 0.065929237187869999 0.38841376689227869 0 0.055078026168592691 0.37372917012189599 0 0.040531910439000007 0.38820627445006711 0 0.05145831924276717 0.38983346997562462 0 0.055078026168592691 0.37372917012189599 0 0.065929237187869999 0.38841376689227869 0 0.07065435961583541 0.37741521318853999 0 0.055078026168592691 0.37372917012189599 0 0.065929237187869999 0.38841376689227869 0 0.07065435961583541 0.37741521318853999 0 0.084874637398179506 0.3830893474080016 0 0.065929237187869999 0.38841376689227869 0 0.084874637398179506 0.3830893474080016 0 0.078183007061163587 0.39730645121706609 0 0.084874637398179506 0.3830893474080016 0 0.09301373708766289 0.40175012648401748 0 0.1017514530376761 0.37456476915266362 0 0.084874637398179506 0.3830893474080016 0 0.1017514530376761 0.37456476915266362 0 0.089894590955766338 0.37016501712229671 0 0.084874637398179506 0.3830893474080016 0 0.09301373708766289 0.40175012648401748 0 0.084874637398179506 0.3830893474080016 0 0.09301373708766289 0.40175012648401748 0 0.078183007061163587 0.39730645121706609 0 0.09301373708766289 0.40175012648401748 0 0.078183007061163587 0.39730645121706609 0 0.0779125114683729 0.4107996813321716 0 0.065929237187869999 0.38841376689227869 0 0.078183007061163587 0.39730645121706609 0 0.065774511826563423 0.40583773171119408 0 0.078183007061163587 0.39730645121706609 0 0.065774511826563423 0.40583773171119408 0 0.0779125114683729 0.4107996813321716 0 0.065774511826563423 0.40583773171119408 0 0.0779125114683729 0.4107996813321716 0 0.065639666334966471 0.42409002317344818 0 0.0779125114683729 0.4107996813321716 0 0.065639666334966471 0.42409002317344818 0 0.085233479690329184 0.42595657570789891 0 0.077453222292990773 0.45016302493177879 0 0.065639666334966471 0.42409002317344818 0 0.085233479690329184 0.42595657570789891 0 0.09301373708766289 0.40175012648401748 0 0.085233479690329184 0.42595657570789891 0 0.09301373708766289 0.40175012648401748 0 0.0779125114683729 0.4107996813321716 0 0.085233479690329184 0.42595657570789891 0 0.09301373708766289 0.40175012648401748 0 0.085233479690329184 0.42595657570789891 0 0.096641093798834857 0.4103746730739769 0 0.096641093798834857 0.4103746730739769 0 0.106123573628292 0.43180747591342172 0 0.096641093798834857 0.4103746730739769 0 0.1162621503634904 0.41872732341568758 0 0.11303311796937431 0.39768424579749467 0 0.096641093798834857 0.4103746730739769 0 0.106123573628292 0.43180747591342172 0 0.1162621503634904 0.41872732341568758 0 0.096641093798834857 0.4103746730739769 0 0.1162621503634904 0.41872732341568758 0 0.085233479690329184 0.42595657570789891 0 0.096641093798834857 0.4103746730739769 0 0.106123573628292 0.43180747591342172 0 0.096722182691352548 0.44869154901932268 0 0.085233479690329184 0.42595657570789891 0 0.106123573628292 0.43180747591342172 0 0.1205619018159948 0.44674810255646558 0 0.1162621503634904 0.41872732341568758 0 0.1205619018159948 0.44674810255646558 0 0.106123573628292 0.43180747591342172 0 0.1162621503634904 0.41872732341568758 0 0.1162621503634904 0.41872732341568758 0 0.11303311796937431 0.39768424579749467 0 0.11303311796937431 0.39768424579749467 0 0.1231373165426977 0.3806134049577457 0 0.1271742827044339 0.39597619803598749 0 0.1162621503634904 0.41872732341568758 0 0.11303311796937431 0.39768424579749467 0 0.1271742827044339 0.39597619803598749 0 0.11303311796937431 0.39768424579749467 0 0.1098040855752573 0.37664116817930182 0 0.11303311796937431 0.39768424579749467 0 0.1098040855752573 0.37664116817930182 0 0.1231373165426977 0.3806134049577457 0 0.09301373708766289 0.40175012648401748 0 0.10162794664532369 0.38287681265592 0 0.1017514530376761 0.37456476915266362 0 0.11303311796937431 0.39768424579749467 0 0.1098040855752573 0.37664116817930182 0 0.10162794664532369 0.38287681265592 0 0.09301373708766289 0.40175012648401748 0 0.1017514530376761 0.37456476915266362 0 0.09301373708766289 0.40175012648401748 0 0.096641093798834857 0.4103746730739769 0 0.10162794664532369 0.38287681265592 0 0.096641093798834857 0.4103746730739769 0 0.10162794664532369 0.38287681265592 0 0.096641093798834857 0.4103746730739769 0 0.11303311796937431 0.39768424579749467 0 0.10162794664532369 0.38287681265592 0 0.09301373708766289 0.40175012648401748 0 0.096641093798834857 0.4103746730739769 0 0.10657505318114149 0.3555980905611088 0 0.1040837309638282 0.33936254988137232 0 0.10657505318114149 0.3555980905611088 0 0.096269577202366938 0.34885221845001108 0 0.090674694454237537 0.35844253683721511 0 0.10657505318114149 0.3555980905611088 0 0.1081370103155585 0.34698533999968961 0 0.1040837309638282 0.33936254988137232 0 0.10657505318114149 0.3555980905611088 0 0.096269577202366938 0.34885221845001108 0 0.1040837309638282 0.33936254988137232 0 0.10657505318114149 0.3555980905611088 0 0.1081370103155585 0.34698533999968961 0 0.1081370103155585 0.34698533999968961 0 0.1105857944332822 0.35159063999376577 0 0.10657505318114149 0.3555980905611088 0 0.1081370103155585 0.34698533999968961 0 0.1105857944332822 0.35159063999376577 0 0.10657505318114149 0.3555980905611088 0 0.097223947907205094 0.36469260341832099 0 0.090674694454237537 0.35844253683721511 0 0.1098040855752573 0.37664116817930182 0 0.10657505318114149 0.3555980905611088 0 0.1098040855752573 0.37664116817930182 0 0.10162794664532369 0.38287681265592 0 0.10657505318114149 0.3555980905611088 0 0.10657505318114149 0.3555980905611088 0 0.097223947907205094 0.36469260341832099 0 0.1017514530376761 0.37456476915266362 0 0.10162794664532369 0.38287681265592 0 0.10657505318114149 0.3555980905611088 0 0.10162794664532369 0.38287681265592 0 0.10657505318114149 0.3555980905611088 0 0.1017514530376761 0.37456476915266362 0 0.097223947907205094 0.36469260341832099 0 0.1017514530376761 0.37456476915266362 0 0.089894590955766338 0.37016501712229671 0 0.1231373165426977 0.3806134049577457 0 0.1176766025370503 0.36283148293627721 0 0.13271547193899449 0.36524458735671972 0 0.1098040855752573 0.37664116817930182 0 0.10657505318114149 0.3555980905611088 0 0.1176766025370503 0.36283148293627721 0 0.1098040855752573 0.37664116817930182 0 0.1231373165426977 0.3806134049577457 0 0.1176766025370503 0.36283148293627721 0 0.1176766025370503 0.36283148293627721 0 0.1232256624926347 0.35239419723674059 0 0.13271547193899449 0.36524458735671972 0 0.10657505318114149 0.3555980905611088 0 0.1176766025370503 0.36283148293627721 0 0.1105857944332822 0.35159063999376577 0 0.1176766025370503 0.36283148293627721 0 0.1232256624926347 0.35239419723674059 0 0.1105857944332822 0.35159063999376577 0 0.1081370103155585 0.34698533999968961 0 0.1105857944332822 0.35159063999376577 0 0.1168368962248217 0.34531303274388031 0 0.1232256624926347 0.35239419723674059 0 0.1105857944332822 0.35159063999376577 0 0.1168368962248217 0.34531303274388031 0 0.1232256624926347 0.35239419723674059 0 0.1168368962248217 0.34531303274388031 0 0.1260676383484185 0.3399282146226113 0 0.1081370103155585 0.34698533999968961 0 0.1173014636805894 0.33730338313169689 0 0.1117137236550247 0.32726307032677399 0 0.1081370103155585 0.34698533999968961 0 0.1117137236550247 0.32726307032677399 0 0.1168368962248217 0.34531303274388031 0 0.1173014636805894 0.33730338313169689 0 0.1260676383484185 0.3399282146226113 0 0.1173014636805894 0.33730338313169689 0 0.12375204985912221 0.32702725796552912 0 0.1260676383484185 0.3399282146226113 0 0.1173014636805894 0.33730338313169689 0 0.12375204985912221 0.32702725796552912 0 0.1117137236550247 0.32726307032677399 0 0.1081370103155585 0.34698533999968961 0 0.1168368962248217 0.34531303274388031 0 0.1173014636805894 0.33730338313169689 0 0.1117137236550247 0.32726307032677399 0 0.11529043699448981 0.30754080065385803 0 0.1117137236550247 0.32726307032677399 0 0.1095765413243488 0.31862098055757049 0 0.11529043699448981 0.30754080065385803 0 0.1214195525311879 0.31440901896845502 0 0.1117137236550247 0.32726307032677399 0 0.11529043699448981 0.30754080065385803 0 0.1214195525311879 0.31440901896845502 0 0.12375204985912221 0.32702725796552912 0 0.12817088130983889 0.317450689473041 0 0.1214195525311879 0.31440901896845502 0 0.12375204985912221 0.32702725796552912 0 0.1117137236550247 0.32726307032677399 0 0.1040837309638282 0.33936254988137232 0 0.090103400857782137 0.31307047550514489 0 0.1040837309638282 0.33936254988137232 0 0.1025673515982234 0.32948055280164651 0 0.090103400857782137 0.31307047550514489 0 0.10278173829001019 0.3206216626476312 0 0.1025673515982234 0.32948055280164651 0 0.090103400857782137 0.31307047550514489 0 0.1095765413243488 0.31862098055757049 0 0.10278173829001019 0.3206216626476312 0 0.099947674014671917 0.31467323404701991 0 0.1095765413243488 0.31862098055757049 0 0.099947674014671917 0.31467323404701991 0 0.09732687347400408 0.30507295899279041 0 0.1117137236550247 0.32726307032677399 0 0.1095765413243488 0.31862098055757049 0 0.10278173829001019 0.3206216626476312 0 0.1117137236550247 0.32726307032677399 0 0.10278173829001019 0.3206216626476312 0 0.1025673515982234 0.32948055280164651 0 0.10278173829001019 0.3206216626476312 0 0.099947674014671917 0.31467323404701991 0 0.090103400857782137 0.31307047550514489 0 0.096269577202366938 0.34885221845001108 0 0.1040837309638282 0.33936254988137232 0 0.085896102217652828 0.34083244099607402 0 0.1081370103155585 0.34698533999968961 0 0.1117137236550247 0.32726307032677399 0 0.1040837309638282 0.33936254988137232 0 0.1081370103155585 0.34698533999968961 0 0.1040837309638282 0.33936254988137232 0 0.1117137236550247 0.32726307032677399 0 0.1040837309638282 0.33936254988137232 0 0.1025673515982234 0.32948055280164651 0 0.1040837309638282 0.33936254988137232 0 0.1025673515982234 0.32948055280164651 0 0.1040837309638282 0.33936254988137232 0 0.085896102217652828 0.34083244099607402 0 0.090103400857782137 0.31307047550514489 0 0.085896102217652828 0.34083244099607402 0 0.090103400857782137 0.31307047550514489 0 0.073944851781294785 0.32640562720437011 0 0.073944851781294785 0.32640562720437011 0 0.05926959110604698 0.32438382341666039 0 0.066452600317618793 0.30933520022964911 0 0.090103400857782137 0.31307047550514489 0 0.073944851781294785 0.32640562720437011 0 0.066452600317618793 0.30933520022964911 0 0.068002564407373206 0.3444061958743222 0 0.05926959110604698 0.32438382341666039 0 0.085896102217652828 0.34083244099607402 0 0.073944851781294785 0.32640562720437011 0 0.068002564407373206 0.3444061958743222 0 0.073944851781294785 0.32640562720437011 0 0.068002564407373206 0.3444061958743222 0 0.05926959110604698 0.32438382341666039 0 0.068002564407373206 0.3444061958743222 0 0.081709153938225559 0.35166937446406898 0 0.076735537708699481 0.364428568331984 0 0.068002564407373206 0.3444061958743222 0 0.076735537708699481 0.364428568331984 0 0.068002564407373206 0.3444061958743222 0 0.076735537708699481 0.364428568331984 0 0.058880509289504487 0.35752542115937253 0 0.085896102217652828 0.34083244099607402 0 0.068002564407373206 0.3444061958743222 0 0.081709153938225559 0.35166937446406898 0 0.081709153938225559 0.35166937446406898 0 0.090674694454237537 0.35844253683721511 0 0.076735537708699481 0.364428568331984 0 0.096269577202366938 0.34885221845001108 0 0.081709153938225559 0.35166937446406898 0 0.090674694454237537 0.35844253683721511 0 0.096269577202366938 0.34885221845001108 0 0.085896102217652828 0.34083244099607402 0 0.081709153938225559 0.35166937446406898 0 0.084874637398179506 0.3830893474080016 0 0.089894590955766338 0.37016501712229671 0 0.076735537708699481 0.364428568331984 0 0.084874637398179506 0.3830893474080016 0 0.076735537708699481 0.364428568331984 0 0.097223947907205094 0.36469260341832099 0 0.090674694454237537 0.35844253683721511 0 0.089894590955766338 0.37016501712229671 0 0.090674694454237537 0.35844253683721511 0 0.089894590955766338 0.37016501712229671 0 0.076735537708699481 0.364428568331984 0 0.090674694454237537 0.35844253683721511 0 0.076735537708699481 0.364428568331984 0 0.076735537708699481 0.364428568331984 0 0.055078026168592691 0.37372917012189599 0 0.058880509289504487 0.35752542115937253 0 0.07065435961583541 0.37741521318853999 0 0.084874637398179506 0.3830893474080016 0 0.076735537708699481 0.364428568331984 0 0.07065435961583541 0.37741521318853999 0 0.076735537708699481 0.364428568331984 0 0.055078026168592691 0.37372917012189599 0 0.076735537708699481 0.364428568331984 0 0.055078026168592691 0.37372917012189599 0 0.055078026168592691 0.37372917012189599 0 0.058880509289504487 0.35752542115937253 0 0.039125882353897343 0.35680699826087081 0 0.068002564407373206 0.3444061958743222 0 0.058880509289504487 0.35752542115937253 0 0.05148455776782021 0.34576385860545072 0 0.058880509289504487 0.35752542115937253 0 0.05148455776782021 0.34576385860545072 0 0.039125882353897343 0.35680699826087081 0 0.039125882353897343 0.35680699826087081 0 0.031548662582759998 0.36398682567210089 0 0.025752053585936779 0.33511492304397028 0 0.05148455776782021 0.34576385860545072 0 0.039125882353897343 0.35680699826087081 0 0.044831250079309708 0.3305842246099347 0 0.033420514628485373 0.38302977191180709 0 0.039125882353897343 0.35680699826087081 0 0.031548662582759998 0.36398682567210089 0 0.033420514628485373 0.38302977191180709 0 0.055078026168592691 0.37372917012189599 0 0.039125882353897343 0.35680699826087081 0 0.033420514628485373 0.38302977191180709 0 0.039125882353897343 0.35680699826087081 0 0.033420514628485373 0.38302977191180709 0 0.031548662582759998 0.36398682567210089 0 0.023779055828078009 0.37097747554075361 0 0.017055050774382831 0.3783760363496293 0 0.023779055828078009 0.37097747554075361 0 0.014905446519761849 0.37011919055753012 0 0.023779055828078009 0.37097747554075361 0 0.019349684376360511 0.36318206543595072 0 0.014905446519761849 0.37011919055753012 0 0.031548662582759998 0.36398682567210089 0 0.019349684376360511 0.36318206543595072 0 0.019690074755218789 0.35178644121934483 0 0.031548662582759998 0.36398682567210089 0 0.023779055828078009 0.37097747554075361 0 0.019349684376360511 0.36318206543595072 0 0.031548662582759998 0.36398682567210089 0 0.025752053585936779 0.33511492304397028 0 0.031548662582759998 0.36398682567210089 0 0.019690074755218789 0.35178644121934483 0 0.025752053585936779 0.33511492304397028 0 0.019349684376360511 0.36318206543595072 0 0.019690074755218789 0.35178644121934483 0 0.0119730942360182 0.35563939605115702 0 0.0119730942360182 0.35563939605115702 0 0.0038095970876644218 0.35606187191015221 0 0.0077169544749549623 0.36306791211952738 0 -0.0077202170519437719 0.34710906184019069 0 0.0082446038140756572 0.34376242611402219 0 0.0038095970876644218 0.35606187191015221 0 0.0119730942360182 0.35563939605115702 0 0.0082446038140756572 0.34376242611402219 0 0.0038095970876644218 0.35606187191015221 0 0.019690074755218789 0.35178644121934483 0 0.0119730942360182 0.35563939605115702 0 0.0082446038140756572 0.34376242611402219 0 -0.0045677851665312944 0.36532665559408428 0 0.0038095970876644218 0.35606187191015221 0 0.0077169544749549623 0.36306791211952738 0 -0.0087141207398781558 0.37710904293520409 0 0.0053185270157129726 0.37689571945341471 0 0.0077169544749549623 0.36306791211952738 0 0.0053185270157129726 0.37689571945341471 0 0.0077169544749549623 0.36306791211952738 0 0.014905446519761849 0.37011919055753012 0 0.019349684376360511 0.36318206543595072 0 0.0077169544749549623 0.36306791211952738 0 0.014905446519761849 0.37011919055753012 0 0.019349684376360511 0.36318206543595072 0 0.0119730942360182 0.35563939605115702 0 0.0077169544749549623 0.36306791211952738 0 -0.009249588209606344 0.30814111102660002 0 0.0094307060340404689 0.32376070079746733 0 0.01995544458911469 0.30624302041583928 0 -0.005758602284471958 0.33512988219008361 0 0.0082446038140756572 0.34376242611402219 0 0.0094307060340404689 0.32376070079746733 0 0.0082446038140756572 0.34376242611402219 0 0.0094307060340404689 0.32376070079746733 0 0.025752053585936779 0.33511492304397028 0 0.019690074755218789 0.35178644121934483 0 0.0082446038140756572 0.34376242611402219 0 0.025752053585936779 0.33511492304397028 0 0.025752053585936779 0.33511492304397028 0 0.01995544458911469 0.30624302041583928 0 0.025752053585936779 0.33511492304397028 0 0.034898059553693392 0.31581284699138767 0 0.01995544458911469 0.30624302041583928 0 0.0094307060340404689 0.32376070079746733 0 0.025752053585936779 0.33511492304397028 0 0.01995544458911469 0.30624302041583928 0 0.034898059553693392 0.31581284699138767 0 0.044831250079309708 0.3305842246099347 0 0.05053661780472133 0.30436145095899841 0 0.025752053585936779 0.33511492304397028 0 0.034898059553693392 0.31581284699138767 0 0.044831250079309708 0.3305842246099347 0 0.039125882353897343 0.35680699826087081 0 0.025752053585936779 0.33511492304397028 0 0.044831250079309708 0.3305842246099347 0 0.039125882353897343 0.35680699826087081 0 0.044831250079309708 0.3305842246099347 0 0.068002564407373206 0.3444061958743222 0 0.05148455776782021 0.34576385860545072 0 0.05926959110604698 0.32438382341666039 0 0.05148455776782021 0.34576385860545072 0 0.044831250079309708 0.3305842246099347 0 0.05926959110604698 0.32438382341666039 0 0.044831250079309708 0.3305842246099347 0 0.05053661780472133 0.30436145095899841 0 0.044831250079309708 0.3305842246099347 0 0.05926959110604698 0.32438382341666039 0 0.05053661780472133 0.30436145095899841 0 0.05926959110604698 0.32438382341666039 0 0.05053661780472133 0.30436145095899841 0 0.05926959110604698 0.32438382341666039 0 0.05053661780472133 0.30436145095899841 0 0.066452600317618793 0.30933520022964911 0 0.059204269303370749 0.30137448027593422 0 0.05053661780472133 0.30436145095899841 0 0.066452600317618793 0.30933520022964911 0 0.04765756321016474 0.29776054867416191 0 0.05053661780472133 0.30436145095899841 0 0.052561166870736087 0.29505630281458828 0 0.059204269303370749 0.30137448027593422 0 0.05053661780472133 0.30436145095899841 0 0.052561166870736087 0.29505630281458828 0 0.05053661780472133 0.30436145095899841 0 0.052561166870736087 0.29505630281458828 0 0.04765756321016474 0.29776054867416191 0 0.05053661780472133 0.30436145095899841 0 0.052561166870736087 0.29505630281458828 0 0.036977033779240318 0.28312664447104818 0 0.062988366650143207 0.29302398426469728 0 0.036977033779240318 0.28312664447104818 0 0.048149862160842181 0.27985089866820428 0 0.062988366650143207 0.29302398426469728 0 0.036977033779240318 0.28312664447104818 0 0.062988366650143207 0.29302398426469728 0 0.048149862160842181 0.27985089866820428 0 0.054778979573680928 0.27715841955607551 0 0.062988366650143207 0.29302398426469728 0 0.059204269303370749 0.30137448027593422 0 0.052561166870736087 0.29505630281458828 0 0.062988366650143207 0.29302398426469728 0 0.04765756321016474 0.29776054867416191 0 0.036186098738389023 0.29603891009636157 0 0.036977033779240318 0.28312664447104818 0 0.04765756321016474 0.29776054867416191 0 0.052561166870736087 0.29505630281458828 0 0.036977033779240318 0.28312664447104818 0 0.036186098738389023 0.29603891009636157 0 0.036977033779240318 0.28312664447104818 0 0.027757552790527541 0.29644954410470781 0 0.034898059553693392 0.31581284699138767 0 0.05053661780472133 0.30436145095899841 0 0.039754971674175903 0.30430037111620312 0 0.04765756321016474 0.29776054867416191 0 0.05053661780472133 0.30436145095899841 0 0.039754971674175903 0.30430037111620312 0 0.04765756321016474 0.29776054867416191 0 0.036186098738389023 0.29603891009636157 0 0.039754971674175903 0.30430037111620312 0 0.036186098738389023 0.29603891009636157 0 0.039754971674175903 0.30430037111620312 0 0.028740536311392211 0.30567206060121932 0 0.034898059553693392 0.31581284699138767 0 0.039754971674175903 0.30430037111620312 0 0.028740536311392211 0.30567206060121932 0 0.034898059553693392 0.31581284699138767 0 0.028740536311392211 0.30567206060121932 0 0.01995544458911469 0.30624302041583928 0 0.028740536311392211 0.30567206060121932 0 0.01995544458911469 0.30624302041583928 0 0.01995544458911469 0.30624302041583928 0 0.027757552790527541 0.29644954410470781 0 0.016928650534501429 0.29116708493907051 0 0.01995544458911469 0.30624302041583928 0 0.016928650534501429 0.29116708493907051 0 0.036186098738389023 0.29603891009636157 0 0.028740536311392211 0.30567206060121932 0 0.027757552790527541 0.29644954410470781 0 0.028740536311392211 0.30567206060121932 0 0.01995544458911469 0.30624302041583928 0 0.027757552790527541 0.29644954410470781 0 0.036977033779240318 0.28312664447104818 0 0.016928650534501429 0.29116708493907051 0 0.013901856479889301 0.2760911494623014 0 0.036977033779240318 0.28312664447104818 0 0.027757552790527541 0.29644954410470781 0 0.016928650534501429 0.29116708493907051 0 0.016928650534501429 0.29116708493907051 0 0.0075090435902615098 0.27971283806045072 0 0.013901856479889301 0.2760911494623014 0 0.016928650534501429 0.29116708493907051 0 0.013901856479889301 0.2760911494623014 0 0.016928650534501429 0.29116708493907051 0 0.002380999114604244 0.28599596302517022 0 0.0075090435902615098 0.27971283806045072 0 0.016928650534501429 0.29116708493907051 0 0.002380999114604244 0.28599596302517022 0 0.0038021096493471361 0.29689124930627131 0 0.01995544458911469 0.30624302041583928 0 0.016928650534501429 0.29116708493907051 0 0.0038021096493471361 0.29689124930627131 0 -0.009249588209606344 0.30814111102660002 0 0.01995544458911469 0.30624302041583928 0 -0.009249588209606344 0.30814111102660002 0 0.01995544458911469 0.30624302041583928 0 0.0038021096493471361 0.29689124930627131 0 0.012944211518790589 0.24639919126045251 0 0.001894876929373096 0.24743045501984201 0 0.027350481215018482 0.26092432701142793 0 0.001894876929373096 0.24743045501984201 0 0.01235577794179212 0.26160751525750708 0 0.027350481215018482 0.26092432701142793 0 0.001894876929373096 0.24743045501984201 0 0.027350481215018482 0.26092432701142793 0 0.01235577794179212 0.26160751525750708 0 0.0066431973405819862 0.26423936680728111 0 0.01332705073189009 0.26743114199411 0 0.001894876929373096 0.24743045501984201 0 0.01235577794179212 0.26160751525750708 0 0.0027594708259384838 0.25829047161104352 0 0.01235577794179212 0.26160751525750708 0 0.0027594708259384838 0.25829047161104352 0 0.0066431973405819862 0.26423936680728111 0 -0.00067809962666212902 0.26216505597133072 0 0.0027594708259384838 0.25829047161104352 0 0.0066431973405819862 0.26423936680728111 0 -0.00067809962666212902 0.26216505597133072 0 0.0066431973405819862 0.26423936680728111 0 0.010965700908337589 0.27322930467739909 0 -0.001267499687089951 0.2776013217203892 0 0.0075090435902615098 0.27971283806045072 0 0.010965700908337589 0.27322930467739909 0 -0.001267499687089951 0.2776013217203892 0 0.002380999114604244 0.28599596302517022 0 0.0075090435902615098 0.27971283806045072 0 0.0075090435902615098 0.27971283806045072 0 0.013901856479889301 0.2760911494623014 0 0.010965700908337589 0.27322930467739909 0 0.010965700908337589 0.27322930467739909 0 0.01332705073189009 0.26743114199411 0 0.022419763759722669 0.26962443384228668 0 0.0066431973405819862 0.26423936680728111 0 0.010965700908337589 0.27322930467739909 0 0.01332705073189009 0.26743114199411 0 0.036977033779240318 0.28312664447104818 0 0.010965700908337589 0.27322930467739909 0 0.022419763759722669 0.26962443384228668 0 0.01235577794179212 0.26160751525750708 0 0.01332705073189009 0.26743114199411 0 0.022419763759722669 0.26962443384228668 0 0.036977033779240318 0.28312664447104818 0 0.013901856479889301 0.2760911494623014 0 0.010965700908337589 0.27322930467739909 0 0.036977033779240318 0.28312664447104818 0 0.010965700908337589 0.27322930467739909 0 0.036977033779240318 0.28312664447104818 0 0.022419763759722669 0.26962443384228668 0 0.032397819765571212 0.27218151163944088 0 0.022419763759722669 0.26962443384228668 0 0.027350481215018482 0.26092432701142793 0 0.032397819765571212 0.27218151163944088 0 0.018629400856135309 0.24429501886194191 0 0.012944211518790589 0.24639919126045251 0 0.027350481215018482 0.26092432701142793 0 0.018629400856135309 0.24429501886194191 0 0.027350481215018482 0.26092432701142793 0 0.02692674034290404 0.25134916217479408 0 0.01235577794179212 0.26160751525750708 0 0.022419763759722669 0.26962443384228668 0 0.027350481215018482 0.26092432701142793 0 0.027350481215018482 0.26092432701142793 0 0.02692674034290404 0.25134916217479408 0 0.036501911092354018 0.25177276941539839 0 0.027350481215018482 0.26092432701142793 0 0.036501911092354018 0.25177276941539839 0 0.052806085500663583 0.27441819900301412 0 0.036501911092354018 0.25177276941539839 0 0.052806085500663583 0.27441819900301412 0 0.027350481215018482 0.26092432701142793 0 0.039536256484267153 0.27410031615862712 0 0.052806085500663583 0.27441819900301412 0 0.027350481215018482 0.26092432701142793 0 0.052806085500663583 0.27441819900301412 0 0.036977033779240318 0.28312664447104818 0 0.032397819765571212 0.27218151163944088 0 0.039536256484267153 0.27410031615862712 0 0.027350481215018482 0.26092432701142793 0 0.032397819765571212 0.27218151163944088 0 0.039536256484267153 0.27410031615862712 0 0.039536256484267153 0.27410031615862712 0 0.048149862160842181 0.27985089866820428 0 0.052806085500663583 0.27441819900301412 0 0.036977033779240318 0.28312664447104818 0 0.039536256484267153 0.27410031615862712 0 0.048149862160842181 0.27985089866820428 0 0.052806085500663583 0.27441819900301412 0 0.051790667069154861 0.2547103276228454 0 0.069466372585565969 0.27425949764399721 0 0.052806085500663583 0.27441819900301412 0 0.054778979573680928 0.27715841955607551 0 0.076123070751733898 0.28677840112891878 0 0.048149862160842181 0.27985089866820428 0 0.052806085500663583 0.27441819900301412 0 0.054778979573680928 0.27715841955607551 0 0.052806085500663583 0.27441819900301412 0 0.054778979573680928 0.27715841955607551 0 0.051790667069154861 0.2547103276228454 0 0.069466372585565969 0.27425949764399721 0 0.036501911092354018 0.25177276941539839 0 0.052806085500663583 0.27441819900301412 0 0.051790667069154861 0.2547103276228454 0 0.051790667069154861 0.2547103276228454 0 0.062472563593505302 0.26110660749064829 0 0.069466372585565969 0.27425949764399721 0 0.051790667069154861 0.2547103276228454 0 0.062472563593505302 0.26110660749064829 0 0.063392491700480919 0.2510828642249095 0 0.07090317009537217 0.25886987532900169 0 0.089645379702363526 0.25980927980688501 0 0.066829182329119829 0.26693814307945207 0 0.063392491700480919 0.2510828642249095 0 0.07090317009537217 0.25886987532900169 0 0.074261774750864804 0.25289133929391111 0 0.062472563593505302 0.26110660749064829 0 0.063392491700480919 0.2510828642249095 0 0.07090317009537217 0.25886987532900169 0 0.062472563593505302 0.26110660749064829 0 0.07090317009537217 0.25886987532900169 0 0.066829182329119829 0.26693814307945207 0 0.07090317009537217 0.25886987532900169 0 0.074261774750864804 0.25289133929391111 0 0.089645379702363526 0.25980927980688501 0 0.072073934872957782 0.23900016577853919 0 0.074261774750864804 0.25289133929391111 0 0.089645379702363526 0.25980927980688501 0 0.089645379702363526 0.25980927980688501 0 0.066829182329119829 0.26693814307945207 0 0.089645379702363526 0.25980927980688501 0 0.084738505220855201 0.27427167124983992 0 0.066829182329119829 0.26693814307945207 0 0.084738505220855201 0.27427167124983992 0 0.069466372585565969 0.27425949764399721 0 0.085077205623658711 0.29152493742801078 0 0.084738505220855201 0.27427167124983992 0 0.095910340366493346 0.28464594086445177 0 0.099818528257267281 0.27185690653089678 0 0.089645379702363526 0.25980927980688501 0 0.084738505220855201 0.27427167124983992 0 0.099818528257267281 0.27185690653089678 0 0.084738505220855201 0.27427167124983992 0 0.066829182329119829 0.26693814307945207 0 0.069466372585565969 0.27425949764399721 0 0.052806085500663583 0.27441819900301412 0 0.069466372585565969 0.27425949764399721 0 0.076123070751733898 0.28677840112891878 0 0.052806085500663583 0.27441819900301412 0 0.076123070751733898 0.28677840112891878 0 0.069466372585565969 0.27425949764399721 0 0.076123070751733898 0.28677840112891878 0 0.062472563593505302 0.26110660749064829 0 0.069466372585565969 0.27425949764399721 0 0.062472563593505302 0.26110660749064829 0 0.066829182329119829 0.26693814307945207 0 0.069466372585565969 0.27425949764399721 0 0.069466372585565969 0.27425949764399721 0 0.085077205623658711 0.29152493742801078 0 0.069466372585565969 0.27425949764399721 0 0.076123070751733898 0.28677840112891878 0 0.085077205623658711 0.29152493742801078 0 0.062988366650143207 0.29302398426469728 0 0.076123070751733898 0.28677840112891878 0 0.066452600317618793 0.30933520022964911 0 0.054778979573680928 0.27715841955607551 0 0.062988366650143207 0.29302398426469728 0 0.076123070751733898 0.28677840112891878 0 0.090103400857782137 0.31307047550514489 0 0.076123070751733898 0.28677840112891878 0 0.066452600317618793 0.30933520022964911 0 0.059204269303370749 0.30137448027593422 0 0.062988366650143207 0.29302398426469728 0 0.066452600317618793 0.30933520022964911 0 0.090103400857782137 0.31307047550514489 0 0.076123070751733898 0.28677840112891878 0 0.085077205623658711 0.29152493742801078 0 0.090103400857782137 0.31307047550514489 0 0.076123070751733898 0.28677840112891878 0 0.090103400857782137 0.31307047550514489 0 0.085077205623658711 0.29152493742801078 0 0.09732687347400408 0.30507295899279041 0 0.085077205623658711 0.29152493742801078 0 0.09732687347400408 0.30507295899279041 0 0.084738505220855201 0.27427167124983992 0 0.085077205623658711 0.29152493742801078 0 0.095910340366493346 0.28464594086445177 0 0.076123070751733898 0.28677840112891878 0 0.085077205623658711 0.29152493742801078 0 0.085077205623658711 0.29152493742801078 0 0.095910340366493346 0.28464594086445177 0 0.10018382130907411 0.29953286904093468 0 0.085077205623658711 0.29152493742801078 0 0.10018382130907411 0.29953286904093468 0 0.095910340366493346 0.28464594086445177 0 0.10809736708577181 0.28553666446189058 0 0.10018382130907411 0.29953286904093468 0 0.10809736708577181 0.28553666446189058 0 0.10018382130907411 0.29953286904093468 0 0.10959494141679089 0.29761357018739809 0 0.099947674014671917 0.31467323404701991 0 0.090103400857782137 0.31307047550514489 0 0.09732687347400408 0.30507295899279041 0 0.085077205623658711 0.29152493742801078 0 0.09732687347400408 0.30507295899279041 0 0.10018382130907411 0.29953286904093468 0 0.09732687347400408 0.30507295899279041 0 0.10018382130907411 0.29953286904093468 0 0.1055944182754792 0.3076919023112884 0 0.10018382130907411 0.29953286904093468 0 0.11529043699448981 0.30754080065385803 0 0.10959494141679089 0.29761357018739809 0 0.10018382130907411 0.29953286904093468 0 0.11529043699448981 0.30754080065385803 0 0.1095765413243488 0.31862098055757049 0 0.09732687347400408 0.30507295899279041 0 0.1055944182754792 0.3076919023112884 0 0.10018382130907411 0.29953286904093468 0 0.1055944182754792 0.3076919023112884 0 0.11529043699448981 0.30754080065385803 0 0.1095765413243488 0.31862098055757049 0 0.09732687347400408 0.30507295899279041 0 0.1095765413243488 0.31862098055757049 0 0.1055944182754792 0.3076919023112884 0 0.11529043699448981 0.30754080065385803 0 0.11529043699448981 0.30754080065385803 0 0.11637637905870279 0.30155283343175482 0 0.11810871752106521 0.30621928700195911 0 0.11529043699448981 0.30754080065385803 0 0.10959494141679089 0.29761357018739809 0 0.11637637905870279 0.30155283343175482 0 0.10959494141679089 0.29761357018739809 0 0.11637637905870279 0.30155283343175482 0 0.1164892219926046 0.29243334627748818 0 0.11529043699448981 0.30754080065385803 0 0.11637637905870279 0.30155283343175482 0 0.11637637905870279 0.30155283343175482 0 0.1222906650571363 0.2985709440566281 0 0.1164892219926046 0.29243334627748818 0 0.1222906650571363 0.2985709440566281 0 0.1206025954822835 0.30378795350269022 0 0.1243783730770044 0.30485679470236721 0 0.11637637905870279 0.30155283343175482 0 0.1222906650571363 0.2985709440566281 0 0.1206025954822835 0.30378795350269022 0 0.11637637905870279 0.30155283343175482 0 0.1206025954822835 0.30378795350269022 0 0.11810871752106521 0.30621928700195911 0 0.1206025954822835 0.30378795350269022 0 0.11810871752106521 0.30621928700195911 0 0.1213521300308707 0.30775440284793348 0 0.11529043699448981 0.30754080065385803 0 0.11810871752106521 0.30621928700195911 0 0.11930841490252821 0.30912172642276631 0 0.11810871752106521 0.30621928700195911 0 0.1213521300308707 0.30775440284793348 0 0.11930841490252821 0.30912172642276631 0 0.1243783730770044 0.30485679470236721 0 0.1213521300308707 0.30775440284793348 0 0.1244342991148414 0.30898461385241399 0 0.1206025954822835 0.30378795350269022 0 0.1243783730770044 0.30485679470236721 0 0.1213521300308707 0.30775440284793348 0 0.1214195525311879 0.31440901896845502 0 0.1244342991148414 0.30898461385241399 0 0.12900107104525951 0.30968741412501871 0 0.1214195525311879 0.31440901896845502 0 0.1213521300308707 0.30775440284793348 0 0.1244342991148414 0.30898461385241399 0 0.1214195525311879 0.31440901896845502 0 0.11529043699448981 0.30754080065385803 0 0.11930841490252821 0.30912172642276631 0 0.1214195525311879 0.31440901896845502 0 0.1213521300308707 0.30775440284793348 0 0.11930841490252821 0.30912172642276631 0 0.10809736708577181 0.28553666446189058 0 0.1164892219926046 0.29243334627748818 0 0.1210835213650209 0.28058702695229848 0 0.10809736708577181 0.28553666446189058 0 0.10959494141679089 0.29761357018739809 0 0.1164892219926046 0.29243334627748818 0 0.1222906650571363 0.2985709440566281 0 0.1164892219926046 0.29243334627748818 0 0.12596292383497329 0.28976449579057961 0 0.1164892219926046 0.29243334627748818 0 0.1210835213650209 0.28058702695229848 0 0.12596292383497329 0.28976449579057961 0 0.10809736708577181 0.28553666446189058 0 0.1210835213650209 0.28058702695229848 0 0.1147979612748997 0.2707881575742877 0 0.1210835213650209 0.28058702695229848 0 0.1147979612748997 0.2707881575742877 0 0.12791172371537049 0.26609555254785411 0 0.1147979612748997 0.2707881575742877 0 0.116065923487036 0.25155424759680489 0 0.099818528257267281 0.27185690653089678 0 0.1147979612748997 0.2707881575742877 0 0.116065923487036 0.25155424759680489 0 0.12791172371537049 0.26609555254785411 0 0.089645379702363526 0.25980927980688501 0 0.116065923487036 0.25155424759680489 0 0.089645379702363526 0.25980927980688501 0 0.116065923487036 0.25155424759680489 0 0.099818528257267281 0.27185690653089678 0 0.089645379702363526 0.25980927980688501 0 0.099818528257267281 0.27185690653089678 0 0.095910340366493346 0.28464594086445177 0 0.10809736708577181 0.28553666446189058 0 0.099818528257267281 0.27185690653089678 0 0.10809736708577181 0.28553666446189058 0 0.1147979612748997 0.2707881575742877 0 0.099818528257267281 0.27185690653089678 0 0.14627836463393121 0.26809473379089088 0 0.14256315404166739 0.2804585798755338 0 0.1332419302865058 0.27890394506169119 0 0.14627836463393121 0.26809473379089088 0 0.14256315404166739 0.2804585798755338 0 0.15383705453569649 0.27951082009548711 0 0.14627836463393121 0.26809473379089088 0 0.15383705453569649 0.27951082009548711 0 0.1609818760820641 0.2708255403471686 0 0.14248646727170791 0.24329921538672239 0 0.14627836463393121 0.26809473379089088 0 0.1631161995596529 0.25657386530356069 0 0.14248646727170791 0.24329921538672239 0 0.116065923487036 0.25155424759680489 0 0.12791172371537049 0.26609555254785411 0 0.14248646727170791 0.24329921538672239 0 0.14627836463393121 0.26809473379089088 0 0.12791172371537049 0.26609555254785411 0 0.14627836463393121 0.26809473379089088 0 0.12791172371537049 0.26609555254785411 0 0.1332419302865058 0.27890394506169119 0 0.1210835213650209 0.28058702695229848 0 0.12791172371537049 0.26609555254785411 0 0.1332419302865058 0.27890394506169119 0 0.1332419302865058 0.27890394506169119 0 0.12596292383497329 0.28976449579057961 0 0.13463915166403909 0.29011289163129678 0 0.1210835213650209 0.28058702695229848 0 0.1332419302865058 0.27890394506169119 0 0.12596292383497329 0.28976449579057961 0 0.1222906650571363 0.2985709440566281 0 0.12596292383497329 0.28976449579057961 0 0.12923992476061211 0.29615108028493942 0 0.12596292383497329 0.28976449579057961 0 0.12923992476061211 0.29615108028493942 0 0.13463915166403909 0.29011289163129678 0 0.13463915166403909 0.29011289163129678 0 0.13544399911061031 0.29845687749894129 0 0.1416447250157222 0.29544082675589128 0 0.12923992476061211 0.29615108028493942 0 0.13463915166403909 0.29011289163129678 0 0.13544399911061031 0.29845687749894129 0 0.14256315404166739 0.2804585798755338 0 0.1332419302865058 0.27890394506169119 0 0.13463915166403909 0.29011289163129678 0 0.1243783730770044 0.30485679470236721 0 0.1244342991148414 0.30898461385241399 0 0.12900107104525951 0.30968741412501871 0 0.1243783730770044 0.30485679470236721 0 0.12900107104525951 0.30968741412501871 0 0.1290658347258283 0.30205966601357243 0 0.12900107104525951 0.30968741412501871 0 0.1290658347258283 0.30205966601357243 0 0.1340409753043473 0.30463488541353972 0 0.1222906650571363 0.2985709440566281 0 0.1243783730770044 0.30485679470236721 0 0.1290658347258283 0.30205966601357243 0 0.1222906650571363 0.2985709440566281 0 0.12923992476061211 0.29615108028493942 0 0.1290658347258283 0.30205966601357243 0 0.12923992476061211 0.29615108028493942 0 0.1290658347258283 0.30205966601357243 0 0.13544399911061031 0.29845687749894129 0 0.13544399911061031 0.29845687749894129 0 0.14170706289926879 0.30357921339911909 0 0.1416447250157222 0.29544082675589128 0 0.13544399911061031 0.29845687749894129 0 0.1340409753043473 0.30463488541353972 0 0.14170706289926879 0.30357921339911909 0 0.1290658347258283 0.30205966601357243 0 0.13544399911061031 0.29845687749894129 0 0.1340409753043473 0.30463488541353972 0 0.13598458437900529 0.30983158877234418 0 0.14130712994747449 0.31140798331507108 0 0.14170706289926879 0.30357921339911909 0 0.12900107104525951 0.30968741412501871 0 0.1340409753043473 0.30463488541353972 0 0.13598458437900529 0.30983158877234418 0 0.1340409753043473 0.30463488541353972 0 0.13598458437900529 0.30983158877234418 0 0.14170706289926879 0.30357921339911909 0 0.13598458437900529 0.30983158877234418 0 0.14130712994747449 0.31140798331507108 0 0.13528824775885559 0.3155805734405937 0 0.12900107104525951 0.30968741412501871 0 0.13598458437900529 0.30983158877234418 0 0.13528824775885559 0.3155805734405937 0 0.1483486037307668 0.31106151759990119 0 0.14130712994747449 0.31140798331507108 0 0.14170706289926879 0.30357921339911909 0 0.1483486037307668 0.31106151759990119 0 0.14170706289926879 0.30357921339911909 0 0.1513591925520972 0.30423422291399321 0 0.14170706289926879 0.30357921339911909 0 0.14924189349128261 0.29698436464102829 0 0.1513591925520972 0.30423422291399321 0 0.14170706289926879 0.30357921339911909 0 0.14924189349128261 0.29698436464102829 0 0.1416447250157222 0.29544082675589128 0 0.1513591925520972 0.30423422291399321 0 0.15847128754916129 0.30901971199088751 0 0.1567398971697517 0.30020769771567818 0 0.14924189349128261 0.29698436464102829 0 0.1513591925520972 0.30423422291399321 0 0.1567398971697517 0.30020769771567818 0 0.1483486037307668 0.31106151759990119 0 0.1513591925520972 0.30423422291399321 0 0.15847128754916129 0.30901971199088751 0 0.1483486037307668 0.31106151759990119 0 0.15847128754916129 0.30901971199088751 0 0.1531779528472626 0.31690967251270458 0 0.14256315404166739 0.2804585798755338 0 0.15383705453569649 0.27951082009548711 0 0.14728728951424691 0.28871625735014939 0 0.14256315404166739 0.2804585798755338 0 0.13463915166403909 0.29011289163129678 0 0.14728728951424691 0.28871625735014939 0 0.14924189349128261 0.29698436464102829 0 0.14728728951424691 0.28871625735014939 0 0.1416447250157222 0.29544082675589128 0 0.13463915166403909 0.29011289163129678 0 0.14728728951424691 0.28871625735014939 0 0.1416447250157222 0.29544082675589128 0 0.14924189349128261 0.29698436464102829 0 0.1576814993112734 0.29111844862325259 0 0.1567398971697517 0.30020769771567818 0 0.14924189349128261 0.29698436464102829 0 0.14728728951424691 0.28871625735014939 0 0.1576814993112734 0.29111844862325259 0 0.15383705453569649 0.27951082009548711 0 0.14728728951424691 0.28871625735014939 0 0.1576814993112734 0.29111844862325259 0 0.15383705453569649 0.27951082009548711 0 0.1576814993112734 0.29111844862325259 0 0.16532030222413041 0.28061774918364429 0 0.1576814993112734 0.29111844862325259 0 0.1689979645595176 0.28949488405725932 0 0.16532030222413041 0.28061774918364429 0 0.1576814993112734 0.29111844862325259 0 0.1689979645595176 0.28949488405725932 0 0.16694561294494401 0.29968174040922901 0 0.1689979645595176 0.28949488405725932 0 0.16694561294494401 0.29968174040922901 0 0.17866142019044989 0.29199773726540068 0 0.1689979645595176 0.28949488405725932 0 0.17498255083596301 0.28300150235233201 0 0.16532030222413041 0.28061774918364429 0 0.1576814993112734 0.29111844862325259 0 0.1567398971697517 0.30020769771567818 0 0.16694561294494401 0.29968174040922901 0 0.15847128754916129 0.30901971199088751 0 0.1567398971697517 0.30020769771567818 0 0.16694561294494401 0.29968174040922901 0 0.16694561294494401 0.29968174040922901 0 0.17666858027807311 0.3015349886251833 0 0.1707678241303611 0.31259989648156872 0 0.15847128754916129 0.30901971199088751 0 0.16694561294494401 0.29968174040922901 0 0.1707678241303611 0.31259989648156872 0 0.17666858027807311 0.3015349886251833 0 0.18371952992762389 0.30785332357736089 0 0.1707678241303611 0.31259989648156872 0 0.16694561294494401 0.29968174040922901 0 0.17666858027807311 0.3015349886251833 0 0.17866142019044989 0.29199773726540068 0 0.17666858027807311 0.3015349886251833 0 0.18371952992762389 0.30785332357736089 0 0.1898902111984884 0.29891268329407239 0 0.18371952992762389 0.30785332357736089 0 0.1898902111984884 0.29891268329407239 0 0.17666858027807311 0.3015349886251833 0 0.17866142019044989 0.29199773726540068 0 0.1898902111984884 0.29891268329407239 0 0.17498255083596301 0.28300150235233201 0 0.17866142019044989 0.29199773726540068 0 0.1849298445554361 0.28099903695767547 0 0.1689979645595176 0.28949488405725932 0 0.17498255083596301 0.28300150235233201 0 0.17866142019044989 0.29199773726540068 0 0.17866142019044989 0.29199773726540068 0 0.18677859260729601 0.28760164196875848 0 0.1898902111984884 0.29891268329407239 0 0.17866142019044989 0.29199773726540068 0 0.18677859260729601 0.28760164196875848 0 0.1849298445554361 0.28099903695767547 0 0.1849298445554361 0.28099903695767547 0 0.17528279401001801 0.2714166079934146 0 0.19094745617081291 0.27038549871767581 0 0.17528279401001801 0.2714166079934146 0 0.18564289691528729 0.25868749876629671 0 0.19094745617081291 0.27038549871767581 0 0.17498255083596301 0.28300150235233201 0 0.1849298445554361 0.28099903695767547 0 0.17528279401001801 0.2714166079934146 0 0.17528279401001801 0.2714166079934146 0 0.16532030222413041 0.28061774918364429 0 0.1609818760820641 0.2708255403471686 0 0.17498255083596301 0.28300150235233201 0 0.17528279401001801 0.2714166079934146 0 0.16532030222413041 0.28061774918364429 0 0.17528279401001801 0.2714166079934146 0 0.1609818760820641 0.2708255403471686 0 0.1631161995596529 0.25657386530356069 0 0.15383705453569649 0.27951082009548711 0 0.16532030222413041 0.28061774918364429 0 0.1609818760820641 0.2708255403471686 0 0.14627836463393121 0.26809473379089088 0 0.1609818760820641 0.2708255403471686 0 0.1631161995596529 0.25657386530356069 0 0.16890701105638031 0.23504418317664161 0 0.1631161995596529 0.25657386530356069 0 0.18564289691528729 0.25868749876629671 0 0.17528279401001801 0.2714166079934146 0 0.1631161995596529 0.25657386530356069 0 0.18564289691528729 0.25868749876629671 0 0.1956251304139873 0.24830732682566101 0 0.18564289691528729 0.25868749876629671 0 0.20465537480646501 0.25892384109831479 0 0.18564289691528729 0.25868749876629671 0 0.19094745617081291 0.27038549871767581 0 0.20465537480646501 0.25892384109831479 0 0.2050239072751949 0.2492833193895482 0 0.1956251304139873 0.24830732682566101 0 0.20465537480646501 0.25892384109831479 0 0.19094745617081291 0.27038549871767581 0 0.20212350544635149 0.27452240688285762 0 0.1917381003592612 0.28136787577326228 0 0.1849298445554361 0.28099903695767547 0 0.19094745617081291 0.27038549871767581 0 0.1917381003592612 0.28136787577326228 0 0.19094745617081291 0.27038549871767581 0 0.20212350544635149 0.27452240688285762 0 0.20465537480646501 0.25892384109831479 0 0.21559138507808229 0.27635001083075639 0 0.2170338530129477 0.25958452376210089 0 0.2223889939606305 0.26849190584137572 0 0.20212350544635149 0.27452240688285762 0 0.2170338530129477 0.25958452376210089 0 0.20037669147028589 0.28371892366973078 0 0.2170338530129477 0.25958452376210089 0 0.20037669147028589 0.28371892366973078 0 0.21559138507808229 0.27635001083075639 0 0.2170338530129477 0.25958452376210089 0 0.20037669147028589 0.28371892366973078 0 0.20212350544635149 0.27452240688285762 0 0.20465537480646501 0.25892384109831479 0 0.21458810326103989 0.25029177234766842 0 0.20212350544635149 0.27452240688285762 0 0.2170338530129477 0.25958452376210089 0 0.21458810326103989 0.25029177234766842 0 0.20212350544635149 0.27452240688285762 0 0.21458810326103989 0.25029177234766842 0 0.2050239072751949 0.2492833193895482 0 0.20465537480646501 0.25892384109831479 0 0.21458810326103989 0.25029177234766842 0 0.20465537480646501 0.25892384109831479 0 0.21458810326103989 0.25029177234766842 0 0.23169913173193779 0.25404958449575432 0 0.22942687348362151 0.26728355318502178 0 0.24090080429007341 0.26281353644332878 0 0.23169913173193779 0.25404958449575432 0 0.2249153238939712 0.26221153605608138 0 0.22942687348362151 0.26728355318502178 0 0.2170338530129477 0.25958452376210089 0 0.2249153238939712 0.26221153605608138 0 0.2223889939606305 0.26849190584137572 0 0.2170338530129477 0.25958452376210089 0 0.23169913173193779 0.25404958449575432 0 0.2249153238939712 0.26221153605608138 0 0.2223889939606305 0.26849190584137572 0 0.2255322572178127 0.27738204478537232 0 0.22942687348362151 0.26728355318502178 0 0.2249153238939712 0.26221153605608138 0 0.2223889939606305 0.26849190584137572 0 0.22942687348362151 0.26728355318502178 0 0.21559138507808229 0.27635001083075639 0 0.2255322572178127 0.27738204478537232 0 0.21985426169801439 0.28935406669317137 0 0.21559138507808229 0.27635001083075639 0 0.2223889939606305 0.26849190584137572 0 0.2255322572178127 0.27738204478537232 0 0.2255322572178127 0.27738204478537232 0 0.23621117140834261 0.27732665952701641 0 0.23095623596381579 0.2876536505458 0 0.2255322572178127 0.27738204478537232 0 0.22942687348362151 0.26728355318502178 0 0.23621117140834261 0.27732665952701641 0 0.23621117140834261 0.27732665952701641 0 0.24818821145747599 0.27522177653690871 0 0.24090080429007341 0.26281353644332878 0 0.22942687348362151 0.26728355318502178 0 0.23621117140834261 0.27732665952701641 0 0.24090080429007341 0.26281353644332878 0 0.24818821145747599 0.27522177653690871 0 0.24090080429007341 0.26281353644332878 0 0.25530776412370298 0.26639583896058622 0 0.23995652529561701 0.25039133628829258 0 0.24090080429007341 0.26281353644332878 0 0.25404003316197471 0.25208422786308371 0 0.23169913173193779 0.25404958449575432 0 0.23995652529561701 0.25039133628829258 0 0.24090080429007341 0.26281353644332878 0 0.23765651747073049 0.31117848176507701 0 0.2454028482605469 0.29267792886045368 0 0.25114017462525878 0.31153615041935723 0 0.23765651747073049 0.31117848176507701 0 0.2454028482605469 0.29267792886045368 0 0.2283396740985745 0.30195705682751389 0 0.2454028482605469 0.29267792886045368 0 0.23095623596381579 0.2876536505458 0 0.2283396740985745 0.30195705682751389 0 0.23621117140834261 0.27732665952701641 0 0.24818821145747599 0.27522177653690871 0 0.2454028482605469 0.29267792886045368 0 0.23621117140834261 0.27732665952701641 0 0.2454028482605469 0.29267792886045368 0 0.23095623596381579 0.2876536505458 0 0.2255322572178127 0.27738204478537232 0 0.23095623596381579 0.2876536505458 0 0.21985426169801439 0.28935406669317137 0 0.23095623596381579 0.2876536505458 0 0.21985426169801439 0.28935406669317137 0 0.2283396740985745 0.30195705682751389 0 0.2283396740985745 0.30195705682751389 0 0.2184758680590754 0.31184724711422762 0 0.22801070301179061 0.32060690690137728 0 0.21985426169801439 0.28935406669317137 0 0.2283396740985745 0.30195705682751389 0 0.21670572119465931 0.30172893354768798 0 0.23765651747073049 0.31117848176507701 0 0.2283396740985745 0.30195705682751389 0 0.22801070301179061 0.32060690690137728 0 0.2283396740985745 0.30195705682751389 0 0.2184758680590754 0.31184724711422762 0 0.21670572119465931 0.30172893354768798 0 0.2184758680590754 0.31184724711422762 0 0.21670572119465931 0.30172893354768798 0 0.20632342479934371 0.30585855598863948 0 0.21670572119465931 0.30172893354768798 0 0.20632342479934371 0.30585855598863948 0 0.21141614329998781 0.29390938293380992 0 0.20632342479934371 0.30585855598863948 0 0.21141614329998781 0.29390938293380992 0 0.2042452804315445 0.29308429151921322 0 0.21559138507808229 0.27635001083075639 0 0.21985426169801439 0.28935406669317137 0 0.2104384150331686 0.28649738738125968 0 0.21985426169801439 0.28935406669317137 0 0.21141614329998781 0.29390938293380992 0 0.2104384150331686 0.28649738738125968 0 0.21985426169801439 0.28935406669317137 0 0.21670572119465931 0.30172893354768798 0 0.21141614329998781 0.29390938293380992 0 0.21141614329998781 0.29390938293380992 0 0.2042452804315445 0.29308429151921322 0 0.2104384150331686 0.28649738738125968 0 0.2042452804315445 0.29308429151921322 0 0.2104384150331686 0.28649738738125968 0 0.20037669147028589 0.28371892366973078 0 0.21559138507808229 0.27635001083075639 0 0.2104384150331686 0.28649738738125968 0 0.20037669147028589 0.28371892366973078 0 0.20212350544635149 0.27452240688285762 0 0.20037669147028589 0.28371892366973078 0 0.1898902111984884 0.29891268329407239 0 0.18677859260729601 0.28760164196875848 0 0.1917381003592612 0.28136787577326228 0 0.1898902111984884 0.29891268329407239 0 0.20037669147028589 0.28371892366973078 0 0.1976595376627992 0.29976589533378561 0 0.1898902111984884 0.29891268329407239 0 0.2042452804315445 0.29308429151921322 0 0.20037669147028589 0.28371892366973078 0 0.1976595376627992 0.29976589533378561 0 0.20212350544635149 0.27452240688285762 0 0.1898902111984884 0.29891268329407239 0 0.20212350544635149 0.27452240688285762 0 0.1917381003592612 0.28136787577326228 0 0.1898902111984884 0.29891268329407239 0 0.20037669147028589 0.28371892366973078 0 0.1898902111984884 0.29891268329407239 0 0.18677859260729601 0.28760164196875848 0 0.1849298445554361 0.28099903695767547 0 0.1917381003592612 0.28136787577326228 0 0.20632342479934371 0.30585855598863948 0 0.19412409721151189 0.30848045781950378 0 0.19635424873152091 0.31866253726922511 0 0.20632342479934371 0.30585855598863948 0 0.1976595376627992 0.29976589533378561 0 0.19412409721151189 0.30848045781950378 0 0.20632342479934371 0.30585855598863948 0 0.2042452804315445 0.29308429151921322 0 0.1976595376627992 0.29976589533378561 0 0.18371952992762389 0.30785332357736089 0 0.1976595376627992 0.29976589533378561 0 0.1898902111984884 0.29891268329407239 0 0.18371952992762389 0.30785332357736089 0 0.19412409721151189 0.30848045781950378 0 0.19635424873152091 0.31866253726922511 0 0.18371952992762389 0.30785332357736089 0 0.1976595376627992 0.29976589533378561 0 0.19412409721151189 0.30848045781950378 0 0.19635424873152091 0.31866253726922511 0 0.19329834396814641 0.33328399686629978 0 0.21150607161232149 0.3245036863190196 0 0.19635424873152091 0.31866253726922511 0 0.19329834396814641 0.33328399686629978 0 0.1818581672390053 0.32281790922797782 0 0.19329834396814641 0.33328399686629978 0 0.20841238186686439 0.34472105417207632 0 0.1876990638134575 0.35190483133425488 0 0.19329834396814641 0.33328399686629978 0 0.21150607161232149 0.3245036863190196 0 0.20841238186686439 0.34472105417207632 0 0.21150607161232149 0.3245036863190196 0 0.22736457019319431 0.33776348264759248 0 0.20841238186686439 0.34472105417207632 0 0.20632342479934371 0.30585855598863948 0 0.19635424873152091 0.31866253726922511 0 0.21150607161232149 0.3245036863190196 0 0.2184758680590754 0.31184724711422762 0 0.20632342479934371 0.30585855598863948 0 0.21150607161232149 0.3245036863190196 0 0.21150607161232149 0.3245036863190196 0 0.22801070301179061 0.32060690690137728 0 0.22736457019319431 0.33776348264759248 0 0.2184758680590754 0.31184724711422762 0 0.21150607161232149 0.3245036863190196 0 0.22801070301179061 0.32060690690137728 0 0.22801070301179061 0.32060690690137728 0 0.22736457019319431 0.33776348264759248 0 0.24490867605631639 0.32967072069511189 0 0.22736457019319431 0.33776348264759248 0 0.24490867605631639 0.32967072069511189 0 0.24521693247762111 0.35027114815259558 0 0.23765651747073049 0.31117848176507701 0 0.22801070301179061 0.32060690690137728 0 0.24490867605631639 0.32967072069511189 0 0.23765651747073049 0.31117848176507701 0 0.24490867605631639 0.32967072069511189 0 0.25114017462525878 0.31153615041935723 0 0.24305895760768401 0.36641304215893011 0 0.24521693247762111 0.35027114815259558 0 0.22613265613425179 0.35680737964537468 0 0.22736457019319431 0.33776348264759248 0 0.24521693247762111 0.35027114815259558 0 0.22613265613425179 0.35680737964537468 0 0.22736457019319431 0.33776348264759248 0 0.22613265613425179 0.35680737964537468 0 0.20841238186686439 0.34472105417207632 0 0.22613265613425179 0.35680737964537468 0 0.20200890290724041 0.36500873302905812 0 0.22860253219506471 0.37841014948266538 0 0.24305895760768401 0.36641304215893011 0 0.22613265613425179 0.35680737964537468 0 0.22860253219506471 0.37841014948266538 0 0.20200890290724041 0.36500873302905812 0 0.22860253219506471 0.37841014948266538 0 0.22613265613425179 0.35680737964537468 0 0.20841238186686439 0.34472105417207632 0 0.20200890290724041 0.36500873302905812 0 0.20841238186686439 0.34472105417207632 0 0.1876990638134575 0.35190483133425488 0 0.20200890290724041 0.36500873302905812 0 0.1876990638134575 0.35190483133425488 0 0.20200890290724041 0.36500873302905812 0 0.17637045729064621 0.37495278481954358 0 0.1876990638134575 0.35190483133425488 0 0.17637045729064621 0.37495278481954358 0 0.16909864488713719 0.35514267549568418 0 0.15975417249048229 0.36968310563447321 0 0.16909864488713719 0.35514267549568418 0 0.14990537096685039 0.36070173528474042 0 0.17637045729064621 0.37495278481954358 0 0.15975417249048229 0.36968310563447321 0 0.16909864488713719 0.35514267549568418 0 0.16909864488713719 0.35514267549568418 0 0.1770056519607103 0.33831974362286749 0 0.1619384281755652 0.34052596047808847 0 0.16909864488713719 0.35514267549568418 0 0.14990537096685039 0.36070173528474042 0 0.15416632756111201 0.34898696826244741 0 0.16909864488713719 0.35514267549568418 0 0.1619384281755652 0.34052596047808847 0 0.15416632756111201 0.34898696826244741 0 0.1876990638134575 0.35190483133425488 0 0.16909864488713719 0.35514267549568418 0 0.1770056519607103 0.33831974362286749 0 0.19329834396814641 0.33328399686629978 0 0.1770056519607103 0.33831974362286749 0 0.1818581672390053 0.32281790922797782 0 0.19329834396814641 0.33328399686629978 0 0.1876990638134575 0.35190483133425488 0 0.1770056519607103 0.33831974362286749 0 0.1770056519607103 0.33831974362286749 0 0.1818581672390053 0.32281790922797782 0 0.1657389141743941 0.32607447656151611 0 0.1818581672390053 0.32281790922797782 0 0.1707678241303611 0.31259989648156872 0 0.1657389141743941 0.32607447656151611 0 0.18371952992762389 0.30785332357736089 0 0.19635424873152091 0.31866253726922511 0 0.1818581672390053 0.32281790922797782 0 0.18371952992762389 0.30785332357736089 0 0.1818581672390053 0.32281790922797782 0 0.1707678241303611 0.31259989648156872 0 0.1707678241303611 0.31259989648156872 0 0.1657389141743941 0.32607447656151611 0 0.16084478468494731 0.31759224325908281 0 0.1657389141743941 0.32607447656151611 0 0.15632698434060879 0.32309477146443721 0 0.16084478468494731 0.31759224325908281 0 0.1657389141743941 0.32607447656151611 0 0.15632698434060879 0.32309477146443721 0 0.1534459738215358 0.33116830427909388 0 0.15847128754916129 0.30901971199088751 0 0.1707678241303611 0.31259989648156872 0 0.16084478468494731 0.31759224325908281 0 0.15847128754916129 0.30901971199088751 0 0.16084478468494731 0.31759224325908281 0 0.1531779528472626 0.31690967251270458 0 0.15632698434060879 0.32309477146443721 0 0.16084478468494731 0.31759224325908281 0 0.1531779528472626 0.31690967251270458 0 0.1770056519607103 0.33831974362286749 0 0.1657389141743941 0.32607447656151611 0 0.1619384281755652 0.34052596047808847 0 0.1657389141743941 0.32607447656151611 0 0.1619384281755652 0.34052596047808847 0 0.1534459738215358 0.33116830427909388 0 0.1619384281755652 0.34052596047808847 0 0.14537830609435001 0.34101383565047871 0 0.15416632756111201 0.34898696826244741 0 0.1619384281755652 0.34052596047808847 0 0.1534459738215358 0.33116830427909388 0 0.14537830609435001 0.34101383565047871 0 0.1534459738215358 0.33116830427909388 0 0.1427633336259623 0.33140140495610498 0 0.14842729617490411 0.32372916070978858 0 0.1534459738215358 0.33116830427909388 0 0.1427633336259623 0.33140140495610498 0 0.14537830609435001 0.34101383565047871 0 0.1427633336259623 0.33140140495610498 0 0.14537830609435001 0.34101383565047871 0 0.13654253772275141 0.33890423694427602 0 0.1483486037307668 0.31106151759990119 0 0.1531779528472626 0.31690967251270458 0 0.14487070829517959 0.31682928085866202 0 0.1531779528472626 0.31690967251270458 0 0.14842729617490411 0.32372916070978858 0 0.14487070829517959 0.31682928085866202 0 0.15632698434060879 0.32309477146443721 0 0.1534459738215358 0.33116830427909388 0 0.14842729617490411 0.32372916070978858 0 0.15632698434060879 0.32309477146443721 0 0.1531779528472626 0.31690967251270458 0 0.14842729617490411 0.32372916070978858 0 0.1427633336259623 0.33140140495610498 0 0.14842729617490411 0.32372916070978858 0 0.1402378637359267 0.32270884290342983 0 0.14842729617490411 0.32372916070978858 0 0.14487070829517959 0.31682928085866202 0 0.1402378637359267 0.32270884290342983 0 0.1483486037307668 0.31106151759990119 0 0.14130712994747449 0.31140798331507108 0 0.14487070829517959 0.31682928085866202 0 0.14130712994747449 0.31140798331507108 0 0.14487070829517959 0.31682928085866202 0 0.13528824775885559 0.3155805734405937 0 0.14487070829517959 0.31682928085866202 0 0.13528824775885559 0.3155805734405937 0 0.1402378637359267 0.32270884290342983 0 0.13528824775885559 0.3155805734405937 0 0.1330765722643745 0.32249408610517011 0 0.1402378637359267 0.32270884290342983 0 0.1330765722643745 0.32249408610517011 0 0.1402378637359267 0.32270884290342983 0 0.13309473665224339 0.33072661256584468 0 0.12375204985912221 0.32702725796552912 0 0.1330765722643745 0.32249408610517011 0 0.13309473665224339 0.33072661256584468 0 0.12375204985912221 0.32702725796552912 0 0.1330765722643745 0.32249408610517011 0 0.12817088130983889 0.317450689473041 0 0.13528824775885559 0.3155805734405937 0 0.1330765722643745 0.32249408610517011 0 0.12817088130983889 0.317450689473041 0 0.1214195525311879 0.31440901896845502 0 0.12900107104525951 0.30968741412501871 0 0.12817088130983889 0.317450689473041 0 0.12900107104525951 0.30968741412501871 0 0.13528824775885559 0.3155805734405937 0 0.12817088130983889 0.317450689473041 0 0.14537830609435001 0.34101383565047871 0 0.13654253772275141 0.33890423694427602 0 0.13685475473781181 0.34959577292381833 0 0.13654253772275141 0.33890423694427602 0 0.1260676383484185 0.3399282146226113 0 0.13685475473781181 0.34959577292381833 0 0.1427633336259623 0.33140140495610498 0 0.13654253772275141 0.33890423694427602 0 0.13309473665224339 0.33072661256584468 0 0.1427633336259623 0.33140140495610498 0 0.1402378637359267 0.32270884290342983 0 0.13309473665224339 0.33072661256584468 0 0.12375204985912221 0.32702725796552912 0 0.13309473665224339 0.33072661256584468 0 0.1260676383484185 0.3399282146226113 0 0.13654253772275141 0.33890423694427602 0 0.13309473665224339 0.33072661256584468 0 0.1260676383484185 0.3399282146226113 0 0.1232256624926347 0.35239419723674059 0 0.13685475473781181 0.34959577292381833 0 0.13271547193899449 0.36524458735671972 0 0.1232256624926347 0.35239419723674059 0 0.1260676383484185 0.3399282146226113 0 0.13685475473781181 0.34959577292381833 0 0.13685475473781181 0.34959577292381833 0 0.13271547193899449 0.36524458735671972 0 0.14990537096685039 0.36070173528474042 0 0.13271547193899449 0.36524458735671972 0 0.14727668153694909 0.37350977329143831 0 0.1384203385310763 0.3853027474406937 0 0.13271547193899449 0.36524458735671972 0 0.14727668153694909 0.37350977329143831 0 0.14990537096685039 0.36070173528474042 0 0.15975417249048229 0.36968310563447321 0 0.14727668153694909 0.37350977329143831 0 0.14990537096685039 0.36070173528474042 0 0.14537830609435001 0.34101383565047871 0 0.13685475473781181 0.34959577292381833 0 0.15416632756111201 0.34898696826244741 0 0.13685475473781181 0.34959577292381833 0 0.14990537096685039 0.36070173528474042 0 0.15416632756111201 0.34898696826244741 0 0.15196678808574959 0.39634912392256672 0 0.1402717845598023 0.40641241395674649 0 0.16129649351817349 0.40676751558544272 0 0.15196678808574959 0.39634912392256672 0 0.1384203385310763 0.3853027474406937 0 0.1402717845598023 0.40641241395674649 0 0.15196678808574959 0.39634912392256672 0 0.15611970777082879 0.38410855928095938 0 0.1384203385310763 0.3853027474406937 0 0.14727668153694909 0.37350977329143831 0 0.15611970777082879 0.38410855928095938 0 0.1384203385310763 0.3853027474406937 0 0.15975417249048229 0.36968310563447321 0 0.14727668153694909 0.37350977329143831 0 0.15611970777082879 0.38410855928095938 0 0.1231373165426977 0.3806134049577457 0 0.13271547193899449 0.36524458735671972 0 0.1384203385310763 0.3853027474406937 0 0.1231373165426977 0.3806134049577457 0 0.1384203385310763 0.3853027474406937 0 0.1271742827044339 0.39597619803598749 0 0.1384203385310763 0.3853027474406937 0 0.1271742827044339 0.39597619803598749 0 0.1402717845598023 0.40641241395674649 0 0.1162621503634904 0.41872732341568758 0 0.1271742827044339 0.39597619803598749 0 0.1402717845598023 0.40641241395674649 0 0.1162621503634904 0.41872732341568758 0 0.1402717845598023 0.40641241395674649 0 0.14380353536204241 0.43078456768362461 0 0.1162621503634904 0.41872732341568758 0 0.14380353536204241 0.43078456768362461 0 0.1205619018159948 0.44674810255646558 0 0.1162621503634904 0.41872732341568758 0 0.13914808732176639 0.43525501877606959 0 0.1162621503634904 0.41872732341568758 0 0.13914808732176639 0.43525501877606959 0 0.14380353536204241 0.43078456768362461 0 0.1402717845598023 0.40641241395674649 0 0.16129649351817349 0.40676751558544272 0 0.1583102357697074 0.42239552662274649 0 0.1402717845598023 0.40641241395674649 0 0.14380353536204241 0.43078456768362461 0 0.1583102357697074 0.42239552662274649 0 0.16129649351817349 0.40676751558544272 0 0.17483444504792359 0.42517132393635743 0 0.1767108048052333 0.40648620419478521 0 0.16129649351817349 0.40676751558544272 0 0.1583102357697074 0.42239552662274649 0 0.17483444504792359 0.42517132393635743 0 0.1583102357697074 0.42239552662274649 0 0.17483444504792359 0.42517132393635743 0 0.1713449203605947 0.44284181195156158 0 0.14380353536204241 0.43078456768362461 0 0.1713449203605947 0.44284181195156158 0 0.14380353536204241 0.43078456768362461 0 0.1583102357697074 0.42239552662274649 0 0.1713449203605947 0.44284181195156158 0 0.17483444504792359 0.42517132393635743 0 0.18216746451451801 0.43740730714955978 0 0.1713449203605947 0.44284181195156158 0 0.17483444504792359 0.42517132393635743 0 0.1713449203605947 0.44284181195156158 0 0.17483444504792359 0.42517132393635743 0 0.1894098998784805 0.41329321868770491 0 0.19020123220431809 0.42989189963497759 0 0.17483444504792359 0.42517132393635743 0 0.18216746451451801 0.43740730714955978 0 0.19020123220431809 0.42989189963497759 0 0.17483444504792359 0.42517132393635743 0 0.1767108048052333 0.40648620419478521 0 0.1894098998784805 0.41329321868770491 0 0.1767108048052333 0.40648620419478521 0 0.16971698500113649 0.39319336099264368 0 0.18829620058045249 0.39400560177177729 0 0.1767108048052333 0.40648620419478521 0 0.18829620058045249 0.39400560177177729 0 0.1894098998784805 0.41329321868770491 0 0.15196678808574959 0.39634912392256672 0 0.15611970777082879 0.38410855928095938 0 0.16971698500113649 0.39319336099264368 0 0.15196678808574959 0.39634912392256672 0 0.16129649351817349 0.40676751558544272 0 0.16971698500113649 0.39319336099264368 0 0.16129649351817349 0.40676751558544272 0 0.1767108048052333 0.40648620419478521 0 0.16971698500113649 0.39319336099264368 0 0.17637045729064621 0.37495278481954358 0 0.15975417249048229 0.36968310563447321 0 0.15611970777082879 0.38410855928095938 0 0.17637045729064621 0.37495278481954358 0 0.15611970777082879 0.38410855928095938 0 0.16971698500113649 0.39319336099264368 0 0.17637045729064621 0.37495278481954358 0 0.16971698500113649 0.39319336099264368 0 0.18829620058045249 0.39400560177177729 0 0.20200890290724041 0.36500873302905812 0 0.18829620058045249 0.39400560177177729 0 0.21022739730807871 0.38998636848418261 0 0.20200890290724041 0.36500873302905812 0 0.17637045729064621 0.37495278481954358 0 0.18829620058045249 0.39400560177177729 0 0.18829620058045249 0.39400560177177729 0 0.21022739730807871 0.38998636848418261 0 0.20498907662426999 0.40636669370009521 0 0.18829620058045249 0.39400560177177729 0 0.20498907662426999 0.40636669370009521 0 0.1894098998784805 0.41329321868770491 0 0.21022739730807871 0.38998636848418261 0 0.225418264115859 0.4045632601918206 0 0.20498907662426999 0.40636669370009521 0 0.20200890290724041 0.36500873302905812 0 0.21022739730807871 0.38998636848418261 0 0.22860253219506471 0.37841014948266538 0 0.21022739730807871 0.38998636848418261 0 0.22860253219506471 0.37841014948266538 0 0.225418264115859 0.4045632601918206 0 0.225418264115859 0.4045632601918206 0 0.2490748840761759 0.41447913741323361 0 0.25519616148288887 0.39181156593627298 0 0.22860253219506471 0.37841014948266538 0 0.225418264115859 0.4045632601918206 0 0.25519616148288887 0.39181156593627298 0 0.22860253219506471 0.37841014948266538 0 0.25519616148288887 0.39181156593627298 0 0.24305895760768401 0.36641304215893011 0 0.22860253219506471 0.37841014948266538 0 0.25519616148288887 0.39181156593627298 0 0.2490748840761759 0.41447913741323361 0 0.23040520055063371 0.42472223384156732 0 0.24517769652138269 0.43868647355565088 0 0.225418264115859 0.4045632601918206 0 0.2490748840761759 0.41447913741323361 0 0.23040520055063371 0.42472223384156732 0 0.225418264115859 0.4045632601918206 0 0.23040520055063371 0.42472223384156732 0 0.20794960100346549 0.42683021087399747 0 0.23040520055063371 0.42472223384156732 0 0.20794960100346549 0.42683021087399747 0 0.2229924843016429 0.43948176305630821 0 0.23040520055063371 0.42472223384156732 0 0.2229924843016429 0.43948176305630821 0 0.24517769652138269 0.43868647355565088 0 0.225418264115859 0.4045632601918206 0 0.20794960100346549 0.42683021087399747 0 0.20498907662426999 0.40636669370009521 0 0.20794960100346549 0.42683021087399747 0 0.20498907662426999 0.40636669370009521 0 0.1894098998784805 0.41329321868770491 0 0.20794960100346549 0.42683021087399747 0 0.19020123220431809 0.42989189963497759 0 0.19426067079655579 0.44330707928475449 0 0.20794960100346549 0.42683021087399747 0 0.1894098998784805 0.41329321868770491 0 0.19020123220431809 0.42989189963497759 0 0.18216746451451801 0.43740730714955978 0 0.19020123220431809 0.42989189963497759 0 0.19426067079655579 0.44330707928475449 0 0.19426067079655579 0.44330707928475449 0 0.1940681668251448 0.45640187690020761 0 0.18254949088188149 0.4477470207382499 0 0.19426067079655579 0.44330707928475449 0 0.1940681668251448 0.45640187690020761 0 0.20814429074563079 0.44944136850783811 0 0.1940681668251448 0.45640187690020761 0 0.20814429074563079 0.44944136850783811 0 0.2039949308663013 0.472197178379127 0 0.1940681668251448 0.45640187690020761 0 0.2039949308663013 0.472197178379127 0 0.18608081776579821 0.46867989557539208 0 0.1940681668251448 0.45640187690020761 0 0.18608081776579821 0.46867989557539208 0 0.18254949088188149 0.4477470207382499 0 0.20814429074563079 0.44944136850783811 0 0.22852149564367849 0.45772005811557609 0 0.2039949308663013 0.472197178379127 0 0.20794960100346549 0.42683021087399747 0 0.19426067079655579 0.44330707928475449 0 0.20814429074563079 0.44944136850783811 0 0.20794960100346549 0.42683021087399747 0 0.20814429074563079 0.44944136850783811 0 0.2229924843016429 0.43948176305630821 0 0.2229924843016429 0.43948176305630821 0 0.22852149564367849 0.45772005811557609 0 0.24517769652138269 0.43868647355565088 0 0.20814429074563079 0.44944136850783811 0 0.2229924843016429 0.43948176305630821 0 0.22852149564367849 0.45772005811557609 0 0.22852149564367849 0.45772005811557609 0 0.2480713074063006 0.45455858161591112 0 0.2508124586903176 0.47172026355836871 0 0.22852149564367849 0.45772005811557609 0 0.2480713074063006 0.45455858161591112 0 0.24517769652138269 0.43868647355565088 0 0.24658834009167641 0.5 0 0.2268462464291012 0.47913099520174052 0 0.2508124586903176 0.47172026355836871 0 0.22852149564367849 0.45772005811557609 0 0.2268462464291012 0.47913099520174052 0 0.2508124586903176 0.47172026355836871 0 0.22852149564367849 0.45772005811557609 0 0.2268462464291012 0.47913099520174052 0 0.2039949308663013 0.472197178379127 0 0.24658834009167641 0.5 0 0.2268462464291012 0.47913099520174052 0 0.21774471386125249 0.5 0 0.2039949308663013 0.472197178379127 0 0.18890108763082861 0.5 0 0.18608081776579821 0.46867989557539208 0 0.21774471386125249 0.5 0 0.2039949308663013 0.472197178379127 0 0.18890108763082861 0.5 0 0.2268462464291012 0.47913099520174052 0 0.21774471386125249 0.5 0 0.2039949308663013 0.472197178379127 0 0.18890108763082861 0.5 0 0.16570119088049859 0.47142090597577962 0 0.18608081776579821 0.46867989557539208 0 0.18890108763082861 0.5 0 0.1600574614004048 0.499999999999998 0 0.16570119088049859 0.47142090597577962 0 0.1600574614004048 0.499999999999998 0 0.16570119088049859 0.47142090597577962 0 0.1600574614004048 0.499999999999998 0 0.16570119088049859 0.47142090597577962 0 0.1473140710794911 0.47841155746419622 0 0.16570119088049859 0.47142090597577962 0 0.18608081776579821 0.46867989557539208 0 0.18254949088188149 0.4477470207382499 0 0.16570119088049859 0.47142090597577962 0 0.18254949088188149 0.4477470207382499 0 0.1713449203605947 0.44284181195156158 0 0.18216746451451801 0.43740730714955978 0 0.19426067079655579 0.44330707928475449 0 0.18254949088188149 0.4477470207382499 0 0.18254949088188149 0.4477470207382499 0 0.1713449203605947 0.44284181195156158 0 0.18216746451451801 0.43740730714955978 0 0.18254949088188149 0.4477470207382499 0 0.1713449203605947 0.44284181195156158 0 0.16570119088049859 0.47142090597577962 0 0.1713449203605947 0.44284181195156158 0 0.16570119088049859 0.47142090597577962 0 0.1713449203605947 0.44284181195156158 0 0.15076126992746861 0.45128164001408699 0 0.16570119088049859 0.47142090597577962 0 0.14979107830043681 0.4659705410046826 0 0.15076126992746861 0.45128164001408699 0 0.14979107830043681 0.4659705410046826 0 0.15076126992746861 0.45128164001408699 0 0.13538778131428869 0.46276806056466779 0 0.13914808732176639 0.43525501877606959 0 0.14380353536204241 0.43078456768362461 0 0.15076126992746861 0.45128164001408699 0 0.14380353536204241 0.43078456768362461 0 0.1713449203605947 0.44284181195156158 0 0.15076126992746861 0.45128164001408699 0 0.13914808732176639 0.43525501877606959 0 0.15076126992746861 0.45128164001408699 0 0.13538778131428869 0.46276806056466779 0 0.13914808732176639 0.43525501877606959 0 0.13538778131428869 0.46276806056466779 0 0.1205619018159948 0.44674810255646558 0 0.13914808732176639 0.43525501877606959 0 0.13538778131428869 0.46276806056466779 0 0.1248616532684987 0.47476888169724352 0 0.1205619018159948 0.44674810255646558 0 0.13538778131428869 0.46276806056466779 0 0.13538778131428869 0.46276806056466779 0 0.13162747530681079 0.49028110235326611 0 0.1248616532684987 0.47476888169724352 0 0.13538778131428869 0.46276806056466779 0 0.13162747530681079 0.49028110235326611 0 0.13538778131428869 0.46276806056466779 0 0.13162747530681079 0.49028110235326611 0 0.1473140710794911 0.47841155746419622 0 0.1248616532684987 0.47476888169724352 0 0.13162747530681079 0.49028110235326611 0 0.1248616532684987 0.47476888169724352 0 0.1287333349596296 0.50000000000000233 0 0.1248616532684987 0.47476888169724352 0 0.13162747530681079 0.49028110235326611 0 0.1287333349596296 0.50000000000000233 0 0.13162747530681079 0.49028110235326611 0 0.1302991587401483 0.50000000000000044 0 0.13162747530681079 0.49028110235326611 0 0.1302991587401483 0.50000000000000044 0 0.13586647714571501 0.50000000000000044 0 0.13162747530681079 0.49028110235326611 0 0.1287333349596296 0.50000000000000233 0 0.1302991587401483 0.50000000000000044 0 0.13162747530681079 0.49028110235326611 0 0.13586647714571501 0.50000000000000044 0 0.14406777576738011 0.49099847585001533 0 0.13162747530681079 0.49028110235326611 0 0.13586647714571501 0.50000000000000044 0 0.1600574614004048 0.499999999999998 0 0.13586647714571501 0.50000000000000044 0 0.14406777576738011 0.49099847585001533 0 0.1600574614004048 0.499999999999998 0 0.14406777576738011 0.49099847585001533 0 0.1473140710794911 0.47841155746419622 0 0.13162747530681079 0.49028110235326611 0 0.14406777576738011 0.49099847585001533 0 0.1473140710794911 0.47841155746419622 0 0.16570119088049859 0.47142090597577962 0 0.14979107830043681 0.4659705410046826 0 0.1473140710794911 0.47841155746419622 0 0.14979107830043681 0.4659705410046826 0 0.13538778131428869 0.46276806056466779 0 0.1473140710794911 0.47841155746419622 0 0.3484716028812469 0.46927922019571022 0 0.3639431844790027 0.47792576209206161 0 0.36215729707138089 0.45952194433731441 0 0.3484716028812469 0.46927922019571022 0 0.34825454286986979 0.4866410253547736 0 0.3639431844790027 0.47792576209206161 0 0.34825454286986979 0.4866410253547736 0 0.36196284501337178 0.5 0 0.3639431844790027 0.47792576209206161 0 0.34825454286986979 0.4866410253547736 0 0.36196284501337178 0.5 0 0.33311921878294798 0.5 0 0.36196284501337178 0.5 0 0.3639431844790027 0.47792576209206161 0 0.38120033573297152 0.48442634992442057 0 0.3639431844790027 0.47792576209206161 0 0.37844435483634198 0.4675903904274426 0 0.38120033573297152 0.48442634992442057 0 0.3639431844790027 0.47792576209206161 0 0.36215729707138089 0.45952194433731441 0 0.37844435483634198 0.4675903904274426 0 0.36215729707138089 0.45952194433731441 0 0.37809165231809289 0.44568724501072521 0 0.37844435483634198 0.4675903904274426 0 0.36215729707138089 0.45952194433731441 0 0.35494335133579169 0.44207750056399991 0 0.37809165231809289 0.44568724501072521 0 0.35494335133579169 0.44207750056399991 0 0.365542703577178 0.42914551292816783 0 0.37809165231809289 0.44568724501072521 0 0.35494335133579169 0.44207750056399991 0 0.33746945485668051 0.4332718215327816 0 0.35494335133579169 0.44207750056399991 0 0.33933393763431879 0.44574212964051668 0 0.33746945485668051 0.4332718215327816 0 0.36215729707138089 0.45952194433731441 0 0.35494335133579169 0.44207750056399991 0 0.34904963657780902 0.45457154773394731 0 0.35494335133579169 0.44207750056399991 0 0.34904963657780902 0.45457154773394731 0 0.33933393763431879 0.44574212964051668 0 0.3484716028812469 0.46927922019571022 0 0.36215729707138089 0.45952194433731441 0 0.34904963657780902 0.45457154773394731 0 0.3484716028812469 0.46927922019571022 0 0.34904963657780902 0.45457154773394731 0 0.33768006752307722 0.45817683321967928 0 0.33768006752307722 0.45817683321967928 0 0.32516604183334019 0.44948070643492349 0 0.3263791186886712 0.4718105620932988 0 0.3484716028812469 0.46927922019571022 0 0.33768006752307722 0.45817683321967928 0 0.3263791186886712 0.4718105620932988 0 0.33933393763431879 0.44574212964051668 0 0.32516604183334019 0.44948070643492349 0 0.33457771181584611 0.43369686048393857 0 0.32516604183334019 0.44948070643492349 0 0.33457771181584611 0.43369686048393857 0 0.33933393763431879 0.44574212964051668 0 0.33457771181584611 0.43369686048393857 0 0.33746945485668051 0.4332718215327816 0 0.34904963657780902 0.45457154773394731 0 0.33768006752307722 0.45817683321967928 0 0.33933393763431879 0.44574212964051668 0 0.33768006752307722 0.45817683321967928 0 0.33933393763431879 0.44574212964051668 0 0.32516604183334019 0.44948070643492349 0 0.32516604183334019 0.44948070643492349 0 0.30610823095482448 0.43788140873538328 0 0.33457771181584611 0.43369686048393857 0 0.32516604183334019 0.44948070643492349 0 0.30909376894118562 0.45443190325323968 0 0.30610823095482448 0.43788140873538328 0 0.32516604183334019 0.44948070643492349 0 0.3263791186886712 0.4718105620932988 0 0.30909376894118562 0.45443190325323968 0 0.3263791186886712 0.4718105620932988 0 0.30059931196992168 0.47005809262963882 0 0.31153103284441203 0.48323920778459489 0 0.3484716028812469 0.46927922019571022 0 0.34825454286986979 0.4866410253547736 0 0.3263791186886712 0.4718105620932988 0 0.34825454286986979 0.4866410253547736 0 0.3263791186886712 0.4718105620932988 0 0.33311921878294798 0.5 0 0.3263791186886712 0.4718105620932988 0 0.33311921878294798 0.5 0 0.31153103284441203 0.48323920778459489 0 0.33311921878294798 0.5 0 0.30427559255252412 0.5 0 0.31153103284441203 0.48323920778459489 0 0.30427559255252412 0.5 0 0.31153103284441203 0.48323920778459489 0 0.29110307967174748 0.48580921065493432 0 0.30059931196992168 0.47005809262963882 0 0.31153103284441203 0.48323920778459489 0 0.29110307967174748 0.48580921065493432 0 0.30059931196992168 0.47005809262963882 0 0.29110307967174748 0.48580921065493432 0 0.27585954767988607 0.47408041721782612 0 0.30427559255252412 0.5 0 0.29110307967174748 0.48580921065493432 0 0.27543196632210021 0.5 0 0.27543196632210021 0.5 0 0.27585954767988607 0.47408041721782612 0 0.26198527678341299 0.48673919500437729 0 0.29110307967174748 0.48580921065493432 0 0.27543196632210021 0.5 0 0.27585954767988607 0.47408041721782612 0 0.27585954767988607 0.47408041721782612 0 0.2508124586903176 0.47172026355836871 0 0.26198527678341299 0.48673919500437729 0 0.24658834009167641 0.5 0 0.2508124586903176 0.47172026355836871 0 0.26198527678341299 0.48673919500437729 0 0.24658834009167641 0.5 0 0.27543196632210021 0.5 0 0.26198527678341299 0.48673919500437729 0 0.2480713074063006 0.45455858161591112 0 0.24517769652138269 0.43868647355565088 0 0.26777357876982372 0.45010753123404867 0 0.24517769652138269 0.43868647355565088 0 0.26777357876982372 0.45010753123404867 0 0.26600993858745892 0.42808938636359573 0 0.2480713074063006 0.45455858161591112 0 0.2508124586903176 0.47172026355836871 0 0.26777357876982372 0.45010753123404867 0 0.27585954767988607 0.47408041721782612 0 0.2508124586903176 0.47172026355836871 0 0.26777357876982372 0.45010753123404867 0 0.27585954767988607 0.47408041721782612 0 0.26777357876982372 0.45010753123404867 0 0.28975077836376328 0.45156795454144122 0 0.26777357876982372 0.45010753123404867 0 0.28975077836376328 0.45156795454144122 0 0.28607917402868899 0.43188291486824332 0 0.28975077836376328 0.45156795454144122 0 0.30610823095482448 0.43788140873538328 0 0.28607917402868899 0.43188291486824332 0 0.30059931196992168 0.47005809262963882 0 0.27585954767988607 0.47408041721782612 0 0.28975077836376328 0.45156795454144122 0 0.3263791186886712 0.4718105620932988 0 0.30059931196992168 0.47005809262963882 0 0.30909376894118562 0.45443190325323968 0 0.30059931196992168 0.47005809262963882 0 0.28975077836376328 0.45156795454144122 0 0.30909376894118562 0.45443190325323968 0 0.28975077836376328 0.45156795454144122 0 0.30909376894118562 0.45443190325323968 0 0.30610823095482448 0.43788140873538328 0 0.30610823095482448 0.43788140873538328 0 0.30869255759955722 0.41877018355733042 0 0.28607917402868899 0.43188291486824332 0 0.3075810200549029 0.4073564129674252 0 0.30869255759955722 0.41877018355733042 0 0.30232024370737348 0.40459188745546998 0 0.31142364564813352 0.41093370315849659 0 0.3075810200549029 0.4073564129674252 0 0.31015955469665918 0.40201373970895371 0 0.31142364564813352 0.41093370315849659 0 0.3075810200549029 0.4073564129674252 0 0.30869255759955722 0.41877018355733042 0 0.30869255759955722 0.41877018355733042 0 0.29605666041485018 0.40551048050067168 0 0.30232024370737348 0.40459188745546998 0 0.30869255759955722 0.41877018355733042 0 0.2819443595412231 0.40529087474680159 0 0.30869255759955722 0.41877018355733042 0 0.2819443595412231 0.40529087474680159 0 0.29605666041485018 0.40551048050067168 0 0.30869255759955722 0.41877018355733042 0 0.28607917402868899 0.43188291486824332 0 0.2819443595412231 0.40529087474680159 0 0.2490748840761759 0.41447913741323361 0 0.26600993858745892 0.42808938636359573 0 0.2819443595412231 0.40529087474680159 0 0.26777357876982372 0.45010753123404867 0 0.28607917402868899 0.43188291486824332 0 0.26600993858745892 0.42808938636359573 0 0.28607917402868899 0.43188291486824332 0 0.26600993858745892 0.42808938636359573 0 0.2819443595412231 0.40529087474680159 0 0.2490748840761759 0.41447913741323361 0 0.24517769652138269 0.43868647355565088 0 0.26600993858745892 0.42808938636359573 0 0.2490748840761759 0.41447913741323361 0 0.25519616148288887 0.39181156593627298 0 0.2819443595412231 0.40529087474680159 0 0.25519616148288887 0.39181156593627298 0 0.2618259464583832 0.36726095095448358 0 0.25519616148288887 0.39181156593627298 0 0.27405714121884811 0.38409687161834088 0 0.2618259464583832 0.36726095095448358 0 0.24305895760768401 0.36641304215893011 0 0.25519616148288887 0.39181156593627298 0 0.2618259464583832 0.36726095095448358 0 0.2490748840761759 0.41447913741323361 0 0.25519616148288887 0.39181156593627298 0 0.27405714121884811 0.38409687161834088 0 0.2819443595412231 0.40529087474680159 0 0.28762179706039948 0.39125587461843808 0 0.25519616148288887 0.39181156593627298 0 0.2819443595412231 0.40529087474680159 0 0.25519616148288887 0.39181156593627298 0 0.27405714121884811 0.38409687161834088 0 0.2819443595412231 0.40529087474680159 0 0.27405714121884811 0.38409687161834088 0 0.28403056220722062 0.37531448917755911 0 0.2737626695690904 0.37327007608818358 0 0.27405714121884811 0.38409687161834088 0 0.28403056220722062 0.37531448917755911 0 0.28762179706039948 0.39125587461843808 0 0.29405085274881382 0.37834813740539031 0 0.28762179706039948 0.39125587461843808 0 0.30049862001061489 0.39881078008944609 0 0.28403056220722062 0.37531448917755911 0 0.29405085274881382 0.37834813740539031 0 0.28762179706039948 0.39125587461843808 0 0.2819443595412231 0.40529087474680159 0 0.28762179706039948 0.39125587461843808 0 0.29316512877403511 0.40022580951085568 0 0.28762179706039948 0.39125587461843808 0 0.29316512877403511 0.40022580951085568 0 0.30049862001061489 0.39881078008944609 0 0.2819443595412231 0.40529087474680159 0 0.29316512877403511 0.40022580951085568 0 0.29605666041485018 0.40551048050067168 0 0.29316512877403511 0.40022580951085568 0 0.29605666041485018 0.40551048050067168 0 0.30042223720462058 0.4004666581126537 0 0.29605666041485018 0.40551048050067168 0 0.30232024370737348 0.40459188745546998 0 0.30042223720462058 0.4004666581126537 0 0.29316512877403511 0.40022580951085568 0 0.30042223720462058 0.4004666581126537 0 0.30049862001061489 0.39881078008944609 0 0.30042223720462058 0.4004666581126537 0 0.30049862001061489 0.39881078008944609 0 0.30232024370737348 0.40459188745546998 0 0.30049862001061489 0.39881078008944609 0 0.30232024370737348 0.40459188745546998 0 0.30049862001061489 0.39881078008944609 0 0.30430913302558388 0.40020258685778032 0 0.30232024370737348 0.40459188745546998 0 0.30042223720462058 0.4004666581126537 0 0.30049862001061489 0.39881078008944609 0 0.30049862001061489 0.39881078008944609 0 0.30098622665836988 0.38824011406760628 0 0.30049862001061489 0.39881078008944609 0 0.30430913302558388 0.40020258685778032 0 0.30098622665836988 0.38824011406760628 0 0.30098622665836988 0.38824011406760628 0 0.30110064445947421 0.38575968774854158 0 0.31262554991773928 0.39787599139405988 0 0.31015955469665918 0.40201373970895371 0 0.30098622665836988 0.38824011406760628 0 0.30110064445947421 0.38575968774854158 0 0.31262554991773928 0.39787599139405988 0 0.30430913302558388 0.40020258685778032 0 0.31015955469665918 0.40201373970895371 0 0.30098622665836988 0.38824011406760628 0 0.31015955469665918 0.40201373970895371 0 0.30098622665836988 0.38824011406760628 0 0.31262554991773928 0.39787599139405988 0 0.3075810200549029 0.4073564129674252 0 0.30232024370737348 0.40459188745546998 0 0.30430913302558388 0.40020258685778032 0 0.3075810200549029 0.4073564129674252 0 0.30430913302558388 0.40020258685778032 0 0.31015955469665918 0.40201373970895371 0 0.29405085274881382 0.37834813740539031 0 0.30049862001061489 0.39881078008944609 0 0.29405085274881382 0.37834813740539031 0 0.30049862001061489 0.39881078008944609 0 0.30098622665836988 0.38824011406760628 0 0.30110064445947421 0.38575968774854158 0 0.30177514978199971 0.3711373061071076 0 0.30110064445947421 0.38575968774854158 0 0.3104817065657739 0.3858680532317833 0 0.30177514978199971 0.3711373061071076 0 0.29405085274881382 0.37834813740539031 0 0.30110064445947421 0.38575968774854158 0 0.30177514978199971 0.3711373061071076 0 0.29405085274881382 0.37834813740539031 0 0.30110064445947421 0.38575968774854158 0 0.29405085274881382 0.37834813740539031 0 0.30098622665836988 0.38824011406760628 0 0.30110064445947421 0.38575968774854158 0 0.29405085274881382 0.37834813740539031 0 0.30098622665836988 0.38824011406760628 0 0.30098622665836988 0.38824011406760628 0 0.30110064445947421 0.38575968774854158 0 0.30110064445947421 0.38575968774854158 0 0.3104817065657739 0.3858680532317833 0 0.31262554991773928 0.39787599139405988 0 0.3104817065657739 0.3858680532317833 0 0.30177514978199971 0.3711373061071076 0 0.3104817065657739 0.3858680532317833 0 0.31717345926189522 0.3709258031848055 0 0.30177514978199971 0.3711373061071076 0 0.3104817065657739 0.3858680532317833 0 0.3376156911696272 0.37620073599141618 0 0.3104817065657739 0.3858680532317833 0 0.3376156911696272 0.37620073599141618 0 0.31717345926189522 0.3709258031848055 0 0.3104817065657739 0.3858680532317833 0 0.3376156911696272 0.37620073599141618 0 0.3351802944883514 0.39738750443412002 0 0.3376156911696272 0.37620073599141618 0 0.3351802944883514 0.39738750443412002 0 0.34879159400795012 0.38769315231290841 0 0.3351802944883514 0.39738750443412002 0 0.33658962428999861 0.41133204962483783 0 0.34988972217452752 0.40801784569160632 0 0.3351802944883514 0.39738750443412002 0 0.32415045537600512 0.40999229503957763 0 0.33658962428999861 0.41133204962483783 0 0.3351802944883514 0.39738750443412002 0 0.31909953512109351 0.40044867980609039 0 0.32415045537600512 0.40999229503957763 0 0.3104817065657739 0.3858680532317833 0 0.3351802944883514 0.39738750443412002 0 0.31909953512109351 0.40044867980609039 0 0.3104817065657739 0.3858680532317833 0 0.31909953512109351 0.40044867980609039 0 0.3104817065657739 0.3858680532317833 0 0.31262554991773928 0.39787599139405988 0 0.31909953512109351 0.40044867980609039 0 0.31262554991773928 0.39787599139405988 0 0.32415045537600512 0.40999229503957763 0 0.31015955469665918 0.40201373970895371 0 0.31262554991773928 0.39787599139405988 0 0.32415045537600512 0.40999229503957763 0 0.31262554991773928 0.39787599139405988 0 0.31909953512109351 0.40044867980609039 0 0.32415045537600512 0.40999229503957763 0 0.31015955469665918 0.40201373970895371 0 0.31933288273494848 0.41578736535030097 0 0.32415045537600512 0.40999229503957763 0 0.31142364564813352 0.41093370315849659 0 0.31015955469665918 0.40201373970895371 0 0.31933288273494848 0.41578736535030097 0 0.30869255759955722 0.41877018355733042 0 0.31933288273494848 0.41578736535030097 0 0.32906281765607392 0.42006619542527468 0 0.31015955469665918 0.40201373970895371 0 0.31933288273494848 0.41578736535030097 0 0.31142364564813352 0.41093370315849659 0 0.30869255759955722 0.41877018355733042 0 0.31933288273494848 0.41578736535030097 0 0.31933288273494848 0.41578736535030097 0 0.32415045537600512 0.40999229503957763 0 0.32906281765607392 0.42006619542527468 0 0.30869255759955722 0.41877018355733042 0 0.33457771181584611 0.43369686048393857 0 0.33544075565789128 0.43224949236785898 0 0.30869255759955722 0.41877018355733042 0 0.33544075565789128 0.43224949236785898 0 0.30610823095482448 0.43788140873538328 0 0.30869255759955722 0.41877018355733042 0 0.33457771181584611 0.43369686048393857 0 0.30869255759955722 0.41877018355733042 0 0.33544075565789128 0.43224949236785898 0 0.32906281765607392 0.42006619542527468 0 0.30610823095482448 0.43788140873538328 0 0.33457771181584611 0.43369686048393857 0 0.33457771181584611 0.43369686048393857 0 0.33544075565789128 0.43224949236785898 0 0.33746945485668051 0.4332718215327816 0 0.33457771181584611 0.43369686048393857 0 0.33544075565789128 0.43224949236785898 0 0.33544075565789128 0.43224949236785898 0 0.33746945485668051 0.4332718215327816 0 0.35001853239939229 0.42365555934674631 0 0.33544075565789128 0.43224949236785898 0 0.33746945485668051 0.4332718215327816 0 0.33457771181584611 0.43369686048393857 0 0.33746945485668051 0.4332718215327816 0 0.33544075565789128 0.43224949236785898 0 0.33658962428999861 0.41133204962483783 0 0.34988972217452752 0.40801784569160632 0 0.33544075565789128 0.43224949236785898 0 0.32906281765607392 0.42006619542527468 0 0.33658962428999861 0.41133204962483783 0 0.33544075565789128 0.43224949236785898 0 0.34988972217452752 0.40801784569160632 0 0.32415045537600512 0.40999229503957763 0 0.32906281765607392 0.42006619542527468 0 0.33658962428999861 0.41133204962483783 0 0.33544075565789128 0.43224949236785898 0 0.34988972217452752 0.40801784569160632 0 0.35001853239939229 0.42365555934674631 0 0.34988972217452752 0.40801784569160632 0 0.36165970526353591 0.41519797525725338 0 0.36412400085156282 0.39702719229323191 0 0.34988972217452752 0.40801784569160632 0 0.35001853239939229 0.42365555934674631 0 0.36165970526353591 0.41519797525725338 0 0.35494335133579169 0.44207750056399991 0 0.33746945485668051 0.4332718215327816 0 0.365542703577178 0.42914551292816783 0 0.33746945485668051 0.4332718215327816 0 0.35001853239939229 0.42365555934674631 0 0.365542703577178 0.42914551292816783 0 0.33746945485668051 0.4332718215327816 0 0.365542703577178 0.42914551292816783 0 0.35001853239939229 0.42365555934674631 0 0.365542703577178 0.42914551292816783 0 0.36165970526353591 0.41519797525725338 0 0.365542703577178 0.42914551292816783 0 0.36165970526353591 0.41519797525725338 0 0.37744029411777058 0.41252948965876268 0 0.36165970526353591 0.41519797525725338 0 0.36412400085156282 0.39702719229323191 0 0.37744029411777058 0.41252948965876268 0 0.36412400085156282 0.39702719229323191 0 0.38026367080056678 0.39066664182047522 0 0.37744029411777058 0.41252948965876268 0 0.34988972217452752 0.40801784569160632 0 0.36412400085156282 0.39702719229323191 0 0.36433868869116592 0.38378619901535488 0 0.36433868869116592 0.38378619901535488 0 0.3773824667175657 0.37546563606013739 0 0.38026367080056678 0.39066664182047522 0 0.36433868869116592 0.38378619901535488 0 0.36474967577348072 0.36653341875104961 0 0.3773824667175657 0.37546563606013739 0 0.36412400085156282 0.39702719229323191 0 0.36433868869116592 0.38378619901535488 0 0.38026367080056678 0.39066664182047522 0 0.36433868869116592 0.38378619901535488 0 0.36474967577348072 0.36653341875104961 0 0.36412400085156282 0.39702719229323191 0 0.36433868869116592 0.38378619901535488 0 0.3376156911696272 0.37620073599141618 0 0.34879159400795012 0.38769315231290841 0 0.36474967577348072 0.36653341875104961 0 0.36433868869116592 0.38378619901535488 0 0.34879159400795012 0.38769315231290841 0 0.36474967577348072 0.36653341875104961 0 0.3351802944883514 0.39738750443412002 0 0.34988972217452752 0.40801784569160632 0 0.34879159400795012 0.38769315231290841 0 0.34988972217452752 0.40801784569160632 0 0.36433868869116592 0.38378619901535488 0 0.34988972217452752 0.40801784569160632 0 0.36433868869116592 0.38378619901535488 0 0.34879159400795012 0.38769315231290841 0 0.34699100967064078 0.35539672769273539 0 0.36474967577348072 0.36653341875104961 0 0.36518945593320651 0.34509967395937191 0 0.34699100967064078 0.35539672769273539 0 0.36518945593320651 0.34509967395937191 0 0.348137396692076 0.34077307725183559 0 0.3376156911696272 0.37620073599141618 0 0.34699100967064078 0.35539672769273539 0 0.36474967577348072 0.36653341875104961 0 0.3376156911696272 0.37620073599141618 0 0.36474967577348072 0.36653341875104961 0 0.36474967577348072 0.36653341875104961 0 0.36518945593320651 0.34509967395937191 0 0.36474967577348072 0.36653341875104961 0 0.36518945593320651 0.34509967395937191 0 0.3855881021147175 0.35910908792858098 0 0.36518945593320651 0.34509967395937191 0 0.36562923609293069 0.32366592916769399 0 0.36518945593320651 0.34509967395937191 0 0.36562923609293069 0.32366592916769399 0 0.348137396692076 0.34077307725183559 0 0.36518945593320651 0.34509967395937191 0 0.36562923609293069 0.32366592916769399 0 0.38128435600444488 0.32837669887387311 0 0.36562923609293069 0.32366592916769399 0 0.36606901625265492 0.30223218437601618 0 0.38242981621443428 0.31397380775534678 0 0.36562923609293069 0.32366592916769399 0 0.36606901625265492 0.30223218437601618 0 0.36562923609293069 0.32366592916769399 0 0.34238706329751362 0.32476320095938682 0 0.35183379698966949 0.31056891257481539 0 0.36562923609293069 0.32366592916769399 0 0.348137396692076 0.34077307725183559 0 0.34238706329751362 0.32476320095938682 0 0.348137396692076 0.34077307725183559 0 0.33072504187423118 0.34237289876026822 0 0.34238706329751362 0.32476320095938682 0 0.33072504187423118 0.34237289876026822 0 0.34238706329751362 0.32476320095938682 0 0.32122702449841589 0.32177081607522939 0 0.34238706329751362 0.32476320095938682 0 0.33644502425256478 0.30910566618648461 0 0.35183379698966949 0.31056891257481539 0 0.34238706329751362 0.32476320095938682 0 0.32122702449841589 0.32177081607522939 0 0.33644502425256478 0.30910566618648461 0 0.32122702449841589 0.32177081607522939 0 0.31445651652981632 0.33878768779705848 0 0.30372390616191358 0.32889084998335888 0 0.33072504187423118 0.34237289876026822 0 0.32122702449841589 0.32177081607522939 0 0.31445651652981632 0.33878768779705848 0 0.33072504187423118 0.34237289876026822 0 0.31445651652981632 0.33878768779705848 0 0.31594857135045817 0.35062531106266931 0 0.33072504187423118 0.34237289876026822 0 0.31594857135045817 0.35062531106266931 0 0.32442852787466708 0.36030442639367111 0 0.31594857135045817 0.35062531106266931 0 0.32442852787466708 0.36030442639367111 0 0.31156622091740832 0.36111849420004938 0 0.34699100967064078 0.35539672769273539 0 0.348137396692076 0.34077307725183559 0 0.33072504187423118 0.34237289876026822 0 0.34699100967064078 0.35539672769273539 0 0.33072504187423118 0.34237289876026822 0 0.32442852787466708 0.36030442639367111 0 0.3376156911696272 0.37620073599141618 0 0.34699100967064078 0.35539672769273539 0 0.32442852787466708 0.36030442639367111 0 0.3376156911696272 0.37620073599141618 0 0.32442852787466708 0.36030442639367111 0 0.31717345926189522 0.3709258031848055 0 0.32442852787466708 0.36030442639367111 0 0.31717345926189522 0.3709258031848055 0 0.31156622091740832 0.36111849420004938 0 0.30177514978199971 0.3711373061071076 0 0.30274952797195698 0.35001407804523332 0 0.31717345926189522 0.3709258031848055 0 0.31156622091740832 0.36111849420004938 0 0.30177514978199971 0.3711373061071076 0 0.31156622091740832 0.36111849420004938 0 0.30177514978199971 0.3711373061071076 0 0.30274952797195698 0.35001407804523332 0 0.30177514978199971 0.3711373061071076 0 0.30274952797195698 0.35001407804523332 0 0.29106955940472562 0.3530243656434488 0 0.31445651652981632 0.33878768779705848 0 0.31594857135045817 0.35062531106266931 0 0.30274952797195698 0.35001407804523332 0 0.31594857135045817 0.35062531106266931 0 0.31156622091740832 0.36111849420004938 0 0.30274952797195698 0.35001407804523332 0 0.29106955940472562 0.3530243656434488 0 0.28705150305193838 0.35613499197806497 0 0.28036396902745148 0.33491142517978989 0 0.28705150305193838 0.35613499197806497 0 0.28036396902745148 0.33491142517978989 0 0.28705150305193838 0.35613499197806497 0 0.27644360280618341 0.34191623842927221 0 0.28036396902745148 0.33491142517978989 0 0.29106955940472562 0.3530243656434488 0 0.28036396902745148 0.33491142517978989 0 0.30274952797195698 0.35001407804523332 0 0.29106955940472562 0.3530243656434488 0 0.29374099595638509 0.3392252011883215 0 0.28705150305193838 0.35613499197806497 0 0.28458867991473008 0.36361942358965982 0 0.27543832275303448 0.34988028840297991 0 0.29405085274881382 0.37834813740539031 0 0.28705150305193838 0.35613499197806497 0 0.28458867991473008 0.36361942358965982 0 0.29405085274881382 0.37834813740539031 0 0.28705150305193838 0.35613499197806497 0 0.30177514978199971 0.3711373061071076 0 0.29106955940472562 0.3530243656434488 0 0.29405085274881382 0.37834813740539031 0 0.30177514978199971 0.3711373061071076 0 0.28705150305193838 0.35613499197806497 0 0.30177514978199971 0.3711373061071076 0 0.29106955940472562 0.3530243656434488 0 0.28705150305193838 0.35613499197806497 0 0.29405085274881382 0.37834813740539031 0 0.28458867991473008 0.36361942358965982 0 0.28403056220722062 0.37531448917755911 0 0.2815017213106239 0.3651550498314205 0 0.27898286169525299 0.37041503512408969 0 0.29405085274881382 0.37834813740539031 0 0.2815017213106239 0.3651550498314205 0 0.28403056220722062 0.37531448917755911 0 0.29405085274881382 0.37834813740539031 0 0.2815017213106239 0.3651550498314205 0 0.29405085274881382 0.37834813740539031 0 0.28458867991473008 0.36361942358965982 0 0.2815017213106239 0.3651550498314205 0 0.28403056220722062 0.37531448917755911 0 0.27898286169525299 0.37041503512408969 0 0.2737626695690904 0.37327007608818358 0 0.27663649369407689 0.36792052539919551 0 0.2737626695690904 0.37327007608818358 0 0.27125000512352843 0.36234153133647429 0 0.27405714121884811 0.38409687161834088 0 0.2737626695690904 0.37327007608818358 0 0.2618259464583832 0.36726095095448358 0 0.2815017213106239 0.3651550498314205 0 0.27898286169525299 0.37041503512408969 0 0.27663649369407689 0.36792052539919551 0 0.27898286169525299 0.37041503512408969 0 0.27663649369407689 0.36792052539919551 0 0.2737626695690904 0.37327007608818358 0 0.2737626695690904 0.37327007608818358 0 0.27125000512352843 0.36234153133647429 0 0.2618259464583832 0.36726095095448358 0 0.27125000512352843 0.36234153133647429 0 0.26895258987243392 0.3519619622574508 0 0.2618259464583832 0.36726095095448358 0 0.2815017213106239 0.3651550498314205 0 0.27125000512352843 0.36234153133647429 0 0.26895258987243392 0.3519619622574508 0 0.2815017213106239 0.3651550498314205 0 0.27663649369407689 0.36792052539919551 0 0.27125000512352843 0.36234153133647429 0 0.28458867991473008 0.36361942358965982 0 0.2815017213106239 0.3651550498314205 0 0.27543832275303448 0.34988028840297991 0 0.2815017213106239 0.3651550498314205 0 0.26895258987243392 0.3519619622574508 0 0.28458867991473008 0.36361942358965982 0 0.27543832275303448 0.34988028840297991 0 0.26895258987243392 0.3519619622574508 0 0.2618259464583832 0.36726095095448358 0 0.2684557314338783 0.34271033597269462 0 0.2815017213106239 0.3651550498314205 0 0.27543832275303448 0.34988028840297991 0 0.26895258987243392 0.3519619622574508 0 0.28705150305193838 0.35613499197806497 0 0.27543832275303448 0.34988028840297991 0 0.27644360280618341 0.34191623842927221 0 0.27543832275303448 0.34988028840297991 0 0.2684557314338783 0.34271033597269462 0 0.27644360280618341 0.34191623842927221 0 0.27543832275303448 0.34988028840297991 0 0.26895258987243392 0.3519619622574508 0 0.2684557314338783 0.34271033597269462 0 0.2618259464583832 0.36726095095448358 0 0.2684557314338783 0.34271033597269462 0 0.24521693247762111 0.35027114815259558 0 0.2618259464583832 0.36726095095448358 0 0.2684557314338783 0.34271033597269462 0 0.24305895760768401 0.36641304215893011 0 0.24521693247762111 0.35027114815259558 0 0.2618259464583832 0.36726095095448358 0 0.24490867605631639 0.32967072069511189 0 0.26050839607327853 0.32387463406168998 0 0.25114017462525878 0.31153615041935723 0 0.26050839607327853 0.32387463406168998 0 0.25114017462525878 0.31153615041935723 0 0.26342424027676908 0.31148804944983333 0 0.24490867605631639 0.32967072069511189 0 0.26050839607327853 0.32387463406168998 0 0.2684557314338783 0.34271033597269462 0 0.24490867605631639 0.32967072069511189 0 0.24521693247762111 0.35027114815259558 0 0.2684557314338783 0.34271033597269462 0 0.26050839607327853 0.32387463406168998 0 0.2684557314338783 0.34271033597269462 0 0.27508551640937329 0.31815972099090539 0 0.2684557314338783 0.34271033597269462 0 0.27508551640937329 0.31815972099090539 0 0.2684557314338783 0.34271033597269462 0 0.27787730485363338 0.33070420273373929 0 0.27508551640937329 0.31815972099090539 0 0.2684557314338783 0.34271033597269462 0 0.27644360280618341 0.34191623842927221 0 0.27787730485363338 0.33070420273373929 0 0.27644360280618341 0.34191623842927221 0 0.28036396902745148 0.33491142517978989 0 0.27787730485363338 0.33070420273373929 0 0.28036396902745148 0.33491142517978989 0 0.27787730485363338 0.33070420273373929 0 0.28036396902745148 0.33491142517978989 0 0.27787730485363338 0.33070420273373929 0 0.27508551640937329 0.31815972099090539 0 0.28036396902745148 0.33491142517978989 0 0.27508551640937329 0.31815972099090539 0 0.26050839607327853 0.32387463406168998 0 0.27508551640937329 0.31815972099090539 0 0.26342424027676908 0.31148804944983333 0 0.27584787744150779 0.31533663815394608 0 0.27508551640937329 0.31815972099090539 0 0.2839587577339367 0.31315639516335231 0 0.27584787744150779 0.31533663815394608 0 0.27508551640937329 0.31815972099090539 0 0.28036396902745148 0.33491142517978989 0 0.27508551640937329 0.31815972099090539 0 0.28884331716543121 0.32432796479040632 0 0.27508551640937329 0.31815972099090539 0 0.2839587577339367 0.31315639516335231 0 0.28884331716543121 0.32432796479040632 0 0.2839587577339367 0.31315639516335231 0 0.28884331716543121 0.32432796479040632 0 0.29436859405188742 0.31561290386725788 0 0.28884331716543121 0.32432796479040632 0 0.29436859405188742 0.31561290386725788 0 0.30372390616191358 0.32889084998335888 0 0.29106955940472562 0.3530243656434488 0 0.28036396902745148 0.33491142517978989 0 0.29374099595638509 0.3392252011883215 0 0.28036396902745148 0.33491142517978989 0 0.28884331716543121 0.32432796479040632 0 0.29374099595638509 0.3392252011883215 0 0.28884331716543121 0.32432796479040632 0 0.29374099595638509 0.3392252011883215 0 0.30372390616191358 0.32889084998335888 0 0.30274952797195698 0.35001407804523332 0 0.29374099595638509 0.3392252011883215 0 0.30372390616191358 0.32889084998335888 0 0.31445651652981632 0.33878768779705848 0 0.30274952797195698 0.35001407804523332 0 0.30372390616191358 0.32889084998335888 0 0.30274952797195698 0.35001407804523332 0 0.30372390616191358 0.32889084998335888 0 0.29436859405188742 0.31561290386725788 0 0.30372390616191358 0.32889084998335888 0 0.30469828435187041 0.30776762192148471 0 0.32122702449841589 0.32177081607522939 0 0.30372390616191358 0.32889084998335888 0 0.30469828435187041 0.30776762192148471 0 0.30372390616191358 0.32889084998335888 0 0.30469828435187041 0.30776762192148471 0 0.30469828435187041 0.30776762192148471 0 0.29887142377560671 0.29447355700322281 0 0.31975384086217118 0.29390073052843008 0 0.30469828435187041 0.30776762192148471 0 0.29887142377560671 0.29447355700322281 0 0.29061870484628499 0.30392168747768772 0 0.29887142377560671 0.29447355700322281 0 0.29803417524575498 0.27809430922643119 0 0.31975384086217118 0.29390073052843008 0 0.29887142377560671 0.29447355700322281 0 0.28125211357195179 0.28868343586208051 0 0.29803417524575498 0.27809430922643119 0 0.29887142377560671 0.29447355700322281 0 0.28125211357195179 0.28868343586208051 0 0.29061870484628499 0.30392168747768772 0 0.29436859405188742 0.31561290386725788 0 0.30469828435187041 0.30776762192148471 0 0.29061870484628499 0.30392168747768772 0 0.2839587577339367 0.31315639516335231 0 0.29436859405188742 0.31561290386725788 0 0.29061870484628499 0.30392168747768772 0 0.28125211357195179 0.28868343586208051 0 0.29061870484628499 0.30392168747768772 0 0.27979091010679558 0.3031930520058399 0 0.2839587577339367 0.31315639516335231 0 0.29061870484628499 0.30392168747768772 0 0.27979091010679558 0.3031930520058399 0 0.27584787744150779 0.31533663815394608 0 0.2839587577339367 0.31315639516335231 0 0.27979091010679558 0.3031930520058399 0 0.27584787744150779 0.31533663815394608 0 0.27979091010679558 0.3031930520058399 0 0.26696287399916629 0.2923816923273807 0 0.27508551640937329 0.31815972099090539 0 0.26696287399916629 0.2923816923273807 0 0.27508551640937329 0.31815972099090539 0 0.26696287399916629 0.2923816923273807 0 0.26342424027676908 0.31148804944983333 0 0.27584787744150779 0.31533663815394608 0 0.27508551640937329 0.31815972099090539 0 0.26696287399916629 0.2923816923273807 0 0.28125211357195179 0.28868343586208051 0 0.26696287399916629 0.2923816923273807 0 0.26185531842249993 0.2787869231154117 0 0.28125211357195179 0.28868343586208051 0 0.27979091010679558 0.3031930520058399 0 0.26696287399916629 0.2923816923273807 0 0.2454028482605469 0.29267792886045368 0 0.26696287399916629 0.2923816923273807 0 0.26185531842249993 0.2787869231154117 0 0.24818821145747599 0.27522177653690871 0 0.2454028482605469 0.29267792886045368 0 0.26185531842249993 0.2787869231154117 0 0.26696287399916629 0.2923816923273807 0 0.25114017462525878 0.31153615041935723 0 0.26342424027676908 0.31148804944983333 0 0.2454028482605469 0.29267792886045368 0 0.26696287399916629 0.2923816923273807 0 0.25114017462525878 0.31153615041935723 0 0.25404003316197471 0.25208422786308371 0 0.25530776412370298 0.26639583896058622 0 0.27103688063193948 0.26427270241964718 0 0.24090080429007341 0.26281353644332878 0 0.25404003316197471 0.25208422786308371 0 0.25530776412370298 0.26639583896058622 0 0.25530776412370298 0.26639583896058622 0 0.26185531842249993 0.2787869231154117 0 0.27103688063193948 0.26427270241964718 0 0.24818821145747599 0.27522177653690871 0 0.25530776412370298 0.26639583896058622 0 0.26185531842249993 0.2787869231154117 0 0.28125211357195179 0.28868343586208051 0 0.26185531842249993 0.2787869231154117 0 0.27103688063193948 0.26427270241964718 0 0.25404003316197471 0.25208422786308371 0 0.27103688063193948 0.26427270241964718 0 0.27355486584907379 0.24364475180805101 0 0.27103688063193948 0.26427270241964718 0 0.29692855903906679 0.25537037528416417 0 0.27355486584907379 0.24364475180805101 0 0.27103688063193948 0.26427270241964718 0 0.29803417524575498 0.27809430922643119 0 0.29692855903906679 0.25537037528416417 0 0.28125211357195179 0.28868343586208051 0 0.27103688063193948 0.26427270241964718 0 0.29803417524575498 0.27809430922643119 0 0.29803417524575498 0.27809430922643119 0 0.29692855903906679 0.25537037528416417 0 0.32239972953691409 0.26902358330948362 0 0.29692855903906679 0.25537037528416417 0 0.32239972953691409 0.26902358330948362 0 0.32448256229391081 0.244023600812113 0 0.34859232732963041 0.2656914204712259 0 0.32448256229391081 0.244023600812113 0 0.35052125483258301 0.2434514759103418 0 0.32239972953691409 0.26902358330948362 0 0.34859232732963041 0.2656914204712259 0 0.32448256229391081 0.244023600812113 0 0.32239972953691409 0.26902358330948362 0 0.34580587121379802 0.29027056413174801 0 0.34859232732963041 0.2656914204712259 0 0.32239972953691409 0.26902358330948362 0 0.34859232732963041 0.2656914204712259 0 0.29803417524575498 0.27809430922643119 0 0.32239972953691409 0.26902358330948362 0 0.31975384086217118 0.29390073052843008 0 0.32122702449841589 0.32177081607522939 0 0.30469828435187041 0.30776762192148471 0 0.31975384086217118 0.29390073052843008 0 0.32122702449841589 0.32177081607522939 0 0.31975384086217118 0.29390073052843008 0 0.33644502425256478 0.30910566618648461 0 0.31975384086217118 0.29390073052843008 0 0.33644502425256478 0.30910566618648461 0 0.34580587121379802 0.29027056413174801 0 0.32239972953691409 0.26902358330948362 0 0.31975384086217118 0.29390073052843008 0 0.34580587121379802 0.29027056413174801 0 0.34580587121379802 0.29027056413174801 0 0.35183379698966949 0.31056891257481539 0 0.36606901625265492 0.30223218437601618 0 0.33644502425256478 0.30910566618648461 0 0.34580587121379802 0.29027056413174801 0 0.35183379698966949 0.31056891257481539 0 0.36562923609293069 0.32366592916769399 0 0.35183379698966949 0.31056891257481539 0 0.36606901625265492 0.30223218437601618 0 0.36606901625265492 0.30223218437601618 0 0.37288852905391068 0.28307277276217568 0 0.38313639778678782 0.29894980138166888 0 0.34580587121379802 0.29027056413174801 0 0.36606901625265492 0.30223218437601618 0 0.37288852905391068 0.28307277276217568 0 0.37288852905391068 0.28307277276217568 0 0.37478492512234668 0.26235925763296819 0 0.34859232732963041 0.2656914204712259 0 0.37478492512234668 0.26235925763296819 0 0.34859232732963041 0.2656914204712259 0 0.37478492512234668 0.26235925763296819 0 0.34859232732963041 0.2656914204712259 0 0.35052125483258301 0.2434514759103418 0 0.34580587121379802 0.29027056413174801 0 0.37288852905391068 0.28307277276217568 0 0.34859232732963041 0.2656914204712259 0 0.40237095019481112 0.27711100542787093 0 0.40097752291506289 0.25902709479471048 0 0.38795285511664351 0.27501277358291848 0 0.40237095019481112 0.27711100542787093 0 0.38795285511664351 0.27501277358291848 0 0.39245341439736259 0.28869000139839213 0 0.37478492512234668 0.26235925763296819 0 0.40097752291506289 0.25902709479471048 0 0.37478492512234668 0.26235925763296819 0 0.40097752291506289 0.25902709479471048 0 0.38795285511664351 0.27501277358291848 0 0.37478492512234668 0.26235925763296819 0 0.40097752291506289 0.25902709479471048 0 0.39333580902427501 0.24081282939082621 0 0.37288852905391068 0.28307277276217568 0 0.37478492512234668 0.26235925763296819 0 0.38795285511664351 0.27501277358291848 0 0.37288852905391068 0.28307277276217568 0 0.38795285511664351 0.27501277358291848 0 0.39245341439736259 0.28869000139839213 0 0.37288852905391068 0.28307277276217568 0 0.38313639778678782 0.29894980138166888 0 0.39245341439736259 0.28869000139839213 0 0.38313639778678782 0.29894980138166888 0 0.40184121301557668 0.30678024061641418 0 0.38242981621443428 0.31397380775534678 0 0.36606901625265492 0.30223218437601618 0 0.38313639778678782 0.29894980138166888 0 0.38242981621443428 0.31397380775534678 0 0.38313639778678782 0.29894980138166888 0 0.40184121301557668 0.30678024061641418 0 0.39245341439736259 0.28869000139839213 0 0.40184121301557668 0.30678024061641418 0 0.39245341439736259 0.28869000139839213 0 0.4080647950624654 0.29173952990842672 0 0.40237095019481112 0.27711100542787093 0 0.39245341439736259 0.28869000139839213 0 0.4080647950624654 0.29173952990842672 0 0.4080647950624654 0.29173952990842672 0 0.42111158276914429 0.29961990628964941 0 0.41801819212357011 0.2740782959756311 0 0.42111158276914429 0.29961990628964941 0 0.41801819212357011 0.2740782959756311 0 0.42111158276914429 0.29961990628964941 0 0.41431845905081632 0.31211616404088999 0 0.42420497341471841 0.32516151660366771 0 0.40184121301557668 0.30678024061641418 0 0.41169384258873692 0.3030193229363472 0 0.41431845905081632 0.31211616404088999 0 0.4080647950624654 0.29173952990842672 0 0.41169384258873692 0.3030193229363472 0 0.42111158276914429 0.29961990628964941 0 0.40184121301557668 0.30678024061641418 0 0.4080647950624654 0.29173952990842672 0 0.41169384258873692 0.3030193229363472 0 0.41169384258873692 0.3030193229363472 0 0.42111158276914429 0.29961990628964941 0 0.41431845905081632 0.31211616404088999 0 0.42111158276914429 0.29961990628964941 0 0.42420497341471841 0.32516151660366771 0 0.42111158276914429 0.29961990628964941 0 0.42968026012840121 0.30115694743242971 0 0.43130474666914309 0.31304161877190062 0 0.42968026012840121 0.30115694743242971 0 0.44258646999382029 0.30990113159980692 0 0.42968026012840121 0.30115694743242971 0 0.44258646999382029 0.30990113159980692 0 0.43130474666914309 0.31304161877190062 0 0.42111158276914429 0.29961990628964941 0 0.42800801910193731 0.28582653817902792 0 0.41801819212357011 0.2740782959756311 0 0.42968026012840121 0.30115694743242971 0 0.42800801910193731 0.28582653817902792 0 0.44797459424715858 0.28113195035900113 0 0.42111158276914429 0.29961990628964941 0 0.42968026012840121 0.30115694743242971 0 0.42800801910193731 0.28582653817902792 0 0.4349067289361882 0.26981889711766149 0 0.41801819212357011 0.2740782959756311 0 0.42717012070777932 0.25569493195645271 0 0.42800801910193731 0.28582653817902792 0 0.4349067289361882 0.26981889711766149 0 0.44797459424715858 0.28113195035900113 0 0.42800801910193731 0.28582653817902792 0 0.4349067289361882 0.26981889711766149 0 0.41801819212357011 0.2740782959756311 0 0.40237095019481112 0.27711100542787093 0 0.4080647950624654 0.29173952990842672 0 0.41801819212357011 0.2740782959756311 0 0.40237095019481112 0.27711100542787093 0 0.40097752291506289 0.25902709479471048 0 0.41801819212357011 0.2740782959756311 0 0.40097752291506289 0.25902709479471048 0 0.42717012070777932 0.25569493195645271 0 0.40097752291506289 0.25902709479471048 0 0.41801819212357011 0.2740782959756311 0 0.42717012070777932 0.25569493195645271 0 0.40097752291506289 0.25902709479471048 0 0.42717012070777932 0.25569493195645271 0 0.41286841049430861 0.24788583003777651 0 0.42717012070777932 0.25569493195645271 0 0.45336271850049548 0.25236276911819511 0 0.42717012070777932 0.25569493195645271 0 0.45336271850049548 0.25236276911819511 0 0.44134696414428898 0.24814556957704689 0 0.4349067289361882 0.26981889711766149 0 0.42717012070777932 0.25569493195645271 0 0.45336271850049548 0.25236276911819511 0 0.44797459424715858 0.28113195035900113 0 0.45336271850049548 0.25236276911819511 0 0.4349067289361882 0.26981889711766149 0 0.44797459424715858 0.28113195035900113 0 0.45336271850049548 0.25236276911819511 0 0.44797459424715858 0.28113195035900113 0 0.46860043072286323 0.26090172283992602 0 0.47518926652314969 0.27560515809727743 0 0.44797459424715858 0.28113195035900113 0 0.45336271850049548 0.25236276911819511 0 0.46860043072286323 0.26090172283992602 0 0.45336271850049548 0.25236276911819511 0 0.46860043072286323 0.26090172283992602 0 0.48180965237011408 0.2487438147612096 0 0.45336271850049548 0.25236276911819511 0 0.48180965237011408 0.2487438147612096 0 0.46860043072286323 0.26090172283992602 0 0.48241006781490819 0.26268970127635521 0 0.48180965237011408 0.2487438147612096 0 0.46860043072286323 0.26090172283992602 0 0.48241006781490819 0.26268970127635521 0 0.47518926652314969 0.27560515809727743 0 0.48241006781490819 0.26268970127635521 0 0.47518926652314969 0.27560515809727743 0 0.48864569132575902 0.27555399191102209 0 0.48864569132575902 0.27555399191102209 0 0.5 0.25788891558126559 0 0.5 0.28784398070901179 0 0.48241006781490819 0.26268970127635521 0 0.5 0.25788891558126559 0 0.48180965237011408 0.2487438147612096 0 0.48241006781490819 0.26268970127635521 0 0.48864569132575902 0.27555399191102209 0 0.5 0.25788891558126559 0 0.49687855588093471 0.30562269631142192 0 0.5 0.28784398070901179 0 0.5 0.31779904583675789 0 0.48491490847636098 0.30901068293115042 0 0.49687855588093471 0.30562269631142192 0 0.48562912229073679 0.29374220389120048 0 0.48491490847636098 0.30901068293115042 0 0.49687855588093471 0.30562269631142192 0 0.48893996521802741 0.32077530068026477 0 0.48864569132575902 0.27555399191102209 0 0.5 0.28784398070901179 0 0.48562912229073679 0.29374220389120048 0 0.49687855588093471 0.30562269631142192 0 0.5 0.28784398070901179 0 0.48562912229073679 0.29374220389120048 0 0.47518926652314969 0.27560515809727743 0 0.48864569132575902 0.27555399191102209 0 0.48562912229073679 0.29374220389120048 0 0.47518926652314969 0.27560515809727743 0 0.48562912229073679 0.29374220389120048 0 0.46816558308298489 0.29083511245767268 0 0.48562912229073679 0.29374220389120048 0 0.47222103054853309 0.30536857664361422 0 0.46816558308298489 0.29083511245767268 0 0.48491490847636098 0.30901068293115042 0 0.48562912229073679 0.29374220389120048 0 0.47222103054853309 0.30536857664361422 0 0.48491490847636098 0.30901068293115042 0 0.47222103054853309 0.30536857664361422 0 0.47648252662976798 0.31886183994020412 0 0.47222103054853309 0.30536857664361422 0 0.45866337291811637 0.30169365927876157 0 0.46179392227446953 0.32291451832445861 0 0.45866337291811637 0.30169365927876157 0 0.44258646999382029 0.30990113159980692 0 0.46179392227446953 0.32291451832445861 0 0.47222103054853309 0.30536857664361422 0 0.45866337291811637 0.30169365927876157 0 0.46816558308298489 0.29083511245767268 0 0.44797459424715858 0.28113195035900113 0 0.45866337291811637 0.30169365927876157 0 0.46816558308298489 0.29083511245767268 0 0.44797459424715858 0.28113195035900113 0 0.47518926652314969 0.27560515809727743 0 0.46816558308298489 0.29083511245767268 0 0.44797459424715858 0.28113195035900113 0 0.44258646999382029 0.30990113159980692 0 0.42968026012840121 0.30115694743242971 0 0.44797459424715858 0.28113195035900113 0 0.44258646999382029 0.30990113159980692 0 0.44797459424715858 0.28113195035900113 0 0.45866337291811637 0.30169365927876157 0 0.44258646999382029 0.30990113159980692 0 0.44258646999382029 0.30990113159980692 0 0.46179392227446953 0.32291451832445861 0 0.44258646999382029 0.30990113159980692 0 0.43894044703962998 0.32936859193394902 0 0.46179392227446953 0.32291451832445861 0 0.44258646999382029 0.30990113159980692 0 0.43894044703962998 0.32936859193394902 0 0.44258646999382029 0.30990113159980692 0 0.43894044703962998 0.32936859193394902 0 0.43130474666914309 0.31304161877190062 0 0.43894044703962998 0.32936859193394902 0 0.45181909328986353 0.33594590439129729 0 0.43529442408543872 0.34883605226809089 0 0.43894044703962998 0.32936859193394902 0 0.45181909328986353 0.33594590439129729 0 0.46179392227446953 0.32291451832445861 0 0.45181909328986353 0.33594590439129729 0 0.46495921083649527 0.33796731498031379 0 0.45493863887308472 0.34850758154427958 0 0.45181909328986353 0.33594590439129729 0 0.46495921083649527 0.33796731498031379 0 0.46179392227446953 0.32291451832445861 0 0.47648252662976798 0.31886183994020412 0 0.48100137455512032 0.33592790504910791 0 0.48893996521802741 0.32077530068026477 0 0.46179392227446953 0.32291451832445861 0 0.47648252662976798 0.31886183994020412 0 0.48100137455512032 0.33592790504910791 0 0.47222103054853309 0.30536857664361422 0 0.46179392227446953 0.32291451832445861 0 0.47648252662976798 0.31886183994020412 0 0.48491490847636098 0.30901068293115042 0 0.47648252662976798 0.31886183994020412 0 0.48893996521802741 0.32077530068026477 0 0.46179392227446953 0.32291451832445861 0 0.48100137455512032 0.33592790504910791 0 0.46495921083649527 0.33796731498031379 0 0.48100137455512032 0.33592790504910791 0 0.47458285366073072 0.34817911082046721 0 0.46495921083649527 0.33796731498031379 0 0.46179392227446953 0.32291451832445861 0 0.48100137455512032 0.33592790504910791 0 0.48100137455512032 0.33592790504910791 0 0.47458285366073072 0.34817911082046721 0 0.48100137455512032 0.33592790504910791 0 0.48893996521802741 0.32077530068026477 0 0.48100137455512032 0.33592790504910791 0 0.4984937498586452 0.34777929695842291 0 0.5 0.31779904583675789 0 0.48893996521802741 0.32077530068026477 0 0.4984937498586452 0.34777929695842291 0 0.5 0.31779904583675789 0 0.4984937498586452 0.34777929695842291 0 0.50000000000000433 0.34775411096450393 0 0.48100137455512032 0.33592790504910791 0 0.48893996521802741 0.32077530068026477 0 0.4984937498586452 0.34777929695842291 0 0.49687855588093471 0.30562269631142192 0 0.48893996521802741 0.32077530068026477 0 0.49687855588093471 0.30562269631142192 0 0.5 0.31779904583675789 0 0.48893996521802741 0.32077530068026477 0 0.5 0.37175840028027313 0 0.48688174284785979 0.35971936811564431 0 0.50000000000000433 0.34775411096450393 0 0.5 0.37175840028027313 0 0.48688174284785979 0.35971936811564431 0 0.48177296974371542 0.3780796821533936 0 0.48100137455512032 0.33592790504910791 0 0.4984937498586452 0.34777929695842291 0 0.47458285366073072 0.34817911082046721 0 0.48688174284785979 0.35971936811564431 0 0.4984937498586452 0.34777929695842291 0 0.47458285366073072 0.34817911082046721 0 0.48688174284785979 0.35971936811564431 0 0.4984937498586452 0.34777929695842291 0 0.50000000000000433 0.34775411096450393 0 0.4984937498586452 0.34777929695842291 0 0.47458285366073072 0.34817911082046721 0 0.4984937498586452 0.34777929695842291 0 0.50000000000000433 0.34775411096450393 0 0.48688174284785979 0.35971936811564431 0 0.47458285366073072 0.34817911082046721 0 0.46644088382406917 0.36371991056145853 0 0.47458285366073072 0.34817911082046721 0 0.46644088382406917 0.36371991056145853 0 0.46644088382406917 0.36371991056145853 0 0.45829891398740957 0.37926071030245079 0 0.48177296974371542 0.3780796821533936 0 0.48688174284785979 0.35971936811564431 0 0.46644088382406917 0.36371991056145853 0 0.48177296974371542 0.3780796821533936 0 0.46644088382406917 0.36371991056145853 0 0.45829891398740957 0.37926071030245079 0 0.46644088382406917 0.36371991056145853 0 0.45450488254489102 0.36219879314378839 0 0.45829891398740957 0.37926071030245079 0 0.46495921083649527 0.33796731498031379 0 0.47458285366073072 0.34817911082046721 0 0.45493863887308472 0.34850758154427958 0 0.47458285366073072 0.34817911082046721 0 0.45493863887308472 0.34850758154427958 0 0.47458285366073072 0.34817911082046721 0 0.46644088382406917 0.36371991056145853 0 0.45493863887308472 0.34850758154427958 0 0.46644088382406917 0.36371991056145853 0 0.45450488254489102 0.36219879314378839 0 0.45493863887308472 0.34850758154427958 0 0.45181909328986353 0.33594590439129729 0 0.45493863887308472 0.34850758154427958 0 0.43529442408543872 0.34883605226809089 0 0.45493863887308472 0.34850758154427958 0 0.44448268479035308 0.35511800724889642 0 0.43529442408543872 0.34883605226809089 0 0.45493863887308472 0.34850758154427958 0 0.43529442408543872 0.34883605226809089 0 0.45450488254489102 0.36219879314378839 0 0.45493863887308472 0.34850758154427958 0 0.44448268479035308 0.35511800724889642 0 0.44448268479035308 0.35511800724889642 0 0.44279863902385319 0.36498191861006751 0 0.43487683942449812 0.35106569067825599 0 0.44448268479035308 0.35511800724889642 0 0.43529442408543872 0.34883605226809089 0 0.43487683942449812 0.35106569067825599 0 0.45450488254489102 0.36219879314378839 0 0.44279863902385319 0.36498191861006751 0 0.45829891398740957 0.37926071030245079 0 0.44279863902385319 0.36498191861006751 0 0.45829891398740957 0.37926071030245079 0 0.45450488254489102 0.36219879314378839 0 0.44448268479035308 0.35511800724889642 0 0.44279863902385319 0.36498191861006751 0 0.42892444364691579 0.3641293946929936 0 0.42225433889660879 0.37545697575276449 0 0.43605286711449009 0.38080977408974359 0 0.44279863902385319 0.36498191861006751 0 0.42892444364691579 0.3641293946929936 0 0.43605286711449009 0.38080977408974359 0 0.44279863902385319 0.36498191861006751 0 0.42892444364691579 0.3641293946929936 0 0.42729836406029548 0.35070312691768563 0 0.42892444364691579 0.3641293946929936 0 0.41660844069210962 0.35988002802349189 0 0.42225433889660879 0.37545697575276449 0 0.41660844069210962 0.35988002802349189 0 0.40918213701441342 0.3736144609854074 0 0.42225433889660879 0.37545697575276449 0 0.41660844069210962 0.35988002802349189 0 0.40918213701441342 0.3736144609854074 0 0.40205795884979889 0.36380219258680641 0 0.40642652845595439 0.35168475710611302 0 0.41593005466970517 0.35003896004439389 0 0.41338688547046137 0.33788792813028518 0 0.41660844069210962 0.35988002802349189 0 0.40642652845595439 0.35168475710611302 0 0.40205795884979889 0.36380219258680641 0 0.41660844069210962 0.35988002802349189 0 0.40642652845595439 0.35168475710611302 0 0.41593005466970517 0.35003896004439389 0 0.41660844069210962 0.35988002802349189 0 0.41593005466970517 0.35003896004439389 0 0.42729836406029548 0.35070312691768563 0 0.42729836406029548 0.35070312691768563 0 0.41338688547046137 0.33788792813028518 0 0.41593005466970517 0.35003896004439389 0 0.42729836406029548 0.35070312691768563 0 0.41338688547046137 0.33788792813028518 0 0.42892444364691579 0.3641293946929936 0 0.41660844069210962 0.35988002802349189 0 0.42729836406029548 0.35070312691768563 0 0.42892444364691579 0.3641293946929936 0 0.42729836406029548 0.35070312691768563 0 0.44279863902385319 0.36498191861006751 0 0.42729836406029548 0.35070312691768563 0 0.43487683942449812 0.35106569067825599 0 0.44279863902385319 0.36498191861006751 0 0.42729836406029548 0.35070312691768563 0 0.43109136567724748 0.3489063315667284 0 0.43529442408543872 0.34883605226809089 0 0.42729836406029548 0.35070312691768563 0 0.43109136567724748 0.3489063315667284 0 0.43487683942449812 0.35106569067825599 0 0.43109136567724748 0.3489063315667284 0 0.43529442408543872 0.34883605226809089 0 0.43487683942449812 0.35106569067825599 0 0.43529442408543872 0.34883605226809089 0 0.43487683942449812 0.35106569067825599 0 0.42729836406029548 0.35070312691768563 0 0.42420497341471841 0.32516151660366771 0 0.43894044703962998 0.32936859193394902 0 0.43529442408543872 0.34883605226809089 0 0.43894044703962998 0.32936859193394902 0 0.43109136567724748 0.3489063315667284 0 0.43529442408543872 0.34883605226809089 0 0.42729836406029548 0.35070312691768563 0 0.43109136567724748 0.3489063315667284 0 0.42420497341471841 0.32516151660366771 0 0.43894044703962998 0.32936859193394902 0 0.43109136567724748 0.3489063315667284 0 0.42420497341471841 0.32516151660366771 0 0.43894044703962998 0.32936859193394902 0 0.43130474666914309 0.31304161877190062 0 0.42420497341471841 0.32516151660366771 0 0.42111158276914429 0.29961990628964941 0 0.43130474666914309 0.31304161877190062 0 0.42420497341471841 0.32516151660366771 0 0.40184121301557668 0.30678024061641418 0 0.41431845905081632 0.31211616404088999 0 0.41140534993910638 0.32360132811636988 0 0.41431845905081632 0.31211616404088999 0 0.42420497341471841 0.32516151660366771 0 0.41140534993910638 0.32360132811636988 0 0.42729836406029548 0.35070312691768563 0 0.42420497341471841 0.32516151660366771 0 0.41338688547046137 0.33788792813028518 0 0.42420497341471841 0.32516151660366771 0 0.41140534993910638 0.32360132811636988 0 0.41338688547046137 0.33788792813028518 0 0.41140534993910638 0.32360132811636988 0 0.41338688547046137 0.33788792813028518 0 0.39947540688062583 0.32507272934288628 0 0.41338688547046137 0.33788792813028518 0 0.39947540688062583 0.32507272934288628 0 0.40642652845595439 0.35168475710611302 0 0.41338688547046137 0.33788792813028518 0 0.39105145014164849 0.3414869239971704 0 0.41338688547046137 0.33788792813028518 0 0.39105145014164849 0.3414869239971704 0 0.39947540688062583 0.32507272934288628 0 0.40184121301557668 0.30678024061641418 0 0.41140534993910638 0.32360132811636988 0 0.39947540688062583 0.32507272934288628 0 0.40184121301557668 0.30678024061641418 0 0.39947540688062583 0.32507272934288628 0 0.38242981621443428 0.31397380775534678 0 0.36562923609293069 0.32366592916769399 0 0.38242981621443428 0.31397380775534678 0 0.38128435600444488 0.32837669887387311 0 0.39947540688062583 0.32507272934288628 0 0.38242981621443428 0.31397380775534678 0 0.38128435600444488 0.32837669887387311 0 0.39105145014164849 0.3414869239971704 0 0.39947540688062583 0.32507272934288628 0 0.38128435600444488 0.32837669887387311 0 0.36518945593320651 0.34509967395937191 0 0.39105145014164849 0.3414869239971704 0 0.38128435600444488 0.32837669887387311 0 0.36518945593320651 0.34509967395937191 0 0.39105145014164849 0.3414869239971704 0 0.3855881021147175 0.35910908792858098 0 0.36474967577348072 0.36653341875104961 0 0.3855881021147175 0.35910908792858098 0 0.3855881021147175 0.35910908792858098 0 0.39248458597179969 0.37472262889043839 0 0.3773824667175657 0.37546563606013739 0 0.36474967577348072 0.36653341875104961 0 0.3855881021147175 0.35910908792858098 0 0.3773824667175657 0.37546563606013739 0 0.40918213701441342 0.3736144609854074 0 0.39248458597179969 0.37472262889043839 0 0.40205795884979889 0.36380219258680641 0 0.3855881021147175 0.35910908792858098 0 0.39248458597179969 0.37472262889043839 0 0.40205795884979889 0.36380219258680641 0 0.40642652845595439 0.35168475710611302 0 0.39105145014164849 0.3414869239971704 0 0.3855881021147175 0.35910908792858098 0 0.40642652845595439 0.35168475710611302 0 0.3855881021147175 0.35910908792858098 0 0.40642652845595439 0.35168475710611302 0 0.3855881021147175 0.35910908792858098 0 0.40205795884979889 0.36380219258680641 0 0.39221066862400811 0.40518894945558848 0 0.39940032860097008 0.38986983405391068 0 0.41033309730305728 0.40785957742124029 0 0.40918213701441342 0.3736144609854074 0 0.39248458597179969 0.37472262889043839 0 0.39940032860097008 0.38986983405391068 0 0.39248458597179969 0.37472262889043839 0 0.39940032860097008 0.38986983405391068 0 0.38026367080056678 0.39066664182047522 0 0.39248458597179969 0.37472262889043839 0 0.3773824667175657 0.37546563606013739 0 0.38026367080056678 0.39066664182047522 0 0.39221066862400811 0.40518894945558848 0 0.39940032860097008 0.38986983405391068 0 0.38026367080056678 0.39066664182047522 0 0.39221066862400811 0.40518894945558848 0 0.38026367080056678 0.39066664182047522 0 0.37744029411777058 0.41252948965876268 0 0.39221066862400811 0.40518894945558848 0 0.37744029411777058 0.41252948965876268 0 0.39361595229767549 0.42501920432355378 0 0.365542703577178 0.42914551292816783 0 0.39361595229767549 0.42501920432355378 0 0.37809165231809289 0.44568724501072521 0 0.365542703577178 0.42914551292816783 0 0.37744029411777058 0.41252948965876268 0 0.39361595229767549 0.42501920432355378 0 0.365542703577178 0.42914551292816783 0 0.39361595229767549 0.42501920432355378 0 0.39361595229767549 0.42501920432355378 0 0.41035062152962531 0.4256058815429955 0 0.40092741287151468 0.44093224530230651 0 0.39361595229767549 0.42501920432355378 0 0.40092741287151468 0.44093224530230651 0 0.37809165231809289 0.44568724501072521 0 0.39361595229767549 0.42501920432355378 0 0.41033309730305728 0.40785957742124029 0 0.41035062152962531 0.4256058815429955 0 0.39221066862400811 0.40518894945558848 0 0.39361595229767549 0.42501920432355378 0 0.41033309730305728 0.40785957742124029 0 0.41033309730305728 0.40785957742124029 0 0.41035062152962531 0.4256058815429955 0 0.42646345733135449 0.42088686527347441 0 0.41035062152962531 0.4256058815429955 0 0.4216403136361262 0.43569606407888728 0 0.42646345733135449 0.42088686527347441 0 0.41035062152962531 0.4256058815429955 0 0.4216403136361262 0.43569606407888728 0 0.40092741287151468 0.44093224530230651 0 0.43504649219903713 0.43385430946487219 0 0.42646345733135449 0.42088686527347441 0 0.44292677264660579 0.42392515796168401 0 0.4216403136361262 0.43569606407888728 0 0.43504649219903713 0.43385430946487219 0 0.42646345733135449 0.42088686527347441 0 0.4216403136361262 0.43569606407888728 0 0.43504649219903713 0.43385430946487219 0 0.4309855774719657 0.44262377444488737 0 0.41033309730305728 0.40785957742124029 0 0.42646345733135449 0.42088686527347441 0 0.43473852811684172 0.40482082561786309 0 0.42646345733135449 0.42088686527347441 0 0.43473852811684172 0.40482082561786309 0 0.44292677264660579 0.42392515796168401 0 0.43473852811684172 0.40482082561786309 0 0.42003555557297712 0.38799376876492359 0 0.43605286711449009 0.38080977408974359 0 0.41033309730305728 0.40785957742124029 0 0.43473852811684172 0.40482082561786309 0 0.42003555557297712 0.38799376876492359 0 0.39940032860097008 0.38986983405391068 0 0.41033309730305728 0.40785957742124029 0 0.42003555557297712 0.38799376876492359 0 0.40918213701441342 0.3736144609854074 0 0.39940032860097008 0.38986983405391068 0 0.42003555557297712 0.38799376876492359 0 0.40918213701441342 0.3736144609854074 0 0.42003555557297712 0.38799376876492359 0 0.42225433889660879 0.37545697575276449 0 0.42003555557297712 0.38799376876492359 0 0.42225433889660879 0.37545697575276449 0 0.43605286711449009 0.38080977408974359 0 0.44279863902385319 0.36498191861006751 0 0.43605286711449009 0.38080977408974359 0 0.45829891398740957 0.37926071030245079 0 0.43605286711449009 0.38080977408974359 0 0.44916269767969552 0.39669925538146661 0 0.45829891398740957 0.37926071030245079 0 0.43473852811684172 0.40482082561786309 0 0.43605286711449009 0.38080977408974359 0 0.44916269767969552 0.39669925538146661 0 0.43473852811684172 0.40482082561786309 0 0.44916269767969552 0.39669925538146661 0 0.45819524916971172 0.41557138043250991 0 0.44916269767969552 0.39669925538146661 0 0.47914945699370431 0.3984681476517854 0 0.45819524916971172 0.41557138043250991 0 0.44916269767969552 0.39669925538146661 0 0.45829891398740957 0.37926071030245079 0 0.47914945699370431 0.3984681476517854 0 0.45829891398740957 0.37926071030245079 0 0.47914945699370431 0.3984681476517854 0 0.44916269767969552 0.39669925538146661 0 0.45829891398740957 0.37926071030245079 0 0.45829891398740957 0.37926071030245079 0 0.48177296974371542 0.3780796821533936 0 0.47914945699370431 0.3984681476517854 0 0.47914945699370431 0.3984681476517854 0 0.5 0.39471699264069632 0 0.49999999999999928 0.41767558500111929 0 0.48177296974371542 0.3780796821533936 0 0.47914945699370431 0.3984681476517854 0 0.5 0.39471699264069632 0 0.5 0.37175840028027313 0 0.48177296974371542 0.3780796821533936 0 0.5 0.39471699264069632 0 0.48950419912568011 0.43203648207583117 0 0.49999999999999928 0.41767558500111929 0 0.47941257652712138 0.42859526255965119 0 0.48950419912568011 0.43203648207583117 0 0.49999999999999928 0.41767558500111929 0 0.50000000000000022 0.44212157098762489 0 0.49999999999999928 0.41767558500111929 0 0.47638758820359789 0.4177788365799131 0 0.47941257652712138 0.42859526255965119 0 0.47914945699370431 0.3984681476517854 0 0.49999999999999928 0.41767558500111929 0 0.47638758820359789 0.4177788365799131 0 0.47914945699370431 0.3984681476517854 0 0.49999999999999928 0.41767558500111929 0 0.47914945699370431 0.3984681476517854 0 0.47638758820359789 0.4177788365799131 0 0.45819524916971172 0.41557138043250991 0 0.47638758820359789 0.4177788365799131 0 0.46959145424244531 0.42892785421681912 0 0.47941257652712138 0.42859526255965119 0 0.48950419912568011 0.43203648207583117 0 0.47941257652712138 0.42859526255965119 0 0.47860421997559988 0.43975350975492877 0 0.46959145424244531 0.42892785421681912 0 0.47941257652712138 0.42859526255965119 0 0.47860421997559988 0.43975350975492877 0 0.46959145424244531 0.42892785421681912 0 0.45720843995119947 0.43738544852223271 0 0.45819524916971172 0.41557138043250991 0 0.46959145424244531 0.42892785421681912 0 0.45720843995119947 0.43738544852223271 0 0.47860421997559988 0.43975350975492877 0 0.47638758820359789 0.4177788365799131 0 0.46959145424244531 0.42892785421681912 0 0.45819524916971172 0.41557138043250991 0 0.43473852811684172 0.40482082561786309 0 0.45819524916971172 0.41557138043250991 0 0.44292677264660579 0.42392515796168401 0 0.45720843995119947 0.43738544852223271 0 0.45819524916971172 0.41557138043250991 0 0.44292677264660579 0.42392515796168401 0 0.45720843995119947 0.43738544852223271 0 0.44292677264660579 0.42392515796168401 0 0.44501475256406542 0.43710487641451851 0 0.43504649219903713 0.43385430946487219 0 0.44292677264660579 0.42392515796168401 0 0.44501475256406542 0.43710487641451851 0 0.44501475256406542 0.43710487641451851 0 0.44086930591740259 0.443703986550611 0 0.44426520485267701 0.44828521544284999 0 0.43504649219903713 0.43385430946487219 0 0.44501475256406542 0.43710487641451851 0 0.44086930591740259 0.443703986550611 0 0.44576605402647751 0.45131382091928901 0 0.43097115028835131 0.45382894378787952 0 0.4371491165808723 0.44919465112914592 0 0.44086930591740259 0.443703986550611 0 0.44106718496795649 0.44783878756079798 0 0.4371491165808723 0.44919465112914592 0 0.44106718496795649 0.44783878756079798 0 0.44576605402647751 0.45131382091928901 0 0.4371491165808723 0.44919465112914592 0 0.44086930591740259 0.443703986550611 0 0.44426520485267701 0.44828521544284999 0 0.44106718496795649 0.44783878756079798 0 0.44426520485267701 0.44828521544284999 0 0.44576605402647751 0.45131382091928901 0 0.44086930591740259 0.443703986550611 0 0.44106718496795649 0.44783878756079798 0 0.44426520485267701 0.44828521544284999 0 0.45720843995119947 0.43738544852223271 0 0.44501475256406542 0.43710487641451851 0 0.44426520485267701 0.44828521544284999 0 0.44576605402647751 0.45131382091928901 0 0.44334270512280699 0.46695283516179431 0 0.45751300038554987 0.46615712058798953 0 0.44426520485267701 0.44828521544284999 0 0.45751300038554987 0.46615712058798953 0 0.44576605402647751 0.45131382091928901 0 0.44334270512280699 0.46695283516179431 0 0.42744619309891668 0.4675425472795256 0 0.44426520485267701 0.44828521544284999 0 0.44576605402647751 0.45131382091928901 0 0.45751300038554987 0.46615712058798953 0 0.44426520485267701 0.44828521544284999 0 0.45751300038554987 0.46615712058798953 0 0.47213260242633898 0.44992772785007767 0 0.44426520485267701 0.44828521544284999 0 0.47213260242633898 0.44992772785007767 0 0.45720843995119947 0.43738544852223271 0 0.47860421997559988 0.43975350975492877 0 0.45720843995119947 0.43738544852223271 0 0.44426520485267701 0.44828521544284999 0 0.47213260242633898 0.44992772785007767 0 0.47213260242633898 0.44992772785007767 0 0.47860421997559988 0.43975350975492877 0 0.50000000000000067 0.45157024025730719 0 0.45720843995119947 0.43738544852223271 0 0.47213260242633898 0.44992772785007767 0 0.47860421997559988 0.43975350975492877 0 0.47213260242633898 0.44992772785007767 0 0.48064266697128027 0.4673483066551633 0 0.50000000000000067 0.45157024025730719 0 0.45751300038554987 0.46615712058798953 0 0.47213260242633898 0.44992772785007767 0 0.48064266697128027 0.4673483066551633 0 0.48064266697128027 0.4673483066551633 0 0.5 0.46843982966384828 0 0.50000000000000067 0.45157024025730719 0 0.47860421997559988 0.43975350975492877 0 0.50000000000000022 0.44212157098762489 0 0.47860421997559988 0.43975350975492877 0 0.50000000000000067 0.45157024025730719 0 0.50000000000000022 0.44212157098762489 0 0.47213260242633898 0.44992772785007767 0 0.50000000000000067 0.45157024025730719 0 0.48950419912568011 0.43203648207583117 0 0.47860421997559988 0.43975350975492877 0 0.50000000000000022 0.44212157098762489 0 0.48834007405180069 0.49233461120087918 0 0.50000000000000222 0.48530941907038949 0 0.47076079591842229 0.48402902573312923 0 0.48834007405180069 0.49233461120087918 0 0.5 0.5 0 0.48259950028877657 0.49999999999999922 0 0.50000000000000222 0.48530941907038949 0 0.47076079591842229 0.48402902573312923 0 0.48834007405180069 0.49233461120087918 0 0.5 0.5 0 0.50000000000000222 0.48530941907038949 0 0.50000000000000222 0.48530941907038949 0 0.48785086572242647 0.47628164528063233 0 0.47076079591842229 0.48402902573312923 0 0.48064266697128027 0.4673483066551633 0 0.5 0.46843982966384828 0 0.48785086572242647 0.47628164528063233 0 0.5 0.46843982966384828 0 0.50000000000000222 0.48530941907038949 0 0.48785086572242647 0.47628164528063233 0 0.45751300038554987 0.46615712058798953 0 0.48064266697128027 0.4673483066551633 0 0.47076079591842229 0.48402902573312923 0 0.48064266697128027 0.4673483066551633 0 0.48785086572242647 0.47628164528063233 0 0.47076079591842229 0.48402902573312923 0 0.47076079591842229 0.48402902573312923 0 0.48259950028877657 0.49999999999999922 0 0.45965124302753141 0.5 0 0.48834007405180069 0.49233461120087918 0 0.47076079591842229 0.48402902573312923 0 0.48259950028877657 0.49999999999999922 0 0.47076079591842229 0.48402902573312923 0 0.48259950028877657 0.49999999999999922 0 0.47076079591842229 0.48402902573312923 0 0.45965124302753141 0.5 0 0.44264557298028417 0.48279785186037327 0 0.45751300038554987 0.46615712058798953 0 0.47076079591842229 0.48402902573312923 0 0.47076079591842229 0.48402902573312923 0 0.44264557298028417 0.48279785186037327 0 0.45751300038554987 0.46615712058798953 0 0.47076079591842229 0.48402902573312923 0 0.44264557298028417 0.48279785186037327 0 0.44334270512280699 0.46695283516179431 0 0.44264557298028417 0.48279785186037327 0 0.42744619309891668 0.4675425472795256 0 0.44334270512280699 0.46695283516179431 0 0.45751300038554987 0.46615712058798953 0 0.44264557298028417 0.48279785186037327 0 0.45965124302753141 0.5 0 0.44264557298028417 0.48279785186037327 0 0.43670298576628619 0.5 0 0.44264557298028417 0.48279785186037327 0 0.42814010978677508 0.48883471415535268 0 0.41453035004214622 0.48156667798761449 0 0.43670298576628619 0.5 0 0.42814010978677508 0.48883471415535268 0 0.41868153035838401 0.49097432677342312 0 0.44264557298028417 0.48279785186037327 0 0.43670298576628619 0.5 0 0.42814010978677508 0.48883471415535268 0 0.43670298576628619 0.5 0 0.41375472850504103 0.5 0 0.41868153035838401 0.49097432677342312 0 0.41375472850504103 0.5 0 0.41868153035838401 0.49097432677342312 0 0.40912633217135602 0.48377127363976219 0 0.42814010978677508 0.48883471415535268 0 0.41868153035838401 0.49097432677342312 0 0.41453035004214622 0.48156667798761449 0 0.41868153035838401 0.49097432677342312 0 0.40912633217135602 0.48377127363976219 0 0.41453035004214622 0.48156667798761449 0 0.40882198151684829 0.470458307354371 0 0.40912633217135602 0.48377127363976219 0 0.42744619309891668 0.4675425472795256 0 0.40912633217135602 0.48377127363976219 0 0.42744619309891668 0.4675425472795256 0 0.40912633217135602 0.48377127363976219 0 0.41453035004214622 0.48156667798761449 0 0.42744619309891668 0.4675425472795256 0 0.40882198151684829 0.470458307354371 0 0.40912633217135602 0.48377127363976219 0 0.40257181831080802 0.47789339995616598 0 0.44264557298028417 0.48279785186037327 0 0.41453035004214622 0.48156667798761449 0 0.44264557298028417 0.48279785186037327 0 0.41453035004214622 0.48156667798761449 0 0.42744619309891668 0.4675425472795256 0 0.44576605402647751 0.45131382091928901 0 0.42744619309891668 0.4675425472795256 0 0.44576605402647751 0.45131382091928901 0 0.43097115028835131 0.45382894378787952 0 0.42744619309891668 0.4675425472795256 0 0.43097115028835131 0.45382894378787952 0 0.42744619309891668 0.4675425472795256 0 0.41709851720120961 0.46055572465752248 0 0.44086930591740259 0.443703986550611 0 0.4309855774719657 0.44262377444488737 0 0.4371491165808723 0.44919465112914592 0 0.43504649219903713 0.43385430946487219 0 0.44086930591740259 0.443703986550611 0 0.4309855774719657 0.44262377444488737 0 0.43097115028835131 0.45382894378787952 0 0.4309855774719657 0.44262377444488737 0 0.4371491165808723 0.44919465112914592 0 0.43097115028835131 0.45382894378787952 0 0.4309855774719657 0.44262377444488737 0 0.41665312800777271 0.44940921386284588 0 0.4216403136361262 0.43569606407888728 0 0.4309855774719657 0.44262377444488737 0 0.41665312800777271 0.44940921386284588 0 0.41665312800777271 0.44940921386284588 0 0.4029362549212489 0.45832899449672349 0 0.40092741287151468 0.44093224530230651 0 0.4216403136361262 0.43569606407888728 0 0.41665312800777271 0.44940921386284588 0 0.40092741287151468 0.44093224530230651 0 0.40882198151684829 0.470458307354371 0 0.42744619309891668 0.4675425472795256 0 0.41709851720120961 0.46055572465752248 0 0.43097115028835131 0.45382894378787952 0 0.41665312800777271 0.44940921386284588 0 0.41709851720120961 0.46055572465752248 0 0.41665312800777271 0.44940921386284588 0 0.41709851720120961 0.46055572465752248 0 0.4029362549212489 0.45832899449672349 0 0.40882198151684829 0.470458307354371 0 0.41709851720120961 0.46055572465752248 0 0.4029362549212489 0.45832899449672349 0 0.40882198151684829 0.470458307354371 0 0.4029362549212489 0.45832899449672349 0 0.3944208343110962 0.47305259584339332 0 0.4029362549212489 0.45832899449672349 0 0.38943508825963058 0.45629052964312111 0 0.3944208343110962 0.47305259584339332 0 0.4029362549212489 0.45832899449672349 0 0.40092741287151468 0.44093224530230651 0 0.38943508825963058 0.45629052964312111 0 0.40092741287151468 0.44093224530230651 0 0.37809165231809289 0.44568724501072521 0 0.38943508825963058 0.45629052964312111 0 0.37809165231809289 0.44568724501072521 0 0.38943508825963058 0.45629052964312111 0 0.37844435483634198 0.4675903904274426 0 0.38943508825963058 0.45629052964312111 0 0.37844435483634198 0.4675903904274426 0 0.3944208343110962 0.47305259584339332 0 0.37844435483634198 0.4675903904274426 0 0.38120033573297152 0.48442634992442057 0 0.3944208343110962 0.47305259584339332 0 0.38120033573297152 0.48442634992442057 0 0.3944208343110962 0.47305259584339332 0 0.39562515835400552 0.48382872387274839 0 0.36196284501337178 0.5 0 0.38120033573297152 0.48442634992442057 0 0.39080647124379558 0.49999999999999922 0 0.38120033573297152 0.48442634992442057 0 0.39080647124379558 0.49999999999999922 0 0.39562515835400552 0.48382872387274839 0 0.40912633217135602 0.48377127363976219 0 0.39080647124379558 0.49999999999999922 0 0.40912633217135602 0.48377127363976219 0 0.39080647124379558 0.49999999999999922 0 0.39562515835400552 0.48382872387274839 0 0.41375472850504103 0.5 0 0.40912633217135602 0.48377127363976219 0 0.39080647124379558 0.49999999999999922 0 0.40912633217135602 0.48377127363976219 0 0.40257181831080802 0.47789339995616598 0 0.39562515835400552 0.48382872387274839 0 0.40882198151684829 0.470458307354371 0 0.40257181831080802 0.47789339995616598 0 0.3944208343110962 0.47305259584339332 0 0.40257181831080802 0.47789339995616598 0 0.3944208343110962 0.47305259584339332 0 0.39562515835400552 0.48382872387274839 0 0.34137977846588119 0.091947059702449957 0 0.3184977734976509 0.082531855017860187 0 0.34137977846588119 0.091947059702449957 0 0.33853514524224232 0.092154422351098803 0 0.3184977734976509 0.082531855017860187 0 0.33853514524224232 0.092154422351098803 0 0.3184977734976509 0.082531855017860187 0 0.3305269393921435 0.093893314460775035 0 0.34137977846588119 0.091947059702449957 0 0.33488127772135701 0.070909675734900868 0 0.3184977734976509 0.082531855017860187 0 0.33488127772135701 0.070909675734900868 0 0.35624300874513559 0.071190975121652081 0 0.33828509493208109 0.051113002016081502 0 0.3184977734976509 0.082531855017860187 0 0.31750720709783492 0.060828210965220328 0 0.30506359630307739 0.067813250175554993 0 0.33488127772135701 0.070909675734900868 0 0.32846421329825382 0.059059627678852658 0 0.31750720709783492 0.060828210965220328 0 0.33488127772135701 0.070909675734900868 0 0.3184977734976509 0.082531855017860187 0 0.31750720709783492 0.060828210965220328 0 0.3184977734976509 0.082531855017860187 0 0.3254096333834442 0.096971455496547829 0 0.3305269393921435 0.093893314460775035 0 0.3184977734976509 0.082531855017860187 0 0.3254096333834442 0.096971455496547829 0 0.31111548734401751 0.094174984339189319 0 0.3254096333834442 0.096971455496547829 0 0.33219394353324039 0.1121017755840282 0 0.31111548734401751 0.094174984339189319 0 0.33219394353324039 0.1121017755840282 0 0.31111548734401751 0.094174984339189319 0 0.33219394353324039 0.1121017755840282 0 0.31151194808720201 0.1150643222194616 0 0.31111548734401751 0.094174984339189319 0 0.33219394353324039 0.1121017755840282 0 0.31151194808720201 0.1150643222194616 0 0.32387679174541939 0.1297141718462434 0 0.33219394353324039 0.1121017755840282 0 0.32387679174541939 0.1297141718462434 0 0.35327239972246333 0.1300285668288671 0 0.33219394353324039 0.1121017755840282 0 0.35327239972246333 0.1300285668288671 0 0.33219394353324039 0.1121017755840282 0 0.34279585490336462 0.1026082003979065 0 0.35159211237321392 0.11222190062690381 0 0.33853514524224232 0.092154422351098803 0 0.3305269393921435 0.093893314460775035 0 0.33650548478629722 0.09727411407467923 0 0.3254096333834442 0.096971455496547829 0 0.33351858274250701 0.1005678965871936 0 0.3305269393921435 0.093893314460775035 0 0.33351858274250701 0.1005678965871936 0 0.3305269393921435 0.093893314460775035 0 0.33650548478629722 0.09727411407467923 0 0.3254096333834442 0.096971455496547829 0 0.33219394353324039 0.1121017755840282 0 0.33351858274250701 0.1005678965871936 0 0.33219394353324039 0.1121017755840282 0 0.33351858274250701 0.1005678965871936 0 0.34279585490336462 0.1026082003979065 0 0.33351858274250701 0.1005678965871936 0 0.34279585490336462 0.1026082003979065 0 0.33650548478629722 0.09727411407467923 0 0.33853514524224232 0.092154422351098803 0 0.34279585490336462 0.1026082003979065 0 0.33650548478629722 0.09727411407467923 0 0.34279585490336462 0.1026082003979065 0 0.35159211237321392 0.11222190062690381 0 0.36426178343411147 0.1013622643870397 0 0.33853514524224232 0.092154422351098803 0 0.34279585490336462 0.1026082003979065 0 0.36426178343411147 0.1013622643870397 0 0.34137977846588119 0.091947059702449957 0 0.33853514524224232 0.092154422351098803 0 0.36426178343411147 0.1013622643870397 0 0.33853514524224232 0.092154422351098803 0 0.36426178343411147 0.1013622643870397 0 0.34137977846588119 0.091947059702449957 0 0.36426178343411147 0.1013622643870397 0 0.33219394353324039 0.1121017755840282 0 0.35159211237321392 0.11222190062690381 0 0.35327239972246333 0.1300285668288671 0 0.35159211237321392 0.11222190062690381 0 0.36649271172908648 0.1176987398754743 0 0.35327239972246333 0.1300285668288671 0 0.35159211237321392 0.11222190062690381 0 0.36649271172908648 0.1176987398754743 0 0.36426178343411147 0.1013622643870397 0 0.36649271172908648 0.1176987398754743 0 0.36938385952287339 0.13266757129752671 0 0.38138511069115272 0.12353481432135879 0 0.36649271172908648 0.1176987398754743 0 0.36426178343411147 0.1013622643870397 0 0.3795225325030368 0.1068242515199407 0 0.36426178343411147 0.1013622643870397 0 0.3795225325030368 0.1068242515199407 0 0.36426178343411147 0.1013622643870397 0 0.3742009225581896 0.091268948227223284 0 0.3795225325030368 0.1068242515199407 0 0.3742009225581896 0.091268948227223284 0 0.35754778501084228 0.087847667021068221 0 0.35624300874513559 0.071190975121652081 0 0.36426178343411147 0.1013622643870397 0 0.3742009225581896 0.091268948227223284 0 0.35754778501084228 0.087847667021068221 0 0.3742009225581896 0.091268948227223284 0 0.35624300874513559 0.071190975121652081 0 0.34137977846588119 0.091947059702449957 0 0.35754778501084228 0.087847667021068221 0 0.35624300874513559 0.071190975121652081 0 0.34137977846588119 0.091947059702449957 0 0.36426178343411147 0.1013622643870397 0 0.35754778501084228 0.087847667021068221 0 0.34137977846588119 0.091947059702449957 0 0.33488127772135701 0.070909675734900868 0 0.35624300874513559 0.071190975121652081 0 0.3742009225581896 0.091268948227223284 0 0.35624300874513559 0.071190975121652081 0 0.37575225644292037 0.071709270247263784 0 0.35624300874513559 0.071190975121652081 0 0.36737709041569239 0.056764699852256018 0 0.37575225644292037 0.071709270247263784 0 0.36737709041569239 0.056764699852256018 0 0.36443667806580698 0.054513224756226962 0 0.39058826119953283 0.057913447496371839 0 0.36443667806580698 0.054513224756226962 0 0.36984281421283938 0.03924660656396721 0 0.37608467898805159 0.048096788967416412 0 0.36984281421283938 0.03924660656396721 0 0.35576481933353549 0.041718099984820838 0 0.3798040161112804 0.028996110171619349 0 0.35576481933353549 0.041718099984820838 0 0.36136411866671431 0.026161729739540451 0 0.37786156531075732 0.02725125369877367 0 0.35576481933353549 0.041718099984820838 0 0.3798040161112804 0.028996110171619349 0 0.37786156531075732 0.02725125369877367 0 0.35576481933353549 0.041718099984820838 0 0.3798040161112804 0.028996110171619349 0 0.36984281421283938 0.03924660656396721 0 0.37726993283737248 0.041439113600633092 0 0.37608467898805159 0.048096788967416412 0 0.36984281421283938 0.03924660656396721 0 0.37675727284589372 0.036323400775862158 0 0.37726993283737248 0.041439113600633092 0 0.36443667806580698 0.054513224756226962 0 0.36984281421283938 0.03924660656396721 0 0.35576481933353549 0.041718099984820838 0 0.35576481933353549 0.041718099984820838 0 0.36136411866671431 0.026161729739540451 0 0.34099279295720591 0.031691385536231111 0 0.35576481933353549 0.041718099984820838 0 0.34539840685914608 0.044617690611648012 0 0.34099279295720591 0.031691385536231111 0 0.35624300874513559 0.071190975121652081 0 0.34416591963185211 0.055615952208139578 0 0.33828509493208109 0.051113002016081502 0 0.36443667806580698 0.054513224756226962 0 0.34416591963185211 0.055615952208139578 0 0.33828509493208109 0.051113002016081502 0 0.36737709041569239 0.056764699852256018 0 0.34416591963185211 0.055615952208139578 0 0.35624300874513559 0.071190975121652081 0 0.33828509493208109 0.051113002016081502 0 0.35624300874513559 0.071190975121652081 0 0.36737709041569239 0.056764699852256018 0 0.34416591963185211 0.055615952208139578 0 0.36443667806580698 0.054513224756226962 0 0.33828509493208109 0.051113002016081502 0 0.36443667806580698 0.054513224756226962 0 0.34539840685914608 0.044617690611648012 0 0.33828509493208109 0.051113002016081502 0 0.36443667806580698 0.054513224756226962 0 0.35576481933353549 0.041718099984820838 0 0.34539840685914608 0.044617690611648012 0 0.36737709041569239 0.056764699852256018 0 0.36443667806580698 0.054513224756226962 0 0.34416591963185211 0.055615952208139578 0 0.35686418876597309 0.010252504770385159 0 0.37537418671591988 0.012891754799621079 0 0.3700201466167648 -0.002195575246397889 0 0.35686418876597309 0.010252504770385159 0 0.37786156531075732 0.02725125369877367 0 0.36136411866671431 0.026161729739540451 0 0.35686418876597309 0.010252504770385159 0 0.37786156531075732 0.02725125369877367 0 0.35686418876597309 0.010252504770385159 0 0.37537418671591988 0.012891754799621079 0 0.37786156531075732 0.02725125369877367 0 0.36136411866671431 0.026161729739540451 0 0.35686418876597309 0.010252504770385159 0 0.34167945108238768 0.015605415956853899 0 0.36136411866671431 0.026161729739540451 0 0.34167945108238768 0.015605415956853899 0 0.34099279295720591 0.031691385536231111 0 0.35686418876597309 0.010252504770385159 0 0.34167945108238768 0.015605415956853899 0 0.33586681222118892 -0.0067462441580033658 0 0.35686418876597309 0.010252504770385159 0 0.33586681222118892 -0.0067462441580033658 0 0.34167945108238768 0.015605415956853899 0 0.32490055802469708 0.021190940670656921 0 0.33586681222118892 -0.0067462441580033658 0 0.34167945108238768 0.015605415956853899 0 0.32490055802469708 0.021190940670656921 0 0.34099279295720591 0.031691385536231111 0 0.32490055802469708 0.021190940670656921 0 0.34099279295720591 0.031691385536231111 0 0.32801258046435111 0.036170166979635328 0 0.32490055802469708 0.021190940670656921 0 0.31497710433926901 0.036033128519756527 0 0.30595588987094691 0.026092456194660541 0 0.32490055802469708 0.021190940670656921 0 0.31046320235639918 0.0067575729804437252 0 0.30595588987094691 0.026092456194660541 0 0.32490055802469708 0.021190940670656921 0 0.32801258046435111 0.036170166979635328 0 0.31497710433926901 0.036033128519756527 0 0.32490055802469708 0.021190940670656921 0 0.31046320235639918 0.0067575729804437252 0 0.33586681222118892 -0.0067462441580033658 0 0.33488127772135701 0.070909675734900868 0 0.32846421329825382 0.059059627678852658 0 0.33828509493208109 0.051113002016081502 0 0.33828509493208109 0.051113002016081502 0 0.33632782521092219 0.048924662700562782 0 0.31456469921871788 0.048028881697348168 0 0.34539840685914608 0.044617690611648012 0 0.33828509493208109 0.051113002016081502 0 0.33632782521092219 0.048924662700562782 0 0.33828509493208109 0.051113002016081502 0 0.33632782521092219 0.048924662700562782 0 0.34539840685914608 0.044617690611648012 0 0.33609782728063148 0.04111054955314445 0 0.34099279295720591 0.031691385536231111 0 0.34539840685914608 0.044617690611648012 0 0.33632782521092219 0.048924662700562782 0 0.33609782728063148 0.04111054955314445 0 0.33609782728063148 0.04111054955314445 0 0.34099279295720591 0.031691385536231111 0 0.32801258046435111 0.036170166979635328 0 0.33632782521092219 0.048924662700562782 0 0.33609782728063148 0.04111054955314445 0 0.33051084790212298 0.042529329228536181 0 0.33632782521092219 0.048924662700562782 0 0.33051084790212298 0.042529329228536181 0 0.32327528761916352 0.043108517346294839 0 0.33609782728063148 0.04111054955314445 0 0.33051084790212298 0.042529329228536181 0 0.32801258046435111 0.036170166979635328 0 0.33632782521092219 0.048924662700562782 0 0.32327528761916352 0.043108517346294839 0 0.31456469921871788 0.048028881697348168 0 0.33051084790212298 0.042529329228536181 0 0.32327528761916352 0.043108517346294839 0 0.32801258046435111 0.036170166979635328 0 0.32327528761916352 0.043108517346294839 0 0.32801258046435111 0.036170166979635328 0 0.31497710433926901 0.036033128519756527 0 0.32327528761916352 0.043108517346294839 0 0.31497710433926901 0.036033128519756527 0 0.31456469921871788 0.048028881697348168 0 0.33828509493208109 0.051113002016081502 0 0.31456469921871788 0.048028881697348168 0 0.32846421329825382 0.059059627678852658 0 0.33828509493208109 0.051113002016081502 0 0.31456469921871788 0.048028881697348168 0 0.32846421329825382 0.059059627678852658 0 0.31456469921871788 0.048028881697348168 0 0.31750720709783492 0.060828210965220328 0 0.31456469921871788 0.048028881697348168 0 0.31750720709783492 0.060828210965220328 0 0.30386903740065402 0.05697431224277244 0 0.31750720709783492 0.060828210965220328 0 0.30386903740065402 0.05697431224277244 0 0.30506359630307739 0.067813250175554993 0 0.31456469921871788 0.048028881697348168 0 0.30386903740065402 0.05697431224277244 0 0.29084430350535467 0.044944761378613682 0 0.30386903740065402 0.05697431224277244 0 0.29325963230024937 0.057606978803657879 0 0.29690158384745241 0.06457818982176422 0 0.31456469921871788 0.048028881697348168 0 0.30257644158749403 0.037675663858353942 0 0.29084430350535467 0.044944761378613682 0 0.31456469921871788 0.048028881697348168 0 0.29084430350535467 0.044944761378613682 0 0.30257644158749403 0.037675663858353942 0 0.28728110375769011 0.032980092644635972 0 0.30595588987094691 0.026092456194660541 0 0.31497710433926901 0.036033128519756527 0 0.31456469921871788 0.048028881697348168 0 0.30257644158749403 0.037675663858353942 0 0.31497710433926901 0.036033128519756527 0 0.30257644158749403 0.037675663858353942 0 0.30595588987094691 0.026092456194660541 0 0.28728110375769011 0.032980092644635972 0 0.28354425329012439 0.021068516806879451 0 0.27754771987688809 0.040797440569893019 0 0.30257644158749403 0.037675663858353942 0 0.29084430350535467 0.044944761378613682 0 0.28728110375769011 0.032980092644635972 0 0.28728110375769011 0.032980092644635972 0 0.2844924432277231 0.043204628682168907 0 0.27754771987688809 0.040797440569893019 0 0.29084430350535467 0.044944761378613682 0 0.28728110375769011 0.032980092644635972 0 0.2844924432277231 0.043204628682168907 0 0.2844924432277231 0.043204628682168907 0 0.28229664577095948 0.054096220135532967 0 0.27754771987688809 0.040797440569893019 0 0.29084430350535467 0.044944761378613682 0 0.2844924432277231 0.043204628682168907 0 0.28229664577095948 0.054096220135532967 0 0.29084430350535467 0.044944761378613682 0 0.28229664577095948 0.054096220135532967 0 0.29325963230024937 0.057606978803657879 0 0.28229664577095948 0.054096220135532967 0 0.28695696052130792 0.062426000594819037 0 0.29325963230024937 0.057606978803657879 0 0.28229664577095948 0.054096220135532967 0 0.28695696052130792 0.062426000594819037 0 0.27961998430175328 0.060695812266760227 0 0.28695696052130792 0.062426000594819037 0 0.29325963230024937 0.057606978803657879 0 0.29690158384745241 0.06457818982176422 0 0.30386903740065402 0.05697431224277244 0 0.29084430350535467 0.044944761378613682 0 0.29325963230024937 0.057606978803657879 0 0.31046320235639918 0.0067575729804437252 0 0.29633736445586178 0.016145334388179639 0 0.2895407867033607 0.0013395930438658619 0 0.31046320235639918 0.0067575729804437252 0 0.30595588987094691 0.026092456194660541 0 0.29633736445586178 0.016145334388179639 0 0.28728110375769011 0.032980092644635972 0 0.29633736445586178 0.016145334388179639 0 0.28354425329012439 0.021068516806879451 0 0.28728110375769011 0.032980092644635972 0 0.30595588987094691 0.026092456194660541 0 0.29633736445586178 0.016145334388179639 0 0.29633736445586178 0.016145334388179639 0 0.28354425329012439 0.021068516806879451 0 0.2895407867033607 0.0013395930438658619 0 0.28354425329012439 0.021068516806879451 0 0.2895407867033607 0.0013395930438658619 0 0.27605408581287011 0.0090157940159830471 0 0.28354425329012439 0.021068516806879451 0 0.2895407867033607 0.0013395930438658619 0 0.2895407867033607 0.0013395930438658619 0 0.27605408581287011 0.0090157940159830471 0 0.26778398551549509 -0.0036893303100333872 0 0.27605408581287011 0.0090157940159830471 0 0.26417056773795178 0.0090152440179189393 0 0.26778398551549509 -0.0036893303100333872 0 0.27605408581287011 0.0090157940159830471 0 0.26936383070045983 0.02007531215695801 0 0.26417056773795178 0.0090152440179189393 0 0.28354425329012439 0.021068516806879451 0 0.27754771987688809 0.040797440569893019 0 0.28354425329012439 0.021068516806879451 0 0.27605408581287011 0.0090157940159830471 0 0.26936383070045983 0.02007531215695801 0 0.28354425329012439 0.021068516806879451 0 0.26936383070045983 0.02007531215695801 0 0.27332262009486957 0.033728107725222278 0 0.26936383070045983 0.02007531215695801 0 0.26667678125960848 0.028969541142501901 0 0.27332262009486957 0.033728107725222278 0 0.26936383070045983 0.02007531215695801 0 0.26667678125960848 0.028969541142501901 0 0.25978705670837199 0.02772172808684556 0 0.26667678125960848 0.028969541142501901 0 0.25978705670837199 0.02772172808684556 0 0.26423361753473251 0.034353016600981737 0 0.24818833723327199 0.02644705719899533 0 0.25978705670837199 0.02772172808684556 0 0.25442723867738032 0.016379625870619269 0 0.24818833723327199 0.02644705719899533 0 0.25978705670837199 0.02772172808684556 0 0.25704478259505842 0.035809011079610743 0 0.26936383070045983 0.02007531215695801 0 0.25978705670837199 0.02772172808684556 0 0.25442723867738032 0.016379625870619269 0 0.26936383070045983 0.02007531215695801 0 0.25442723867738032 0.016379625870619269 0 0.26417056773795178 0.0090152440179189393 0 0.25442723867738032 0.016379625870619269 0 0.26417056773795178 0.0090152440179189393 0 0.25322369798355371 0.0032948183560677501 0 0.26417056773795178 0.0090152440179189393 0 0.25322369798355371 0.0032948183560677501 0 0.26778398551549509 -0.0036893303100333872 0 0.28229664577095948 0.054096220135532967 0 0.27155118646365262 0.060526364332906778 0 0.27754771987688809 0.040797440569893019 0 0.26803735397675288 0.057537922442449492 0 0.27155118646365262 0.060526364332906778 0 0.27754771987688809 0.040797440569893019 0 0.27155118646365262 0.060526364332906778 0 0.27754771987688809 0.040797440569893019 0 0.26803735397675288 0.057537922442449492 0 0.26717674565759131 0.061414912581717808 0 0.27155118646365262 0.060526364332906778 0 0.26803735397675288 0.057537922442449492 0 0.26717674565759131 0.061414912581717808 0 0.26717674565759131 0.061414912581717808 0 0.27082486665434358 0.062915996334918609 0 0.26717674565759131 0.061414912581717808 0 0.27155118646365262 0.060526364332906778 0 0.27082486665434358 0.062915996334918609 0 0.27155118646365262 0.060526364332906778 0 0.27082486665434358 0.062915996334918609 0 0.26803735397675288 0.057537922442449492 0 0.27155118646365262 0.060526364332906778 0 0.27155118646365262 0.060526364332906778 0 0.27961998430175328 0.060695812266760227 0 0.27767514445109232 0.065734664003783444 0 0.28229664577095948 0.054096220135532967 0 0.27155118646365262 0.060526364332906778 0 0.27961998430175328 0.060695812266760227 0 0.28354425329012439 0.021068516806879451 0 0.27754771987688809 0.040797440569893019 0 0.27332262009486957 0.033728107725222278 0 0.26803735397675288 0.057537922442449492 0 0.27754771987688809 0.040797440569893019 0 0.27332262009486957 0.033728107725222278 0 0.26803735397675288 0.057537922442449492 0 0.27332262009486957 0.033728107725222278 0 0.26337349528673171 0.044011131262296957 0 0.26803735397675288 0.057537922442449492 0 0.27332262009486957 0.033728107725222278 0 0.26667678125960848 0.028969541142501901 0 0.27332262009486957 0.033728107725222278 0 0.26423361753473251 0.034353016600981737 0 0.27332262009486957 0.033728107725222278 0 0.26337349528673171 0.044011131262296957 0 0.26423361753473251 0.034353016600981737 0 0.25978705670837199 0.02772172808684556 0 0.26423361753473251 0.034353016600981737 0 0.25704478259505842 0.035809011079610743 0 0.26337349528673171 0.044011131262296957 0 0.26423361753473251 0.034353016600981737 0 0.25704478259505842 0.035809011079610743 0 0.2492733855269578 0.041579555173777823 0 0.24818833723327199 0.02644705719899533 0 0.25704478259505842 0.035809011079610743 0 0.2492733855269578 0.041579555173777823 0 0.26337349528673171 0.044011131262296957 0 0.25704478259505842 0.035809011079610743 0 0.2492733855269578 0.041579555173777823 0 0.26803735397675288 0.057537922442449492 0 0.26337349528673171 0.044011131262296957 0 0.2492733855269578 0.041579555173777823 0 0.26803735397675288 0.057537922442449492 0 0.24629062771517271 0.052820950830226497 0 0.2492733855269578 0.041579555173777823 0 0.26803735397675288 0.057537922442449492 0 0.24874122334595 0.07170785510379532 0 0.24629062771517271 0.052820950830226497 0 0.26717674565759131 0.061414912581717808 0 0.24629062771517271 0.052820950830226497 0 0.26717674565759131 0.061414912581717808 0 0.24629062771517271 0.052820950830226497 0 0.26803735397675288 0.057537922442449492 0 0.26717674565759131 0.061414912581717808 0 0.24874122334595 0.07170785510379532 0 0.26717674565759131 0.061414912581717808 0 0.26207170159221099 0.084412837492877896 0 0.26717674565759131 0.061414912581717808 0 0.26207170159221099 0.084412837492877896 0 0.26717674565759131 0.061414912581717808 0 0.26459661937193729 0.083407271434054076 0 0.26207170159221099 0.084412837492877896 0 0.24736227196270541 0.090270970101712061 0 0.24874122334595 0.07170785510379532 0 0.26207170159221099 0.084412837492877896 0 0.24736227196270541 0.090270970101712061 0 0.26207170159221099 0.084412837492877896 0 0.24736227196270541 0.090270970101712061 0 0.26016144869860108 0.09301841504440217 0 0.25459763100830068 0.096141582858552177 0 0.24736227196270541 0.090270970101712061 0 0.26207170159221099 0.084412837492877896 0 0.26016144869860108 0.09301841504440217 0 0.24736227196270541 0.090270970101712061 0 0.25459763100830068 0.096141582858552177 0 0.26459661937193729 0.083407271434054076 0 0.26207170159221099 0.084412837492877896 0 0.26207170159221099 0.084412837492877896 0 0.26016144869860108 0.09301841504440217 0 0.26459661937193729 0.083407271434054076 0 0.2619867778419176 0.09199379318438361 0 0.26207170159221099 0.084412837492877896 0 0.2619867778419176 0.09199379318438361 0 0.26016144869860108 0.09301841504440217 0 0.26459661937193729 0.083407271434054076 0 0.26207170159221099 0.084412837492877896 0 0.2619867778419176 0.09199379318438361 0 0.2619867778419176 0.09199379318438361 0 0.26016144869860108 0.09301841504440217 0 0.26459661937193729 0.083407271434054076 0 0.28765643041333783 0.074223541376674432 0 0.26459661937193729 0.083407271434054076 0 0.27601190449835611 0.084120993139366301 0 0.28765643041333783 0.074223541376674432 0 0.2619867778419176 0.09199379318438361 0 0.27601190449835611 0.084120993139366301 0 0.27597760534302263 0.093816081557894046 0 0.2619867778419176 0.09199379318438361 0 0.27601190449835611 0.084120993139366301 0 0.26459661937193729 0.083407271434054076 0 0.2619867778419176 0.09199379318438361 0 0.27601190449835611 0.084120993139366301 0 0.27601190449835611 0.084120993139366301 0 0.28527214605629803 0.093542631019163408 0 0.27597760534302263 0.093816081557894046 0 0.26459661937193729 0.083407271434054076 0 0.27082486665434358 0.062915996334918609 0 0.26717674565759131 0.061414912581717808 0 0.26459661937193729 0.083407271434054076 0 0.27082486665434358 0.062915996334918609 0 0.26459661937193729 0.083407271434054076 0 0.27082486665434358 0.062915996334918609 0 0.27767514445109232 0.065734664003783444 0 0.26459661937193729 0.083407271434054076 0 0.27767514445109232 0.065734664003783444 0 0.28765643041333783 0.074223541376674432 0 0.27155118646365262 0.060526364332906778 0 0.27082486665434358 0.062915996334918609 0 0.27767514445109232 0.065734664003783444 0 0.27082486665434358 0.062915996334918609 0 0.27767514445109232 0.065734664003783444 0 0.27155118646365262 0.060526364332906778 0 0.27767514445109232 0.065734664003783444 0 0.27767514445109232 0.065734664003783444 0 0.28765643041333783 0.074223541376674432 0 0.27767514445109232 0.065734664003783444 0 0.29306802488508721 0.072068336257275281 0 0.28695696052130792 0.062426000594819037 0 0.27961998430175328 0.060695812266760227 0 0.27767514445109232 0.065734664003783444 0 0.28695696052130792 0.062426000594819037 0 0.27767514445109232 0.065734664003783444 0 0.29306802488508721 0.072068336257275281 0 0.28695696052130792 0.062426000594819037 0 0.29306802488508721 0.072068336257275281 0 0.29690158384745241 0.06457818982176422 0 0.29561576852942001 0.073116650333272012 0 0.29306802488508721 0.072068336257275281 0 0.29561576852942001 0.073116650333272012 0 0.29306802488508721 0.072068336257275281 0 0.29003703115479512 0.076248193094349867 0 0.29306802488508721 0.072068336257275281 0 0.28765643041333783 0.074223541376674432 0 0.29306802488508721 0.072068336257275281 0 0.29003703115479512 0.076248193094349867 0 0.28765643041333783 0.074223541376674432 0 0.29561576852942001 0.073116650333272012 0 0.29003703115479512 0.076248193094349867 0 0.27767514445109232 0.065734664003783444 0 0.29306802488508721 0.072068336257275281 0 0.28765643041333783 0.074223541376674432 0 0.29003703115479512 0.076248193094349867 0 0.28765643041333783 0.074223541376674432 0 0.27601190449835611 0.084120993139366301 0 0.29003703115479512 0.076248193094349867 0 0.27601190449835611 0.084120993139366301 0 0.29003703115479512 0.076248193094349867 0 0.28765643041333783 0.074223541376674432 0 0.27601190449835611 0.084120993139366301 0 0.29003703115479512 0.076248193094349867 0 0.28870857493654689 0.086239244916881869 0 0.27601190449835611 0.084120993139366301 0 0.28870857493654689 0.086239244916881869 0 0.28527214605629803 0.093542631019163408 0 0.28870857493654689 0.086239244916881869 0 0.28527214605629803 0.093542631019163408 0 0.29246213629446111 0.095768124011444758 0 0.28870857493654689 0.086239244916881869 0 0.29698271976236568 0.089899813846382556 0 0.29246213629446111 0.095768124011444758 0 0.29003703115479512 0.076248193094349867 0 0.28870857493654689 0.086239244916881869 0 0.29698271976236568 0.089899813846382556 0 0.29561576852942001 0.073116650333272012 0 0.29003703115479512 0.076248193094349867 0 0.31111548734401751 0.094174984339189319 0 0.29003703115479512 0.076248193094349867 0 0.31111548734401751 0.094174984339189319 0 0.29003703115479512 0.076248193094349867 0 0.29698271976236568 0.089899813846382556 0 0.31111548734401751 0.094174984339189319 0 0.3184977734976509 0.082531855017860187 0 0.29561576852942001 0.073116650333272012 0 0.31111548734401751 0.094174984339189319 0 0.3184977734976509 0.082531855017860187 0 0.29561576852942001 0.073116650333272012 0 0.3184977734976509 0.082531855017860187 0 0.29561576852942001 0.073116650333272012 0 0.30506359630307739 0.067813250175554993 0 0.31750720709783492 0.060828210965220328 0 0.30506359630307739 0.067813250175554993 0 0.29306802488508721 0.072068336257275281 0 0.30506359630307739 0.067813250175554993 0 0.29690158384745241 0.06457818982176422 0 0.30386903740065402 0.05697431224277244 0 0.30506359630307739 0.067813250175554993 0 0.29690158384745241 0.06457818982176422 0 0.29306802488508721 0.072068336257275281 0 0.30506359630307739 0.067813250175554993 0 0.29561576852942001 0.073116650333272012 0 0.30506359630307739 0.067813250175554993 0 0.29561576852942001 0.073116650333272012 0 0.29306802488508721 0.072068336257275281 0 0.30506359630307739 0.067813250175554993 0 0.31151194808720201 0.1150643222194616 0 0.30247500772594699 0.1071381656543656 0 0.29129275041579278 0.1172303442398579 0 0.31151194808720201 0.1150643222194616 0 0.29622008012258699 0.12991313160987961 0 0.32387679174541939 0.1297141718462434 0 0.31151194808720201 0.1150643222194616 0 0.29129275041579278 0.1172303442398579 0 0.29622008012258699 0.12991313160987961 0 0.31151194808720201 0.1150643222194616 0 0.31111548734401751 0.094174984339189319 0 0.30247500772594699 0.1071381656543656 0 0.31111548734401751 0.094174984339189319 0 0.30128354362195031 0.098124169066782854 0 0.30247500772594699 0.1071381656543656 0 0.29698271976236568 0.089899813846382556 0 0.30128354362195031 0.098124169066782854 0 0.29246213629446111 0.095768124011444758 0 0.29698271976236568 0.089899813846382556 0 0.31111548734401751 0.094174984339189319 0 0.30128354362195031 0.098124169066782854 0 0.30128354362195031 0.098124169066782854 0 0.30247500772594699 0.1071381656543656 0 0.29260899031297011 0.10538418601464609 0 0.29260899031297011 0.10538418601464609 0 0.29246213629446111 0.095768124011444758 0 0.28702757351663483 0.1001100210532227 0 0.30128354362195031 0.098124169066782854 0 0.29260899031297011 0.10538418601464609 0 0.29246213629446111 0.095768124011444758 0 0.28527214605629803 0.093542631019163408 0 0.29246213629446111 0.095768124011444758 0 0.28702757351663483 0.1001100210532227 0 0.28527214605629803 0.093542631019163408 0 0.28702757351663483 0.1001100210532227 0 0.28108272677848523 0.099874609951530163 0 0.29260899031297011 0.10538418601464609 0 0.28356239405763972 0.106033323917978 0 0.28664880997705461 0.11131452551203889 0 0.29260899031297011 0.10538418601464609 0 0.28702757351663483 0.1001100210532227 0 0.28356239405763972 0.106033323917978 0 0.28702757351663483 0.1001100210532227 0 0.28356239405763972 0.106033323917978 0 0.28108272677848523 0.099874609951530163 0 0.28356239405763972 0.106033323917978 0 0.2814598539497668 0.10990299155730229 0 0.28664880997705461 0.11131452551203889 0 0.27786688771157569 0.1150217509861922 0 0.29622008012258699 0.12991313160987961 0 0.28664880997705461 0.11131452551203889 0 0.29129275041579278 0.1172303442398579 0 0.27786688771157569 0.1150217509861922 0 0.27786688771157569 0.1150217509861922 0 0.27913813953766042 0.12972245958528131 0 0.29622008012258699 0.12991313160987961 0 0.29129275041579278 0.1172303442398579 0 0.27786688771157569 0.1150217509861922 0 0.29622008012258699 0.12991313160987961 0 0.2814598539497668 0.10990299155730229 0 0.28664880997705461 0.11131452551203889 0 0.27786688771157569 0.1150217509861922 0 0.30247500772594699 0.1071381656543656 0 0.29260899031297011 0.10538418601464609 0 0.29129275041579278 0.1172303442398579 0 0.29260899031297011 0.10538418601464609 0 0.28664880997705461 0.11131452551203889 0 0.29129275041579278 0.1172303442398579 0 0.27418517611644572 0.1163335826691398 0 0.26638390190257438 0.1102685147937751 0 0.25655208948606423 0.10927836717886751 0 0.27786688771157569 0.1150217509861922 0 0.27418517611644572 0.1163335826691398 0 0.27913813953766042 0.12972245958528131 0 0.27418517611644572 0.1163335826691398 0 0.27248198541775659 0.12784311929978001 0 0.27913813953766042 0.12972245958528131 0 0.2814598539497668 0.10990299155730229 0 0.27786688771157569 0.1150217509861922 0 0.27702128122739278 0.10689832557857171 0 0.27786688771157569 0.1150217509861922 0 0.27418517611644572 0.1163335826691398 0 0.26638390190257438 0.1102685147937751 0 0.27418517611644572 0.1163335826691398 0 0.26888095198589312 0.11979825388229511 0 0.26487973471170051 0.1148861259760711 0 0.27418517611644572 0.1163335826691398 0 0.26888095198589312 0.11979825388229511 0 0.27248198541775659 0.12784311929978001 0 0.26888095198589312 0.11979825388229511 0 0.26519442307348812 0.1188177922564181 0 0.26487973471170051 0.1148861259760711 0 0.26888095198589312 0.11979825388229511 0 0.26562400985315288 0.1251654340079911 0 0.27248198541775659 0.12784311929978001 0 0.26888095198589312 0.11979825388229511 0 0.26519442307348812 0.1188177922564181 0 0.26562400985315288 0.1251654340079911 0 0.27786688771157569 0.1150217509861922 0 0.26638390190257438 0.1102685147937751 0 0.25872482925013801 0.09949030162923457 0 0.27786688771157569 0.1150217509861922 0 0.25872482925013801 0.09949030162923457 0 0.27786688771157569 0.1150217509861922 0 0.27150352658480642 0.1040925172930806 0 0.25872482925013801 0.09949030162923457 0 0.28527214605629803 0.093542631019163408 0 0.27597760534302263 0.093816081557894046 0 0.28108272677848523 0.099874609951530163 0 0.27597760534302263 0.093816081557894046 0 0.28108272677848523 0.099874609951530163 0 0.27461357126647679 0.10027579108255071 0 0.27786688771157569 0.1150217509861922 0 0.27702128122739278 0.10689832557857171 0 0.27150352658480642 0.1040925172930806 0 0.27461357126647679 0.10027579108255071 0 0.27702128122739278 0.10689832557857171 0 0.27150352658480642 0.1040925172930806 0 0.28356239405763972 0.106033323917978 0 0.28108272677848523 0.099874609951530163 0 0.27702128122739278 0.10689832557857171 0 0.28108272677848523 0.099874609951530163 0 0.27461357126647679 0.10027579108255071 0 0.27702128122739278 0.10689832557857171 0 0.28356239405763972 0.106033323917978 0 0.2814598539497668 0.10990299155730229 0 0.27702128122739278 0.10689832557857171 0 0.2619867778419176 0.09199379318438361 0 0.27597760534302263 0.093816081557894046 0 0.26850219741802223 0.0981363484555835 0 0.27150352658480642 0.1040925172930806 0 0.26850219741802223 0.0981363484555835 0 0.25872482925013801 0.09949030162923457 0 0.27461357126647679 0.10027579108255071 0 0.27150352658480642 0.1040925172930806 0 0.26850219741802223 0.0981363484555835 0 0.27597760534302263 0.093816081557894046 0 0.27461357126647679 0.10027579108255071 0 0.26850219741802223 0.0981363484555835 0 0.2619867778419176 0.09199379318438361 0 0.26850219741802223 0.0981363484555835 0 0.25872482925013801 0.09949030162923457 0 0.2619867778419176 0.09199379318438361 0 0.26016144869860108 0.09301841504440217 0 0.25872482925013801 0.09949030162923457 0 0.2619867778419176 0.09199379318438361 0 0.25872482925013801 0.09949030162923457 0 0.26016144869860108 0.09301841504440217 0 0.25872482925013801 0.09949030162923457 0 0.26016144869860108 0.09301841504440217 0 0.25872482925013801 0.09949030162923457 0 0.25459763100830068 0.096141582858552177 0 0.26638390190257438 0.1102685147937751 0 0.25872482925013801 0.09949030162923457 0 0.26054083413963042 0.1068609537315081 0 0.26638390190257438 0.1102685147937751 0 0.26054083413963042 0.1068609537315081 0 0.25655208948606423 0.10927836717886751 0 0.25872482925013801 0.09949030162923457 0 0.258042440935632 0.10497087790269199 0 0.26054083413963042 0.1068609537315081 0 0.25872482925013801 0.09949030162923457 0 0.258042440935632 0.10497087790269199 0 0.258042440935632 0.10497087790269199 0 0.26054083413963042 0.1068609537315081 0 0.25655208948606423 0.10927836717886751 0 0.25872482925013801 0.09949030162923457 0 0.25655208948606423 0.10927836717886751 0 0.25872482925013801 0.09949030162923457 0 0.25655208948606423 0.10927836717886751 0 0.25459763100830068 0.096141582858552177 0 0.24174744587836799 0.1033548466348798 0 0.25655208948606423 0.10927836717886751 0 0.25459763100830068 0.096141582858552177 0 0.25872482925013801 0.09949030162923457 0 0.258042440935632 0.10497087790269199 0 0.25655208948606423 0.10927836717886751 0 0.25872482925013801 0.09949030162923457 0 0.25459763100830068 0.096141582858552177 0 0.26016144869860108 0.09301841504440217 0 0.25459763100830068 0.096141582858552177 0 0.27418517611644572 0.1163335826691398 0 0.25655208948606423 0.10927836717886751 0 0.26487973471170051 0.1148861259760711 0 0.27418517611644572 0.1163335826691398 0 0.25655208948606423 0.10927836717886751 0 0.2613903323121034 0.11972876860365821 0 0.25824300399834771 0.11754386918627879 0 0.25813574029091341 0.12532111527980791 0 0.2613903323121034 0.11972876860365821 0 0.25824300399834771 0.11754386918627879 0 0.26064106818342869 0.11649387083006101 0 0.2613903323121034 0.11972876860365821 0 0.26303182906276251 0.1167652494283456 0 0.26064106818342869 0.11649387083006101 0 0.2613903323121034 0.11972876860365821 0 0.25813574029091341 0.12532111527980791 0 0.26562400985315288 0.1251654340079911 0 0.2613903323121034 0.11972876860365821 0 0.26519442307348812 0.1188177922564181 0 0.26562400985315288 0.1251654340079911 0 0.2613903323121034 0.11972876860365821 0 0.26519442307348812 0.1188177922564181 0 0.26303182906276251 0.1167652494283456 0 0.26487973471170051 0.1148861259760711 0 0.2618287337373767 0.1148464313763837 0 0.2589676606418963 0.1122376160430168 0 0.25655208948606423 0.10927836717886751 0 0.26487973471170051 0.1148861259760711 0 0.2589676606418963 0.1122376160430168 0 0.26519442307348812 0.1188177922564181 0 0.26487973471170051 0.1148861259760711 0 0.26303182906276251 0.1167652494283456 0 0.26487973471170051 0.1148861259760711 0 0.2618287337373767 0.1148464313763837 0 0.26303182906276251 0.1167652494283456 0 0.2618287337373767 0.1148464313763837 0 0.26303182906276251 0.1167652494283456 0 0.26064106818342869 0.11649387083006101 0 0.2618287337373767 0.1148464313763837 0 0.26064106818342869 0.11649387083006101 0 0.26015078570541528 0.1146524558252945 0 0.2618287337373767 0.1148464313763837 0 0.2589676606418963 0.1122376160430168 0 0.26015078570541528 0.1146524558252945 0 0.2589676606418963 0.1122376160430168 0 0.26015078570541528 0.1146524558252945 0 0.25777400528710798 0.1147846643059361 0 0.25824300399834771 0.11754386918627879 0 0.26015078570541528 0.1146524558252945 0 0.25777400528710798 0.1147846643059361 0 0.25824300399834771 0.11754386918627879 0 0.26064106818342869 0.11649387083006101 0 0.26015078570541528 0.1146524558252945 0 0.24646482385440791 0.1109165710353929 0 0.25655208948606423 0.10927836717886751 0 0.255186127323073 0.11543194682551421 0 0.25824300399834771 0.11754386918627879 0 0.25777400528710798 0.1147846643059361 0 0.255186127323073 0.11543194682551421 0 0.2589676606418963 0.1122376160430168 0 0.25777400528710798 0.1147846643059361 0 0.255186127323073 0.11543194682551421 0 0.25655208948606423 0.10927836717886751 0 0.255186127323073 0.11543194682551421 0 0.25655208948606423 0.10927836717886751 0 0.2589676606418963 0.1122376160430168 0 0.255186127323073 0.11543194682551421 0 0.255186127323073 0.11543194682551421 0 0.25238596385504641 0.12804651946228041 0 0.24420216851797599 0.1292372680552665 0 0.255186127323073 0.11543194682551421 0 0.25238596385504641 0.12804651946228041 0 0.255186127323073 0.11543194682551421 0 0.25238596385504641 0.12804651946228041 0 0.25813574029091341 0.12532111527980791 0 0.25824300399834771 0.11754386918627879 0 0.255186127323073 0.11543194682551421 0 0.25813574029091341 0.12532111527980791 0 0.25238596385504641 0.12804651946228041 0 0.25813574029091341 0.12532111527980791 0 0.26818611498992623 0.1403022215883418 0 0.24420216851797599 0.1292372680552665 0 0.26818611498992623 0.1403022215883418 0 0.24301228879775941 0.13939302681245261 0 0.24420216851797599 0.1292372680552665 0 0.26818611498992623 0.1403022215883418 0 0.24420216851797599 0.1292372680552665 0 0.25238596385504641 0.12804651946228041 0 0.26818611498992623 0.1403022215883418 0 0.25813574029091341 0.12532111527980791 0 0.26562400985315288 0.1251654340079911 0 0.26818611498992623 0.1403022215883418 0 0.27248198541775659 0.12784311929978001 0 0.26818611498992623 0.1403022215883418 0 0.27913813953766042 0.12972245958528131 0 0.26562400985315288 0.1251654340079911 0 0.27248198541775659 0.12784311929978001 0 0.26818611498992623 0.1403022215883418 0 0.26818611498992623 0.1403022215883418 0 0.27913813953766042 0.12972245958528131 0 0.28414721419066807 0.1482284927670183 0 0.26818611498992623 0.1403022215883418 0 0.26583546295036609 0.16369396270660089 0 0.28414721419066807 0.1482284927670183 0 0.26818611498992623 0.1403022215883418 0 0.25486404381895789 0.1523024957907583 0 0.26583546295036609 0.16369396270660089 0 0.24301228879775941 0.13939302681245261 0 0.26818611498992623 0.1403022215883418 0 0.25486404381895789 0.1523024957907583 0 0.2424223085377801 0.16582077205563811 0 0.25486404381895789 0.1523024957907583 0 0.26583546295036609 0.16369396270660089 0 0.2424223085377801 0.16582077205563811 0 0.26032431562704572 0.18342712708893841 0 0.26583546295036609 0.16369396270660089 0 0.26032431562704572 0.18342712708893841 0 0.27712404590978218 0.18082877805207789 0 0.26583546295036609 0.16369396270660089 0 0.27712404590978218 0.18082877805207789 0 0.26583546295036609 0.16369396270660089 0 0.28977860037431658 0.16805367250728201 0 0.26583546295036609 0.16369396270660089 0 0.28977860037431658 0.16805367250728201 0 0.28414721419066807 0.1482284927670183 0 0.27712404590978218 0.18082877805207789 0 0.28977860037431658 0.16805367250728201 0 0.29478084704188562 0.18627619782702401 0 0.28977860037431658 0.16805367250728201 0 0.29478084704188562 0.18627619782702401 0 0.31259037162619269 0.16725562300018509 0 0.29478084704188562 0.18627619782702401 0 0.31732062797233113 0.1926592597090995 0 0.31259037162619269 0.16725562300018509 0 0.28977860037431658 0.16805367250728201 0 0.29946190776947251 0.15165108642358641 0 0.31259037162619269 0.16725562300018509 0 0.29946190776947251 0.15165108642358641 0 0.31457327253359829 0.14480451223356691 0 0.31259037162619269 0.16725562300018509 0 0.29946190776947251 0.15165108642358641 0 0.29622008012258699 0.12991313160987961 0 0.31457327253359829 0.14480451223356691 0 0.29622008012258699 0.12991313160987961 0 0.31457327253359829 0.14480451223356691 0 0.29622008012258699 0.12991313160987961 0 0.32387679174541939 0.1297141718462434 0 0.31457327253359829 0.14480451223356691 0 0.27913813953766042 0.12972245958528131 0 0.29622008012258699 0.12991313160987961 0 0.28414721419066807 0.1482284927670183 0 0.29946190776947251 0.15165108642358641 0 0.29622008012258699 0.12991313160987961 0 0.28414721419066807 0.1482284927670183 0 0.28977860037431658 0.16805367250728201 0 0.29946190776947251 0.15165108642358641 0 0.28414721419066807 0.1482284927670183 0 0.27355486584907379 0.24364475180805101 0 0.25452501640087027 0.2374112721999547 0 0.26408278890255732 0.22479217687295791 0 0.25404003316197471 0.25208422786308371 0 0.27355486584907379 0.24364475180805101 0 0.25452501640087027 0.2374112721999547 0 0.24523436150048811 0.24199469982198529 0 0.25404003316197471 0.25208422786308371 0 0.25452501640087027 0.2374112721999547 0 0.24868260911088891 0.2303107595792985 0 0.2471090749199483 0.2357199094212839 0 0.25452501640087027 0.2374112721999547 0 0.24868260911088891 0.2303107595792985 0 0.25452501640087027 0.2374112721999547 0 0.26408278890255732 0.22479217687295791 0 0.24868260911088891 0.2303107595792985 0 0.26408278890255732 0.22479217687295791 0 0.25357276657721323 0.21641202867955539 0 0.27355486584907379 0.24364475180805101 0 0.26408278890255732 0.22479217687295791 0 0.28109637724199782 0.22150209212538899 0 0.26408278890255732 0.22479217687295791 0 0.28109637724199782 0.22150209212538899 0 0.27306509823529962 0.19947215684549871 0 0.26408278890255732 0.22479217687295791 0 0.25357276657721323 0.21641202867955539 0 0.27306509823529962 0.19947215684549871 0 0.25357276657721323 0.21641202867955539 0 0.25471258750952741 0.20148162901819469 0 0.27306509823529962 0.19947215684549871 0 0.25357276657721323 0.21641202867955539 0 0.27306509823529962 0.19947215684549871 0 0.2418323282778008 0.1922485172988235 0 0.26032431562704572 0.18342712708893841 0 0.25471258750952741 0.20148162901819469 0 0.26032431562704572 0.18342712708893841 0 0.25471258750952741 0.20148162901819469 0 0.27306509823529962 0.19947215684549871 0 0.26032431562704572 0.18342712708893841 0 0.27712404590978218 0.18082877805207789 0 0.27306509823529962 0.19947215684549871 0 0.29478084704188562 0.18627619782702401 0 0.27306509823529962 0.19947215684549871 0 0.29788838547339219 0.20777731020547871 0 0.27712404590978218 0.18082877805207789 0 0.29478084704188562 0.18627619782702401 0 0.27306509823529962 0.19947215684549871 0 0.29478084704188562 0.18627619782702401 0 0.29788838547339219 0.20777731020547871 0 0.31732062797233113 0.1926592597090995 0 0.29788838547339219 0.20777731020547871 0 0.31916040529159301 0.2166328624030785 0 0.31732062797233113 0.1926592597090995 0 0.28109637724199782 0.22150209212538899 0 0.27306509823529962 0.19947215684549871 0 0.29788838547339219 0.20777731020547871 0 0.28109637724199782 0.22150209212538899 0 0.29788838547339219 0.20777731020547871 0 0.29668368374297521 0.23238313674276659 0 0.27355486584907379 0.24364475180805101 0 0.28109637724199782 0.22150209212538899 0 0.29668368374297521 0.23238313674276659 0 0.29788838547339219 0.20777731020547871 0 0.29668368374297521 0.23238313674276659 0 0.31916040529159301 0.2166328624030785 0 0.29692855903906679 0.25537037528416417 0 0.29668368374297521 0.23238313674276659 0 0.32448256229391081 0.244023600812113 0 0.29692855903906679 0.25537037528416417 0 0.27355486584907379 0.24364475180805101 0 0.29668368374297521 0.23238313674276659 0 0.32448256229391081 0.244023600812113 0 0.33724611662768478 0.226971671205 0 0.35052125483258301 0.2434514759103418 0 0.32448256229391081 0.244023600812113 0 0.33724611662768478 0.226971671205 0 0.31916040529159301 0.2166328624030785 0 0.29668368374297521 0.23238313674276659 0 0.32448256229391081 0.244023600812113 0 0.31916040529159301 0.2166328624030785 0 0.33724611662768478 0.226971671205 0 0.31916040529159301 0.2166328624030785 0 0.34036716376080012 0.20191553243135291 0 0.31916040529159301 0.2166328624030785 0 0.31732062797233113 0.1926592597090995 0 0.34036716376080012 0.20191553243135291 0 0.31732062797233113 0.1926592597090995 0 0.34036716376080012 0.20191553243135291 0 0.33327910971122948 0.1769249887409369 0 0.34036716376080012 0.20191553243135291 0 0.33327910971122948 0.1769249887409369 0 0.35363051640006049 0.1838751638919715 0 0.34036716376080012 0.20191553243135291 0 0.36940151407566268 0.20038014978660379 0 0.35363051640006049 0.1838751638919715 0 0.36940151407566268 0.20038014978660379 0 0.35418005050780299 0.2186338278764331 0 0.36970064025412291 0.2313836502337521 0 0.34036716376080012 0.20191553243135291 0 0.36940151407566268 0.20038014978660379 0 0.35418005050780299 0.2186338278764331 0 0.33724611662768478 0.226971671205 0 0.34036716376080012 0.20191553243135291 0 0.35418005050780299 0.2186338278764331 0 0.33724611662768478 0.226971671205 0 0.35418005050780299 0.2186338278764331 0 0.35052125483258301 0.2434514759103418 0 0.35418005050780299 0.2186338278764331 0 0.36970064025412291 0.2313836502337521 0 0.35052125483258301 0.2434514759103418 0 0.37478492512234668 0.26235925763296819 0 0.36970064025412291 0.2313836502337521 0 0.35052125483258301 0.2434514759103418 0 0.33497932682518311 0.1519205034936916 0 0.32387679174541939 0.1297141718462434 0 0.35327239972246333 0.1300285668288671 0 0.33497932682518311 0.1519205034936916 0 0.31457327253359829 0.14480451223356691 0 0.31259037162619269 0.16725562300018509 0 0.33497932682518311 0.1519205034936916 0 0.32387679174541939 0.1297141718462434 0 0.31457327253359829 0.14480451223356691 0 0.33497932682518311 0.1519205034936916 0 0.31259037162619269 0.16725562300018509 0 0.33327910971122948 0.1769249887409369 0 0.31732062797233113 0.1926592597090995 0 0.31259037162619269 0.16725562300018509 0 0.33327910971122948 0.1769249887409369 0 0.33497932682518311 0.1519205034936916 0 0.33327910971122948 0.1769249887409369 0 0.34907151432127381 0.16521020144779211 0 0.34907151432127381 0.16521020144779211 0 0.35363051640006049 0.1838751638919715 0 0.37277469716236061 0.17385369407461371 0 0.33327910971122948 0.1769249887409369 0 0.34907151432127381 0.16521020144779211 0 0.35363051640006049 0.1838751638919715 0 0.36940151407566268 0.20038014978660379 0 0.35363051640006049 0.1838751638919715 0 0.37277469716236061 0.17385369407461371 0 0.37277469716236061 0.17385369407461371 0 0.36285879787080821 0.15032831482926681 0 0.3843829660287168 0.1587008111838667 0 0.34907151432127381 0.16521020144779211 0 0.37277469716236061 0.17385369407461371 0 0.36285879787080821 0.15032831482926681 0 0.36285879787080821 0.15032831482926681 0 0.36938385952287339 0.13266757129752671 0 0.38232915319187621 0.14145147187989651 0 0.33497932682518311 0.1519205034936916 0 0.36285879787080821 0.15032831482926681 0 0.35327239972246333 0.1300285668288671 0 0.33497932682518311 0.1519205034936916 0 0.34907151432127381 0.16521020144779211 0 0.36285879787080821 0.15032831482926681 0 0.36649271172908648 0.1176987398754743 0 0.35327239972246333 0.1300285668288671 0 0.36938385952287339 0.13266757129752671 0 0.36285879787080821 0.15032831482926681 0 0.35327239972246333 0.1300285668288671 0 0.36938385952287339 0.13266757129752671 0 0.39421974672685411 0.13240309148155921 0 0.38232915319187621 0.14145147187989651 0 0.38138511069115272 0.12353481432135879 0 0.36938385952287339 0.13266757129752671 0 0.38232915319187621 0.14145147187989651 0 0.38138511069115272 0.12353481432135879 0 0.39421974672685411 0.13240309148155921 0 0.41199731756477831 0.13352747615702071 0 0.3942733283070321 0.11371104406223111 0 0.39421974672685411 0.13240309148155921 0 0.40120830104283178 0.15077536395034899 0 0.41199731756477831 0.13352747615702071 0 0.39421974672685411 0.13240309148155921 0 0.40120830104283178 0.15077536395034899 0 0.38232915319187621 0.14145147187989651 0 0.36285879787080821 0.15032831482926681 0 0.38232915319187621 0.14145147187989651 0 0.3843829660287168 0.1587008111838667 0 0.40120830104283178 0.15077536395034899 0 0.38232915319187621 0.14145147187989651 0 0.3843829660287168 0.1587008111838667 0 0.37277469716236061 0.17385369407461371 0 0.3843829660287168 0.1587008111838667 0 0.39936082591505218 0.176604797209717 0 0.37277469716236061 0.17385369407461371 0 0.39936082591505218 0.176604797209717 0 0.38992891259608609 0.19548318162929729 0 0.40120830104283178 0.15077536395034899 0 0.39936082591505218 0.176604797209717 0 0.41410660213767347 0.1652382216241598 0 0.40120830104283178 0.15077536395034899 0 0.3843829660287168 0.1587008111838667 0 0.39936082591505218 0.176604797209717 0 0.40120830104283178 0.15077536395034899 0 0.41410660213767347 0.1652382216241598 0 0.42972130682252457 0.1533439082518103 0 0.39936082591505218 0.176604797209717 0 0.41410660213767347 0.1652382216241598 0 0.42626679864566441 0.18172907206941921 0 0.42626679864566441 0.18172907206941921 0 0.42972130682252457 0.1533439082518103 0 0.45055708181009879 0.1690731760043504 0 0.41410660213767347 0.1652382216241598 0 0.42626679864566441 0.18172907206941921 0 0.42972130682252457 0.1533439082518103 0 0.42972130682252457 0.1533439082518103 0 0.43054248402473921 0.1250848439374013 0 0.44904083753606949 0.1441389705362057 0 0.42972130682252457 0.1533439082518103 0 0.43054248402473921 0.1250848439374013 0 0.41199731756477831 0.13352747615702071 0 0.43054248402473921 0.1250848439374013 0 0.41199731756477831 0.13352747615702071 0 0.41135066019799099 0.1182158826350982 0 0.40120830104283178 0.15077536395034899 0 0.42972130682252457 0.1533439082518103 0 0.41199731756477831 0.13352747615702071 0 0.42972130682252457 0.1533439082518103 0 0.41199731756477831 0.13352747615702071 0 0.40097752291506289 0.25902709479471048 0 0.39333580902427501 0.24081282939082621 0 0.41286841049430861 0.24788583003777651 0 0.37478492512234668 0.26235925763296819 0 0.36970064025412291 0.2313836502337521 0 0.39333580902427501 0.24081282939082621 0 0.36970064025412291 0.2313836502337521 0 0.39333580902427501 0.24081282939082621 0 0.39338333076520482 0.2163019563834182 0 0.39338333076520482 0.2163019563834182 0 0.41736514745474701 0.23222376298023259 0 0.39333580902427501 0.24081282939082621 0 0.39338333076520482 0.2163019563834182 0 0.41736514745474701 0.23222376298023259 0 0.39338333076520482 0.2163019563834182 0 0.38992891259608609 0.19548318162929729 0 0.41508715600771068 0.20488700545500521 0 0.36940151407566268 0.20038014978660379 0 0.39338333076520482 0.2163019563834182 0 0.36940151407566268 0.20038014978660379 0 0.39338333076520482 0.2163019563834182 0 0.38992891259608609 0.19548318162929729 0 0.36940151407566268 0.20038014978660379 0 0.36970064025412291 0.2313836502337521 0 0.39338333076520482 0.2163019563834182 0 0.36940151407566268 0.20038014978660379 0 0.37277469716236061 0.17385369407461371 0 0.38992891259608609 0.19548318162929729 0 0.39936082591505218 0.176604797209717 0 0.38992891259608609 0.19548318162929729 0 0.41508715600771068 0.20488700545500521 0 0.39936082591505218 0.176604797209717 0 0.42626679864566441 0.18172907206941921 0 0.41508715600771068 0.20488700545500521 0 0.42626679864566441 0.18172907206941921 0 0.44140000057487638 0.20455834627575151 0 0.44473765559285833 0.18692520255949671 0 0.42626679864566441 0.18172907206941921 0 0.41508715600771068 0.20488700545500521 0 0.44140000057487638 0.20455834627575151 0 0.41508715600771068 0.20488700545500521 0 0.43790507610234408 0.2273079216372012 0 0.44140000057487638 0.20455834627575151 0 0.39338333076520482 0.2163019563834182 0 0.41508715600771068 0.20488700545500521 0 0.41736514745474701 0.23222376298023259 0 0.41508715600771068 0.20488700545500521 0 0.41736514745474701 0.23222376298023259 0 0.43790507610234408 0.2273079216372012 0 0.42717012070777932 0.25569493195645271 0 0.41736514745474701 0.23222376298023259 0 0.44134696414428898 0.24814556957704689 0 0.41736514745474701 0.23222376298023259 0 0.44134696414428898 0.24814556957704689 0 0.41736514745474701 0.23222376298023259 0 0.44134696414428898 0.24814556957704689 0 0.43790507610234408 0.2273079216372012 0 0.39333580902427501 0.24081282939082621 0 0.41736514745474701 0.23222376298023259 0 0.41286841049430861 0.24788583003777651 0 0.42717012070777932 0.25569493195645271 0 0.41736514745474701 0.23222376298023259 0 0.41286841049430861 0.24788583003777651 0 0.45336271850049548 0.25236276911819511 0 0.45602225988021539 0.23816249748875179 0 0.48180965237011408 0.2487438147612096 0 0.45336271850049548 0.25236276911819511 0 0.45602225988021539 0.23816249748875179 0 0.44134696414428898 0.24814556957704689 0 0.44600400848591359 0.23698591979390529 0 0.43790507610234408 0.2273079216372012 0 0.45336271850049548 0.25236276911819511 0 0.44134696414428898 0.24814556957704689 0 0.44600400848591359 0.23698591979390529 0 0.45336271850049548 0.25236276911819511 0 0.45602225988021539 0.23816249748875179 0 0.44600400848591359 0.23698591979390529 0 0.45602225988021539 0.23816249748875179 0 0.44600400848591359 0.23698591979390529 0 0.45492939023952461 0.2194397610932603 0 0.44600400848591359 0.23698591979390529 0 0.43790507610234408 0.2273079216372012 0 0.45492939023952461 0.2194397610932603 0 0.45602225988021539 0.23816249748875179 0 0.45492939023952461 0.2194397610932603 0 0.47419086539053962 0.2296972043723752 0 0.45492939023952461 0.2194397610932603 0 0.46072674134079361 0.19234021588846559 0 0.47847088324409548 0.2092058758105422 0 0.45492939023952461 0.2194397610932603 0 0.44140000057487638 0.20455834627575151 0 0.46072674134079361 0.19234021588846559 0 0.43790507610234408 0.2273079216372012 0 0.45492939023952461 0.2194397610932603 0 0.44140000057487638 0.20455834627575151 0 0.44140000057487638 0.20455834627575151 0 0.46072674134079361 0.19234021588846559 0 0.44473765559285833 0.18692520255949671 0 0.46072674134079361 0.19234021588846559 0 0.4812983336831132 0.1885899983914231 0 0.47847088324409548 0.2092058758105422 0 0.4812983336831132 0.1885899983914231 0 0.5 0.19797878532577309 0 0.47847088324409548 0.2092058758105422 0 0.5 0.19797878532577309 0 0.47847088324409548 0.2092058758105422 0 0.5 0.22793385045351919 0 0.47847088324409548 0.2092058758105422 0 0.47419086539053962 0.2296972043723752 0 0.5 0.22793385045351919 0 0.45492939023952461 0.2194397610932603 0 0.47847088324409548 0.2092058758105422 0 0.47419086539053962 0.2296972043723752 0 0.5 0.25788891558126559 0 0.5 0.22793385045351919 0 0.48180965237011408 0.2487438147612096 0 0.47419086539053962 0.2296972043723752 0 0.5 0.22793385045351919 0 0.48180965237011408 0.2487438147612096 0 0.45602225988021539 0.23816249748875179 0 0.47419086539053962 0.2296972043723752 0 0.48180965237011408 0.2487438147612096 0 0.46287167922105149 0.15545842773829099 0 0.44904083753606949 0.1441389705362057 0 0.45055708181009879 0.1690731760043504 0 0.46287167922105149 0.15545842773829099 0 0.46355845200513762 0.13850516077978961 0 0.47909635670674228 0.14767892477560191 0 0.46287167922105149 0.15545842773829099 0 0.46355845200513762 0.13850516077978961 0 0.44904083753606949 0.1441389705362057 0 0.46355845200513762 0.13850516077978961 0 0.47795750643906171 0.12649365297180731 0 0.4559740449914913 0.1245921335342187 0 0.46355845200513762 0.13850516077978961 0 0.44904083753606949 0.1441389705362057 0 0.4559740449914913 0.1245921335342187 0 0.43054248402473921 0.1250848439374013 0 0.44904083753606949 0.1441389705362057 0 0.4559740449914913 0.1245921335342187 0 0.42972130682252457 0.1533439082518103 0 0.44904083753606949 0.1441389705362057 0 0.45055708181009879 0.1690731760043504 0 0.42626679864566441 0.18172907206941921 0 0.45055708181009879 0.1690731760043504 0 0.44473765559285833 0.18692520255949671 0 0.46072674134079361 0.19234021588846559 0 0.45055708181009879 0.1690731760043504 0 0.44473765559285833 0.18692520255949671 0 0.46072674134079361 0.19234021588846559 0 0.45055708181009879 0.1690731760043504 0 0.4752785409050499 0.1685484481011886 0 0.46287167922105149 0.15545842773829099 0 0.45055708181009879 0.1690731760043504 0 0.4752785409050499 0.1685484481011886 0 0.45055708181009879 0.1690731760043504 0 0.4752785409050499 0.1685484481011886 0 0.46287167922105149 0.15545842773829099 0 0.4752785409050499 0.1685484481011886 0 0.47909635670674228 0.14767892477560191 0 0.46072674134079361 0.19234021588846559 0 0.4812983336831132 0.1885899983914231 0 0.4752785409050499 0.1685484481011886 0 0.4812983336831132 0.1885899983914231 0 0.4752785409050499 0.1685484481011886 0 0.50000000000000111 0.1680237201980268 0 0.4812983336831132 0.1885899983914231 0 0.5 0.19797878532577309 0 0.50000000000000111 0.1680237201980268 0 0.4752785409050499 0.1685484481011886 0 0.50000000000000111 0.1680237201980268 0 0.4752785409050499 0.1685484481011886 0 0.50000000000000111 0.1680237201980268 0 0.47909635670674228 0.14767892477560191 0 0.50000000000000111 0.1680237201980268 0 0.5 0.14405257421324749 0 0.47909635670674228 0.14767892477560191 0 0.46355845200513762 0.13850516077978961 0 0.47909635670674228 0.14767892477560191 0 0.47795750643906171 0.12649365297180731 0 0.5 0.14405257421324749 0 0.47795750643906171 0.12649365297180731 0 0.5 0.12008142822846821 0 0.5 0.14405257421324749 0 0.47909635670674228 0.14767892477560191 0 0.47795750643906171 0.12649365297180731 0 0.47795750643906171 0.12649365297180731 0 0.5 0.12008142822846821 0 0.48437617198066579 0.1083096126220475 0 0.48437617198066579 0.1083096126220475 0 0.5 0.096110282243688894 0 0.4787628640296252 0.09057766153942011 0 0.5 0.12008142822846821 0 0.48437617198066579 0.1083096126220475 0 0.5 0.096110282243688894 0 0.48437617198066579 0.1083096126220475 0 0.4787628640296252 0.09057766153942011 0 0.46516048943464161 0.10828503812685281 0 0.47795750643906171 0.12649365297180731 0 0.48437617198066579 0.1083096126220475 0 0.46516048943464161 0.10828503812685281 0 0.49999999999999389 0.072139136258909636 0 0.47264706529987838 0.068582714068275596 0 0.5 0.096110282243688894 0 0.49999999999999389 0.072139136258909636 0 0.4787628640296252 0.09057766153942011 0 0.49999999999999389 0.072139136258909636 0 0.4787628640296252 0.09057766153942011 0 0.47264706529987838 0.068582714068275596 0 0.47264706529987838 0.068582714068275596 0 0.44529413059976319 0.065026291877640793 0 0.47264706529987838 0.068582714068275596 0 0.45009241250792742 0.089848104882156193 0 0.44529413059976319 0.065026291877640793 0 0.4787628640296252 0.09057766153942011 0 0.47264706529987838 0.068582714068275596 0 0.45009241250792742 0.089848104882156193 0 0.45009241250792742 0.089848104882156193 0 0.44529413059976319 0.065026291877640793 0 0.42710943965072512 0.080764761008918995 0 0.4559740449914913 0.1245921335342187 0 0.46516048943464161 0.10828503812685281 0 0.44660059903698529 0.1095612823054605 0 0.47795750643906171 0.12649365297180731 0 0.4559740449914913 0.1245921335342187 0 0.46516048943464161 0.10828503812685281 0 0.45009241250792742 0.089848104882156193 0 0.46516048943464161 0.10828503812685281 0 0.44660059903698529 0.1095612823054605 0 0.4787628640296252 0.09057766153942011 0 0.45009241250792742 0.089848104882156193 0 0.46516048943464161 0.10828503812685281 0 0.45009241250792742 0.089848104882156193 0 0.44660059903698529 0.1095612823054605 0 0.42999027194599682 0.1018780191517587 0 0.43054248402473921 0.1250848439374013 0 0.4559740449914913 0.1245921335342187 0 0.44660059903698529 0.1095612823054605 0 0.43054248402473921 0.1250848439374013 0 0.44660059903698529 0.1095612823054605 0 0.42999027194599682 0.1018780191517587 0 0.43054248402473921 0.1250848439374013 0 0.41661501870526302 0.10782610780512 0 0.42999027194599682 0.1018780191517587 0 0.43054248402473921 0.1250848439374013 0 0.41135066019799099 0.1182158826350982 0 0.41661501870526302 0.10782610780512 0 0.43054248402473921 0.1250848439374013 0 0.41135066019799099 0.1182158826350982 0 0.41135066019799099 0.1182158826350982 0 0.41661501870526302 0.10782610780512 0 0.40605193543095291 0.1101899923625959 0 0.41199731756477831 0.13352747615702071 0 0.40856435551682457 0.1195913393650266 0 0.41135066019799099 0.1182158826350982 0 0.41661501870526302 0.10782610780512 0 0.42999027194599682 0.1018780191517587 0 0.41050144950628809 0.092342992232264526 0 0.41661501870526302 0.10782610780512 0 0.41050144950628809 0.092342992232264526 0 0.40408322644931421 0.10337105767737099 0 0.41661501870526302 0.10782610780512 0 0.40605193543095291 0.1101899923625959 0 0.40408322644931421 0.10337105767737099 0 0.45009241250792742 0.089848104882156193 0 0.42999027194599682 0.1018780191517587 0 0.42710943965072512 0.080764761008918995 0 0.42999027194599682 0.1018780191517587 0 0.42710943965072512 0.080764761008918995 0 0.41050144950628809 0.092342992232264526 0 0.44529413059976319 0.065026291877640793 0 0.42710943965072512 0.080764761008918995 0 0.41794119589964812 0.061469869687005997 0 0.44529413059976319 0.065026291877640793 0 0.41794119589964812 0.061469869687005997 0 0.42710943965072512 0.080764761008918995 0 0.40780427562880051 0.074340584248736047 0 0.41794119589964812 0.061469869687005997 0 0.42710943965072512 0.080764761008918995 0 0.40780427562880051 0.074340584248736047 0 0.41050144950628809 0.092342992232264526 0 0.41050144950628809 0.092342992232264526 0 0.39288103188780799 0.079211850819119467 0 0.39173805803946632 0.094638931286680023 0 0.40780427562880051 0.074340584248736047 0 0.41050144950628809 0.092342992232264526 0 0.39288103188780799 0.079211850819119467 0 0.40780427562880051 0.074340584248736047 0 0.39058826119953283 0.057913447496371839 0 0.41794119589964812 0.061469869687005997 0 0.40780427562880051 0.074340584248736047 0 0.39288103188780799 0.079211850819119467 0 0.39058826119953283 0.057913447496371839 0 0.39288103188780799 0.079211850819119467 0 0.37575225644292037 0.071709270247263784 0 0.39058826119953283 0.057913447496371839 0 0.3742009225581896 0.091268948227223284 0 0.39288103188780799 0.079211850819119467 0 0.39173805803946632 0.094638931286680023 0 0.3742009225581896 0.091268948227223284 0 0.39288103188780799 0.079211850819119467 0 0.37575225644292037 0.071709270247263784 0 0.3742009225581896 0.091268948227223284 0 0.39215883637124299 0.11134692133279479 0 0.39173805803946632 0.094638931286680023 0 0.3742009225581896 0.091268948227223284 0 0.39215883637124299 0.11134692133279479 0 0.3742009225581896 0.091268948227223284 0 0.3795225325030368 0.1068242515199407 0 0.39215883637124299 0.11134692133279479 0 0.3795225325030368 0.1068242515199407 0 0.39215883637124299 0.11134692133279479 0 0.3795225325030368 0.1068242515199407 0 0.38138511069115272 0.12353481432135879 0 0.3942733283070321 0.11371104406223111 0 0.36649271172908648 0.1176987398754743 0 0.3795225325030368 0.1068242515199407 0 0.38138511069115272 0.12353481432135879 0 0.39421974672685411 0.13240309148155921 0 0.38138511069115272 0.12353481432135879 0 0.3942733283070321 0.11371104406223111 0 0.3795225325030368 0.1068242515199407 0 0.3942733283070321 0.11371104406223111 0 0.3795225325030368 0.1068242515199407 0 0.39215883637124299 0.11134692133279479 0 0.3942733283070321 0.11371104406223111 0 0.41135066019799099 0.1182158826350982 0 0.39215883637124299 0.11134692133279479 0 0.40605193543095291 0.1101899923625959 0 0.41135066019799099 0.1182158826350982 0 0.39215883637124299 0.11134692133279479 0 0.3942733283070321 0.11371104406223111 0 0.41135066019799099 0.1182158826350982 0 0.39215883637124299 0.11134692133279479 0 0.41199731756477831 0.13352747615702071 0 0.40856435551682457 0.1195913393650266 0 0.3942733283070321 0.11371104406223111 0 0.41199731756477831 0.13352747615702071 0 0.3942733283070321 0.11371104406223111 0 0.40856435551682457 0.1195913393650266 0 0.41135066019799099 0.1182158826350982 0 0.3942733283070321 0.11371104406223111 0 0.39215883637124299 0.11134692133279479 0 0.3942733283070321 0.11371104406223111 0 0.40856435551682457 0.1195913393650266 0 0.3942733283070321 0.11371104406223111 0 0.39215883637124299 0.11134692133279479 0 0.40408322644931421 0.10337105767737099 0 0.39173805803946632 0.094638931286680023 0 0.39215883637124299 0.11134692133279479 0 0.40605193543095291 0.1101899923625959 0 0.40408322644931421 0.10337105767737099 0 0.41050144950628809 0.092342992232264526 0 0.40408322644931421 0.10337105767737099 0 0.39173805803946632 0.094638931286680023 0 0.4038432128890253 0.016274120358417851 0 0.39452024459155199 0.029629145094844 0 0.3798040161112804 0.028996110171619349 0 0.4038432128890253 0.016274120358417851 0 0.39452024459155199 0.029629145094844 0 0.40714332068978548 0.032011032787191827 0 0.4038432128890253 0.016274120358417851 0 0.3798040161112804 0.028996110171619349 0 0.4038432128890253 0.016274120358417851 0 0.39390920682105918 0.0040204267233196643 0 0.38813729234829519 0.016219836643301819 0 0.4038432128890253 0.016274120358417851 0 0.39390920682105918 0.0040204267233196643 0 0.40369857438468087 -0.0060371637805465179 0 0.39390920682105918 0.0040204267233196643 0 0.38212023564171321 0.001094655884648786 0 0.38813729234829519 0.016219836643301819 0 0.38212023564171321 0.001094655884648786 0 0.37537418671591988 0.012891754799621079 0 0.3700201466167648 -0.002195575246397889 0 0.38212023564171321 0.001094655884648786 0 0.37537418671591988 0.012891754799621079 0 0.38813729234829519 0.016219836643301819 0 0.38029426512156322 0.021339738828328979 0 0.38813729234829519 0.016219836643301819 0 0.3798040161112804 0.028996110171619349 0 0.4038432128890253 0.016274120358417851 0 0.38813729234829519 0.016219836643301819 0 0.3798040161112804 0.028996110171619349 0 0.37537418671591988 0.012891754799621079 0 0.38029426512156322 0.021339738828328979 0 0.37786156531075732 0.02725125369877367 0 0.37537418671591988 0.012891754799621079 0 0.38029426512156322 0.021339738828328979 0 0.38813729234829519 0.016219836643301819 0 0.39452024459155199 0.029629145094844 0 0.3798040161112804 0.028996110171619349 0 0.384792923869274 0.033192425096464057 0 0.38029426512156322 0.021339738828328979 0 0.3798040161112804 0.028996110171619349 0 0.37786156531075732 0.02725125369877367 0 0.36984281421283938 0.03924660656396721 0 0.3798040161112804 0.028996110171619349 0 0.37675727284589372 0.036323400775862158 0 0.3798040161112804 0.028996110171619349 0 0.38012370578730592 0.033949837724153123 0 0.37675727284589372 0.036323400775862158 0 0.3798040161112804 0.028996110171619349 0 0.38012370578730592 0.033949837724153123 0 0.384792923869274 0.033192425096464057 0 0.38012370578730592 0.033949837724153123 0 0.38115894465086869 0.037510150111343843 0 0.384792923869274 0.033192425096464057 0 0.38012370578730592 0.033949837724153123 0 0.38115894465086869 0.037510150111343843 0 0.37675727284589372 0.036323400775862158 0 0.38115894465086869 0.037510150111343843 0 0.37675727284589372 0.036323400775862158 0 0.37726993283737248 0.041439113600633092 0 0.37726993283737248 0.041439113600633092 0 0.38325871491723518 0.0441773091346798 0 0.37608467898805159 0.048096788967416412 0 0.38115894465086869 0.037510150111343843 0 0.37726993283737248 0.041439113600633092 0 0.38325871491723518 0.0441773091346798 0 0.38115894465086869 0.037510150111343843 0 0.38325871491723518 0.0441773091346798 0 0.38884635116990662 0.036871995634108659 0 0.38325871491723518 0.0441773091346798 0 0.38884635116990662 0.036871995634108659 0 0.39118926401298038 0.043344116461786472 0 0.39452024459155199 0.029629145094844 0 0.38884635116990662 0.036871995634108659 0 0.384792923869274 0.033192425096464057 0 0.38115894465086869 0.037510150111343843 0 0.38884635116990662 0.036871995634108659 0 0.384792923869274 0.033192425096464057 0 0.36737709041569239 0.056764699852256018 0 0.39058826119953283 0.057913447496371839 0 0.36443667806580698 0.054513224756226962 0 0.37608467898805159 0.048096788967416412 0 0.39058826119953283 0.057913447496371839 0 0.36737709041569239 0.056764699852256018 0 0.37575225644292037 0.071709270247263784 0 0.39058826119953283 0.057913447496371839 0 0.36443667806580698 0.054513224756226962 0 0.39058826119953283 0.057913447496371839 0 0.38325871491723518 0.0441773091346798 0 0.37608467898805159 0.048096788967416412 0 0.39058826119953283 0.057913447496371839 0 0.38325871491723518 0.0441773091346798 0 0.39058826119953283 0.057913447496371839 0 0.39118926401298038 0.043344116461786472 0 0.39058826119953283 0.057913447496371839 0 0.39917917489280202 0.048669550515315511 0 0.40824027372044169 0.058787065978875973 0 0.39058826119953283 0.057913447496371839 0 0.40824027372044169 0.058787065978875973 0 0.39058826119953283 0.057913447496371839 0 0.41794119589964812 0.061469869687005997 0 0.40824027372044169 0.058787065978875973 0 0.39058826119953283 0.057913447496371839 0 0.41794119589964812 0.061469869687005997 0 0.39058826119953283 0.057913447496371839 0 0.39917917489280202 0.048669550515315511 0 0.39118926401298038 0.043344116461786472 0 0.39917917489280202 0.048669550515315511 0 0.40803146459590139 0.044566129264659721 0 0.40824027372044169 0.058787065978875973 0 0.39452024459155199 0.029629145094844 0 0.38884635116990662 0.036871995634108659 0 0.39784661093515339 0.038736993374884177 0 0.39917917489280202 0.048669550515315511 0 0.39784661093515339 0.038736993374884177 0 0.39118926401298038 0.043344116461786472 0 0.38884635116990662 0.036871995634108659 0 0.39784661093515339 0.038736993374884177 0 0.39118926401298038 0.043344116461786472 0 0.39917917489280202 0.048669550515315511 0 0.39784661093515339 0.038736993374884177 0 0.40803146459590139 0.044566129264659721 0 0.39452024459155199 0.029629145094844 0 0.39784661093515339 0.038736993374884177 0 0.40714332068978548 0.032011032787191827 0 0.39784661093515339 0.038736993374884177 0 0.40714332068978548 0.032011032787191827 0 0.40803146459590139 0.044566129264659721 0 0.40714332068978548 0.032011032787191827 0 0.40803146459590139 0.044566129264659721 0 0.41964440497126981 0.040250358009145122 0 0.40803146459590139 0.044566129264659721 0 0.41964440497126981 0.040250358009145122 0 0.41733432138732551 0.050785193364838402 0 0.40714332068978548 0.032011032787191827 0 0.41964440497126981 0.040250358009145122 0 0.41891932927970088 0.026081136014491389 0 0.40824027372044169 0.058787065978875973 0 0.41733432138732551 0.050785193364838402 0 0.42589228624135061 0.059660684461379461 0 0.40824027372044169 0.058787065978875973 0 0.42589228624135061 0.059660684461379461 0 0.41794119589964812 0.061469869687005997 0 0.40824027372044169 0.058787065978875973 0 0.42589228624135061 0.059660684461379461 0 0.40803146459590139 0.044566129264659721 0 0.40824027372044169 0.058787065978875973 0 0.41733432138732551 0.050785193364838402 0 0.41964440497126981 0.040250358009145122 0 0.41733432138732551 0.050785193364838402 0 0.42647272639553008 0.050672874727357403 0 0.44529413059976319 0.065026291877640793 0 0.42589228624135061 0.059660684461379461 0 0.43583307009461808 0.053135938561971199 0 0.44529413059976319 0.065026291877640793 0 0.41794119589964812 0.061469869687005997 0 0.42589228624135061 0.059660684461379461 0 0.42589228624135061 0.059660684461379461 0 0.42647272639553008 0.050672874727357403 0 0.43583307009461808 0.053135938561971199 0 0.41733432138732551 0.050785193364838402 0 0.42589228624135061 0.059660684461379461 0 0.42647272639553008 0.050672874727357403 0 0.42647272639553008 0.050672874727357403 0 0.43583307009461808 0.053135938561971199 0 0.4340740022190257 0.043822740937536728 0 0.41964440497126981 0.040250358009145122 0 0.42987588244635011 0.033334548906864728 0 0.41891932927970088 0.026081136014491389 0 0.41964440497126981 0.040250358009145122 0 0.4340740022190257 0.043822740937536728 0 0.42987588244635011 0.033334548906864728 0 0.41964440497126981 0.040250358009145122 0 0.42647272639553008 0.050672874727357403 0 0.4340740022190257 0.043822740937536728 0 0.4340740022190257 0.043822740937536728 0 0.42987588244635011 0.033334548906864728 0 0.44528176508543132 0.032905620831071007 0 0.42987588244635011 0.033334548906864728 0 0.43184963590009789 0.021236349906575389 0 0.44528176508543132 0.032905620831071007 0 0.43184963590009789 0.021236349906575389 0 0.42259879527057942 0.015927249454054739 0 0.43188165484739188 0.01287087804949661 0 0.43184963590009789 0.021236349906575389 0 0.42259879527057942 0.015927249454054739 0 0.41891932927970088 0.026081136014491389 0 0.42987588244635011 0.033334548906864728 0 0.43184963590009789 0.021236349906575389 0 0.41891932927970088 0.026081136014491389 0 0.4038432128890253 0.016274120358417851 0 0.42259879527057942 0.015927249454054739 0 0.41891932927970088 0.026081136014491389 0 0.4038432128890253 0.016274120358417851 0 0.40714332068978548 0.032011032787191827 0 0.41891932927970088 0.026081136014491389 0 0.4038432128890253 0.016274120358417851 0 0.41402040698134779 -0.0025911497673051101 0 0.40369857438468087 -0.0060371637805465179 0 0.4038432128890253 0.016274120358417851 0 0.42788240966677021 0.003552130545216341 0 0.4038432128890253 0.016274120358417851 0 0.42101935538117791 0.0050386314779034547 0 0.41402040698134779 -0.0025911497673051101 0 0.4038432128890253 0.016274120358417851 0 0.42259879527057942 0.015927249454054739 0 0.42788240966677021 0.003552130545216341 0 0.4038432128890253 0.016274120358417851 0 0.42101935538117791 0.0050386314779034547 0 0.42788240966677021 0.003552130545216341 0 0.42788240966677021 0.003552130545216341 0 0.43188165484739188 0.01287087804949661 0 0.44740740452026229 0.01137317045841814 0 0.42259879527057942 0.015927249454054739 0 0.42788240966677021 0.003552130545216341 0 0.43188165484739188 0.01287087804949661 0 0.43184963590009789 0.021236349906575389 0 0.43188165484739188 0.01287087804949661 0 0.44740740452026229 0.01137317045841814 0 0.42788240966677021 0.003552130545216341 0 0.44740740452026229 0.01137317045841814 0 0.45192160644451512 -0.0091698592679851504 0 0.43184963590009789 0.021236349906575389 0 0.44740740452026229 0.01137317045841814 0 0.44528176508543132 0.032905620831071007 0 0.44740740452026229 0.01137317045841814 0 0.44528176508543132 0.032905620831071007 0 0.46875558315454652 0.02621282055229885 0 0.44740740452026229 0.01137317045841814 0 0.4740075662235973 0.0028935560396234419 0 0.46875558315454652 0.02621282055229885 0 0.44740740452026229 0.01137317045841814 0 0.4740075662235973 0.0028935560396234419 0 0.45192160644451512 -0.0091698592679851504 0 0.44529413059976319 0.065026291877640793 0 0.44587589901867808 0.047550444472131762 0 0.4614262583005877 0.04791767975015173 0 0.44529413059976319 0.065026291877640793 0 0.43583307009461808 0.053135938561971199 0 0.44587589901867808 0.047550444472131762 0 0.43583307009461808 0.053135938561971199 0 0.4340740022190257 0.043822740937536728 0 0.44587589901867808 0.047550444472131762 0 0.44587589901867808 0.047550444472131762 0 0.44528176508543132 0.032905620831071007 0 0.4614262583005877 0.04791767975015173 0 0.4340740022190257 0.043822740937536728 0 0.44587589901867808 0.047550444472131762 0 0.44528176508543132 0.032905620831071007 0 0.44528176508543132 0.032905620831071007 0 0.4614262583005877 0.04791767975015173 0 0.46875558315454652 0.02621282055229885 0 0.47264706529987838 0.068582714068275596 0 0.44529413059976319 0.065026291877640793 0 0.4614262583005877 0.04791767975015173 0 0.47264706529987838 0.068582714068275596 0 0.4614262583005877 0.04791767975015173 0 0.48053199367993171 0.043851827509569327 0 0.4614262583005877 0.04791767975015173 0 0.48053199367993171 0.043851827509569327 0 0.46875558315454652 0.02621282055229885 0 0.48053199367993171 0.043851827509569327 0 0.5 0.04545089247058498 0 0.5 0.018762648682260189 0 0.49999999999999389 0.072139136258909636 0 0.47264706529987838 0.068582714068275596 0 0.48053199367993171 0.043851827509569327 0 0.49999999999999389 0.072139136258909636 0 0.48053199367993171 0.043851827509569327 0 0.5 0.04545089247058498 0 0.48053199367993171 0.043851827509569327 0 0.46875558315454652 0.02621282055229885 0 0.5 0.018762648682260189 0 0.4740075662235973 0.0028935560396234419 0 0.46875558315454652 0.02621282055229885 0 0.5 0.018762648682260189 0 0.4740075662235973 0.0028935560396234419 0 0.5 0.018762648682260189 0 0.5 -0.0079255951060647756 0 0.4740075662235973 0.0028935560396234419 0 0.5 -0.0079255951060647756 0 0.47596080322225992 -0.02189184908118659 0 0.47596080322225992 -0.02189184908118659 0 0.50000000000000377 -0.034613838894389633 0 0.5 -0.0079255951060647756 0 0.47596080322225992 -0.02189184908118659 0 0.50000000000000377 -0.034613838894389633 0 0.47596080322225992 -0.02189184908118659 0 0.50000000000000377 -0.034613838894389633 0 0.48339532061042467 -0.042675677639817791 0 0.50000000000000377 -0.034613838894389633 0 0.5 -0.052291970509826757 0 0.48339532061042467 -0.042675677639817791 0 0.5 -0.052291970509826757 0 0.48378938215607542 -0.060491629721736481 0 0.49999999999999678 -0.069970102125263903 0 0.5 -0.052291970509826757 0 0.48378938215607542 -0.060491629721736481 0 0.48339532061042467 -0.042675677639817791 0 0.48378938215607542 -0.060491629721736481 0 0.47035919737641452 -0.05083356829212015 0 0.48339532061042467 -0.042675677639817791 0 0.48378938215607542 -0.060491629721736481 0 0.47035919737641452 -0.05083356829212015 0 0.46263532094350251 -0.0655193079319734 0 0.47596080322225992 -0.02189184908118659 0 0.48339532061042467 -0.042675677639817791 0 0.46122373864745198 -0.034064038759572521 0 0.47035919737641452 -0.05083356829212015 0 0.48339532061042467 -0.042675677639817791 0 0.46122373864745198 -0.034064038759572521 0 0.46122373864745198 -0.034064038759572521 0 0.45641225836005789 -0.05051217933658872 0 0.44483042593949818 -0.041063070916932051 0 0.47035919737641452 -0.05083356829212015 0 0.46122373864745198 -0.034064038759572521 0 0.45641225836005789 -0.05051217933658872 0 0.45641225836005789 -0.05051217933658872 0 0.44526353314296241 -0.062107813217869068 0 0.46263532094350251 -0.0655193079319734 0 0.47035919737641452 -0.05083356829212015 0 0.45641225836005789 -0.05051217933658872 0 0.46263532094350251 -0.0655193079319734 0 0.45641225836005789 -0.05051217933658872 0 0.44526353314296241 -0.062107813217869068 0 0.44483042593949818 -0.041063070916932051 0 0.44526353314296241 -0.062107813217869068 0 0.44483042593949818 -0.041063070916932051 0 0.42768193525564641 -0.052738548234870043 0 0.46122373864745198 -0.034064038759572521 0 0.44483042593949818 -0.041063070916932051 0 0.44260817666721519 -0.025216613737701819 0 0.44483042593949818 -0.041063070916932051 0 0.44260817666721519 -0.025216613737701819 0 0.43454865465473302 -0.032105158367880783 0 0.46122373864745198 -0.034064038759572521 0 0.44260817666721519 -0.025216613737701819 0 0.45192160644451512 -0.0091698592679851504 0 0.42788240966677021 0.003552130545216341 0 0.45192160644451512 -0.0091698592679851504 0 0.44260817666721519 -0.025216613737701819 0 0.45192160644451512 -0.0091698592679851504 0 0.43543049063324413 -0.012350052332502739 0 0.42788240966677021 0.003552130545216341 0 0.45192160644451512 -0.0091698592679851504 0 0.43543049063324413 -0.012350052332502739 0 0.4740075662235973 0.0028935560396234419 0 0.47596080322225992 -0.02189184908118659 0 0.45192160644451512 -0.0091698592679851504 0 0.47596080322225992 -0.02189184908118659 0 0.45192160644451512 -0.0091698592679851504 0 0.47596080322225992 -0.02189184908118659 0 0.46122373864745198 -0.034064038759572521 0 0.45192160644451512 -0.0091698592679851504 0 0.47621403880257929 -0.099362679963144546 0 0.45825176112352212 -0.1171944005084963 0 0.47461064769812122 -0.12772964805397971 0 0.50000000000000433 -0.1143432737178363 0 0.47621403880257929 -0.099362679963144546 0 0.47461064769812122 -0.12772964805397971 0 0.50000000000000433 -0.1143432737178363 0 0.47461064769812122 -0.12772964805397971 0 0.49999999999998102 -0.1000967699598443 0 0.47621403880257929 -0.099362679963144546 0 0.49999999999998102 -0.1000967699598443 0 0.47621403880257929 -0.099362679963144546 0 0.48785951469139027 -0.086657123706384981 0 0.50000000000000433 -0.1143432737178363 0 0.49999999999998102 -0.1000967699598443 0 0.47621403880257929 -0.099362679963144546 0 0.47621403880257929 -0.099362679963144546 0 0.48785951469139027 -0.086657123706384981 0 0.47522401996300467 -0.077198942777287505 0 0.47621403880257929 -0.099362679963144546 0 0.47522401996300467 -0.077198942777287505 0 0.46460819440086443 -0.0896918568577834 0 0.49999999999998102 -0.1000967699598443 0 0.48785951469139027 -0.086657123706384981 0 0.49999999999999678 -0.069970102125263903 0 0.49999999999999678 -0.069970102125263903 0 0.47522401996300467 -0.077198942777287505 0 0.48785951469139027 -0.086657123706384981 0 0.49999999999999678 -0.069970102125263903 0 0.47522401996300467 -0.077198942777287505 0 0.48378938215607542 -0.060491629721736481 0 0.49999999999999678 -0.069970102125263903 0 0.47522401996300467 -0.077198942777287505 0 0.48378938215607542 -0.060491629721736481 0 0.47522401996300467 -0.077198942777287505 0 0.46263532094350251 -0.0655193079319734 0 0.47522401996300467 -0.077198942777287505 0 0.46263532094350251 -0.0655193079319734 0 0.4504480399260129 -0.084427783429311939 0 0.44526353314296241 -0.062107813217869068 0 0.46263532094350251 -0.0655193079319734 0 0.4504480399260129 -0.084427783429311939 0 0.44526353314296241 -0.062107813217869068 0 0.4504480399260129 -0.084427783429311939 0 0.43069868055782679 -0.078899440675300136 0 0.4504480399260129 -0.084427783429311939 0 0.45242807760517778 -0.098628589966444233 0 0.42864211640777627 -0.097894499969741214 0 0.4504480399260129 -0.084427783429311939 0 0.42567205988902129 -0.091656624081337568 0 0.47522401996300467 -0.077198942777287505 0 0.4504480399260129 -0.084427783429311939 0 0.47522401996300467 -0.077198942777287505 0 0.4504480399260129 -0.084427783429311939 0 0.46460819440086443 -0.0896918568577834 0 0.4504480399260129 -0.084427783429311939 0 0.46460819440086443 -0.0896918568577834 0 0.45242807760517778 -0.098628589966444233 0 0.47621403880257929 -0.099362679963144546 0 0.45242807760517778 -0.098628589966444233 0 0.45825176112352212 -0.1171944005084963 0 0.47621403880257929 -0.099362679963144546 0 0.45242807760517778 -0.098628589966444233 0 0.47621403880257929 -0.099362679963144546 0 0.46460819440086443 -0.0896918568577834 0 0.45242807760517778 -0.098628589966444233 0 0.45242807760517778 -0.098628589966444233 0 0.42864211640777627 -0.097894499969741214 0 0.45242807760517778 -0.098628589966444233 0 0.43893170590200609 -0.1195052611799315 0 0.42864211640777627 -0.097894499969741214 0 0.45242807760517778 -0.098628589966444233 0 0.43893170590200609 -0.1195052611799315 0 0.45825176112352212 -0.1171944005084963 0 0.42080162445294911 -0.1170697999396166 0 0.40604313277712428 -0.1171380761358455 0 0.41368108829086198 -0.13554811058748131 0 0.42080162445294911 -0.1170697999396166 0 0.40662173914453831 -0.097214899993173481 0 0.40604313277712428 -0.1171380761358455 0 0.43893170590200609 -0.1195052611799315 0 0.42080162445294911 -0.1170697999396166 0 0.430889964195386 -0.135117951771525 0 0.43893170590200609 -0.1195052611799315 0 0.42080162445294911 -0.1170697999396166 0 0.42864211640777627 -0.097894499969741214 0 0.43893170590200609 -0.1195052611799315 0 0.42864211640777627 -0.097894499969741214 0 0.42864211640777627 -0.097894499969741214 0 0.42567205988902129 -0.091656624081337568 0 0.42864211640777627 -0.097894499969741214 0 0.40662173914453831 -0.097214899993173481 0 0.42567205988902129 -0.091656624081337568 0 0.42080162445294911 -0.1170697999396166 0 0.42864211640777627 -0.097894499969741214 0 0.40662173914453831 -0.097214899993173481 0 0.42864211640777627 -0.097894499969741214 0 0.40662173914453831 -0.097214899993173481 0 0.40662173914453831 -0.097214899993173481 0 0.42567205988902129 -0.091656624081337568 0 0.40662173914453831 -0.097214899993173481 0 0.41829766411352998 -0.087706900461061957 0 0.42567205988902129 -0.091656624081337568 0 0.40662173914453831 -0.097214899993173481 0 0.41020628866808312 -0.08357079425946129 0 0.41829766411352998 -0.087706900461061957 0 0.41020628866808312 -0.08357079425946129 0 0.42012861486432151 -0.07981881462850364 0 0.41094109939792961 -0.074512111623280808 0 0.41020628866808312 -0.08357079425946129 0 0.41094109939792961 -0.074512111623280808 0 0.40556094342569721 -0.078918860306745137 0 0.41020628866808312 -0.08357079425946129 0 0.42012861486432151 -0.07981881462850364 0 0.41829766411352998 -0.087706900461061957 0 0.42012861486432151 -0.07981881462850364 0 0.41829766411352998 -0.087706900461061957 0 0.42254342745458301 -0.084546146485576762 0 0.41829766411352998 -0.087706900461061957 0 0.42461385466063262 -0.08943412331831832 0 0.42254342745458301 -0.084546146485576762 0 0.42567205988902129 -0.091656624081337568 0 0.42461385466063262 -0.08943412331831832 0 0.43069868055782679 -0.078899440675300136 0 0.4504480399260129 -0.084427783429311939 0 0.42567205988902129 -0.091656624081337568 0 0.43069868055782679 -0.078899440675300136 0 0.4504480399260129 -0.084427783429311939 0 0.42864211640777627 -0.097894499969741214 0 0.42567205988902129 -0.091656624081337568 0 0.42567205988902129 -0.091656624081337568 0 0.42461385466063262 -0.08943412331831832 0 0.41829766411352998 -0.087706900461061957 0 0.42567205988902129 -0.091656624081337568 0 0.42461385466063262 -0.08943412331831832 0 0.42012861486432151 -0.07981881462850364 0 0.43069868055782679 -0.078899440675300136 0 0.42254342745458301 -0.084546146485576762 0 0.42461385466063262 -0.08943412331831832 0 0.43069868055782679 -0.078899440675300136 0 0.42254342745458301 -0.084546146485576762 0 0.43069868055782679 -0.078899440675300136 0 0.42085386234523608 -0.065266903626460593 0 0.41911482919747139 -0.073234494934215744 0 0.43069868055782679 -0.078899440675300136 0 0.42085386234523608 -0.065266903626460593 0 0.42768193525564641 -0.052738548234870043 0 0.44526353314296241 -0.062107813217869068 0 0.43069868055782679 -0.078899440675300136 0 0.42768193525564641 -0.052738548234870043 0 0.43069868055782679 -0.078899440675300136 0 0.42768193525564641 -0.052738548234870043 0 0.42012861486432151 -0.07981881462850364 0 0.43069868055782679 -0.078899440675300136 0 0.41911482919747139 -0.073234494934215744 0 0.42085386234523608 -0.065266903626460593 0 0.41911482919747139 -0.073234494934215744 0 0.41247118756252621 -0.068972059658544485 0 0.41911482919747139 -0.073234494934215744 0 0.41094109939792961 -0.074512111623280808 0 0.41247118756252621 -0.068972059658544485 0 0.42012861486432151 -0.07981881462850364 0 0.41911482919747139 -0.073234494934215744 0 0.41094109939792961 -0.074512111623280808 0 0.41094109939792961 -0.074512111623280808 0 0.41247118756252621 -0.068972059658544485 0 0.40519344017519737 -0.069697512887539489 0 0.42085386234523608 -0.065266903626460593 0 0.41247118756252621 -0.068972059658544485 0 0.40625270669679608 -0.06214927522122575 0 0.41247118756252621 -0.068972059658544485 0 0.40519344017519737 -0.069697512887539489 0 0.40625270669679608 -0.06214927522122575 0 0.40519344017519737 -0.069697512887539489 0 0.3909339432522656 -0.07145852807871525 0 0.40625270669679608 -0.06214927522122575 0 0.41094109939792961 -0.074512111623280808 0 0.40094221169150912 -0.074554002884685597 0 0.40556094342569721 -0.078918860306745137 0 0.40519344017519737 -0.069697512887539489 0 0.40094221169150912 -0.074554002884685597 0 0.3909339432522656 -0.07145852807871525 0 0.41094109939792961 -0.074512111623280808 0 0.40519344017519737 -0.069697512887539489 0 0.40094221169150912 -0.074554002884685597 0 0.40094221169150912 -0.074554002884685597 0 0.3909339432522656 -0.07145852807871525 0 0.39616481607021642 -0.077435810443283751 0 0.3909339432522656 -0.07145852807871525 0 0.39616481607021642 -0.077435810443283751 0 0.39262893539182381 -0.080692178350181262 0 0.39181446083091098 -0.066763706552935329 0 0.38421934743036401 -0.068446750892908373 0 0.38398729378694407 -0.058429379279077209 0 0.38421934743036401 -0.068446750892908373 0 0.37813424473731178 -0.068262582352726586 0 0.38398729378694407 -0.058429379279077209 0 0.37813424473731178 -0.068262582352726586 0 0.38294139036628899 -0.080331335386894381 0 0.37353404377441052 -0.075370636612477671 0 0.38421934743036401 -0.068446750892908373 0 0.37813424473731178 -0.068262582352726586 0 0.38294139036628899 -0.080331335386894381 0 0.39181446083091098 -0.066763706552935329 0 0.38294139036628899 -0.080331335386894381 0 0.39181446083091098 -0.066763706552935329 0 0.38421934743036401 -0.068446750892908373 0 0.38294139036628899 -0.080331335386894381 0 0.3909339432522656 -0.07145852807871525 0 0.39181446083091098 -0.066763706552935329 0 0.38294139036628899 -0.080331335386894381 0 0.38598565568847482 -0.085166122563822014 0 0.39289996883908601 -0.089154852807517448 0 0.39262893539182381 -0.080692178350181262 0 0.3909339432522656 -0.07145852807871525 0 0.38598565568847482 -0.085166122563822014 0 0.39262893539182381 -0.080692178350181262 0 0.3909339432522656 -0.07145852807871525 0 0.37406831990166722 -0.093898964220853504 0 0.3909339432522656 -0.07145852807871525 0 0.38598565568847482 -0.085166122563822014 0 0.37406831990166722 -0.093898964220853504 0 0.3909339432522656 -0.07145852807871525 0 0.38294139036628899 -0.080331335386894381 0 0.37406831990166722 -0.093898964220853504 0 0.38294139036628899 -0.080331335386894381 0 0.37406831990166722 -0.093898964220853504 0 0.38598565568847482 -0.085166122563822014 0 0.38240509603332101 -0.092127683864182172 0 0.37406831990166722 -0.093898964220853504 0 0.38240509603332101 -0.092127683864182172 0 0.39289996883908601 -0.089154852807517448 0 0.38960421283109031 -0.096689699614190994 0 0.38598565568847482 -0.085166122563822014 0 0.38240509603332101 -0.092127683864182172 0 0.39289996883908601 -0.089154852807517448 0 0.39289996883908601 -0.089154852807517448 0 0.39262893539182381 -0.080692178350181262 0 0.40015417394526698 -0.083038532459552866 0 0.39616481607021642 -0.077435810443283751 0 0.39262893539182381 -0.080692178350181262 0 0.40015417394526698 -0.083038532459552866 0 0.40094221169150912 -0.074554002884685597 0 0.40556094342569721 -0.078918860306745137 0 0.40015417394526698 -0.083038532459552866 0 0.40094221169150912 -0.074554002884685597 0 0.39616481607021642 -0.077435810443283751 0 0.40015417394526698 -0.083038532459552866 0 0.41020628866808312 -0.08357079425946129 0 0.40556094342569721 -0.078918860306745137 0 0.40015417394526698 -0.083038532459552866 0 0.40662173914453831 -0.097214899993173481 0 0.39289996883908601 -0.089154852807517448 0 0.40015417394526698 -0.083038532459552866 0 0.40662173914453831 -0.097214899993173481 0 0.41020628866808312 -0.08357079425946129 0 0.40015417394526698 -0.083038532459552866 0 0.40662173914453831 -0.097214899993173481 0 0.3851668720105898 -0.10347474583943909 0 0.38960421283109031 -0.096689699614190994 0 0.40662173914453831 -0.097214899993173481 0 0.3851668720105898 -0.10347474583943909 0 0.40662173914453831 -0.097214899993173481 0 0.39289996883908601 -0.089154852807517448 0 0.38960421283109031 -0.096689699614190994 0 0.40662173914453831 -0.097214899993173481 0 0.38960421283109031 -0.096689699614190994 0 0.40662173914453831 -0.097214899993173481 0 0.3851668720105898 -0.10347474583943909 0 0.39374350655696688 -0.1137959578468639 0 0.38960421283109031 -0.096689699614190994 0 0.37237061700676077 -0.09615783082836224 0 0.3851668720105898 -0.10347474583943909 0 0.38960421283109031 -0.096689699614190994 0 0.37237061700676077 -0.09615783082836224 0 0.38240509603332101 -0.092127683864182172 0 0.38960421283109031 -0.096689699614190994 0 0.37237061700676077 -0.09615783082836224 0 0.38240509603332101 -0.092127683864182172 0 0.37406831990166722 -0.093898964220853504 0 0.37237061700676077 -0.09615783082836224 0 0.3785150876385216 -0.1195111518185689 0 0.39374350655696688 -0.1137959578468639 0 0.39237070121405998 -0.13164091544729051 0 0.3851668720105898 -0.10347474583943909 0 0.3785150876385216 -0.1195111518185689 0 0.36371200487664068 -0.10973459168570281 0 0.3851668720105898 -0.10347474583943909 0 0.3785150876385216 -0.1195111518185689 0 0.39374350655696688 -0.1137959578468639 0 0.40662173914453831 -0.097214899993173481 0 0.39374350655696688 -0.1137959578468639 0 0.40604313277712428 -0.1171380761358455 0 0.39374350655696688 -0.1137959578468639 0 0.40604313277712428 -0.1171380761358455 0 0.39237070121405998 -0.13164091544729051 0 0.41728163952739061 -0.019334187549187701 0 0.42284227266732188 -0.010769512158268201 0 0.42466518995346408 -0.026577655794440151 0 0.41728163952739061 -0.019334187549187701 0 0.41227128108974659 -0.029924501558089681 0 0.42466518995346408 -0.026577655794440151 0 0.41227128108974659 -0.029924501558089681 0 0.40863720631140932 -0.019892986955346081 0 0.40014031603924488 -0.033106741091830219 0 0.41728163952739061 -0.019334187549187701 0 0.41227128108974659 -0.029924501558089681 0 0.40863720631140932 -0.019892986955346081 0 0.41728163952739061 -0.019334187549187701 0 0.40863720631140932 -0.019892986955346081 0 0.41436166681859882 -0.01226683791037885 0 0.40863720631140932 -0.019892986955346081 0 0.41436166681859882 -0.01226683791037885 0 0.40369857438468087 -0.0060371637805465179 0 0.42101935538117791 0.0050386314779034547 0 0.41402040698134779 -0.0025911497673051101 0 0.42284227266732188 -0.010769512158268201 0 0.41402040698134779 -0.0025911497673051101 0 0.41436166681859882 -0.01226683791037885 0 0.40369857438468087 -0.0060371637805465179 0 0.41402040698134779 -0.0025911497673051101 0 0.41436166681859882 -0.01226683791037885 0 0.42284227266732188 -0.010769512158268201 0 0.41728163952739061 -0.019334187549187701 0 0.41436166681859882 -0.01226683791037885 0 0.42284227266732188 -0.010769512158268201 0 0.42284227266732188 -0.010769512158268201 0 0.43543049063324413 -0.012350052332502739 0 0.42769414368384923 -0.02254750278133769 0 0.42101935538117791 0.0050386314779034547 0 0.42284227266732188 -0.010769512158268201 0 0.42101935538117791 0.0050386314779034547 0 0.42788240966677021 0.003552130545216341 0 0.42284227266732188 -0.010769512158268201 0 0.42788240966677021 0.003552130545216341 0 0.42284227266732188 -0.010769512158268201 0 0.43543049063324413 -0.012350052332502739 0 0.42284227266732188 -0.010769512158268201 0 0.42466518995346408 -0.026577655794440151 0 0.42284227266732188 -0.010769512158268201 0 0.42769414368384923 -0.02254750278133769 0 0.42466518995346408 -0.026577655794440151 0 0.44260817666721519 -0.025216613737701819 0 0.43543049063324413 -0.012350052332502739 0 0.42769414368384923 -0.02254750278133769 0 0.42769414368384923 -0.02254750278133769 0 0.42466518995346408 -0.026577655794440151 0 0.43454865465473302 -0.032105158367880783 0 0.42769414368384923 -0.02254750278133769 0 0.42466518995346408 -0.026577655794440151 0 0.44260817666721519 -0.025216613737701819 0 0.42769414368384923 -0.02254750278133769 0 0.43454865465473302 -0.032105158367880783 0 0.42466518995346408 -0.026577655794440151 0 0.43454865465473302 -0.032105158367880783 0 0.42768193525564641 -0.052738548234870043 0 0.42466518995346408 -0.026577655794440151 0 0.42768193525564641 -0.052738548234870043 0 0.44483042593949818 -0.041063070916932051 0 0.43454865465473302 -0.032105158367880783 0 0.42768193525564641 -0.052738548234870043 0 0.42085386234523608 -0.065266903626460593 0 0.42768193525564641 -0.052738548234870043 0 0.40779956660286398 -0.049018091936576927 0 0.42085386234523608 -0.065266903626460593 0 0.40779956660286398 -0.049018091936576927 0 0.40625270669679608 -0.06214927522122575 0 0.42466518995346408 -0.026577655794440151 0 0.42768193525564641 -0.052738548234870043 0 0.40779956660286398 -0.049018091936576927 0 0.42466518995346408 -0.026577655794440151 0 0.40779956660286398 -0.049018091936576927 0 0.41227128108974659 -0.029924501558089681 0 0.42466518995346408 -0.026577655794440151 0 0.40779956660286398 -0.049018091936576927 0 0.41227128108974659 -0.029924501558089681 0 0.40779956660286398 -0.049018091936576927 0 0.40014031603924488 -0.033106741091830219 0 0.40779956660286398 -0.049018091936576927 0 0.40014031603924488 -0.033106741091830219 0 0.3912967176308087 -0.04756724484766426 0 0.40014031603924488 -0.033106741091830219 0 0.3912967176308087 -0.04756724484766426 0 0.38547037370043469 -0.032308846426106139 0 0.3909339432522656 -0.07145852807871525 0 0.40779956660286398 -0.049018091936576927 0 0.40625270669679608 -0.06214927522122575 0 0.3909339432522656 -0.07145852807871525 0 0.39181446083091098 -0.066763706552935329 0 0.40779956660286398 -0.049018091936576927 0 0.39181446083091098 -0.066763706552935329 0 0.40779956660286398 -0.049018091936576927 0 0.3912967176308087 -0.04756724484766426 0 0.3909339432522656 -0.07145852807871525 0 0.40779956660286398 -0.049018091936576927 0 0.3912967176308087 -0.04756724484766426 0 0.38398729378694407 -0.058429379279077209 0 0.37514153202862571 -0.045861082966856079 0 0.39181446083091098 -0.066763706552935329 0 0.3912967176308087 -0.04756724484766426 0 0.38398729378694407 -0.058429379279077209 0 0.38398729378694407 -0.058429379279077209 0 0.37514153202862571 -0.045861082966856079 0 0.37192531576168952 -0.05914395824800911 0 0.37813424473731178 -0.068262582352726586 0 0.38398729378694407 -0.058429379279077209 0 0.37192531576168952 -0.05914395824800911 0 0.3912967176308087 -0.04756724484766426 0 0.38547037370043469 -0.032308846426106139 0 0.37514153202862571 -0.045861082966856079 0 0.38547037370043469 -0.032308846426106139 0 0.37514153202862571 -0.045861082966856079 0 0.36877413775607049 -0.02995327657106206 0 0.38547037370043469 -0.032308846426106139 0 0.37927030083329177 -0.015743113788958679 0 0.36877413775607049 -0.02995327657106206 0 0.38547037370043469 -0.032308846426106139 0 0.37927030083329177 -0.015743113788958679 0 0.39536675090020662 -0.019928774827198261 0 0.40014031603924488 -0.033106741091830219 0 0.38547037370043469 -0.032308846426106139 0 0.39536675090020662 -0.019928774827198261 0 0.40863720631140932 -0.019892986955346081 0 0.40014031603924488 -0.033106741091830219 0 0.39536675090020662 -0.019928774827198261 0 0.40863720631140932 -0.019892986955346081 0 0.39536675090020662 -0.019928774827198261 0 0.40369857438468087 -0.0060371637805465179 0 0.39536675090020662 -0.019928774827198261 0 0.40369857438468087 -0.0060371637805465179 0 0.39174671884158141 -0.0074493154892236006 0 0.39390920682105918 0.0040204267233196643 0 0.40369857438468087 -0.0060371637805465179 0 0.39174671884158141 -0.0074493154892236006 0 0.38212023564171321 0.001094655884648786 0 0.37927030083329177 -0.015743113788958679 0 0.39174671884158141 -0.0074493154892236006 0 0.38212023564171321 0.001094655884648786 0 0.37927030083329177 -0.015743113788958679 0 0.3700201466167648 -0.002195575246397889 0 0.37927030083329177 -0.015743113788958679 0 0.39536675090020662 -0.019928774827198261 0 0.39174671884158141 -0.0074493154892236006 0 0.39390920682105918 0.0040204267233196643 0 0.38212023564171321 0.001094655884648786 0 0.39174671884158141 -0.0074493154892236006 0 0.35686418876597309 0.010252504770385159 0 0.3700201466167648 -0.002195575246397889 0 0.35727920934793722 -0.0129667368589869 0 0.37927030083329177 -0.015743113788958679 0 0.3700201466167648 -0.002195575246397889 0 0.35727920934793722 -0.0129667368589869 0 0.36877413775607049 -0.02995327657106206 0 0.35727920934793722 -0.0129667368589869 0 0.35227314840285812 -0.03152257084722427 0 0.37927030083329177 -0.015743113788958679 0 0.36877413775607049 -0.02995327657106206 0 0.35727920934793722 -0.0129667368589869 0 0.35727920934793722 -0.0129667368589869 0 0.33875503928457851 -0.02222753562310531 0 0.35227314840285812 -0.03152257084722427 0 0.35727920934793722 -0.0129667368589869 0 0.33586681222118892 -0.0067462441580033658 0 0.33875503928457851 -0.02222753562310531 0 0.35686418876597309 0.010252504770385159 0 0.35727920934793722 -0.0129667368589869 0 0.33586681222118892 -0.0067462441580033658 0 0.33586681222118892 -0.0067462441580033658 0 0.33875503928457851 -0.02222753562310531 0 0.31486943567640469 -0.023744993086391868 0 0.33875503928457851 -0.02222753562310531 0 0.31486943567640469 -0.023744993086391868 0 0.33348659077450338 -0.036157133164920148 0 0.33875503928457851 -0.02222753562310531 0 0.33348659077450338 -0.036157133164920148 0 0.35227314840285812 -0.03152257084722427 0 0.31046320235639918 0.0067575729804437252 0 0.33586681222118892 -0.0067462441580033658 0 0.3153830815233527 -0.0087530987426132929 0 0.33586681222118892 -0.0067462441580033658 0 0.31486943567640469 -0.023744993086391868 0 0.3153830815233527 -0.0087530987426132929 0 0.33586681222118892 -0.0067462441580033658 0 0.31486943567640469 -0.023744993086391868 0 0.32115491610998381 -0.052976688016941227 0 0.32092150739102382 -0.073097043805500014 0 0.30601744289912669 -0.055409131432484229 0 0.32115491610998381 -0.052976688016941227 0 0.31197137499350902 -0.041008225260955711 0 0.30601744289912669 -0.055409131432484229 0 0.31486943567640469 -0.023744993086391868 0 0.33348659077450338 -0.036157133164920148 0 0.31197137499350902 -0.041008225260955711 0 0.32115491610998381 -0.052976688016941227 0 0.33348659077450338 -0.036157133164920148 0 0.31197137499350902 -0.041008225260955711 0 0.33348659077450338 -0.036157133164920148 0 0.3363568723602065 -0.050864743298462772 0 0.35116628403686417 -0.048621598638038131 0 0.32115491610998381 -0.052976688016941227 0 0.33348659077450338 -0.036157133164920148 0 0.3363568723602065 -0.050864743298462772 0 0.32115491610998381 -0.052976688016941227 0 0.3363568723602065 -0.050864743298462772 0 0.33388625794764348 -0.064812423232177271 0 0.3363568723602065 -0.050864743298462772 0 0.34794047334546518 -0.063974584280765273 0 0.33388625794764348 -0.064812423232177271 0 0.3363568723602065 -0.050864743298462772 0 0.35116628403686417 -0.048621598638038131 0 0.34794047334546518 -0.063974584280765273 0 0.35116628403686417 -0.048621598638038131 0 0.35914505774559541 -0.060409417065886872 0 0.36392372675137458 -0.051574144679805103 0 0.35116628403686417 -0.048621598638038131 0 0.36240463436463582 -0.041692596330413237 0 0.36392372675137458 -0.051574144679805103 0 0.35116628403686417 -0.048621598638038131 0 0.35914505774559541 -0.060409417065886872 0 0.34794047334546518 -0.063974584280765273 0 0.35116628403686417 -0.048621598638038131 0 0.35227314840285812 -0.03152257084722427 0 0.36240463436463582 -0.041692596330413237 0 0.33348659077450338 -0.036157133164920148 0 0.35116628403686417 -0.048621598638038131 0 0.35227314840285812 -0.03152257084722427 0 0.37514153202862571 -0.045861082966856079 0 0.36877413775607049 -0.02995327657106206 0 0.36240463436463582 -0.041692596330413237 0 0.36877413775607049 -0.02995327657106206 0 0.35227314840285812 -0.03152257084722427 0 0.36240463436463582 -0.041692596330413237 0 0.37514153202862571 -0.045861082966856079 0 0.36240463436463582 -0.041692596330413237 0 0.36392372675137458 -0.051574144679805103 0 0.35914505774559541 -0.060409417065886872 0 0.36392372675137458 -0.051574144679805103 0 0.37192531576168952 -0.05914395824800911 0 0.37514153202862571 -0.045861082966856079 0 0.36392372675137458 -0.051574144679805103 0 0.37192531576168952 -0.05914395824800911 0 0.37813424473731178 -0.068262582352726586 0 0.37192531576168952 -0.05914395824800911 0 0.3680772617285144 -0.06977757947088653 0 0.35914505774559541 -0.060409417065886872 0 0.37192531576168952 -0.05914395824800911 0 0.3680772617285144 -0.06977757947088653 0 0.35914505774559541 -0.060409417065886872 0 0.3680772617285144 -0.06977757947088653 0 0.35837286676988928 -0.071968688592424085 0 0.3680772617285144 -0.06977757947088653 0 0.36498327826552668 -0.083111049239403226 0 0.35837286676988928 -0.071968688592424085 0 0.3680772617285144 -0.06977757947088653 0 0.37353404377441052 -0.075370636612477671 0 0.36498327826552668 -0.083111049239403226 0 0.37813424473731178 -0.068262582352726586 0 0.3680772617285144 -0.06977757947088653 0 0.37353404377441052 -0.075370636612477671 0 0.38294139036628899 -0.080331335386894381 0 0.37353404377441052 -0.075370636612477671 0 0.36498327826552668 -0.083111049239403226 0 0.36498327826552668 -0.083111049239403226 0 0.37237061700676077 -0.09615783082836224 0 0.34241852099989789 -0.095233439592861846 0 0.38294139036628899 -0.080331335386894381 0 0.36498327826552668 -0.083111049239403226 0 0.37406831990166722 -0.093898964220853504 0 0.36498327826552668 -0.083111049239403226 0 0.37406831990166722 -0.093898964220853504 0 0.37237061700676077 -0.09615783082836224 0 0.36498327826552668 -0.083111049239403226 0 0.3449175019875389 -0.076917716904771144 0 0.34241852099989789 -0.095233439592861846 0 0.36498327826552668 -0.083111049239403226 0 0.3449175019875389 -0.076917716904771144 0 0.35837286676988928 -0.071968688592424085 0 0.3449175019875389 -0.076917716904771144 0 0.34794047334546518 -0.063974584280765273 0 0.35837286676988928 -0.071968688592424085 0 0.35914505774559541 -0.060409417065886872 0 0.34794047334546518 -0.063974584280765273 0 0.35837286676988928 -0.071968688592424085 0 0.36371200487664068 -0.10973459168570281 0 0.35664352332635268 -0.13060513793896061 0 0.36779594019891898 -0.12729788290040461 0 0.3785150876385216 -0.1195111518185689 0 0.36371200487664068 -0.10973459168570281 0 0.36779594019891898 -0.12729788290040461 0 0.36371200487664068 -0.10973459168570281 0 0.37237061700676077 -0.09615783082836224 0 0.34241852099989789 -0.095233439592861846 0 0.3851668720105898 -0.10347474583943909 0 0.36371200487664068 -0.10973459168570281 0 0.37237061700676077 -0.09615783082836224 0 0.3851668720105898 -0.10347474583943909 0 0.36371200487664068 -0.10973459168570281 0 0.36371200487664068 -0.10973459168570281 0 0.37237061700676077 -0.09615783082836224 0 0.37406831990166722 -0.093898964220853504 0 0.37237061700676077 -0.09615783082836224 0 0.36371200487664068 -0.10973459168570281 0 0.34332012240242971 -0.1020930362129598 0 0.34241852099989789 -0.095233439592861846 0 0.36371200487664068 -0.10973459168570281 0 0.35002252173753962 -0.112446561286345 0 0.34332012240242971 -0.1020930362129598 0 0.37237061700676077 -0.09615783082836224 0 0.34241852099989789 -0.095233439592861846 0 0.35002252173753962 -0.112446561286345 0 0.34025414842832208 -0.11782241666052221 0 0.34332012240242971 -0.1020930362129598 0 0.36371200487664068 -0.10973459168570281 0 0.35355367174401742 -0.1211945845718113 0 0.34779048707731292 -0.1340798558009649 0 0.36371200487664068 -0.10973459168570281 0 0.35664352332635268 -0.13060513793896061 0 0.34779048707731292 -0.1340798558009649 0 0.36371200487664068 -0.10973459168570281 0 0.34779048707731292 -0.1340798558009649 0 0.36371200487664068 -0.10973459168570281 0 0.35002252173753962 -0.112446561286345 0 0.35355367174401742 -0.1211945845718113 0 0.36371200487664068 -0.10973459168570281 0 0.35355367174401742 -0.1211945845718113 0 0.35002252173753962 -0.112446561286345 0 0.35355367174401742 -0.1211945845718113 0 0.34025414842832208 -0.11782241666052221 0 0.35355367174401742 -0.1211945845718113 0 0.34025414842832208 -0.11782241666052221 0 0.34381162934489939 -0.12854128697128539 0 0.33094534805706732 -0.1177437606496905 0 0.31854024801571379 -0.1183964408803808 0 0.33718817445421712 -0.13355179710808501 0 0.34025414842832208 -0.11782241666052221 0 0.33378984816934337 -0.1086297847084315 0 0.34332012240242971 -0.1020930362129598 0 0.33094534805706732 -0.1177437606496905 0 0.34025414842832208 -0.11782241666052221 0 0.33718817445421712 -0.13355179710808501 0 0.34025414842832208 -0.11782241666052221 0 0.34332012240242971 -0.1020930362129598 0 0.33094534805706732 -0.1177437606496905 0 0.33378984816934337 -0.1086297847084315 0 0.32495432121773932 -0.110318363891034 0 0.33094534805706732 -0.1177437606496905 0 0.34025414842832208 -0.11782241666052221 0 0.33378984816934337 -0.1086297847084315 0 0.33378984816934337 -0.1086297847084315 0 0.32725903490077729 -0.10071499943534749 0 0.32495432121773932 -0.110318363891034 0 0.33378984816934337 -0.1086297847084315 0 0.33669688161811212 -0.1016678149874002 0 0.32725903490077729 -0.10071499943534749 0 0.33378984816934337 -0.1086297847084315 0 0.34332012240242971 -0.1020930362129598 0 0.33669688161811212 -0.1016678149874002 0 0.34332012240242971 -0.1020930362129598 0 0.33669688161811212 -0.1016678149874002 0 0.34241852099989789 -0.095233439592861846 0 0.33669688161811212 -0.1016678149874002 0 0.34241852099989789 -0.095233439592861846 0 0.32725903490077729 -0.10071499943534749 0 0.34241852099989789 -0.095233439592861846 0 0.31246642499303512 -0.0943090483573608 0 0.34241852099989789 -0.095233439592861846 0 0.32725903490077729 -0.10071499943534749 0 0.31246642499303512 -0.0943090483573608 0 0.32725903490077729 -0.10071499943534749 0 0.31716114910448651 -0.10565591717263 0 0.31246642499303512 -0.0943090483573608 0 0.32725903490077729 -0.10071499943534749 0 0.31716114910448651 -0.10565591717263 0 0.32495432121773932 -0.110318363891034 0 0.33094534805706732 -0.1177437606496905 0 0.32495432121773932 -0.110318363891034 0 0.31854024801571379 -0.1183964408803808 0 0.31716114910448651 -0.10565591717263 0 0.32495432121773932 -0.110318363891034 0 0.31854024801571379 -0.1183964408803808 0 0.31716114910448651 -0.10565591717263 0 0.31854024801571379 -0.1183964408803808 0 0.30531265091832138 -0.10738965970164049 0 0.3449175019875389 -0.076917716904771144 0 0.33388625794764348 -0.064812423232177271 0 0.32092150739102382 -0.073097043805500014 0 0.3449175019875389 -0.076917716904771144 0 0.34794047334546518 -0.063974584280765273 0 0.33388625794764348 -0.064812423232177271 0 0.3449175019875389 -0.076917716904771144 0 0.34241852099989789 -0.095233439592861846 0 0.32092150739102382 -0.073097043805500014 0 0.34241852099989789 -0.095233439592861846 0 0.32092150739102382 -0.073097043805500014 0 0.31246642499303512 -0.0943090483573608 0 0.32115491610998381 -0.052976688016941227 0 0.33388625794764348 -0.064812423232177271 0 0.32092150739102382 -0.073097043805500014 0 0.32092150739102382 -0.073097043805500014 0 0.28819319405889499 -0.06706419956831737 0 0.31246642499303512 -0.0943090483573608 0 0.32092150739102382 -0.073097043805500014 0 0.28819319405889499 -0.06706419956831737 0 0.30601744289912669 -0.055409131432484229 0 0.28251432898617262 -0.093384657121855619 0 0.28819319405889499 -0.06706419956831737 0 0.31246642499303512 -0.0943090483573608 0 0.28251432898617262 -0.093384657121855619 0 0.28819319405889499 -0.06706419956831737 0 0.28251432898617262 -0.093384657121855619 0 0.28819319405889499 -0.06706419956831737 0 0.2788070763813692 -0.075616481315712358 0 0.30531265091832138 -0.10738965970164049 0 0.29209333803684512 -0.1204183792118467 0 0.30316218715013699 -0.13585617877411299 0 0.31854024801571379 -0.1183964408803808 0 0.30531265091832138 -0.10738965970164049 0 0.30316218715013699 -0.13585617877411299 0 0.30531265091832138 -0.10738965970164049 0 0.30316218715013699 -0.13585617877411299 0 0.30531265091832138 -0.10738965970164049 0 0.31246642499303512 -0.0943090483573608 0 0.2913954051317153 -0.1063448066268642 0 0.28251432898617262 -0.093384657121855619 0 0.31246642499303512 -0.0943090483573608 0 0.31716114910448651 -0.10565591717263 0 0.30531265091832138 -0.10738965970164049 0 0.31246642499303512 -0.0943090483573608 0 0.28251432898617262 -0.093384657121855619 0 0.31246642499303512 -0.0943090483573608 0 0.2913954051317153 -0.1063448066268642 0 0.28251432898617262 -0.093384657121855619 0 0.2913954051317153 -0.1063448066268642 0 0.27794998204403759 -0.11453953550188679 0 0.30531265091832138 -0.10738965970164049 0 0.2913954051317153 -0.1063448066268642 0 0.29209333803684512 -0.1204183792118467 0 0.2913954051317153 -0.1063448066268642 0 0.29209333803684512 -0.1204183792118467 0 0.27794998204403759 -0.11453953550188679 0 0.27794998204403759 -0.11453953550188679 0 0.25915390151091949 -0.11811210275817149 0 0.27338563510190422 -0.1356944138819183 0 0.29209333803684512 -0.1204183792118467 0 0.27794998204403759 -0.11453953550188679 0 0.27338563510190422 -0.1356944138819183 0 0.28251432898617262 -0.093384657121855619 0 0.27794998204403759 -0.11453953550188679 0 0.25666672159796139 -0.092586939936295867 0 0.28251432898617262 -0.093384657121855619 0 0.27794998204403759 -0.11453953550188679 0 0.25915390151091949 -0.11811210275817149 0 0.25666672159796139 -0.092586939936295867 0 0.23839025179526999 -0.1151992729885977 0 0.27794998204403759 -0.11453953550188679 0 0.25915390151091949 -0.11811210275817149 0 0.25666672159796139 -0.092586939936295867 0 0.28819319405889499 -0.06706419956831737 0 0.27512965144911827 -0.070681904186227995 0 0.27783686619476677 -0.05372527893061739 0 0.26897876163713708 -0.070467118147906876 0 0.27512965144911827 -0.070681904186227995 0 0.27783686619476677 -0.05372527893061739 0 0.26897876163713708 -0.070467118147906876 0 0.26180167325791431 -0.066706815846455908 0 0.27783686619476677 -0.05372527893061739 0 0.27067132333055188 -0.076788874412469815 0 0.26897876163713708 -0.070467118147906876 0 0.26145119023330071 -0.079000043976386408 0 0.27067132333055188 -0.076788874412469815 0 0.26897876163713708 -0.070467118147906876 0 0.2788070763813692 -0.075616481315712358 0 0.26897876163713708 -0.070467118147906876 0 0.27512965144911827 -0.070681904186227995 0 0.28819319405889499 -0.06706419956831737 0 0.2788070763813692 -0.075616481315712358 0 0.27512965144911827 -0.070681904186227995 0 0.26897876163713708 -0.070467118147906876 0 0.2788070763813692 -0.075616481315712358 0 0.26897876163713708 -0.070467118147906876 0 0.2788070763813692 -0.075616481315712358 0 0.27512965144911827 -0.070681904186227995 0 0.28251432898617262 -0.093384657121855619 0 0.25666672159796139 -0.092586939936295867 0 0.28251432898617262 -0.093384657121855619 0 0.27051227275229911 -0.08315566172012806 0 0.25666672159796139 -0.092586939936295867 0 0.28251432898617262 -0.093384657121855619 0 0.2788070763813692 -0.075616481315712358 0 0.27051227275229911 -0.08315566172012806 0 0.27067132333055188 -0.076788874412469815 0 0.27051227275229911 -0.08315566172012806 0 0.26145119023330071 -0.079000043976386408 0 0.27067132333055188 -0.076788874412469815 0 0.2788070763813692 -0.075616481315712358 0 0.27051227275229911 -0.08315566172012806 0 0.26145119023330071 -0.079000043976386408 0 0.25666672159796139 -0.092586939936295867 0 0.24423239209720191 -0.080930297464084477 0 0.27051227275229911 -0.08315566172012806 0 0.26145119023330071 -0.079000043976386408 0 0.25666672159796139 -0.092586939936295867 0 0.26180167325791431 -0.066706815846455908 0 0.25764566998465072 -0.070071372177431313 0 0.24120587699226881 -0.055916030502087773 0 0.26145119023330071 -0.079000043976386408 0 0.25764566998465072 -0.070071372177431313 0 0.24423239209720191 -0.080930297464084477 0 0.25764566998465072 -0.070071372177431313 0 0.24423239209720191 -0.080930297464084477 0 0.26897876163713708 -0.070467118147906876 0 0.26145119023330071 -0.079000043976386408 0 0.25764566998465072 -0.070071372177431313 0 0.26897876163713708 -0.070467118147906876 0 0.26180167325791431 -0.066706815846455908 0 0.25764566998465072 -0.070071372177431313 0 0.26897876163713708 -0.070467118147906876 0 0.25764566998465072 -0.070071372177431313 0 0.26897876163713708 -0.070467118147906876 0 0.26180167325791431 -0.066706815846455908 0 0.26180167325791431 -0.066706815846455908 0 0.25764566998465072 -0.070071372177431313 0 0.26180167325791431 -0.066706815846455908 0 0.26029261894245981 -0.048826031507571623 0 0.24120587699226881 -0.055916030502087773 0 0.26180167325791431 -0.066706815846455908 0 0.24120587699226881 -0.055916030502087773 0 0.26180167325791431 -0.066706815846455908 0 0.26029261894245981 -0.048826031507571623 0 0.27783686619476677 -0.05372527893061739 0 0.26180167325791431 -0.066706815846455908 0 0.27783686619476677 -0.05372527893061739 0 0.26029261894245981 -0.048826031507571623 0 0.27783686619476677 -0.05372527893061739 0 0.27031708646619812 -0.033638605470610219 0 0.27783686619476677 -0.05372527893061739 0 0.27031708646619812 -0.033638605470610219 0 0.28437966209514692 -0.033534114227583768 0 0.26029261894245981 -0.048826031507571623 0 0.27031708646619812 -0.033638605470610219 0 0.25030159180115191 -0.034143426788088307 0 0.26029261894245981 -0.048826031507571623 0 0.25030159180115191 -0.034143426788088307 0 0.24120587699226881 -0.055916030502087773 0 0.25030159180115191 -0.034143426788088307 0 0.26299580833271302 -0.019789195105520681 0 0.2464198669495459 -0.012097030270161889 0 0.27031708646619812 -0.033638605470610219 0 0.25030159180115191 -0.034143426788088307 0 0.26299580833271302 -0.019789195105520681 0 0.25322369798355371 0.0032948183560677501 0 0.26778398551549509 -0.0036893303100333872 0 0.2464198669495459 -0.012097030270161889 0 0.26299580833271302 -0.019789195105520681 0 0.26778398551549509 -0.0036893303100333872 0 0.2464198669495459 -0.012097030270161889 0 0.26299580833271302 -0.019789195105520681 0 0.26778398551549509 -0.0036893303100333872 0 0.28231604015163769 -0.018351258625531171 0 0.2895407867033607 0.0013395930438658619 0 0.26778398551549509 -0.0036893303100333872 0 0.28231604015163769 -0.018351258625531171 0 0.27031708646619812 -0.033638605470610219 0 0.26299580833271302 -0.019789195105520681 0 0.28231604015163769 -0.018351258625531171 0 0.27031708646619812 -0.033638605470610219 0 0.28231604015163769 -0.018351258625531171 0 0.28437966209514692 -0.033534114227583768 0 0.28231604015163769 -0.018351258625531171 0 0.29600028882747859 -0.03087980289019443 0 0.28437966209514692 -0.033534114227583768 0 0.28231604015163769 -0.018351258625531171 0 0.29600028882747859 -0.03087980289019443 0 0.30132541624728598 -0.01217829343577128 0 0.2895407867033607 0.0013395930438658619 0 0.28231604015163769 -0.018351258625531171 0 0.30132541624728598 -0.01217829343577128 0 0.31046320235639918 0.0067575729804437252 0 0.2895407867033607 0.0013395930438658619 0 0.30132541624728598 -0.01217829343577128 0 0.31046320235639918 0.0067575729804437252 0 0.3153830815233527 -0.0087530987426132929 0 0.30132541624728598 -0.01217829343577128 0 0.31486943567640469 -0.023744993086391868 0 0.3153830815233527 -0.0087530987426132929 0 0.30132541624728598 -0.01217829343577128 0 0.31486943567640469 -0.023744993086391868 0 0.29600028882747859 -0.03087980289019443 0 0.30132541624728598 -0.01217829343577128 0 0.31486943567640469 -0.023744993086391868 0 0.31197137499350902 -0.041008225260955711 0 0.29387205913161968 -0.04074374201477949 0 0.31486943567640469 -0.023744993086391868 0 0.29600028882747859 -0.03087980289019443 0 0.29387205913161968 -0.04074374201477949 0 0.31486943567640469 -0.023744993086391868 0 0.29387205913161968 -0.04074374201477949 0 0.31197137499350902 -0.041008225260955711 0 0.30601744289912669 -0.055409131432484229 0 0.29387205913161968 -0.04074374201477949 0 0.28819319405889499 -0.06706419956831737 0 0.27783686619476677 -0.05372527893061739 0 0.29387205913161968 -0.04074374201477949 0 0.28819319405889499 -0.06706419956831737 0 0.29387205913161968 -0.04074374201477949 0 0.27783686619476677 -0.05372527893061739 0 0.29387205913161968 -0.04074374201477949 0 0.28819319405889499 -0.06706419956831737 0 0.30601744289912669 -0.055409131432484229 0 0.29387205913161968 -0.04074374201477949 0 0.27783686619476677 -0.05372527893061739 0 0.28437966209514692 -0.033534114227583768 0 0.29387205913161968 -0.04074374201477949 0 0.29600028882747859 -0.03087980289019443 0 0.28437966209514692 -0.033534114227583768 0 0.29387205913161968 -0.04074374201477949 0 0.29600028882747859 -0.03087980289019443 0 0.29387205913161968 -0.04074374201477949 0 0.28925369461552242 -0.21547475378801551 0 0.29798535605087828 -0.20438389051808681 0 0.27851755886665591 -0.20371457102860641 0 0.28925369461552242 -0.21547475378801551 0 0.28465086540799672 -0.2254021489655588 0 0.27851755886665591 -0.20371457102860641 0 0.28925369461552242 -0.21547475378801551 0 0.29798535605087828 -0.20438389051808681 0 0.29625974568445868 -0.22722646109941139 0 0.28994099481116897 -0.19128490440727269 0 0.29798535605087828 -0.20438389051808681 0 0.29971096641729777 -0.18154131993676231 0 0.28994099481116897 -0.19128490440727269 0 0.27851755886665591 -0.20371457102860641 0 0.28355009790984409 -0.17549983614563519 0 0.28994099481116897 -0.19128490440727269 0 0.29798535605087828 -0.20438389051808681 0 0.27851755886665591 -0.20371457102860641 0 0.30866677822314281 -0.19370433905286669 0 0.29798535605087828 -0.20438389051808681 0 0.29971096641729777 -0.18154131993676231 0 0.29798535605087828 -0.20438389051808681 0 0.29971096641729777 -0.18154131993676231 0 0.30866677822314281 -0.19370433905286669 0 0.30817512199612251 -0.208018461664154 0 0.29798535605087828 -0.20438389051808681 0 0.29798535605087828 -0.20438389051808681 0 0.29625974568445868 -0.22722646109941139 0 0.30367267472900389 -0.2178556058656746 0 0.31200739898088131 -0.22851072207886541 0 0.31883562653249692 -0.20986103607638071 0 0.29798535605087828 -0.20438389051808681 0 0.30367267472900389 -0.2178556058656746 0 0.29625974568445868 -0.22722646109941139 0 0.30817512199612251 -0.208018461664154 0 0.29798535605087828 -0.20438389051808681 0 0.30367267472900389 -0.2178556058656746 0 0.30817512199612251 -0.208018461664154 0 0.30367267472900389 -0.2178556058656746 0 0.31883562653249692 -0.20986103607638071 0 0.30367267472900389 -0.2178556058656746 0 0.31883562653249692 -0.20986103607638071 0 0.31200739898088131 -0.22851072207886541 0 0.30517917142926537 -0.24716040808135001 0 0.29625974568445868 -0.22722646109941139 0 0.30367267472900389 -0.2178556058656746 0 0.31200739898088131 -0.22851072207886541 0 0.29625974568445868 -0.22722646109941139 0 0.31200739898088131 -0.22851072207886541 0 0.30517917142926537 -0.24716040808135001 0 0.30517917142926537 -0.24716040808135001 0 0.28765229627979871 -0.24304032400626949 0 0.29625974568445868 -0.22722646109941139 0 0.28765229627979871 -0.24304032400626949 0 0.29625974568445868 -0.22722646109941139 0 0.28465086540799672 -0.2254021489655588 0 0.28765229627979871 -0.24304032400626949 0 0.28465086540799672 -0.2254021489655588 0 0.27348501982346762 -0.23192930591157759 0 0.28925369461552242 -0.21547475378801551 0 0.29625974568445868 -0.22722646109941139 0 0.28465086540799672 -0.2254021489655588 0 0.28465086540799672 -0.2254021489655588 0 0.27348501982346762 -0.23192930591157759 0 0.27851755886665591 -0.20371457102860641 0 0.27348501982346762 -0.23192930591157759 0 0.25787859859726192 -0.24372773219337371 0 0.26845248078028039 -0.26014404079454911 0 0.28765229627979871 -0.24304032400626949 0 0.27348501982346762 -0.23192930591157759 0 0.26845248078028039 -0.26014404079454911 0 0.27348501982346762 -0.23192930591157759 0 0.26845248078028039 -0.26014404079454911 0 0.27348501982346762 -0.23192930591157759 0 0.25787859859726192 -0.24372773219337371 0 0.2485278721491469 -0.22983386195931649 0 0.27348501982346762 -0.23192930591157759 0 0.25806059678156651 -0.21160485628964759 0 0.2485278721491469 -0.22983386195931649 0 0.27348501982346762 -0.23192930591157759 0 0.27851755886665591 -0.20371457102860641 0 0.27348501982346762 -0.23192930591157759 0 0.25806059678156651 -0.21160485628964759 0 0.27851755886665591 -0.20371457102860641 0 0.27851755886665591 -0.20371457102860641 0 0.26140201073716351 -0.19316186481753209 0 0.27335445324682811 -0.1824409541049711 0 0.25806059678156651 -0.21160485628964759 0 0.27851755886665591 -0.20371457102860641 0 0.26140201073716351 -0.19316186481753209 0 0.27851755886665591 -0.20371457102860641 0 0.28355009790984409 -0.17549983614563519 0 0.25806059678156651 -0.21160485628964759 0 0.26140201073716351 -0.19316186481753209 0 0.24624710011957149 -0.19756578472926509 0 0.26140201073716351 -0.19316186481753209 0 0.25030889548151403 -0.1837077448593728 0 0.24624710011957149 -0.19756578472926509 0 0.25969225384889538 -0.18295045636353721 0 0.2550208565069661 -0.17514012483034949 0 0.27335445324682811 -0.1824409541049711 0 0.26140201073716351 -0.19316186481753209 0 0.25030889548151403 -0.1837077448593728 0 0.25969225384889538 -0.18295045636353721 0 0.25030889548151403 -0.1837077448593728 0 0.25969225384889538 -0.18295045636353721 0 0.2550208565069661 -0.17514012483034949 0 0.2550208565069661 -0.17514012483034949 0 0.2530488896403309 -0.16079061319898569 0 0.27335445324682811 -0.1824409541049711 0 0.26140201073716351 -0.19316186481753209 0 0.25969225384889538 -0.18295045636353721 0 0.27335445324682811 -0.1824409541049711 0 0.2530488896403309 -0.16079061319898569 0 0.272260185211738 -0.168331689764908 0 0.26878477807763418 -0.16016356734556891 0 0.2530488896403309 -0.16079061319898569 0 0.26878477807763418 -0.16016356734556891 0 0.26293682869207591 -0.15391070786642169 0 0.2530488896403309 -0.16079061319898569 0 0.27335445324682811 -0.1824409541049711 0 0.272260185211738 -0.168331689764908 0 0.27899515764395177 -0.15443660918041571 0 0.28355009790984409 -0.17549983614563519 0 0.2530488896403309 -0.16079061319898569 0 0.272260185211738 -0.168331689764908 0 0.27335445324682811 -0.1824409541049711 0 0.272260185211738 -0.168331689764908 0 0.26878477807763418 -0.16016356734556891 0 0.27899515764395177 -0.15443660918041571 0 0.272260185211738 -0.168331689764908 0 0.27335445324682811 -0.1824409541049711 0 0.28355009790984409 -0.17549983614563519 0 0.27851755886665591 -0.20371457102860641 0 0.27335445324682811 -0.1824409541049711 0 0.28355009790984409 -0.17549983614563519 0 0.25915390151091949 -0.11811210275817149 0 0.25133622254172122 -0.13557462765415079 0 0.27338563510190422 -0.1356944138819183 0 0.25133622254172122 -0.13557462765415079 0 0.27338563510190422 -0.1356944138819183 0 0.25133622254172122 -0.13557462765415079 0 0.25208407187516418 -0.1419613505697605 0 0.27338563510190422 -0.1356944138819183 0 0.26557247671991108 -0.14774187414890411 0 0.25208407187516418 -0.1419613505697605 0 0.27142481771649529 -0.14478242884651979 0 0.25208407187516418 -0.1419613505697605 0 0.27142481771649529 -0.14478242884651979 0 0.2530488896403309 -0.16079061319898569 0 0.25208407187516418 -0.1419613505697605 0 0.26293682869207591 -0.15391070786642169 0 0.26557247671991108 -0.14774187414890411 0 0.25208407187516418 -0.1419613505697605 0 0.26293682869207591 -0.15391070786642169 0 0.27899515764395177 -0.15443660918041571 0 0.27142481771649529 -0.14478242884651979 0 0.28858263695303038 -0.1472851012626637 0 0.25208407187516418 -0.1419613505697605 0 0.27142481771649529 -0.14478242884651979 0 0.27338563510190422 -0.1356944138819183 0 0.27142481771649529 -0.14478242884651979 0 0.28858263695303038 -0.1472851012626637 0 0.27142481771649529 -0.14478242884651979 0 0.27338563510190422 -0.1356944138819183 0 0.28952553314766588 -0.14199879033185039 0 0.26878477807763418 -0.16016356734556891 0 0.27009527632936597 -0.15279308215900331 0 0.27899515764395177 -0.15443660918041571 0 0.26557247671991108 -0.14774187414890411 0 0.27009527632936597 -0.15279308215900331 0 0.27142481771649529 -0.14478242884651979 0 0.26878477807763418 -0.16016356734556891 0 0.26293682869207591 -0.15391070786642169 0 0.27009527632936597 -0.15279308215900331 0 0.26557247671991108 -0.14774187414890411 0 0.26293682869207591 -0.15391070786642169 0 0.27009527632936597 -0.15279308215900331 0 0.27009527632936597 -0.15279308215900331 0 0.27899515764395177 -0.15443660918041571 0 0.27142481771649529 -0.14478242884651979 0 0.27794998204403759 -0.11453953550188679 0 0.27338563510190422 -0.1356944138819183 0 0.27142481771649529 -0.14478242884651979 0 0.27338563510190422 -0.1356944138819183 0 0.27338563510190422 -0.1356944138819183 0 0.30316218715013699 -0.13585617877411299 0 0.29209333803684512 -0.1204183792118467 0 0.27338563510190422 -0.1356944138819183 0 0.30316218715013699 -0.13585617877411299 0 0.27338563510190422 -0.1356944138819183 0 0.28952553314766588 -0.14199879033185039 0 0.30316218715013699 -0.13585617877411299 0 0.27142481771649529 -0.14478242884651979 0 0.28952553314766588 -0.14199879033185039 0 0.28858263695303038 -0.1472851012626637 0 0.28858263695303038 -0.1472851012626637 0 0.30013596324633868 -0.14897029159077979 0 0.28952553314766588 -0.14199879033185039 0 0.28858263695303038 -0.1472851012626637 0 0.30013596324633868 -0.14897029159077979 0 0.28952553314766588 -0.14199879033185039 0 0.28858263695303038 -0.1472851012626637 0 0.28858263695303038 -0.1472851012626637 0 0.30013596324633868 -0.14897029159077979 0 0.29372711844303928 -0.1600295372122347 0 0.30316218715013699 -0.13585617877411299 0 0.30143657678371732 -0.15869874935543771 0 0.30013596324633868 -0.14897029159077979 0 0.30316218715013699 -0.13585617877411299 0 0.30143657678371732 -0.15869874935543771 0 0.30316218715013699 -0.13585617877411299 0 0.30143657678371732 -0.15869874935543771 0 0.31253980123811259 -0.14771969478669131 0 0.30013596324633868 -0.14897029159077979 0 0.29372711844303928 -0.1600295372122347 0 0.30143657678371732 -0.15869874935543771 0 0.30143657678371732 -0.15869874935543771 0 0.31557079919726838 -0.1590044961535387 0 0.31253980123811259 -0.14771969478669131 0 0.28952553314766588 -0.14199879033185039 0 0.30013596324633868 -0.14897029159077979 0 0.30316218715013699 -0.13585617877411299 0 0.30316218715013699 -0.13585617877411299 0 0.31993283661344418 -0.13594728745244961 0 0.31253980123811259 -0.14771969478669131 0 0.30316218715013699 -0.13585617877411299 0 0.31993283661344418 -0.13594728745244961 0 0.28994099481116897 -0.19128490440727269 0 0.28355009790984409 -0.17549983614563519 0 0.29971096641729777 -0.18154131993676231 0 0.28355009790984409 -0.17549983614563519 0 0.29493031732226571 -0.16969370770665679 0 0.29971096641729777 -0.18154131993676231 0 0.27899515764395177 -0.15443660918041571 0 0.28858263695303038 -0.1472851012626637 0 0.28355009790984409 -0.17549983614563519 0 0.28858263695303038 -0.1472851012626637 0 0.28355009790984409 -0.17549983614563519 0 0.28858263695303038 -0.1472851012626637 0 0.28355009790984409 -0.17549983614563519 0 0.29372711844303928 -0.1600295372122347 0 0.29372711844303928 -0.1600295372122347 0 0.29493031732226571 -0.16969370770665679 0 0.30143657678371732 -0.15869874935543771 0 0.28355009790984409 -0.17549983614563519 0 0.29372711844303928 -0.1600295372122347 0 0.29493031732226571 -0.16969370770665679 0 0.30143657678371732 -0.15869874935543771 0 0.29971096641729777 -0.18154131993676231 0 0.30143657678371732 -0.15869874935543771 0 0.30809610970482848 -0.16795036279156811 0 0.29971096641729777 -0.18154131993676231 0 0.29493031732226571 -0.16969370770665679 0 0.30143657678371732 -0.15869874935543771 0 0.29971096641729777 -0.18154131993676231 0 0.30143657678371732 -0.15869874935543771 0 0.30809610970482848 -0.16795036279156811 0 0.31557079919726838 -0.1590044961535387 0 0.29971096641729777 -0.18154131993676231 0 0.31498869866721663 -0.1848028620899877 0 0.3156660964210305 -0.17255688572053399 0 0.30809610970482848 -0.16795036279156811 0 0.29971096641729777 -0.18154131993676231 0 0.3156660964210305 -0.17255688572053399 0 0.30866677822314281 -0.19370433905286669 0 0.29971096641729777 -0.18154131993676231 0 0.31498869866721663 -0.1848028620899877 0 0.32729102930978993 -0.18432716657830939 0 0.3156660964210305 -0.17255688572053399 0 0.33199725769327038 -0.160182781354547 0 0.31498869866721663 -0.1848028620899877 0 0.32729102930978993 -0.18432716657830939 0 0.3156660964210305 -0.17255688572053399 0 0.3156660964210305 -0.17255688572053399 0 0.31557079919726838 -0.1590044961535387 0 0.33199725769327038 -0.160182781354547 0 0.30809610970482848 -0.16795036279156811 0 0.3156660964210305 -0.17255688572053399 0 0.31557079919726838 -0.1590044961535387 0 0.32729102930978993 -0.18432716657830939 0 0.34572674800851178 -0.17666980330527179 0 0.34152908302092871 -0.19789605564194099 0 0.32729102930978993 -0.18432716657830939 0 0.33199725769327038 -0.160182781354547 0 0.34572674800851178 -0.17666980330527179 0 0.32729102930978993 -0.18432716657830939 0 0.33199725769327038 -0.160182781354547 0 0.31854024801571379 -0.1183964408803808 0 0.30316218715013699 -0.13585617877411299 0 0.31993283661344418 -0.13594728745244961 0 0.31993283661344418 -0.13594728745244961 0 0.32334883616376942 -0.1477785311756023 0 0.33670348607675138 -0.13603839613078461 0 0.31854024801571379 -0.1183964408803808 0 0.31993283661344418 -0.13594728745244961 0 0.33718817445421712 -0.13355179710808501 0 0.31854024801571379 -0.1183964408803808 0 0.33718817445421712 -0.13355179710808501 0 0.31557079919726838 -0.1590044961535387 0 0.33199725769327038 -0.160182781354547 0 0.32334883616376942 -0.1477785311756023 0 0.31993283661344418 -0.13594728745244961 0 0.32334883616376942 -0.1477785311756023 0 0.31253980123811259 -0.14771969478669131 0 0.31557079919726838 -0.1590044961535387 0 0.32334883616376942 -0.1477785311756023 0 0.31253980123811259 -0.14771969478669131 0 0.33199725769327038 -0.160182781354547 0 0.34027166502062639 -0.13605778071504529 0 0.33670348607675138 -0.13603839613078461 0 0.33199725769327038 -0.160182781354547 0 0.32334883616376942 -0.1477785311756023 0 0.33670348607675138 -0.13603839613078461 0 0.33199725769327038 -0.160182781354547 0 0.33670348607675138 -0.13603839613078461 0 0.31993283661344418 -0.13594728745244961 0 0.33670348607675138 -0.13603839613078461 0 0.31993283661344418 -0.13594728745244961 0 0.33670348607675138 -0.13603839613078461 0 0.33718817445421712 -0.13355179710808501 0 0.34025414842832208 -0.11782241666052221 0 0.33718817445421712 -0.13355179710808501 0 0.34381162934489939 -0.12854128697128539 0 0.34025414842832208 -0.11782241666052221 0 0.33718817445421712 -0.13355179710808501 0 0.34027166502062639 -0.13605778071504529 0 0.33670348607675138 -0.13603839613078461 0 0.33718817445421712 -0.13355179710808501 0 0.34027166502062639 -0.13605778071504529 0 0.33718817445421712 -0.13355179710808501 0 0.34027166502062639 -0.13605778071504529 0 0.33670348607675138 -0.13603839613078461 0 0.33670348607675138 -0.13603839613078461 0 0.33718817445421712 -0.13355179710808501 0 0.34027166502062639 -0.13605778071504529 0 0.33718817445421712 -0.13355179710808501 0 0.34381162934489939 -0.12854128697128539 0 0.33199725769327038 -0.160182781354547 0 0.34027166502062639 -0.13605778071504529 0 0.36359383050920879 -0.15501193774405861 0 0.35355367174401742 -0.1211945845718113 0 0.34381162934489939 -0.12854128697128539 0 0.34779048707731292 -0.1340798558009649 0 0.34027166502062639 -0.13605778071504529 0 0.34884821061351562 -0.13610437388577321 0 0.35664352332635268 -0.13060513793896061 0 0.34779048707731292 -0.1340798558009649 0 0.34884821061351562 -0.13610437388577321 0 0.34027166502062639 -0.13605778071504529 0 0.34779048707731292 -0.1340798558009649 0 0.34884821061351562 -0.13610437388577321 0 0.34027166502062639 -0.13605778071504529 0 0.34381162934489939 -0.12854128697128539 0 0.34779048707731292 -0.1340798558009649 0 0.35664352332635268 -0.13060513793896061 0 0.34884821061351562 -0.13610437388577321 0 0.36374720336072303 -0.13810563056468389 0 0.34884821061351562 -0.13610437388577321 0 0.36359383050920879 -0.15501193774405861 0 0.36374720336072303 -0.13810563056468389 0 0.34027166502062639 -0.13605778071504529 0 0.36359383050920879 -0.15501193774405861 0 0.34027166502062639 -0.13605778071504529 0 0.34884821061351562 -0.13610437388577321 0 0.36359383050920879 -0.15501193774405861 0 0.36359383050920879 -0.15501193774405861 0 0.36374720336072303 -0.13810563056468389 0 0.37656812491251679 -0.13846106794218549 0 0.3785150876385216 -0.1195111518185689 0 0.36779594019891898 -0.12729788290040461 0 0.37656812491251679 -0.13846106794218549 0 0.36374720336072303 -0.13810563056468389 0 0.36779594019891898 -0.12729788290040461 0 0.37656812491251679 -0.13846106794218549 0 0.35664352332635268 -0.13060513793896061 0 0.36374720336072303 -0.13810563056468389 0 0.36779594019891898 -0.12729788290040461 0 0.33199725769327038 -0.160182781354547 0 0.36359383050920879 -0.15501193774405861 0 0.34572674800851178 -0.17666980330527179 0 0.34572674800851178 -0.17666980330527179 0 0.36422253950936112 -0.1859310752075029 0 0.34152908302092871 -0.19789605564194099 0 0.36359383050920879 -0.15501193774405861 0 0.34572674800851178 -0.17666980330527179 0 0.36422253950936112 -0.1859310752075029 0 0.36359383050920879 -0.15501193774405861 0 0.36422253950936112 -0.1859310752075029 0 0.38691599599779503 -0.1739660947730671 0 0.36422253950936112 -0.1859310752075029 0 0.37220629557919183 -0.19612338441269381 0 0.37910290544765168 -0.18685571494790659 0 0.36422253950936112 -0.1859310752075029 0 0.37220629557919183 -0.19612338441269381 0 0.35685044422528578 -0.20027094664828951 0 0.37220629557919183 -0.19612338441269381 0 0.3556522221671049 -0.2162457527497984 0 0.35685044422528578 -0.20027094664828951 0 0.37220629557919183 -0.19612338441269381 0 0.3556522221671049 -0.2162457527497984 0 0.37273333868611941 -0.2093978965492076 0 0.3556522221671049 -0.2162457527497984 0 0.3731990688381891 -0.2228302363117915 0 0.37220629557919183 -0.19612338441269381 0 0.37273333868611941 -0.2093978965492076 0 0.3556522221671049 -0.2162457527497984 0 0.34913249600123192 -0.20719712371303781 0 0.34152908302092871 -0.19789605564194099 0 0.34144894007629428 -0.2139395960038605 0 0.3556522221671049 -0.2162457527497984 0 0.34913249600123192 -0.20719712371303781 0 0.35685044422528578 -0.20027094664828951 0 0.3556522221671049 -0.2162457527497984 0 0.34913249600123192 -0.20719712371303781 0 0.34144894007629428 -0.2139395960038605 0 0.36422253950936112 -0.1859310752075029 0 0.35685044422528578 -0.20027094664828951 0 0.34152908302092871 -0.19789605564194099 0 0.36422253950936112 -0.1859310752075029 0 0.34152908302092871 -0.19789605564194099 0 0.34913249600123192 -0.20719712371303781 0 0.35685044422528578 -0.20027094664828951 0 0.34152908302092871 -0.19789605564194099 0 0.32729102930978993 -0.18432716657830939 0 0.34152908302092871 -0.19789605564194099 0 0.32289957828838461 -0.19876131457419149 0 0.34152908302092871 -0.19789605564194099 0 0.31883562653249692 -0.20986103607638071 0 0.34152908302092871 -0.19789605564194099 0 0.34144894007629428 -0.2139395960038605 0 0.31883562653249692 -0.20986103607638071 0 0.34144894007629428 -0.2139395960038605 0 0.31883562653249692 -0.20986103607638071 0 0.32331405575278033 -0.23055000204260581 0 0.31883562653249692 -0.20986103607638071 0 0.32289957828838461 -0.19876131457419149 0 0.30817512199612251 -0.208018461664154 0 0.31883562653249692 -0.20986103607638071 0 0.32289957828838461 -0.19876131457419149 0 0.30866677822314281 -0.19370433905286669 0 0.30817512199612251 -0.208018461664154 0 0.32289957828838461 -0.19876131457419149 0 0.34152908302092871 -0.19789605564194099 0 0.31883562653249692 -0.20986103607638071 0 0.32289957828838461 -0.19876131457419149 0 0.30866677822314281 -0.19370433905286669 0 0.31498869866721663 -0.1848028620899877 0 0.32289957828838461 -0.19876131457419149 0 0.31498869866721663 -0.1848028620899877 0 0.32729102930978993 -0.18432716657830939 0 0.32289957828838461 -0.19876131457419149 0 0.30517917142926537 -0.24716040808135001 0 0.32331405575278033 -0.23055000204260581 0 0.30517917142926537 -0.24716040808135001 0 0.32331405575278033 -0.23055000204260581 0 0.322544075342931 -0.25649048942400782 0 0.31200739898088131 -0.22851072207886541 0 0.30517917142926537 -0.24716040808135001 0 0.32331405575278033 -0.23055000204260581 0 0.31200739898088131 -0.22851072207886541 0 0.31883562653249692 -0.20986103607638071 0 0.31200739898088131 -0.22851072207886541 0 0.31883562653249692 -0.20986103607638071 0 0.32331405575278033 -0.23055000204260581 0 0.34144894007629428 -0.2139395960038605 0 0.32331405575278033 -0.23055000204260581 0 0.34144894007629428 -0.2139395960038605 0 0.32331405575278033 -0.23055000204260581 0 0.33909814875501798 -0.23636812108690311 0 0.33909814875501798 -0.23636812108690311 0 0.322544075342931 -0.25649048942400782 0 0.32331405575278033 -0.23055000204260581 0 0.33909814875501798 -0.23636812108690311 0 0.322544075342931 -0.25649048942400782 0 0.33909814875501798 -0.23636812108690311 0 0.35007299243335749 -0.24785688602667111 0 0.33700232267718733 -0.25494009872172468 0 0.33909814875501798 -0.23636812108690311 0 0.322544075342931 -0.25649048942400782 0 0.33700232267718733 -0.25494009872172468 0 0.33909814875501798 -0.23636812108690311 0 0.35007299243335749 -0.24785688602667111 0 0.35471840821638012 -0.232162972911199 0 0.35007299243335749 -0.24785688602667111 0 0.35471840821638012 -0.232162972911199 0 0.36225179838031341 -0.2439392928582107 0 0.35007299243335749 -0.24785688602667111 0 0.36225179838031341 -0.2439392928582107 0 0.36124693131331159 -0.25807728632712912 0 0.3556522221671049 -0.2162457527497984 0 0.33909814875501798 -0.23636812108690311 0 0.3556522221671049 -0.2162457527497984 0 0.33909814875501798 -0.23636812108690311 0 0.35471840821638012 -0.232162972911199 0 0.3556522221671049 -0.2162457527497984 0 0.34144894007629428 -0.2139395960038605 0 0.33909814875501798 -0.23636812108690311 0 0.35471840821638012 -0.232162972911199 0 0.3731990688381891 -0.2228302363117915 0 0.36225179838031341 -0.2439392928582107 0 0.3556522221671049 -0.2162457527497984 0 0.35471840821638012 -0.232162972911199 0 0.3731990688381891 -0.2228302363117915 0 0.3731990688381891 -0.2228302363117915 0 0.36225179838031341 -0.2439392928582107 0 0.3731990688381891 -0.2228302363117915 0 0.36225179838031341 -0.2439392928582107 0 0.38186963046980549 -0.2367879359972051 0 0.36225179838031341 -0.2439392928582107 0 0.38186963046980549 -0.2367879359972051 0 0.37510228513818711 -0.25237727586059511 0 0.38186963046980549 -0.2367879359972051 0 0.39206528024080278 -0.24921397013056479 0 0.37510228513818711 -0.25237727586059511 0 0.39206528024080278 -0.24921397013056479 0 0.40137725565661481 -0.22692044649349019 0 0.4148006158986044 -0.24103970595398019 0 0.39206528024080278 -0.24921397013056479 0 0.4148006158986044 -0.24103970595398019 0 0.40884184876520419 -0.25890250189124958 0 0.38186963046980549 -0.2367879359972051 0 0.39206528024080278 -0.24921397013056479 0 0.40137725565661481 -0.22692044649349019 0 0.40137725565661481 -0.22692044649349019 0 0.39915185452682361 -0.21610044156742811 0 0.41396763236883027 -0.21470461273584779 0 0.40137725565661481 -0.22692044649349019 0 0.38700545273377529 -0.2233412248148075 0 0.39915185452682361 -0.21610044156742811 0 0.38186963046980549 -0.2367879359972051 0 0.40137725565661481 -0.22692044649349019 0 0.38700545273377529 -0.2233412248148075 0 0.3731990688381891 -0.2228302363117915 0 0.38186963046980549 -0.2367879359972051 0 0.38700545273377529 -0.2233412248148075 0 0.3731990688381891 -0.2228302363117915 0 0.38414633929606479 -0.2017211797653724 0 0.37273333868611941 -0.2093978965492076 0 0.3731990688381891 -0.2228302363117915 0 0.38414633929606479 -0.2017211797653724 0 0.3731990688381891 -0.2228302363117915 0 0.38675328488958288 -0.2095276895359276 0 0.38414633929606479 -0.2017211797653724 0 0.3731990688381891 -0.2228302363117915 0 0.38700545273377529 -0.2233412248148075 0 0.38675328488958288 -0.2095276895359276 0 0.38675328488958288 -0.2095276895359276 0 0.38414633929606479 -0.2017211797653724 0 0.39287005569986072 -0.20314648074516001 0 0.38414633929606479 -0.2017211797653724 0 0.38373621375160438 -0.1885238144486111 0 0.39509360975394031 -0.18061212321895309 0 0.38414633929606479 -0.2017211797653724 0 0.39509360975394031 -0.18061212321895309 0 0.37999921147615667 -0.19503406661491049 0 0.38373621375160438 -0.1885238144486111 0 0.37910290544765168 -0.18685571494790659 0 0.37999921147615667 -0.19503406661491049 0 0.38414633929606479 -0.2017211797653724 0 0.38373621375160438 -0.1885238144486111 0 0.37220629557919183 -0.19612338441269381 0 0.37999921147615667 -0.19503406661491049 0 0.37910290544765168 -0.18685571494790659 0 0.37220629557919183 -0.19612338441269381 0 0.37273333868611941 -0.2093978965492076 0 0.38414633929606479 -0.2017211797653724 0 0.37220629557919183 -0.19612338441269381 0 0.37999921147615667 -0.19503406661491049 0 0.38414633929606479 -0.2017211797653724 0 0.38414633929606479 -0.2017211797653724 0 0.39694758591794982 -0.18886739411602391 0 0.39509360975394031 -0.18061212321895309 0 0.39694758591794982 -0.18886739411602391 0 0.3969424320709618 -0.1972324897541754 0 0.40101572763622523 -0.19231380306325679 0 0.38414633929606479 -0.2017211797653724 0 0.39694758591794982 -0.18886739411602391 0 0.3969424320709618 -0.1972324897541754 0 0.38414633929606479 -0.2017211797653724 0 0.3969424320709618 -0.1972324897541754 0 0.39287005569986072 -0.20314648074516001 0 0.3969424320709618 -0.1972324897541754 0 0.400612395600416 -0.20053006859666331 0 0.39287005569986072 -0.20314648074516001 0 0.3969424320709618 -0.1972324897541754 0 0.4059814476455269 -0.19573306963025069 0 0.400612395600416 -0.20053006859666331 0 0.4059814476455269 -0.19573306963025069 0 0.400612395600416 -0.20053006859666331 0 0.40665564698531481 -0.2060082342570673 0 0.3969424320709618 -0.1972324897541754 0 0.4059814476455269 -0.19573306963025069 0 0.40101572763622523 -0.19231380306325679 0 0.4059814476455269 -0.19573306963025069 0 0.40101572763622523 -0.19231380306325679 0 0.40419144491046238 -0.1874222587525772 0 0.39694758591794982 -0.18886739411602391 0 0.40101572763622523 -0.19231380306325679 0 0.40419144491046238 -0.1874222587525772 0 0.38675328488958288 -0.2095276895359276 0 0.40665564698531481 -0.2060082342570673 0 0.38675328488958288 -0.2095276895359276 0 0.39915185452682361 -0.21610044156742811 0 0.40665564698531481 -0.2060082342570673 0 0.38675328488958288 -0.2095276895359276 0 0.39287005569986072 -0.20314648074516001 0 0.40665564698531481 -0.2060082342570673 0 0.38700545273377529 -0.2233412248148075 0 0.38675328488958288 -0.2095276895359276 0 0.39915185452682361 -0.21610044156742811 0 0.400612395600416 -0.20053006859666331 0 0.39287005569986072 -0.20314648074516001 0 0.40665564698531481 -0.2060082342570673 0 0.41396763236883027 -0.21470461273584779 0 0.40665564698531481 -0.2060082342570673 0 0.42655800908104652 -0.20248877897820619 0 0.40665564698531481 -0.2060082342570673 0 0.42655800908104652 -0.20248877897820619 0 0.39915185452682361 -0.21610044156742811 0 0.41396763236883027 -0.21470461273584779 0 0.40665564698531481 -0.2060082342570673 0 0.41396763236883027 -0.21470461273584779 0 0.42655800908104652 -0.20248877897820619 0 0.40665564698531481 -0.2060082342570673 0 0.41640017291144837 -0.19588579121564459 0 0.42655800908104652 -0.20248877897820619 0 0.4059814476455269 -0.19573306963025069 0 0.41640017291144837 -0.19588579121564459 0 0.41453364601533049 -0.1862870086825022 0 0.4059814476455269 -0.19573306963025069 0 0.40419144491046238 -0.1874222587525772 0 0.41453364601533049 -0.1862870086825022 0 0.4059814476455269 -0.19573306963025069 0 0.40665564698531481 -0.2060082342570673 0 0.41640017291144837 -0.19588579121564459 0 0.41640017291144837 -0.19588579121564459 0 0.42581299264578848 -0.18832250896932939 0 0.41453364601533049 -0.1862870086825022 0 0.42655800908104652 -0.20248877897820619 0 0.444302871767289 -0.18527179670816579 0 0.42581299264578848 -0.18832250896932939 0 0.42655800908104652 -0.20248877897820619 0 0.444302871767289 -0.18527179670816579 0 0.41640017291144837 -0.19588579121564459 0 0.42581299264578848 -0.18832250896932939 0 0.42655800908104652 -0.20248877897820619 0 0.42655800908104652 -0.20248877897820619 0 0.43237997939727391 -0.21969514264188619 0 0.44995934289594253 -0.19835057932979169 0 0.41396763236883027 -0.21470461273584779 0 0.42655800908104652 -0.20248877897820619 0 0.43237997939727391 -0.21969514264188619 0 0.43237997939727391 -0.21969514264188619 0 0.43199948472716282 -0.23703470349933331 0 0.4148006158986044 -0.24103970595398019 0 0.43237997939727391 -0.21969514264188619 0 0.4148006158986044 -0.24103970595398019 0 0.43199948472716282 -0.23703470349933331 0 0.4148006158986044 -0.24103970595398019 0 0.42892204251950339 -0.2594807324876427 0 0.43199948472716282 -0.23703470349933331 0 0.44338493428344739 -0.24574379201886831 0 0.42892204251950339 -0.2594807324876427 0 0.43237997939727391 -0.21969514264188619 0 0.4148006158986044 -0.24103970595398019 0 0.41563137083033092 -0.22558997695630109 0 0.41396763236883027 -0.21470461273584779 0 0.43237997939727391 -0.21969514264188619 0 0.41563137083033092 -0.22558997695630109 0 0.40137725565661481 -0.22692044649349019 0 0.4148006158986044 -0.24103970595398019 0 0.41563137083033092 -0.22558997695630109 0 0.40137725565661481 -0.22692044649349019 0 0.41396763236883027 -0.21470461273584779 0 0.40137725565661481 -0.22692044649349019 0 0.41396763236883027 -0.21470461273584779 0 0.41563137083033092 -0.22558997695630109 0 0.39237070121405998 -0.13164091544729051 0 0.39988799210863701 -0.14408364481314989 0 0.41368108829086198 -0.13554811058748131 0 0.40604313277712428 -0.1171380761358455 0 0.39237070121405998 -0.13164091544729051 0 0.41368108829086198 -0.13554811058748131 0 0.39237070121405998 -0.13164091544729051 0 0.37656812491251679 -0.13846106794218549 0 0.38605620033535121 -0.1499684147877679 0 0.3785150876385216 -0.1195111518185689 0 0.39237070121405998 -0.13164091544729051 0 0.37656812491251679 -0.13846106794218549 0 0.36359383050920879 -0.15501193774405861 0 0.37656812491251679 -0.13846106794218549 0 0.38605620033535121 -0.1499684147877679 0 0.39237070121405998 -0.13164091544729051 0 0.38605620033535121 -0.1499684147877679 0 0.39988799210863701 -0.14408364481314989 0 0.38605620033535121 -0.1499684147877679 0 0.39988799210863701 -0.14408364481314989 0 0.39700055726989097 -0.15664682800685811 0 0.39988799210863701 -0.14408364481314989 0 0.39700055726989097 -0.15664682800685811 0 0.40766935758353628 -0.1563629578155839 0 0.40291487034120532 -0.16553079014728059 0 0.39700055726989097 -0.15664682800685811 0 0.38691599599779503 -0.1739660947730671 0 0.40291487034120532 -0.16553079014728059 0 0.38691599599779503 -0.1739660947730671 0 0.40291487034120532 -0.16553079014728059 0 0.39700055726989097 -0.15664682800685811 0 0.40766935758353628 -0.1563629578155839 0 0.40291487034120532 -0.16553079014728059 0 0.40766935758353628 -0.1563629578155839 0 0.38605620033535121 -0.1499684147877679 0 0.39700055726989097 -0.15664682800685811 0 0.38691599599779503 -0.1739660947730671 0 0.36359383050920879 -0.15501193774405861 0 0.38691599599779503 -0.1739660947730671 0 0.36359383050920879 -0.15501193774405861 0 0.38605620033535121 -0.1499684147877679 0 0.38691599599779503 -0.1739660947730671 0 0.36422253950936112 -0.1859310752075029 0 0.38691599599779503 -0.1739660947730671 0 0.37910290544765168 -0.18685571494790659 0 0.36422253950936112 -0.1859310752075029 0 0.38691599599779503 -0.1739660947730671 0 0.38691599599779503 -0.1739660947730671 0 0.38753717637180268 -0.18155585423065651 0 0.39509360975394031 -0.18061212321895309 0 0.38373621375160438 -0.1885238144486111 0 0.38753717637180268 -0.18155585423065651 0 0.39509360975394031 -0.18061212321895309 0 0.38691599599779503 -0.1739660947730671 0 0.37910290544765168 -0.18685571494790659 0 0.38753717637180268 -0.18155585423065651 0 0.38373621375160438 -0.1885238144486111 0 0.37910290544765168 -0.18685571494790659 0 0.38753717637180268 -0.18155585423065651 0 0.40291487034120532 -0.16553079014728059 0 0.38691599599779503 -0.1739660947730671 0 0.39509360975394031 -0.18061212321895309 0 0.39694758591794982 -0.18886739411602391 0 0.39665445354372708 -0.18451779314135289 0 0.39509360975394031 -0.18061212321895309 0 0.39694758591794982 -0.18886739411602391 0 0.39665445354372708 -0.18451779314135289 0 0.40021252966215071 -0.18382207331845951 0 0.39665445354372708 -0.18451779314135289 0 0.39509360975394031 -0.18061212321895309 0 0.40021252966215071 -0.18382207331845951 0 0.38691599599779503 -0.1739660947730671 0 0.39509360975394031 -0.18061212321895309 0 0.40291487034120532 -0.16553079014728059 0 0.39509360975394031 -0.18061212321895309 0 0.40549068313545528 -0.17742909809594989 0 0.40291487034120532 -0.16553079014728059 0 0.39509360975394031 -0.18061212321895309 0 0.40549068313545528 -0.17742909809594989 0 0.40419144491046238 -0.1874222587525772 0 0.40021252966215071 -0.18382207331845951 0 0.39509360975394031 -0.18061212321895309 0 0.40549068313545528 -0.17742909809594989 0 0.40021252966215071 -0.18382207331845951 0 0.39694758591794982 -0.18886739411602391 0 0.40419144491046238 -0.1874222587525772 0 0.40021252966215071 -0.18382207331845951 0 0.42581299264578848 -0.18832250896932939 0 0.41453364601533049 -0.1862870086825022 0 0.42235201908535791 -0.17050045814039369 0 0.40549068313545528 -0.17742909809594989 0 0.41453364601533049 -0.1862870086825022 0 0.42235201908535791 -0.17050045814039369 0 0.40549068313545528 -0.17742909809594989 0 0.40419144491046238 -0.1874222587525772 0 0.41453364601533049 -0.1862870086825022 0 0.42235201908535791 -0.17050045814039369 0 0.44127751826325029 -0.16493106072254701 0 0.444302871767289 -0.18527179670816579 0 0.42581299264578848 -0.18832250896932939 0 0.42235201908535791 -0.17050045814039369 0 0.444302871767289 -0.18527179670816579 0 0.42235201908535791 -0.17050045814039369 0 0.42606808286872072 -0.1533234062687002 0 0.44127751826325029 -0.16493106072254701 0 0.40291487034120532 -0.16553079014728059 0 0.40766935758353628 -0.1563629578155839 0 0.42606808286872072 -0.1533234062687002 0 0.40291487034120532 -0.16553079014728059 0 0.42606808286872072 -0.1533234062687002 0 0.40291487034120532 -0.16553079014728059 0 0.42235201908535791 -0.17050045814039369 0 0.42606808286872072 -0.1533234062687002 0 0.40291487034120532 -0.16553079014728059 0 0.40549068313545528 -0.17742909809594989 0 0.42235201908535791 -0.17050045814039369 0 0.41182663021293903 -0.1473295298712288 0 0.42606808286872072 -0.1533234062687002 0 0.41368108829086198 -0.13554811058748131 0 0.40766935758353628 -0.1563629578155839 0 0.41182663021293903 -0.1473295298712288 0 0.42606808286872072 -0.1533234062687002 0 0.39988799210863701 -0.14408364481314989 0 0.40766935758353628 -0.1563629578155839 0 0.41182663021293903 -0.1473295298712288 0 0.39988799210863701 -0.14408364481314989 0 0.41182663021293903 -0.1473295298712288 0 0.41368108829086198 -0.13554811058748131 0 0.42606808286872072 -0.1533234062687002 0 0.430889964195386 -0.135117951771525 0 0.44922129539623712 -0.14111602239012119 0 0.42606808286872072 -0.1533234062687002 0 0.430889964195386 -0.135117951771525 0 0.41368108829086198 -0.13554811058748131 0 0.42080162445294911 -0.1170697999396166 0 0.430889964195386 -0.135117951771525 0 0.41368108829086198 -0.13554811058748131 0 0.45825176112352212 -0.1171944005084963 0 0.44922129539623712 -0.14111602239012119 0 0.47461064769812122 -0.12772964805397971 0 0.44922129539623712 -0.14111602239012119 0 0.47461064769812122 -0.12772964805397971 0 0.44922129539623712 -0.14111602239012119 0 0.47041229806123103 -0.14236165737458781 0 0.47461064769812122 -0.12772964805397971 0 0.43893170590200609 -0.1195052611799315 0 0.430889964195386 -0.135117951771525 0 0.44922129539623712 -0.14111602239012119 0 0.43893170590200609 -0.1195052611799315 0 0.45825176112352212 -0.1171944005084963 0 0.44922129539623712 -0.14111602239012119 0 0.43893170590200609 -0.1195052611799315 0 0.44922129539623712 -0.14111602239012119 0 0.42606808286872072 -0.1533234062687002 0 0.44922129539623712 -0.14111602239012119 0 0.44127751826325029 -0.16493106072254701 0 0.42606808286872072 -0.1533234062687002 0 0.44922129539623712 -0.14111602239012119 0 0.44922129539623712 -0.14111602239012119 0 0.46204773445353348 -0.16805481443812731 0 0.44922129539623712 -0.14111602239012119 0 0.46204773445353348 -0.16805481443812731 0 0.47041229806123103 -0.14236165737458781 0 0.44922129539623712 -0.14111602239012119 0 0.46204773445353348 -0.16805481443812731 0 0.44127751826325029 -0.16493106072254701 0 0.46204773445353348 -0.16805481443812731 0 0.44127751826325029 -0.16493106072254701 0 0.444302871767289 -0.18527179670816579 0 0.46204773445353348 -0.16805481443812731 0 0.444302871767289 -0.18527179670816579 0 0.46675991992270621 -0.1779516052682695 0 0.47013600328087812 -0.185042241033678 0 0.44995934289594253 -0.19835057932979169 0 0.444302871767289 -0.18527179670816579 0 0.46675991992270621 -0.1779516052682695 0 0.44995934289594253 -0.19835057932979169 0 0.46204773445353348 -0.16805481443812731 0 0.444302871767289 -0.18527179670816579 0 0.46675991992270621 -0.1779516052682695 0 0.46204773445353348 -0.16805481443812731 0 0.46675991992270621 -0.1779516052682695 0 0.46675991992270621 -0.1779516052682695 0 0.47013600328087812 -0.185042241033678 0 0.46675991992270621 -0.1779516052682695 0 0.48388214138120561 -0.17390417728894431 0 0.47927416581767118 -0.18397687174081401 0 0.46675991992270621 -0.1779516052682695 0 0.47013600328087812 -0.185042241033678 0 0.47927416581767118 -0.18397687174081401 0 0.48388214138120561 -0.17390417728894431 0 0.47927416581767118 -0.18397687174081401 0 0.48987334582395858 -0.18140433091368091 0 0.48987334582395858 -0.18140433091368091 0 0.5 -0.16492372169971509 0 0.5 -0.19225537639104809 0 0.48388214138120561 -0.17390417728894431 0 0.48987334582395858 -0.18140433091368091 0 0.5 -0.16492372169971509 0 0.47927416581767118 -0.18397687174081401 0 0.48987334582395858 -0.18140433091368091 0 0.48552241192915191 -0.19206174635411891 0 0.48388214138120561 -0.17390417728894431 0 0.5 -0.16492372169971509 0 0.48337995996135552 -0.1577718361383266 0 0.46675991992270621 -0.1779516052682695 0 0.48388214138120561 -0.17390417728894431 0 0.48337995996135552 -0.1577718361383266 0 0.46204773445353348 -0.16805481443812731 0 0.46675991992270621 -0.1779516052682695 0 0.48337995996135552 -0.1577718361383266 0 0.46204773445353348 -0.16805481443812731 0 0.48337995996135552 -0.1577718361383266 0 0.47713463147989749 -0.15341672773068571 0 0.46675991992270621 -0.1779516052682695 0 0.48337995996135552 -0.1577718361383266 0 0.46204773445353348 -0.16805481443812731 0 0.47713463147989749 -0.15341672773068571 0 0.46204773445353348 -0.16805481443812731 0 0.47041229806123103 -0.14236165737458781 0 0.47713463147989749 -0.15341672773068571 0 0.48337995996135552 -0.1577718361383266 0 0.47713463147989749 -0.15341672773068571 0 0.48456351921585428 -0.1397192317593817 0 0.47041229806123103 -0.14236165737458781 0 0.47713463147989749 -0.15341672773068571 0 0.48456351921585428 -0.1397192317593817 0 0.48337995996135552 -0.1577718361383266 0 0.50000000000000311 -0.1375920670083822 0 0.48456351921585428 -0.1397192317593817 0 0.5 -0.16492372169971509 0 0.48337995996135552 -0.1577718361383266 0 0.50000000000000311 -0.1375920670083822 0 0.48337995996135552 -0.1577718361383266 0 0.50000000000000311 -0.1375920670083822 0 0.50000000000000433 -0.1143432737178363 0 0.50000000000000311 -0.1375920670083822 0 0.48456351921585428 -0.1397192317593817 0 0.50000000000000433 -0.1143432737178363 0 0.48456351921585428 -0.1397192317593817 0 0.47461064769812122 -0.12772964805397971 0 0.47041229806123103 -0.14236165737458781 0 0.48456351921585428 -0.1397192317593817 0 0.47461064769812122 -0.12772964805397971 0 0.46695018322910392 -0.22473955239466681 0 0.44975785303280541 -0.2255898949688982 0 0.46528918090086291 -0.2095084705765255 0 0.46695018322910392 -0.22473955239466681 0 0.46086119099944728 -0.24298014516654151 0 0.44975785303280541 -0.2255898949688982 0 0.46086119099944728 -0.24298014516654151 0 0.44338493428344739 -0.24574379201886831 0 0.44975785303280541 -0.2255898949688982 0 0.43199948472716282 -0.23703470349933331 0 0.44338493428344739 -0.24574379201886831 0 0.44975785303280541 -0.2255898949688982 0 0.46086119099944728 -0.24298014516654151 0 0.44338493428344739 -0.24574379201886831 0 0.45165913482636821 -0.26068325523694041 0 0.43237997939727391 -0.21969514264188619 0 0.43199948472716282 -0.23703470349933331 0 0.44975785303280541 -0.2255898949688982 0 0.43237997939727391 -0.21969514264188619 0 0.44975785303280541 -0.2255898949688982 0 0.44995934289594253 -0.19835057932979169 0 0.43237997939727391 -0.21969514264188619 0 0.44995934289594253 -0.19835057932979169 0 0.42655800908104652 -0.20248877897820619 0 0.444302871767289 -0.18527179670816579 0 0.44995934289594253 -0.19835057932979169 0 0.42655800908104652 -0.20248877897820619 0 0.44995934289594253 -0.19835057932979169 0 0.46675991992270621 -0.1779516052682695 0 0.44995934289594253 -0.19835057932979169 0 0.44995934289594253 -0.19835057932979169 0 0.46774087741254722 -0.19520616284195491 0 0.47013600328087812 -0.185042241033678 0 0.44995934289594253 -0.19835057932979169 0 0.46774087741254722 -0.19520616284195491 0 0.44995934289594253 -0.19835057932979169 0 0.46774087741254722 -0.19520616284195491 0 0.46528918090086291 -0.2095084705765255 0 0.44975785303280541 -0.2255898949688982 0 0.44995934289594253 -0.19835057932979169 0 0.46528918090086291 -0.2095084705765255 0 0.46695018322910392 -0.22473955239466681 0 0.46528918090086291 -0.2095084705765255 0 0.48029579162163721 -0.21558854579597769 0 0.46528918090086291 -0.2095084705765255 0 0.47801733861628259 -0.20339364304417529 0 0.48029579162163721 -0.21558854579597769 0 0.47801733861628259 -0.20339364304417529 0 0.48029579162163721 -0.21558854579597769 0 0.48876710843341442 -0.20457726853354019 0 0.46774087741254722 -0.19520616284195491 0 0.47801733861628259 -0.20339364304417529 0 0.48552241192915191 -0.19206174635411891 0 0.47927416581767118 -0.18397687174081401 0 0.46774087741254722 -0.19520616284195491 0 0.48552241192915191 -0.19206174635411891 0 0.46774087741254722 -0.19520616284195491 0 0.48552241192915191 -0.19206174635411891 0 0.47013600328087812 -0.185042241033678 0 0.47927416581767118 -0.18397687174081401 0 0.46774087741254722 -0.19520616284195491 0 0.46774087741254722 -0.19520616284195491 0 0.46528918090086291 -0.2095084705765255 0 0.47801733861628259 -0.20339364304417529 0 0.47801733861628259 -0.20339364304417529 0 0.48552241192915191 -0.19206174635411891 0 0.48876710843341442 -0.20457726853354019 0 0.48987334582395858 -0.18140433091368091 0 0.48552241192915191 -0.19206174635411891 0 0.5 -0.19225537639104809 0 0.48552241192915191 -0.19206174635411891 0 0.5 -0.19225537639104809 0 0.48876710843341442 -0.20457726853354019 0 0.5 -0.19225537639104809 0 0.48876710843341442 -0.20457726853354019 0 0.5 -0.21958703108238101 0 0.48029579162163721 -0.21558854579597769 0 0.48876710843341442 -0.20457726853354019 0 0.5 -0.21958703108238101 0 0.5 -0.21958703108238101 0 0.48033598971293961 -0.23536730169414519 0 0.5 -0.24691868577371379 0 0.48029579162163721 -0.21558854579597769 0 0.5 -0.21958703108238101 0 0.48033598971293961 -0.23536730169414519 0 0.46695018322910392 -0.22473955239466681 0 0.46086119099944728 -0.24298014516654151 0 0.48033598971293961 -0.23536730169414519 0 0.46695018322910392 -0.22473955239466681 0 0.48029579162163721 -0.21558854579597769 0 0.48033598971293961 -0.23536730169414519 0 0.46086119099944728 -0.24298014516654151 0 0.48033598971293961 -0.23536730169414519 0 0.47450143065275591 -0.2599846894272051 0 0.48033598971293961 -0.23536730169414519 0 0.5 -0.24691868577371379 0 0.47450143065275591 -0.2599846894272051 0 0.5 -0.24691868577371379 0 0.50000000000000222 -0.27425034046504659 0 0.47450143065275591 -0.2599846894272051 0 0.50000000000000222 -0.27425034046504659 0 0.47605513413645029 -0.28008102786359129 0 0.47450143065275591 -0.2599846894272051 0 0.47605513413645029 -0.28008102786359129 0 0.47450143065275591 -0.2599846894272051 0 0.45931845050930209 -0.27772900618102819 0 0.46086119099944728 -0.24298014516654151 0 0.47450143065275591 -0.2599846894272051 0 0.45165913482636821 -0.26068325523694041 0 0.47450143065275591 -0.2599846894272051 0 0.45931845050930209 -0.27772900618102819 0 0.45165913482636821 -0.26068325523694041 0 0.45931845050930209 -0.27772900618102819 0 0.44355941821905998 -0.27577600561597132 0 0.45165913482636821 -0.26068325523694041 0 0.44338493428344739 -0.24574379201886831 0 0.45165913482636821 -0.26068325523694041 0 0.42892204251950339 -0.2594807324876427 0 0.44355941821905998 -0.27577600561597132 0 0.45165913482636821 -0.26068325523694041 0 0.42892204251950339 -0.2594807324876427 0 0.44743457629936911 -0.29125199491084608 0 0.45088585771739531 -0.31517042999936162 0 0.43686388954492023 -0.30206384222820981 0 0.45088585771739531 -0.31517042999936162 0 0.43602078127065758 -0.31524868357114688 0 0.43686388954492023 -0.30206384222820981 0 0.45931845050930209 -0.27772900618102819 0 0.44355941821905998 -0.27577600561597132 0 0.44743457629936911 -0.29125199491084608 0 0.44355941821905998 -0.27577600561597132 0 0.44743457629936911 -0.29125199491084608 0 0.42611848489587972 -0.28658767974219163 0 0.47605513413645029 -0.28008102786359129 0 0.45931845050930209 -0.27772900618102819 0 0.46516191830632447 -0.295844547827811 0 0.45931845050930209 -0.27772900618102819 0 0.44743457629936911 -0.29125199491084608 0 0.46516191830632447 -0.295844547827811 0 0.44743457629936911 -0.29125199491084608 0 0.46516191830632447 -0.295844547827811 0 0.45088585771739531 -0.31517042999936162 0 0.46516191830632447 -0.295844547827811 0 0.47218478901913252 -0.31616939882945228 0 0.45088585771739531 -0.31517042999936162 0 0.4860923945095682 -0.29520986964724988 0 0.47218478901913252 -0.31616939882945228 0 0.50000000000000222 -0.27425034046504659 0 0.4860923945095682 -0.29520986964724988 0 0.5 -0.307151228172029 0 0.46516191830632447 -0.295844547827811 0 0.4860923945095682 -0.29520986964724988 0 0.47218478901913252 -0.31616939882945228 0 0.47605513413645029 -0.28008102786359129 0 0.46516191830632447 -0.295844547827811 0 0.4860923945095682 -0.29520986964724988 0 0.50000000000000222 -0.27425034046504659 0 0.47605513413645029 -0.28008102786359129 0 0.4860923945095682 -0.29520986964724988 0 0.50000000000000222 -0.27425034046504659 0 0.4860923945095682 -0.29520986964724988 0 0.4860923945095682 -0.29520986964724988 0 0.5 -0.307151228172029 0 0.47218478901913252 -0.31616939882945228 0 0.5 -0.307151228172029 0 0.47500442815187882 -0.33618410333150461 0 0.5 -0.35237408365171952 0 0.5 -0.307151228172029 0 0.47500442815187882 -0.33618410333150461 0 0.47218478901913252 -0.31616939882945228 0 0.47500442815187882 -0.33618410333150461 0 0.5 -0.35237408365171952 0 0.46252966193221051 -0.36479181955861489 0 0.5 -0.35237408365171952 0 0.46252966193221051 -0.36479181955861489 0 0.4680243894331878 -0.39009447735167219 0 0.46252966193221051 -0.36479181955861489 0 0.44439653888602387 -0.37108278870097211 0 0.45518384933885458 -0.37953704158418422 0 0.46252966193221051 -0.36479181955861489 0 0.4490308344886651 -0.35295870566956811 0 0.45703493443123322 -0.33948916176555749 0 0.47500442815187882 -0.33618410333150461 0 0.46252966193221051 -0.36479181955861489 0 0.45703493443123322 -0.33948916176555749 0 0.46252966193221051 -0.36479181955861489 0 0.45703493443123322 -0.33948916176555749 0 0.4490308344886651 -0.35295870566956811 0 0.44439653888602387 -0.37108278870097211 0 0.43547581015886039 -0.35374612963373181 0 0.44432011104097457 -0.34600420025309703 0 0.4490308344886651 -0.35295870566956811 0 0.45042795048268808 -0.34263813410543531 0 0.4490308344886651 -0.35295870566956811 0 0.45703493443123322 -0.33948916176555749 0 0.45042795048268808 -0.34263813410543531 0 0.44432011104097457 -0.34600420025309703 0 0.4490308344886651 -0.35295870566956811 0 0.43547581015886039 -0.35374612963373181 0 0.44432011104097457 -0.34600420025309703 0 0.43877314986606192 -0.33818418946214152 0 0.43547581015886039 -0.35374612963373181 0 0.46252966193221051 -0.36479181955861489 0 0.4490308344886651 -0.35295870566956811 0 0.44439653888602387 -0.37108278870097211 0 0.47218478901913252 -0.31616939882945228 0 0.45845081404400378 -0.32484725803309861 0 0.45088585771739531 -0.31517042999936162 0 0.47218478901913252 -0.31616939882945228 0 0.45845081404400378 -0.32484725803309861 0 0.45827718352869679 -0.33712892801165451 0 0.47218478901913252 -0.31616939882945228 0 0.45827718352869679 -0.33712892801165451 0 0.45845081404400378 -0.32484725803309861 0 0.45465012105844921 -0.33200612518688721 0 0.44755831468875862 -0.32470483606049327 0 0.47500442815187882 -0.33618410333150461 0 0.45703493443123322 -0.33948916176555749 0 0.45827718352869679 -0.33712892801165451 0 0.47500442815187882 -0.33618410333150461 0 0.47218478901913252 -0.31616939882945228 0 0.45827718352869679 -0.33712892801165451 0 0.45703493443123322 -0.33948916176555749 0 0.4547926195999189 -0.33699511694280199 0 0.45042795048268808 -0.34263813410543531 0 0.45703493443123322 -0.33948916176555749 0 0.45827718352869679 -0.33712892801165451 0 0.4547926195999189 -0.33699511694280199 0 0.45845081404400378 -0.32484725803309861 0 0.45827718352869679 -0.33712892801165451 0 0.45465012105844921 -0.33200612518688721 0 0.4547926195999189 -0.33699511694280199 0 0.45465012105844921 -0.33200612518688721 0 0.45190540097192972 -0.33615439765103378 0 0.45827718352869679 -0.33712892801165451 0 0.4547926195999189 -0.33699511694280199 0 0.45465012105844921 -0.33200612518688721 0 0.45465012105844921 -0.33200612518688721 0 0.44749393872662357 -0.33307274595813069 0 0.44755831468875862 -0.32470483606049327 0 0.45465012105844921 -0.33200612518688721 0 0.44749393872662357 -0.33307274595813069 0 0.45190540097192972 -0.33615439765103378 0 0.4547926195999189 -0.33699511694280199 0 0.45042795048268808 -0.34263813410543531 0 0.45190540097192972 -0.33615439765103378 0 0.45042795048268808 -0.34263813410543531 0 0.45190540097192972 -0.33615439765103378 0 0.44691761172297523 -0.33872250108465612 0 0.44749393872662357 -0.33307274595813069 0 0.45190540097192972 -0.33615439765103378 0 0.44691761172297523 -0.33872250108465612 0 0.44432011104097457 -0.34600420025309703 0 0.45042795048268808 -0.34263813410543531 0 0.44691761172297523 -0.33872250108465612 0 0.44432011104097457 -0.34600420025309703 0 0.44691761172297523 -0.33872250108465612 0 0.43877314986606192 -0.33818418946214152 0 0.44749393872662357 -0.33307274595813069 0 0.44691761172297523 -0.33872250108465612 0 0.43877314986606192 -0.33818418946214152 0 0.44749393872662357 -0.33307274595813069 0 0.43877314986606192 -0.33818418946214152 0 0.43784837531542259 -0.32788377361433518 0 0.44749393872662357 -0.33307274595813069 0 0.43784837531542259 -0.32788377361433518 0 0.44755831468875862 -0.32470483606049327 0 0.43784837531542259 -0.32788377361433518 0 0.44755831468875862 -0.32470483606049327 0 0.43602078127065758 -0.31524868357114688 0 0.45845081404400378 -0.32484725803309861 0 0.44755831468875862 -0.32470483606049327 0 0.45088585771739531 -0.31517042999936162 0 0.44755831468875862 -0.32470483606049327 0 0.45088585771739531 -0.31517042999936162 0 0.43602078127065758 -0.31524868357114688 0 0.43784837531542259 -0.32788377361433518 0 0.42583518759170652 -0.33528639298719382 0 0.41775460495295358 -0.31793141321765611 0 0.43784837531542259 -0.32788377361433518 0 0.43602078127065758 -0.31524868357114688 0 0.41775460495295358 -0.31793141321765611 0 0.43877314986606192 -0.33818418946214152 0 0.43784837531542259 -0.32788377361433518 0 0.42583518759170652 -0.33528639298719382 0 0.43877314986606192 -0.33818418946214152 0 0.42583518759170652 -0.33528639298719382 0 0.43547581015886039 -0.35374612963373181 0 0.41250416259223432 -0.33960725990233392 0 0.41775460495295358 -0.31793141321765611 0 0.39805431729583179 -0.33510365622952631 0 0.41250416259223432 -0.33960725990233392 0 0.41775460495295358 -0.31793141321765611 0 0.42583518759170652 -0.33528639298719382 0 0.41250416259223432 -0.33960725990233392 0 0.41775460495295358 -0.31793141321765611 0 0.42583518759170652 -0.33528639298719382 0 0.41250416259223432 -0.33960725990233392 0 0.42034794007649889 -0.35298104146800569 0 0.43547581015886039 -0.35374612963373181 0 0.42034794007649889 -0.35298104146800569 0 0.42578668388574042 -0.37577956855813549 0 0.44439653888602387 -0.37108278870097211 0 0.43547581015886039 -0.35374612963373181 0 0.42578668388574042 -0.37577956855813549 0 0.42583518759170652 -0.33528639298719382 0 0.43547581015886039 -0.35374612963373181 0 0.42034794007649889 -0.35298104146800569 0 0.41250416259223432 -0.33960725990233392 0 0.42034794007649889 -0.35298104146800569 0 0.40725372023151529 -0.36128310658701179 0 0.41250416259223432 -0.33960725990233392 0 0.40725372023151529 -0.36128310658701179 0 0.40725372023151529 -0.36128310658701179 0 0.42578668388574042 -0.37577956855813549 0 0.40193856510946419 -0.3832261124550107 0 0.40725372023151529 -0.36128310658701179 0 0.42578668388574042 -0.37577956855813549 0 0.42034794007649889 -0.35298104146800569 0 0.40725372023151529 -0.36128310658701179 0 0.42578668388574042 -0.37577956855813549 0 0.40725372023151529 -0.36128310658701179 0 0.39425043507280438 -0.36432915978129837 0 0.40193856510946419 -0.3832261124550107 0 0.40725372023151529 -0.36128310658701179 0 0.40193856510946419 -0.3832261124550107 0 0.39425043507280438 -0.36432915978129837 0 0.38081427771294768 -0.36737052156009248 0 0.40193856510946419 -0.3832261124550107 0 0.40725372023151529 -0.36128310658701179 0 0.38699517723729038 -0.34543689852307891 0 0.39805431729583179 -0.33510365622952631 0 0.40725372023151529 -0.36128310658701179 0 0.39425043507280438 -0.36432915978129837 0 0.38699517723729038 -0.34543689852307891 0 0.40725372023151529 -0.36128310658701179 0 0.38699517723729038 -0.34543689852307891 0 0.41250416259223432 -0.33960725990233392 0 0.40725372023151529 -0.36128310658701179 0 0.39805431729583179 -0.33510365622952631 0 0.38699517723729038 -0.34543689852307891 0 0.38081427771294768 -0.36737052156009248 0 0.37640125955739012 -0.35149107478397351 0 0.38465179156333151 -0.34360390505586791 0 0.36805061276354478 -0.3427907498460791 0 0.39425043507280438 -0.36432915978129837 0 0.38699517723729038 -0.34543689852307891 0 0.38081427771294768 -0.36737052156009248 0 0.38699517723729038 -0.34543689852307891 0 0.37640125955739012 -0.35149107478397351 0 0.38081427771294768 -0.36737052156009248 0 0.38699517723729038 -0.34543689852307891 0 0.38465179156333151 -0.34360390505586791 0 0.38699517723729038 -0.34543689852307891 0 0.37640125955739012 -0.35149107478397351 0 0.38465179156333151 -0.34360390505586791 0 0.41775460495295358 -0.31793141321765611 0 0.39401776620237461 -0.32051644503610022 0 0.39805431729583179 -0.33510365622952631 0 0.38699517723729038 -0.34543689852307891 0 0.39401776620237461 -0.32051644503610022 0 0.39805431729583179 -0.33510365622952631 0 0.38699517723729038 -0.34543689852307891 0 0.39401776620237461 -0.32051644503610022 0 0.38465179156333151 -0.34360390505586791 0 0.37858644206980091 -0.32769985780377792 0 0.36805061276354478 -0.3427907498460791 0 0.38699517723729038 -0.34543689852307891 0 0.39401776620237461 -0.32051644503610022 0 0.38465179156333151 -0.34360390505586791 0 0.39401776620237461 -0.32051644503610022 0 0.38465179156333151 -0.34360390505586791 0 0.37858644206980091 -0.32769985780377792 0 0.39401776620237461 -0.32051644503610022 0 0.37858644206980091 -0.32769985780377792 0 0.37861767820969228 -0.30691821554646831 0 0.41775460495295358 -0.31793141321765611 0 0.39401776620237461 -0.32051644503610022 0 0.40104035516745928 -0.29559599154912142 0 0.39401776620237461 -0.32051644503610022 0 0.37861767820969228 -0.30691821554646831 0 0.40104035516745928 -0.29559599154912142 0 0.39401776620237461 -0.32051644503610022 0 0.40104035516745928 -0.29559599154912142 0 0.40104035516745928 -0.29559599154912142 0 0.38498320530945151 -0.287592927137584 0 0.39655653748852282 -0.27284147297554762 0 0.38498320530945151 -0.287592927137584 0 0.37764450162479901 -0.26965755496232408 0 0.36873774536035581 -0.28861226174546889 0 0.37861767820969228 -0.30691821554646831 0 0.40104035516745928 -0.29559599154912142 0 0.38498320530945151 -0.287592927137584 0 0.37861767820969228 -0.30691821554646831 0 0.38498320530945151 -0.287592927137584 0 0.36873774536035581 -0.28861226174546889 0 0.38498320530945151 -0.287592927137584 0 0.37764450162479901 -0.26965755496232408 0 0.39655653748852282 -0.27284147297554762 0 0.39206528024080278 -0.24921397013056479 0 0.37764450162479901 -0.26965755496232408 0 0.39655653748852282 -0.27284147297554762 0 0.39206528024080278 -0.24921397013056479 0 0.37764450162479901 -0.26965755496232408 0 0.37510228513818711 -0.25237727586059511 0 0.39206528024080278 -0.24921397013056479 0 0.39655653748852282 -0.27284147297554762 0 0.40884184876520419 -0.25890250189124958 0 0.40104035516745928 -0.29559599154912142 0 0.39655653748852282 -0.27284147297554762 0 0.4136044294752057 -0.2739163227279473 0 0.39655653748852282 -0.27284147297554762 0 0.4136044294752057 -0.2739163227279473 0 0.40884184876520419 -0.25890250189124958 0 0.4148006158986044 -0.24103970595398019 0 0.40884184876520419 -0.25890250189124958 0 0.42892204251950339 -0.2594807324876427 0 0.4136044294752057 -0.2739163227279473 0 0.40884184876520419 -0.25890250189124958 0 0.42892204251950339 -0.2594807324876427 0 0.4136044294752057 -0.2739163227279473 0 0.42892204251950339 -0.2594807324876427 0 0.42611848489587972 -0.28658767974219163 0 0.44355941821905998 -0.27577600561597132 0 0.42892204251950339 -0.2594807324876427 0 0.42611848489587972 -0.28658767974219163 0 0.44743457629936911 -0.29125199491084608 0 0.42611848489587972 -0.28658767974219163 0 0.43686388954492023 -0.30206384222820981 0 0.43602078127065758 -0.31524868357114688 0 0.41775460495295358 -0.31793141321765611 0 0.42179240152309172 -0.30222108271158582 0 0.42611848489587972 -0.28658767974219163 0 0.43686388954492023 -0.30206384222820981 0 0.42179240152309172 -0.30222108271158582 0 0.43602078127065758 -0.31524868357114688 0 0.43686388954492023 -0.30206384222820981 0 0.42179240152309172 -0.30222108271158582 0 0.41775460495295358 -0.31793141321765611 0 0.40104035516745928 -0.29559599154912142 0 0.42179240152309172 -0.30222108271158582 0 0.40104035516745928 -0.29559599154912142 0 0.4136044294752057 -0.2739163227279473 0 0.42611848489587972 -0.28658767974219163 0 0.40104035516745928 -0.29559599154912142 0 0.42611848489587972 -0.28658767974219163 0 0.42179240152309172 -0.30222108271158582 0 0.5 -0.5 0 0.478892924595126 -0.45923392689990328 0 0.5 -0.41454166856117469 0 0.5 -0.5 0 0.47943423265092072 -0.49342116463239621 0 0.40014079662082208 -0.5 0 0.43983937115661631 -0.46972557693384148 0 0.47943423265092072 -0.49342116463239621 0 0.40014079662082208 -0.5 0 0.43983937115661631 -0.46972557693384148 0 0.46715606132834708 -0.47012790102379598 0 0.47943423265092072 -0.49342116463239621 0 0.5 -0.5 0 0.47943423265092072 -0.49342116463239621 0 0.478892924595126 -0.45923392689990328 0 0.46715606132834708 -0.47012790102379598 0 0.47943423265092072 -0.49342116463239621 0 0.478892924595126 -0.45923392689990328 0 0.46715606132834708 -0.47012790102379598 0 0.47943423265092072 -0.49342116463239621 0 0.478892924595126 -0.45923392689990328 0 0.45487789000577361 -0.44683463741519602 0 0.47188936358571532 -0.4304781897668572 0 0.46715606132834708 -0.47012790102379598 0 0.45487789000577361 -0.44683463741519602 0 0.46715606132834708 -0.47012790102379598 0 0.478892924595126 -0.45923392689990328 0 0.45487789000577361 -0.44683463741519602 0 0.43983937115661631 -0.46972557693384148 0 0.46715606132834708 -0.47012790102379598 0 0.45487789000577361 -0.44683463741519602 0 0.43983937115661631 -0.46972557693384148 0 0.45487789000577361 -0.44683463741519602 0 0.43095981599733307 -0.44753658110846528 0 0.45487789000577361 -0.44683463741519602 0 0.43408281430989271 -0.43319973453275151 0 0.43095981599733307 -0.44753658110846528 0 0.45487789000577361 -0.44683463741519602 0 0.44259971868320003 -0.42354137380659601 0 0.45487789000577361 -0.44683463741519602 0 0.44259971868320003 -0.42354137380659601 0 0.43408281430989271 -0.43319973453275151 0 0.45487789000577361 -0.44683463741519602 0 0.44259971868320003 -0.42354137380659601 0 0.45959372781066021 -0.42263882295877442 0 0.44259971868320003 -0.42354137380659601 0 0.45186952978880229 -0.40983589673226128 0 0.45959372781066021 -0.42263882295877442 0 0.44259971868320003 -0.42354137380659601 0 0.45186952978880229 -0.40983589673226128 0 0.44161148704613862 -0.40579593671517361 0 0.44259971868320003 -0.42354137380659601 0 0.44161148704613862 -0.40579593671517361 0 0.43098246877755192 -0.41858878846052949 0 0.45186952978880229 -0.40983589673226128 0 0.45959372781066021 -0.42263882295877442 0 0.46285261119418991 -0.40477249250038388 0 0.45959372781066021 -0.42263882295877442 0 0.4735191169341651 -0.41539713514472942 0 0.46285261119418991 -0.40477249250038388 0 0.45959372781066021 -0.42263882295877442 0 0.47188936358571532 -0.4304781897668572 0 0.4735191169341651 -0.41539713514472942 0 0.45487789000577361 -0.44683463741519602 0 0.45959372781066021 -0.42263882295877442 0 0.47188936358571532 -0.4304781897668572 0 0.5 -0.41454166856117469 0 0.4735191169341651 -0.41539713514472942 0 0.4680243894331878 -0.39009447735167219 0 0.478892924595126 -0.45923392689990328 0 0.47188936358571532 -0.4304781897668572 0 0.5 -0.41454166856117469 0 0.47188936358571532 -0.4304781897668572 0 0.5 -0.41454166856117469 0 0.4735191169341651 -0.41539713514472942 0 0.5 -0.35237408365171952 0 0.5 -0.41454166856117469 0 0.4680243894331878 -0.39009447735167219 0 0.4735191169341651 -0.41539713514472942 0 0.4680243894331878 -0.39009447735167219 0 0.46252966193221051 -0.36479181955861489 0 0.45518384933885458 -0.37953704158418422 0 0.4680243894331878 -0.39009447735167219 0 0.45518384933885458 -0.37953704158418422 0 0.4680243894331878 -0.39009447735167219 0 0.44431964753996511 -0.39027603052925969 0 0.46252966193221051 -0.36479181955861489 0 0.4680243894331878 -0.39009447735167219 0 0.4735191169341651 -0.41539713514472942 0 0.4680243894331878 -0.39009447735167219 0 0.46285261119418991 -0.40477249250038388 0 0.4680243894331878 -0.39009447735167219 0 0.46285261119418991 -0.40477249250038388 0 0.44431964753996511 -0.39027603052925969 0 0.46285261119418991 -0.40477249250038388 0 0.44431964753996511 -0.39027603052925969 0 0.45186952978880229 -0.40983589673226128 0 0.44161148704613862 -0.40579593671517361 0 0.44431964753996511 -0.39027603052925969 0 0.45186952978880229 -0.40983589673226128 0 0.46285261119418991 -0.40477249250038388 0 0.44431964753996511 -0.39027603052925969 0 0.44439653888602387 -0.37108278870097211 0 0.44431964753996511 -0.39027603052925969 0 0.42578668388574042 -0.37577956855813549 0 0.44439653888602387 -0.37108278870097211 0 0.45518384933885458 -0.37953704158418422 0 0.44431964753996511 -0.39027603052925969 0 0.44431964753996511 -0.39027603052925969 0 0.42578668388574042 -0.37577956855813549 0 0.42627525148907153 -0.39512359141131242 0 0.44431964753996511 -0.39027603052925969 0 0.42578668388574042 -0.37577956855813549 0 0.44161148704613862 -0.40579593671517361 0 0.44431964753996511 -0.39027603052925969 0 0.42627525148907153 -0.39512359141131242 0 0.44161148704613862 -0.40579593671517361 0 0.42627525148907153 -0.39512359141131242 0 0.41380476734409732 -0.40903711363024231 0 0.41288573556315727 -0.39366710087554208 0 0.39662340998741341 -0.40516911832300972 0 0.41380476734409732 -0.40903711363024231 0 0.42627525148907153 -0.39512359141131242 0 0.41288573556315727 -0.39366710087554208 0 0.41380476734409732 -0.40903711363024231 0 0.42578668388574042 -0.37577956855813549 0 0.41288573556315727 -0.39366710087554208 0 0.40193856510946419 -0.3832261124550107 0 0.42578668388574042 -0.37577956855813549 0 0.42627525148907153 -0.39512359141131242 0 0.41288573556315727 -0.39366710087554208 0 0.38081427771294768 -0.36737052156009248 0 0.37463337818860382 -0.38930414459710588 0 0.3737028077843495 -0.38742295831448542 0 0.38081427771294768 -0.36737052156009248 0 0.38897026210220897 -0.39170162293651239 0 0.37463337818860382 -0.38930414459710588 0 0.38081427771294768 -0.36737052156009248 0 0.37463337818860382 -0.38930414459710588 0 0.38081427771294768 -0.36737052156009248 0 0.40193856510946419 -0.3832261124550107 0 0.38897026210220897 -0.39170162293651239 0 0.38599804764205609 -0.41227829054531151 0 0.37463337818860382 -0.38930414459710588 0 0.38897026210220897 -0.39170162293651239 0 0.39662340998741341 -0.40516911832300972 0 0.38599804764205609 -0.41227829054531151 0 0.38599804764205609 -0.41227829054531151 0 0.36755341006792419 -0.41442821452601158 0 0.37463337818860382 -0.38930414459710588 0 0.38897026210220897 -0.39170162293651239 0 0.38599804764205609 -0.41227829054531151 0 0.37463337818860382 -0.38930414459710588 0 0.40193856510946419 -0.3832261124550107 0 0.38897026210220897 -0.39170162293651239 0 0.39662340998741341 -0.40516911832300972 0 0.41288573556315727 -0.39366710087554208 0 0.40193856510946419 -0.3832261124550107 0 0.39662340998741341 -0.40516911832300972 0 0.40193856510946419 -0.3832261124550107 0 0.39662340998741341 -0.40516911832300972 0 0.38599804764205609 -0.41227829054531151 0 0.41380476734409732 -0.40903711363024231 0 0.39662340998741341 -0.40516911832300972 0 0.38599804764205609 -0.41227829054531151 0 0.41380476734409732 -0.40903711363024231 0 0.40147331832312588 -0.42054231308375889 0 0.38599804764205609 -0.41227829054531151 0 0.41380476734409732 -0.40903711363024231 0 0.38599804764205609 -0.41227829054531151 0 0.36755341006792419 -0.41442821452601158 0 0.38599804764205609 -0.41227829054531151 0 0.37837193070639508 -0.43074191130029282 0 0.36755341006792419 -0.41442821452601158 0 0.38599804764205609 -0.41227829054531151 0 0.37837193070639508 -0.43074191130029282 0 0.39716653888589531 -0.43485585418744782 0 0.37837193070639508 -0.43074191130029282 0 0.39716653888589531 -0.43485585418744782 0 0.38455236834147782 -0.44235831893697952 0 0.38599804764205609 -0.41227829054531151 0 0.39716653888589531 -0.43485585418744782 0 0.40147331832312588 -0.42054231308375889 0 0.38599804764205609 -0.41227829054531151 0 0.39716653888589531 -0.43485585418744782 0 0.40147331832312588 -0.42054231308375889 0 0.39716653888589531 -0.43485585418744782 0 0.40988830344794153 -0.42850982814637428 0 0.39716653888589531 -0.43485585418744782 0 0.40988830344794153 -0.42850982814637428 0 0.41424956646142452 -0.44145335337101582 0 0.40988830344794153 -0.42850982814637428 0 0.42255857874347952 -0.42798536962106742 0 0.41424956646142452 -0.44145335337101582 0 0.40147331832312588 -0.42054231308375889 0 0.40988830344794153 -0.42850982814637428 0 0.41380476734409732 -0.40903711363024231 0 0.40988830344794153 -0.42850982814637428 0 0.41380476734409732 -0.40903711363024231 0 0.42255857874347952 -0.42798536962106742 0 0.44161148704613862 -0.40579593671517361 0 0.41380476734409732 -0.40903711363024231 0 0.43098246877755192 -0.41858878846052949 0 0.44161148704613862 -0.40579593671517361 0 0.41380476734409732 -0.40903711363024231 0 0.41380476734409732 -0.40903711363024231 0 0.43098246877755192 -0.41858878846052949 0 0.42255857874347952 -0.42798536962106742 0 0.43408281430989271 -0.43319973453275151 0 0.42255857874347952 -0.42798536962106742 0 0.43095981599733307 -0.44753658110846528 0 0.44259971868320003 -0.42354137380659601 0 0.43098246877755192 -0.41858878846052949 0 0.43408281430989271 -0.43319973453275151 0 0.43098246877755192 -0.41858878846052949 0 0.43408281430989271 -0.43319973453275151 0 0.42255857874347952 -0.42798536962106742 0 0.42255857874347952 -0.42798536962106742 0 0.43095981599733307 -0.44753658110846528 0 0.41424956646142452 -0.44145335337101582 0 0.43983937115661631 -0.46972557693384148 0 0.42706067288056998 -0.45966910190407051 0 0.41707216494033877 -0.46659444091922031 0 0.43983937115661631 -0.46972557693384148 0 0.43095981599733307 -0.44753658110846528 0 0.42706067288056998 -0.45966910190407051 0 0.43095981599733307 -0.44753658110846528 0 0.42706067288056998 -0.45966910190407051 0 0.42037133942799187 -0.45481980865475502 0 0.42037133942799187 -0.45481980865475502 0 0.41707216494033877 -0.46659444091922031 0 0.40833503012973449 -0.45743341782958391 0 0.42706067288056998 -0.45966910190407051 0 0.42037133942799187 -0.45481980865475502 0 0.41707216494033877 -0.46659444091922031 0 0.41707216494033877 -0.46659444091922031 0 0.40833503012973449 -0.45743341782958391 0 0.39424227281986102 -0.46676003377889269 0 0.43095981599733307 -0.44753658110846528 0 0.42037133942799187 -0.45481980865475502 0 0.41424956646142452 -0.44145335337101582 0 0.42037133942799187 -0.45481980865475502 0 0.40833503012973449 -0.45743341782958391 0 0.41424956646142452 -0.44145335337101582 0 0.39716653888589531 -0.43485585418744782 0 0.40833503012973449 -0.45743341782958391 0 0.41424956646142452 -0.44145335337101582 0 0.39716653888589531 -0.43485585418744782 0 0.39345157537004599 -0.45057062730194619 0 0.38455236834147782 -0.44235831893697952 0 0.39716653888589531 -0.43485585418744782 0 0.40833503012973449 -0.45743341782958391 0 0.39345157537004599 -0.45057062730194619 0 0.39716653888589531 -0.43485585418744782 0 0.40833503012973449 -0.45743341782958391 0 0.39345157537004599 -0.45057062730194619 0 0.38455236834147782 -0.44235831893697952 0 0.38182359321740972 -0.45292134106576409 0 0.38455236834147782 -0.44235831893697952 0 0.38182359321740972 -0.45292134106576409 0 0.37194820352764257 -0.4427018608294464 0 0.37837193070639508 -0.43074191130029282 0 0.38455236834147782 -0.44235831893697952 0 0.37194820352764257 -0.4427018608294464 0 0.38182359321740972 -0.45292134106576409 0 0.39424227281986102 -0.46676003377889269 0 0.37141238069938332 -0.46692562663856529 0 0.39345157537004599 -0.45057062730194619 0 0.38182359321740972 -0.45292134106576409 0 0.39424227281986102 -0.46676003377889269 0 0.39424227281986102 -0.46676003377889269 0 0.37141238069938332 -0.46692562663856529 0 0.40833503012973449 -0.45743341782958391 0 0.39345157537004599 -0.45057062730194619 0 0.39424227281986102 -0.46676003377889269 0 0.41707216494033877 -0.46659444091922031 0 0.39424227281986102 -0.46676003377889269 0 0.41707216494033877 -0.46659444091922031 0 0.39424227281986102 -0.46676003377889269 0 0.40014079662082208 -0.5 0 0.39424227281986102 -0.46676003377889269 0 0.40014079662082208 -0.5 0 0.37141238069938332 -0.46692562663856529 0 0.43983937115661631 -0.46972557693384148 0 0.41707216494033877 -0.46659444091922031 0 0.40014079662082208 -0.5 0 0.40014079662082208 -0.5 0 0.32546065004022617 -0.5 0 0.3462765218470546 -0.48033279556006703 0 0.32546065004022617 -0.5 0 0.3462765218470546 -0.48033279556006703 0 0.30631021868456298 -0.48072311486568892 0 0.3462765218470546 -0.48033279556006703 0 0.32575259645842791 -0.46725681235791028 0 0.30631021868456298 -0.48072311486568892 0 0.3462765218470546 -0.48033279556006703 0 0.3485824885789055 -0.46709121949823779 0 0.32575259645842791 -0.46725681235791028 0 0.40014079662082208 -0.5 0 0.3462765218470546 -0.48033279556006703 0 0.37141238069938332 -0.46692562663856529 0 0.3462765218470546 -0.48033279556006703 0 0.3485824885789055 -0.46709121949823779 0 0.37141238069938332 -0.46692562663856529 0 0.3485824885789055 -0.46709121949823779 0 0.37141238069938332 -0.46692562663856529 0 0.35324569388809701 -0.44989359131069062 0 0.3485824885789055 -0.46709121949823779 0 0.35324569388809701 -0.44989359131069062 0 0.33806214337105372 -0.45777686618061397 0 0.38182359321740972 -0.45292134106576409 0 0.37141238069938332 -0.46692562663856529 0 0.35324569388809701 -0.44989359131069062 0 0.3485824885789055 -0.46709121949823779 0 0.37141238069938332 -0.46692562663856529 0 0.36060935802898147 -0.43906997082244181 0 0.37194820352764257 -0.4427018608294464 0 0.35324569388809701 -0.44989359131069062 0 0.38182359321740972 -0.45292134106576409 0 0.35324569388809701 -0.44989359131069062 0 0.37837193070639508 -0.43074191130029282 0 0.36060935802898147 -0.43906997082244181 0 0.37194820352764257 -0.4427018608294464 0 0.38182359321740972 -0.45292134106576409 0 0.37194820352764257 -0.4427018608294464 0 0.35324569388809701 -0.44989359131069062 0 0.36060935802898147 -0.43906997082244181 0 0.35324569388809701 -0.44989359131069062 0 0.34315104194743368 -0.43483422324315929 0 0.32466779455878442 -0.44686584155561709 0 0.32761501992215097 -0.43116249501185328 0 0.34315104194743368 -0.43483422324315929 0 0.35324569388809701 -0.44989359131069062 0 0.33806214337105372 -0.45777686618061397 0 0.32466779455878442 -0.44686584155561709 0 0.35324569388809701 -0.44989359131069062 0 0.32466779455878442 -0.44686584155561709 0 0.34315104194743368 -0.43483422324315929 0 0.35324569388809701 -0.44989359131069062 0 0.32466779455878442 -0.44686584155561709 0 0.3485824885789055 -0.46709121949823779 0 0.32575259645842791 -0.46725681235791028 0 0.3485824885789055 -0.46709121949823779 0 0.33806214337105372 -0.45777686618061397 0 0.32575259645842791 -0.46725681235791028 0 0.33806214337105372 -0.45777686618061397 0 0.32575259645842791 -0.46725681235791028 0 0.32466779455878442 -0.44686584155561709 0 0.32575259645842791 -0.46725681235791028 0 0.30904716904302271 -0.45792120175055678 0 0.30631021868456298 -0.48072311486568892 0 0.32575259645842791 -0.46725681235791028 0 0.32466779455878442 -0.44686584155561709 0 0.30904716904302271 -0.45792120175055678 0 0.32466779455878442 -0.44686584155561709 0 0.31800868577585262 -0.43516031519895321 0 0.30735360635596409 -0.43632211706289747 0 0.32466779455878442 -0.44686584155561709 0 0.32761501992215097 -0.43116249501185328 0 0.31800868577585262 -0.43516031519895321 0 0.32761501992215097 -0.43116249501185328 0 0.32339131420283213 -0.41656724990055422 0 0.31239832226651099 -0.42629080716544471 0 0.32761501992215097 -0.43116249501185328 0 0.31800868577585262 -0.43516031519895321 0 0.31239832226651099 -0.42629080716544471 0 0.31800868577585262 -0.43516031519895321 0 0.31239832226651099 -0.42629080716544471 0 0.30735360635596409 -0.43632211706289747 0 0.32339131420283213 -0.41656724990055422 0 0.31120060169272079 -0.4133373498197 0 0.31239832226651099 -0.42629080716544471 0 0.32339131420283213 -0.41656724990055422 0 0.319673984964159 -0.40346676889879052 0 0.31120060169272079 -0.4133373498197 0 0.319673984964159 -0.40346676889879052 0 0.30884060304287331 -0.40229515593698711 0 0.31120060169272079 -0.4133373498197 0 0.32339131420283213 -0.41656724990055422 0 0.33281994217864741 -0.40778505865636938 0 0.319673984964159 -0.40346676889879052 0 0.32761501992215097 -0.43116249501185328 0 0.32339131420283213 -0.41656724990055422 0 0.33796042338316851 -0.41787760036937549 0 0.32339131420283213 -0.41656724990055422 0 0.33281994217864741 -0.40778505865636938 0 0.33796042338316851 -0.41787760036937549 0 0.33281994217864741 -0.40778505865636938 0 0.33796042338316851 -0.41787760036937549 0 0.34601675315157321 -0.40486547886918423 0 0.32761501992215097 -0.43116249501185328 0 0.33796042338316851 -0.41787760036937549 0 0.34315104194743368 -0.43483422324315929 0 0.33796042338316851 -0.41787760036937549 0 0.34315104194743368 -0.43483422324315929 0 0.35231855835687692 -0.42655250224024699 0 0.36060935802898147 -0.43906997082244181 0 0.34315104194743368 -0.43483422324315929 0 0.35231855835687692 -0.42655250224024699 0 0.37837193070639508 -0.43074191130029282 0 0.36060935802898147 -0.43906997082244181 0 0.36755341006792419 -0.41442821452601158 0 0.36060935802898147 -0.43906997082244181 0 0.35231855835687692 -0.42655250224024699 0 0.36755341006792419 -0.41442821452601158 0 0.36060935802898147 -0.43906997082244181 0 0.36755341006792419 -0.41442821452601158 0 0.33796042338316851 -0.41787760036937549 0 0.35231855835687692 -0.42655250224024699 0 0.36755341006792419 -0.41442821452601158 0 0.33796042338316851 -0.41787760036937549 0 0.36755341006792419 -0.41442821452601158 0 0.34601675315157321 -0.40486547886918423 0 0.33796042338316851 -0.41787760036937549 0 0.36755341006792419 -0.41442821452601158 0 0.36755341006792419 -0.41442821452601158 0 0.34601675315157321 -0.40486547886918423 0 0.35566250251704978 -0.3975177511027051 0 0.34601675315157321 -0.40486547886918423 0 0.34667365318154342 -0.39629832909528578 0 0.35566250251704978 -0.3975177511027051 0 0.34667365318154342 -0.39629832909528578 0 0.34795812186604658 -0.38666189116531141 0 0.33705723519150399 -0.3961481952439429 0 0.34667365318154342 -0.39629832909528578 0 0.35566250251704978 -0.3975177511027051 0 0.34795812186604658 -0.38666189116531141 0 0.36755341006792419 -0.41442821452601158 0 0.35566250251704978 -0.3975177511027051 0 0.36706103815962848 -0.39187921332532882 0 0.36755341006792419 -0.41442821452601158 0 0.37463337818860382 -0.38930414459710588 0 0.36755341006792419 -0.41442821452601158 0 0.36706103815962848 -0.39187921332532882 0 0.37463337818860382 -0.38930414459710588 0 0.35566250251704978 -0.3975177511027051 0 0.36706103815962848 -0.39187921332532882 0 0.35924801608749379 -0.38543857686598643 0 0.38081427771294768 -0.36737052156009248 0 0.36848073339739068 -0.37517807712711049 0 0.3737028077843495 -0.38742295831448542 0 0.36848073339739068 -0.37517807712711049 0 0.3737028077843495 -0.38742295831448542 0 0.36599997940964812 -0.38379980358563692 0 0.36706103815962848 -0.39187921332532882 0 0.3737028077843495 -0.38742295831448542 0 0.36599997940964812 -0.38379980358563692 0 0.36706103815962848 -0.39187921332532882 0 0.37463337818860382 -0.38930414459710588 0 0.3737028077843495 -0.38742295831448542 0 0.37463337818860382 -0.38930414459710588 0 0.3737028077843495 -0.38742295831448542 0 0.36706103815962848 -0.39187921332532882 0 0.36599997940964812 -0.38379980358563692 0 0.35924801608749379 -0.38543857686598643 0 0.36599997940964812 -0.38379980358563692 0 0.36207090148421361 -0.37959838259465167 0 0.35924801608749379 -0.38543857686598643 0 0.36848073339739068 -0.37517807712711049 0 0.36599997940964812 -0.38379980358563692 0 0.36207090148421361 -0.37959838259465167 0 0.36848073339739068 -0.37517807712711049 0 0.36207090148421361 -0.37959838259465167 0 0.3554566368260581 -0.37480617727887811 0 0.36207090148421361 -0.37959838259465167 0 0.35924801608749379 -0.38543857686598643 0 0.3554566368260581 -0.37480617727887811 0 0.35924801608749379 -0.38543857686598643 0 0.34795812186604658 -0.38666189116531141 0 0.3554566368260581 -0.37480617727887811 0 0.35566250251704978 -0.3975177511027051 0 0.35924801608749379 -0.38543857686598643 0 0.34795812186604658 -0.38666189116531141 0 0.34795812186604658 -0.38666189116531141 0 0.34537995690420659 -0.3737828605913362 0 0.3554566368260581 -0.37480617727887811 0 0.34795812186604658 -0.38666189116531141 0 0.33323562740676532 -0.37769939737979058 0 0.34537995690420659 -0.3737828605913362 0 0.34795812186604658 -0.38666189116531141 0 0.33323562740676532 -0.37769939737979058 0 0.33705723519150399 -0.3961481952439429 0 0.33323562740676532 -0.37769939737979058 0 0.33705723519150399 -0.3961481952439429 0 0.319673984964159 -0.40346676889879052 0 0.33281994217864741 -0.40778505865636938 0 0.33705723519150399 -0.3961481952439429 0 0.319673984964159 -0.40346676889879052 0 0.33281994217864741 -0.40778505865636938 0 0.34601675315157321 -0.40486547886918423 0 0.33705723519150399 -0.3961481952439429 0 0.34601675315157321 -0.40486547886918423 0 0.34667365318154342 -0.39629832909528578 0 0.33705723519150399 -0.3961481952439429 0 0.33323562740676532 -0.37769939737979058 0 0.319673984964159 -0.40346676889879052 0 0.31422368515007948 -0.393427126581603 0 0.319673984964159 -0.40346676889879052 0 0.31422368515007948 -0.393427126581603 0 0.30884060304287331 -0.40229515593698711 0 0.33323562740676532 -0.37769939737979058 0 0.319673984964159 -0.40346676889879052 0 0.31422368515007948 -0.393427126581603 0 0.30591552541026101 -0.37751124227982003 0 0.32002671755222051 -0.36641101040373808 0 0.33323562740676532 -0.37769939737979058 0 0.31422368515007948 -0.393427126581603 0 0.32002671755222051 -0.36641101040373808 0 0.31422368515007948 -0.393427126581603 0 0.32002671755222051 -0.36641101040373808 0 0.30591552541026101 -0.37751124227982003 0 0.29934269892459558 -0.39453707190143028 0 0.28871394442674109 -0.38265385864092483 0 0.31422368515007948 -0.393427126581603 0 0.30591552541026101 -0.37751124227982003 0 0.29934269892459558 -0.39453707190143028 0 0.31422368515007948 -0.393427126581603 0 0.30884060304287331 -0.40229515593698711 0 0.29934269892459558 -0.39453707190143028 0 0.30884060304287331 -0.40229515593698711 0 0.29934269892459558 -0.39453707190143028 0 0.29896657827583012 -0.40866065312134409 0 0.28871394442674109 -0.38265385864092483 0 0.27786210523133942 -0.40981541802129928 0 0.29934269892459558 -0.39453707190143028 0 0.27786210523133942 -0.40981541802129928 0 0.29896657827583012 -0.40866065312134409 0 0.29934269892459558 -0.39453707190143028 0 0.28871394442674109 -0.38265385864092483 0 0.27786210523133942 -0.40981541802129928 0 0.28871394442674109 -0.38265385864092483 0 0.26416245427686541 -0.38049931320234009 0 0.26125098829365018 -0.39969694482297641 0 0.28871394442674109 -0.38265385864092483 0 0.26416245427686541 -0.38049931320234009 0 0.27571190406721402 -0.36345127203525351 0 0.26416245427686541 -0.38049931320234009 0 0.24971336314328341 -0.36520417674804972 0 0.24502858373403441 -0.39146921073642488 0 0.26416245427686541 -0.38049931320234009 0 0.26125098829365018 -0.39969694482297641 0 0.24502858373403441 -0.39146921073642488 0 0.28871394442674109 -0.38265385864092483 0 0.26125098829365018 -0.39969694482297641 0 0.27786210523133942 -0.40981541802129928 0 0.26125098829365018 -0.39969694482297641 0 0.25610826383841628 -0.42120346698794331 0 0.2333640889907381 -0.41241884790723538 0 0.26125098829365018 -0.39969694482297641 0 0.27786210523133942 -0.40981541802129928 0 0.25610826383841628 -0.42120346698794331 0 0.25610826383841628 -0.42120346698794331 0 0.26701026603593758 -0.43697697740167368 0 0.2518592606704963 -0.43815060111373921 0 0.27786210523133942 -0.40981541802129928 0 0.26701026603593758 -0.43697697740167368 0 0.28078102790119369 -0.4274552938509788 0 0.27786210523133942 -0.40981541802129928 0 0.26701026603593758 -0.43697697740167368 0 0.27786210523133942 -0.40981541802129928 0 0.25610826383841628 -0.42120346698794331 0 0.26701026603593758 -0.43697697740167368 0 0.26701026603593758 -0.43697697740167368 0 0.28078102790119369 -0.4274552938509788 0 0.27712236562531017 -0.4375193999175232 0 0.28078102790119369 -0.4274552938509788 0 0.28865243891263809 -0.43215364344327012 0 0.27712236562531017 -0.4375193999175232 0 0.28865243891263809 -0.43215364344327012 0 0.28959476197880307 -0.44168956347039928 0 0.27712236562531017 -0.4375193999175232 0 0.28865243891263809 -0.43215364344327012 0 0.29503220707493127 -0.43614369036708622 0 0.29829711678041942 -0.42866378264525379 0 0.28865243891263809 -0.43215364344327012 0 0.29503220707493127 -0.43614369036708622 0 0.28959476197880307 -0.44168956347039928 0 0.28865243891263809 -0.43215364344327012 0 0.29108715411517122 -0.42145013040837909 0 0.29829711678041942 -0.42866378264525379 0 0.28078102790119369 -0.4274552938509788 0 0.28865243891263809 -0.43215364344327012 0 0.29108715411517122 -0.42145013040837909 0 0.27786210523133942 -0.40981541802129928 0 0.28078102790119369 -0.4274552938509788 0 0.29108715411517122 -0.42145013040837909 0 0.27786210523133942 -0.40981541802129928 0 0.29108715411517122 -0.42145013040837909 0 0.29896657827583012 -0.40866065312134409 0 0.29108715411517122 -0.42145013040837909 0 0.30377653118007591 -0.4205559058691733 0 0.29896657827583012 -0.40866065312134409 0 0.30377653118007591 -0.4205559058691733 0 0.29896657827583012 -0.40866065312134409 0 0.31120060169272079 -0.4133373498197 0 0.30884060304287331 -0.40229515593698711 0 0.29896657827583012 -0.40866065312134409 0 0.31120060169272079 -0.4133373498197 0 0.30377653118007591 -0.4205559058691733 0 0.31120060169272079 -0.4133373498197 0 0.31239832226651099 -0.42629080716544471 0 0.30377653118007591 -0.4205559058691733 0 0.31239832226651099 -0.42629080716544471 0 0.29829711678041942 -0.42866378264525379 0 0.31239832226651099 -0.42629080716544471 0 0.30735360635596409 -0.43632211706289747 0 0.29829711678041942 -0.42866378264525379 0 0.29503220707493127 -0.43614369036708622 0 0.30735360635596409 -0.43632211706289747 0 0.29829711678041942 -0.42866378264525379 0 0.29108715411517122 -0.42145013040837909 0 0.30377653118007591 -0.4205559058691733 0 0.29829711678041942 -0.42866378264525379 0 0.32466779455878442 -0.44686584155561709 0 0.30904716904302271 -0.45792120175055678 0 0.29608989522947149 -0.44383809180054362 0 0.32466779455878442 -0.44686584155561709 0 0.29608989522947149 -0.44383809180054362 0 0.32466779455878442 -0.44686584155561709 0 0.30735360635596409 -0.43632211706289747 0 0.29608989522947149 -0.44383809180054362 0 0.30904716904302271 -0.45792120175055678 0 0.29860320416278402 -0.45529674645956592 0 0.29608989522947149 -0.44383809180054362 0 0.29503220707493127 -0.43614369036708622 0 0.30735360635596409 -0.43632211706289747 0 0.29608989522947149 -0.44383809180054362 0 0.30904716904302271 -0.45792120175055678 0 0.29721119201091789 -0.46522563712477349 0 0.30631021868456298 -0.48072311486568892 0 0.30904716904302271 -0.45792120175055678 0 0.29721119201091789 -0.46522563712477349 0 0.29860320416278402 -0.45529674645956592 0 0.28932919617959602 -0.45338424297023883 0 0.27756010650442758 -0.45518222858252849 0 0.28072062580449653 -0.47155582870540619 0 0.29721119201091789 -0.46522563712477349 0 0.28932919617959602 -0.45338424297023883 0 0.28072062580449653 -0.47155582870540619 0 0.29721119201091789 -0.46522563712477349 0 0.29860320416278402 -0.45529674645956592 0 0.28932919617959602 -0.45338424297023883 0 0.28932919617959602 -0.45338424297023883 0 0.28959476197880307 -0.44168956347039928 0 0.27756010650442758 -0.45518222858252849 0 0.29860320416278402 -0.45529674645956592 0 0.28932919617959602 -0.45338424297023883 0 0.29608989522947149 -0.44383809180054362 0 0.28932919617959602 -0.45338424297023883 0 0.29608989522947149 -0.44383809180054362 0 0.28959476197880307 -0.44168956347039928 0 0.29503220707493127 -0.43614369036708622 0 0.29608989522947149 -0.44383809180054362 0 0.28959476197880307 -0.44168956347039928 0 0.28959476197880307 -0.44168956347039928 0 0.26138620688844749 -0.44792543592233808 0 0.26701026603593758 -0.43697697740167368 0 0.27712236562531017 -0.4375193999175232 0 0.26138620688844749 -0.44792543592233808 0 0.28959476197880307 -0.44168956347039928 0 0.26138620688844749 -0.44792543592233808 0 0.27756010650442758 -0.45518222858252849 0 0.28959476197880307 -0.44168956347039928 0 0.27712236562531017 -0.4375193999175232 0 0.26138620688844749 -0.44792543592233808 0 0.26701026603593758 -0.43697697740167368 0 0.26138620688844749 -0.44792543592233808 0 0.2518592606704963 -0.43815060111373921 0 0.26138620688844749 -0.44792543592233808 0 0.26339579246569877 -0.46312143350125029 0 0.23317765179809191 -0.45416130837427687 0 0.26138620688844749 -0.44792543592233808 0 0.26339579246569877 -0.46312143350125029 0 0.27756010650442758 -0.45518222858252849 0 0.26339579246569877 -0.46312143350125029 0 0.27756010650442758 -0.45518222858252849 0 0.28072062580449653 -0.47155582870540619 0 0.28072062580449653 -0.47155582870540619 0 0.2532296876789632 -0.47497352743918242 0 0.27004646425256568 -0.5 0 0.26339579246569877 -0.46312143350125029 0 0.28072062580449653 -0.47155582870540619 0 0.2532296876789632 -0.47497352743918242 0 0.32546065004022617 -0.5 0 0.27004646425256568 -0.5 0 0.30631021868456298 -0.48072311486568892 0 0.28072062580449653 -0.47155582870540619 0 0.27004646425256568 -0.5 0 0.30631021868456298 -0.48072311486568892 0 0.29721119201091789 -0.46522563712477349 0 0.28072062580449653 -0.47155582870540619 0 0.30631021868456298 -0.48072311486568892 0 0.33743581475864359 -0.28536266187014298 0 0.3388307833371127 -0.27886836189579028 0 0.34706744656536048 -0.28007479224216619 0 0.33743581475864359 -0.28536266187014298 0 0.3388307833371127 -0.27886836189579028 0 0.33743581475864359 -0.28536266187014298 0 0.33163278235650262 -0.31237877804800812 0 0.33743581475864359 -0.28536266187014298 0 0.33163278235650262 -0.31237877804800812 0 0.34308905326158867 -0.30070827197480321 0 0.33743581475864359 -0.28536266187014298 0 0.33163278235650262 -0.31237877804800812 0 0.32364365619397351 -0.29600562892690968 0 0.33163278235650262 -0.31237877804800812 0 0.32364365619397351 -0.29600562892690968 0 0.30954970221622308 -0.30462347215273478 0 0.31296692944630888 -0.29314018565426941 0 0.32364365619397351 -0.29600562892690968 0 0.30954970221622308 -0.30462347215273478 0 0.31296692944630888 -0.29314018565426941 0 0.32364365619397351 -0.29600562892690968 0 0.31569414790308259 -0.28159305760617132 0 0.33743581475864359 -0.28536266187014298 0 0.32364365619397351 -0.29600562892690968 0 0.31569414790308259 -0.28159305760617132 0 0.33743581475864359 -0.28536266187014298 0 0.31569414790308259 -0.28159305760617132 0 0.33743581475864359 -0.28536266187014298 0 0.31569414790308259 -0.28159305760617132 0 0.32852563272885182 -0.27784073863383552 0 0.31569414790308259 -0.28159305760617132 0 0.31275786215232049 -0.27168837282467972 0 0.32066228436037369 -0.27402337931129878 0 0.31275786215232049 -0.27168837282467972 0 0.32001527731196461 -0.26686042829596718 0 0.31054181011664339 -0.26140137874582919 0 0.31275786215232049 -0.27168837282467972 0 0.32001527731196461 -0.26686042829596718 0 0.32066228436037369 -0.27402337931129878 0 0.32001527731196461 -0.26686042829596718 0 0.32631850170564902 -0.27213429919584042 0 0.32066228436037369 -0.27402337931129878 0 0.32001527731196461 -0.26686042829596718 0 0.32631850170564902 -0.27213429919584042 0 0.32861545200372733 -0.26431566092564712 0 0.32631850170564902 -0.27213429919584042 0 0.32066228436037369 -0.27402337931129878 0 0.32852563272885182 -0.27784073863383552 0 0.31569414790308259 -0.28159305760617132 0 0.32066228436037369 -0.27402337931129878 0 0.32852563272885182 -0.27784073863383552 0 0.30517917142926537 -0.24716040808135001 0 0.322544075342931 -0.25649048942400782 0 0.31054181011664339 -0.26140137874582919 0 0.32001527731196461 -0.26686042829596718 0 0.322544075342931 -0.25649048942400782 0 0.31054181011664339 -0.26140137874582919 0 0.32001527731196461 -0.26686042829596718 0 0.322544075342931 -0.25649048942400782 0 0.32861545200372733 -0.26431566092564712 0 0.322544075342931 -0.25649048942400782 0 0.32861545200372733 -0.26431566092564712 0 0.33700232267718733 -0.25494009872172468 0 0.32861545200372733 -0.26431566092564712 0 0.33700232267718733 -0.25494009872172468 0 0.3370936559567923 -0.26597622971595652 0 0.33700232267718733 -0.25494009872172468 0 0.3370936559567923 -0.26597622971595652 0 0.34612034525793539 -0.26165354425485998 0 0.32852563272885182 -0.27784073863383552 0 0.33374486488877292 -0.2728357791174113 0 0.3388307833371127 -0.27886836189579028 0 0.33743581475864359 -0.28536266187014298 0 0.32852563272885182 -0.27784073863383552 0 0.3388307833371127 -0.27886836189579028 0 0.32631850170564902 -0.27213429919584042 0 0.32852563272885182 -0.27784073863383552 0 0.33374486488877292 -0.2728357791174113 0 0.32631850170564902 -0.27213429919584042 0 0.32861545200372733 -0.26431566092564712 0 0.33374486488877292 -0.2728357791174113 0 0.32861545200372733 -0.26431566092564712 0 0.33374486488877292 -0.2728357791174113 0 0.3370936559567923 -0.26597622971595652 0 0.34349817463331772 -0.27223575233246988 0 0.3370936559567923 -0.26597622971595652 0 0.34612034525793539 -0.26165354425485998 0 0.33374486488877292 -0.2728357791174113 0 0.34349817463331772 -0.27223575233246988 0 0.3370936559567923 -0.26597622971595652 0 0.33374486488877292 -0.2728357791174113 0 0.34349817463331772 -0.27223575233246988 0 0.3388307833371127 -0.27886836189579028 0 0.34349817463331772 -0.27223575233246988 0 0.3388307833371127 -0.27886836189579028 0 0.34706744656536048 -0.28007479224216619 0 0.34349817463331772 -0.27223575233246988 0 0.34706744656536048 -0.28007479224216619 0 0.35711558672006172 -0.27354793744083078 0 0.34349817463331772 -0.27223575233246988 0 0.35711558672006172 -0.27354793744083078 0 0.34612034525793539 -0.26165354425485998 0 0.34706744656536048 -0.28007479224216619 0 0.35711558672006172 -0.27354793744083078 0 0.35357832102308678 -0.28816147489813743 0 0.35007299243335749 -0.24785688602667111 0 0.33700232267718733 -0.25494009872172468 0 0.34612034525793539 -0.26165354425485998 0 0.35711558672006172 -0.27354793744083078 0 0.34612034525793539 -0.26165354425485998 0 0.36124693131331159 -0.25807728632712912 0 0.35007299243335749 -0.24785688602667111 0 0.34612034525793539 -0.26165354425485998 0 0.36124693131331159 -0.25807728632712912 0 0.37764450162479901 -0.26965755496232408 0 0.37510228513818711 -0.25237727586059511 0 0.36124693131331159 -0.25807728632712912 0 0.36225179838031341 -0.2439392928582107 0 0.37510228513818711 -0.25237727586059511 0 0.36124693131331159 -0.25807728632712912 0 0.37764450162479901 -0.26965755496232408 0 0.35711558672006172 -0.27354793744083078 0 0.36124693131331159 -0.25807728632712912 0 0.37764450162479901 -0.26965755496232408 0 0.35711558672006172 -0.27354793744083078 0 0.36873774536035581 -0.28861226174546889 0 0.36873774536035581 -0.28861226174546889 0 0.35357832102308678 -0.28816147489813743 0 0.36087634202934032 -0.30211297570133377 0 0.35711558672006172 -0.27354793744083078 0 0.36873774536035581 -0.28861226174546889 0 0.35357832102308678 -0.28816147489813743 0 0.33743581475864359 -0.28536266187014298 0 0.35357832102308678 -0.28816147489813743 0 0.33743581475864359 -0.28536266187014298 0 0.34706744656536048 -0.28007479224216619 0 0.35357832102308678 -0.28816147489813743 0 0.33743581475864359 -0.28536266187014298 0 0.34308905326158867 -0.30070827197480321 0 0.35357832102308678 -0.28816147489813743 0 0.34308905326158867 -0.30070827197480321 0 0.36087634202934032 -0.30211297570133377 0 0.3603589122919777 -0.32616465434179109 0 0.34308905326158867 -0.30070827197480321 0 0.35357832102308678 -0.28816147489813743 0 0.36087634202934032 -0.30211297570133377 0 0.37861767820969228 -0.30691821554646831 0 0.36873774536035581 -0.28861226174546889 0 0.36087634202934032 -0.30211297570133377 0 0.37861767820969228 -0.30691821554646831 0 0.36087634202934032 -0.30211297570133377 0 0.3603589122919777 -0.32616465434179109 0 0.37858644206980091 -0.32769985780377792 0 0.37861767820969228 -0.30691821554646831 0 0.3603589122919777 -0.32616465434179109 0 0.37858644206980091 -0.32769985780377792 0 0.3603589122919777 -0.32616465434179109 0 0.36805061276354478 -0.3427907498460791 0 0.3603589122919777 -0.32616465434179109 0 0.34679726984937148 -0.35193202586079081 0 0.3603589122919777 -0.32616465434179109 0 0.34679726984937148 -0.35193202586079081 0 0.3423644242317993 -0.33453707324987059 0 0.3603589122919777 -0.32616465434179109 0 0.36805061276354478 -0.3427907498460791 0 0.34679726984937148 -0.35193202586079081 0 0.33163278235650262 -0.31237877804800812 0 0.34308905326158867 -0.30070827197480321 0 0.3603589122919777 -0.32616465434179109 0 0.33163278235650262 -0.31237877804800812 0 0.3603589122919777 -0.32616465434179109 0 0.3423644242317993 -0.33453707324987059 0 0.37640125955739012 -0.35149107478397351 0 0.38081427771294768 -0.36737052156009248 0 0.36600013168445039 -0.36059477107615401 0 0.36848073339739068 -0.37517807712711049 0 0.36600013168445039 -0.36059477107615401 0 0.3554566368260581 -0.37480617727887811 0 0.38081427771294768 -0.36737052156009248 0 0.36848073339739068 -0.37517807712711049 0 0.36600013168445039 -0.36059477107615401 0 0.36805061276354478 -0.3427907498460791 0 0.36600013168445039 -0.36059477107615401 0 0.34679726984937148 -0.35193202586079081 0 0.37640125955739012 -0.35149107478397351 0 0.36805061276354478 -0.3427907498460791 0 0.36600013168445039 -0.36059477107615401 0 0.36600013168445039 -0.36059477107615401 0 0.34679726984937148 -0.35193202586079081 0 0.3554566368260581 -0.37480617727887811 0 0.34679726984937148 -0.35193202586079081 0 0.34537995690420659 -0.3737828605913362 0 0.3554566368260581 -0.37480617727887811 0 0.33323562740676532 -0.37769939737979058 0 0.33171275220581908 -0.35441984147836231 0 0.32002671755222051 -0.36641101040373808 0 0.33323562740676532 -0.37769939737979058 0 0.34679726984937148 -0.35193202586079081 0 0.33323562740676532 -0.37769939737979058 0 0.34679726984937148 -0.35193202586079081 0 0.34537995690420659 -0.3737828605913362 0 0.33323562740676532 -0.37769939737979058 0 0.34679726984937148 -0.35193202586079081 0 0.33171275220581908 -0.35441984147836231 0 0.34679726984937148 -0.35193202586079081 0 0.33171275220581908 -0.35441984147836231 0 0.3423644242317993 -0.33453707324987059 0 0.33171275220581908 -0.35441984147836231 0 0.32002671755222051 -0.36641101040373808 0 0.32582974995436148 -0.33939489422587321 0 0.32002671755222051 -0.36641101040373808 0 0.32582974995436148 -0.33939489422587321 0 0.31500009593534162 -0.35119999692538878 0 0.32002671755222051 -0.36641101040373808 0 0.32582974995436148 -0.33939489422587321 0 0.33163278235650262 -0.31237877804800812 0 0.32582974995436148 -0.33939489422587321 0 0.33163278235650262 -0.31237877804800812 0 0.3423644242317993 -0.33453707324987059 0 0.32582974995436148 -0.33939489422587321 0 0.33171275220581908 -0.35441984147836231 0 0.3423644242317993 -0.33453707324987059 0 0.32582974995436148 -0.33939489422587321 0 0.31500009593534162 -0.35119999692538878 0 0.32582974995436148 -0.33939489422587321 0 0.31041762281754448 -0.32833073988017608 0 0.33163278235650262 -0.31237877804800812 0 0.32582974995436148 -0.33939489422587321 0 0.31041762281754448 -0.32833073988017608 0 0.33163278235650262 -0.31237877804800812 0 0.31041762281754448 -0.32833073988017608 0 0.30954970221622308 -0.30462347215273478 0 0.31041762281754448 -0.32833073988017608 0 0.29592063247569211 -0.31558436997640987 0 0.30954970221622308 -0.30462347215273478 0 0.31041762281754448 -0.32833073988017608 0 0.29132656616613523 -0.33188180257029998 0 0.29592063247569211 -0.31558436997640987 0 0.31041762281754448 -0.32833073988017608 0 0.29132656616613523 -0.33188180257029998 0 0.29956578362214281 -0.35549229926055048 0 0.31041762281754448 -0.32833073988017608 0 0.29956578362214281 -0.35549229926055048 0 0.29132656616613523 -0.33188180257029998 0 0.28219501787468609 -0.34702129220438421 0 0.27282035448602859 -0.33554085100614839 0 0.29132656616613523 -0.33188180257029998 0 0.29592063247569211 -0.31558436997640987 0 0.27986439667319313 -0.31630171845149863 0 0.29132656616613523 -0.33188180257029998 0 0.27986439667319313 -0.31630171845149863 0 0.27282035448602859 -0.33554085100614839 0 0.30591552541026101 -0.37751124227982003 0 0.28871394442674109 -0.38265385864092483 0 0.29956578362214281 -0.35549229926055048 0 0.30591552541026101 -0.37751124227982003 0 0.32002671755222051 -0.36641101040373808 0 0.29956578362214281 -0.35549229926055048 0 0.31500009593534162 -0.35119999692538878 0 0.32002671755222051 -0.36641101040373808 0 0.29956578362214281 -0.35549229926055048 0 0.31500009593534162 -0.35119999692538878 0 0.31041762281754448 -0.32833073988017608 0 0.29956578362214281 -0.35549229926055048 0 0.29956578362214281 -0.35549229926055048 0 0.28219501787468609 -0.34702129220438421 0 0.27571190406721402 -0.36345127203525351 0 0.29132656616613523 -0.33188180257029998 0 0.29956578362214281 -0.35549229926055048 0 0.28219501787468609 -0.34702129220438421 0 0.28871394442674109 -0.38265385864092483 0 0.29956578362214281 -0.35549229926055048 0 0.27571190406721402 -0.36345127203525351 0 0.28871394442674109 -0.38265385864092483 0 0.29956578362214281 -0.35549229926055048 0 0.28219501787468609 -0.34702129220438421 0 0.27571190406721402 -0.36345127203525351 0 0.2669677564247489 -0.35003134695070198 0 0.28219501787468609 -0.34702129220438421 0 0.2669677564247489 -0.35003134695070198 0 0.27282035448602859 -0.33554085100614839 0 0.2669677564247489 -0.35003134695070198 0 0.2543981425525324 -0.33893914275967452 0 0.24971336314328341 -0.36520417674804972 0 0.2543981425525324 -0.33893914275967452 0 0.24971336314328341 -0.36520417674804972 0 0.26416245427686541 -0.38049931320234009 0 0.27571190406721402 -0.36345127203525351 0 0.24971336314328341 -0.36520417674804972 0 0.27571190406721402 -0.36345127203525351 0 0.2669677564247489 -0.35003134695070198 0 0.24971336314328341 -0.36520417674804972 0 0.27986439667319313 -0.31630171845149863 0 0.27282035448602859 -0.33554085100614839 0 0.27986439667319313 -0.31630171845149863 0 0.27282035448602859 -0.33554085100614839 0 0.2590829219617814 -0.31267410877129931 0 0.2669677564247489 -0.35003134695070198 0 0.27282035448602859 -0.33554085100614839 0 0.2543981425525324 -0.33893914275967452 0 0.27282035448602859 -0.33554085100614839 0 0.2543981425525324 -0.33893914275967452 0 0.2590829219617814 -0.31267410877129931 0 0.2543981425525324 -0.33893914275967452 0 0.2590829219617814 -0.31267410877129931 0 0.24087195768162309 -0.32614810142562012 0 0.2543981425525324 -0.33893914275967452 0 0.2590829219617814 -0.31267410877129931 0 0.2590829219617814 -0.31267410877129931 0 0.26376770137103039 -0.2864090747829241 0 0.27385105082646688 -0.29718155094811333 0 0.2590829219617814 -0.31267410877129931 0 0.26376770137103039 -0.2864090747829241 0 0.24821325608307901 -0.29522124281265988 0 0.2590829219617814 -0.31267410877129931 0 0.26376770137103039 -0.2864090747829241 0 0.26376770137103039 -0.2864090747829241 0 0.24785603391849151 -0.27709942466880599 0 0.24821325608307901 -0.29522124281265988 0 0.26376770137103039 -0.2864090747829241 0 0.27275834958840189 -0.28372268528309152 0 0.2724225943816766 -0.27409056785933389 0 0.26376770137103039 -0.2864090747829241 0 0.27275834958840189 -0.28372268528309152 0 0.27385105082646688 -0.29718155094811333 0 0.28072449650403741 -0.28691913250301798 0 0.27385105082646688 -0.29718155094811333 0 0.2869084388603575 -0.29706258589684881 0 0.27275834958840189 -0.28372268528309152 0 0.28072449650403741 -0.28691913250301798 0 0.27385105082646688 -0.29718155094811333 0 0.27275834958840189 -0.28372268528309152 0 0.28072449650403741 -0.28691913250301798 0 0.27996448038040939 -0.28063895974691061 0 0.27986439667319313 -0.31630171845149863 0 0.2590829219617814 -0.31267410877129931 0 0.27385105082646688 -0.29718155094811333 0 0.27986439667319313 -0.31630171845149863 0 0.27385105082646688 -0.29718155094811333 0 0.2869084388603575 -0.29706258589684881 0 0.27986439667319313 -0.31630171845149863 0 0.2869084388603575 -0.29706258589684881 0 0.29592063247569211 -0.31558436997640987 0 0.27986439667319313 -0.31630171845149863 0 0.2869084388603575 -0.29706258589684881 0 0.2869084388603575 -0.29706258589684881 0 0.30298021147195658 -0.29033858393126172 0 0.29395248104752192 -0.27782345334219888 0 0.28072449650403741 -0.28691913250301798 0 0.2869084388603575 -0.29706258589684881 0 0.29395248104752192 -0.27782345334219888 0 0.2869084388603575 -0.29706258589684881 0 0.29395248104752192 -0.27782345334219888 0 0.28072449650403741 -0.28691913250301798 0 0.29395248104752192 -0.27782345334219888 0 0.27996448038040939 -0.28063895974691061 0 0.31569414790308259 -0.28159305760617132 0 0.30298021147195658 -0.29033858393126172 0 0.29395248104752192 -0.27782345334219888 0 0.31296692944630888 -0.29314018565426941 0 0.31569414790308259 -0.28159305760617132 0 0.30298021147195658 -0.29033858393126172 0 0.31296692944630888 -0.29314018565426941 0 0.30298021147195658 -0.29033858393126172 0 0.30954970221622308 -0.30462347215273478 0 0.2869084388603575 -0.29706258589684881 0 0.30298021147195658 -0.29033858393126172 0 0.30954970221622308 -0.30462347215273478 0 0.29592063247569211 -0.31558436997640987 0 0.2869084388603575 -0.29706258589684881 0 0.30954970221622308 -0.30462347215273478 0 0.30517917142926537 -0.24716040808135001 0 0.31054181011664339 -0.26140137874582919 0 0.2976408850071105 -0.26774945168120262 0 0.30517917142926537 -0.24716040808135001 0 0.2976408850071105 -0.26774945168120262 0 0.31275786215232049 -0.27168837282467972 0 0.2976408850071105 -0.26774945168120262 0 0.29395248104752192 -0.27782345334219888 0 0.31275786215232049 -0.27168837282467972 0 0.2976408850071105 -0.26774945168120262 0 0.31275786215232049 -0.27168837282467972 0 0.31054181011664339 -0.26140137874582919 0 0.2976408850071105 -0.26774945168120262 0 0.31569414790308259 -0.28159305760617132 0 0.29395248104752192 -0.27782345334219888 0 0.31569414790308259 -0.28159305760617132 0 0.31275786215232049 -0.27168837282467972 0 0.29395248104752192 -0.27782345334219888 0 0.2976408850071105 -0.26774945168120262 0 0.28600938745522969 -0.26471871668720698 0 0.2976408850071105 -0.26774945168120262 0 0.29395248104752192 -0.27782345334219888 0 0.29395248104752192 -0.27782345334219888 0 0.27996448038040939 -0.28063895974691061 0 0.2724225943816766 -0.27409056785933389 0 0.29395248104752192 -0.27782345334219888 0 0.28600938745522969 -0.26471871668720698 0 0.27658132089261911 -0.27335422882897692 0 0.2976408850071105 -0.26774945168120262 0 0.29395248104752192 -0.27782345334219888 0 0.28600938745522969 -0.26471871668720698 0 0.29395248104752192 -0.27782345334219888 0 0.2724225943816766 -0.27409056785933389 0 0.28600938745522969 -0.26471871668720698 0 0.27658132089261911 -0.27335422882897692 0 0.30517917142926537 -0.24716040808135001 0 0.28600938745522969 -0.26471871668720698 0 0.30517917142926537 -0.24716040808135001 0 0.2976408850071105 -0.26774945168120262 0 0.28600938745522969 -0.26471871668720698 0 0.30517917142926537 -0.24716040808135001 0 0.28765229627979871 -0.24304032400626949 0 0.28600938745522969 -0.26471871668720698 0 0.28600938745522969 -0.26471871668720698 0 0.26845248078028039 -0.26014404079454911 0 0.28765229627979871 -0.24304032400626949 0 0.28600938745522969 -0.26471871668720698 0 0.26845248078028039 -0.26014404079454911 0 0.26376770137103039 -0.2864090747829241 0 0.26845248078028039 -0.26014404079454911 0 0.2724225943816766 -0.27409056785933389 0 0.28600938745522969 -0.26471871668720698 0 0.26845248078028039 -0.26014404079454911 0 0.27658132089261911 -0.27335422882897692 0 0.26376770137103039 -0.2864090747829241 0 0.26845248078028039 -0.26014404079454911 0 0.29395248104752192 -0.27782345334219888 0 0.27658132089261911 -0.27335422882897692 0 0.2724225943816766 -0.27409056785933389 0 0.27275834958840189 -0.28372268528309152 0 0.27996448038040939 -0.28063895974691061 0 0.2724225943816766 -0.27409056785933389 0 0.26845248078028039 -0.26014404079454911 0 0.27658132089261911 -0.27335422882897692 0 0.2724225943816766 -0.27409056785933389 0 0.26376770137103039 -0.2864090747829241 0 0.26845248078028039 -0.26014404079454911 0 0.24785603391849151 -0.27709942466880599 0 0.26845248078028039 -0.26014404079454911 0 0.2410490216361528 -0.25300372010805161 0 0.26845248078028039 -0.26014404079454911 0 0.2410490216361528 -0.25300372010805161 0 0.24785603391849151 -0.27709942466880599 0 0.25787859859726192 -0.24372773219337371 0 0.26845248078028039 -0.26014404079454911 0 0.2410490216361528 -0.25300372010805161 0 0.2410490216361528 -0.25300372010805161 0 0.24785603391849151 -0.27709942466880599 0 0.23139485578507429 -0.27647983237136509 0 0.23139485578507429 -0.27647983237136509 0 0.2171028506536257 -0.26700629366950379 0 0.21674952071488601 -0.28686299221921707 0 0.2410490216361528 -0.25300372010805161 0 0.23139485578507429 -0.27647983237136509 0 0.2171028506536257 -0.26700629366950379 0 0.2410490216361528 -0.25300372010805161 0 0.2171028506536257 -0.26700629366950379 0 0.2136455624920251 -0.24586339942155419 0 0.2171028506536257 -0.26700629366950379 0 0.1960217485778272 -0.26205501631648559 0 0.2136455624920251 -0.24586339942155419 0 0.2171028506536257 -0.26700629366950379 0 0.2037572178097509 -0.27803645254629672 0 0.1960217485778272 -0.26205501631648559 0 0.2171028506536257 -0.26700629366950379 0 0.2037572178097509 -0.27803645254629672 0 0.21674952071488601 -0.28686299221921707 0 0.2037572178097509 -0.27803645254629672 0 0.1960217485778272 -0.26205501631648559 0 0.18672217274589489 -0.28463667424064248 0 0.1960217485778272 -0.26205501631648559 0 0.2136455624920251 -0.24586339942155419 0 0.1970165427207646 -0.2431475676051908 0 0.1960217485778272 -0.26205501631648559 0 0.1970165427207646 -0.2431475676051908 0 0.18013525364959199 -0.24590787480667409 0 0.19163287831415901 -0.30538761534618902 0 0.20219697373587131 -0.29192032270869461 0 0.2153952098199983 -0.30425933719731207 0 0.2037572178097509 -0.27803645254629672 0 0.20219697373587131 -0.29192032270869461 0 0.18672217274589489 -0.28463667424064248 0 0.19163287831415901 -0.30538761534618902 0 0.20219697373587131 -0.29192032270869461 0 0.18672217274589489 -0.28463667424064248 0 0.20219697373587131 -0.29192032270869461 0 0.21674952071488601 -0.28686299221921707 0 0.2153952098199983 -0.30425933719731207 0 0.2037572178097509 -0.27803645254629672 0 0.20219697373587131 -0.29192032270869461 0 0.21674952071488601 -0.28686299221921707 0 0.19163287831415901 -0.30538761534618902 0 0.2153952098199983 -0.30425933719731207 0 0.20381788977078771 -0.32236963909420019 0 0.2153952098199983 -0.30425933719731207 0 0.2333373149176502 -0.29099433783704243 0 0.2370223082464416 -0.30892926800322767 0 0.2153952098199983 -0.30425933719731207 0 0.2370223082464416 -0.30892926800322767 0 0.22300958304019269 -0.32335118517261402 0 0.21674952071488601 -0.28686299221921707 0 0.2153952098199983 -0.30425933719731207 0 0.2333373149176502 -0.29099433783704243 0 0.23139485578507429 -0.27647983237136509 0 0.21674952071488601 -0.28686299221921707 0 0.2333373149176502 -0.29099433783704243 0 0.24785603391849151 -0.27709942466880599 0 0.2333373149176502 -0.29099433783704243 0 0.24821325608307901 -0.29522124281265988 0 0.24785603391849151 -0.27709942466880599 0 0.23139485578507429 -0.27647983237136509 0 0.2333373149176502 -0.29099433783704243 0 0.2333373149176502 -0.29099433783704243 0 0.24821325608307901 -0.29522124281265988 0 0.2370223082464416 -0.30892926800322767 0 0.2590829219617814 -0.31267410877129931 0 0.24821325608307901 -0.29522124281265988 0 0.2370223082464416 -0.30892926800322767 0 0.2590829219617814 -0.31267410877129931 0 0.2370223082464416 -0.30892926800322767 0 0.24087195768162309 -0.32614810142562012 0 0.2543981425525324 -0.33893914275967452 0 0.24087195768162309 -0.32614810142562012 0 0.2308468326071676 -0.34684680242128502 0 0.24087195768162309 -0.32614810142562012 0 0.22300958304019269 -0.32335118517261402 0 0.2308468326071676 -0.34684680242128502 0 0.22300958304019269 -0.32335118517261402 0 0.2308468326071676 -0.34684680242128502 0 0.21275128108028149 -0.33749920242868869 0 0.2370223082464416 -0.30892926800322767 0 0.24087195768162309 -0.32614810142562012 0 0.22300958304019269 -0.32335118517261402 0 0.24971336314328341 -0.36520417674804972 0 0.2308468326071676 -0.34684680242128502 0 0.229200177642885 -0.36995291413531828 0 0.2543981425525324 -0.33893914275967452 0 0.24971336314328341 -0.36520417674804972 0 0.2308468326071676 -0.34684680242128502 0 0.229200177642885 -0.36995291413531828 0 0.20725651587090471 -0.36571099534901208 0 0.22031030243082139 -0.38906492162812378 0 0.2308468326071676 -0.34684680242128502 0 0.229200177642885 -0.36995291413531828 0 0.20725651587090471 -0.36571099534901208 0 0.2308468326071676 -0.34684680242128502 0 0.20725651587090471 -0.36571099534901208 0 0.21275128108028149 -0.33749920242868869 0 0.20725651587090471 -0.36571099534901208 0 0.21275128108028149 -0.33749920242868869 0 0.194202729310988 -0.34235706906990038 0 0.20725651587090471 -0.36571099534901208 0 0.194202729310988 -0.34235706906990038 0 0.180238718969634 -0.3612454971324468 0 0.20725651587090471 -0.36571099534901208 0 0.194202729310988 -0.34235706906990038 0 0.20725651587090471 -0.36571099534901208 0 0.19261827162763251 -0.374541644607297 0 0.180238718969634 -0.3612454971324468 0 0.22300958304019269 -0.32335118517261402 0 0.20381788977078771 -0.32236963909420019 0 0.21275128108028149 -0.33749920242868869 0 0.2153952098199983 -0.30425933719731207 0 0.22300958304019269 -0.32335118517261402 0 0.20381788977078771 -0.32236963909420019 0 0.20381788977078771 -0.32236963909420019 0 0.21275128108028149 -0.33749920242868869 0 0.194202729310988 -0.34235706906990038 0 0.20381788977078771 -0.32236963909420019 0 0.194202729310988 -0.34235706906990038 0 0.18384400034678741 -0.32250280289756078 0 0.19163287831415901 -0.30538761534618902 0 0.20381788977078771 -0.32236963909420019 0 0.18384400034678741 -0.32250280289756078 0 0.18384400034678741 -0.32250280289756078 0 0.17702055828029431 -0.33666004199980942 0 0.15719449589681389 -0.32866913917705798 0 0.194202729310988 -0.34235706906990038 0 0.18384400034678741 -0.32250280289756078 0 0.17702055828029431 -0.33666004199980942 0 0.15719449589681389 -0.32866913917705798 0 0.16581699513551909 -0.35306125248096398 0 0.17702055828029431 -0.33666004199980942 0 0.15719449589681389 -0.32866913917705798 0 0.16581699513551909 -0.35306125248096398 0 0.18384400034678741 -0.32250280289756078 0 0.15719449589681389 -0.32866913917705798 0 0.17186855286937899 -0.30453082832045192 0 0.180238718969634 -0.3612454971324468 0 0.1834568796589737 -0.38583095226508418 0 0.17443949437422429 -0.37745336578486988 0 0.180238718969634 -0.3612454971324468 0 0.16581699513551909 -0.35306125248096398 0 0.17443949437422429 -0.37745336578486988 0 0.180238718969634 -0.3612454971324468 0 0.1834568796589737 -0.38583095226508418 0 0.19261827162763251 -0.374541644607297 0 0.180238718969634 -0.3612454971324468 0 0.1834568796589737 -0.38583095226508418 0 0.17702055828029431 -0.33666004199980942 0 0.180238718969634 -0.3612454971324468 0 0.16581699513551909 -0.35306125248096398 0 0.17702055828029431 -0.33666004199980942 0 0.180238718969634 -0.3612454971324468 0 0.194202729310988 -0.34235706906990038 0 0.17702055828029431 -0.33666004199980942 0 0.180238718969634 -0.3612454971324468 0 0.16581699513551909 -0.35306125248096398 0 0.1602354860011011 -0.36875954027416918 0 0.14952990885070691 -0.36034775620209553 0 0.16581699513551909 -0.35306125248096398 0 0.17443949437422429 -0.37745336578486988 0 0.16581699513551909 -0.35306125248096398 0 0.1602354860011011 -0.36875954027416918 0 0.17443949437422429 -0.37745336578486988 0 0.1602354860011011 -0.36875954027416918 0 0.14673951295096799 -0.37363029079717242 0 0.14952990885070691 -0.36034775620209553 0 0.16581699513551909 -0.35306125248096398 0 0.14952990885070691 -0.36034775620209553 0 0.144826286403443 -0.34676284914488159 0 0.14952990885070691 -0.36034775620209553 0 0.144826286403443 -0.34676284914488159 0 0.12334710111447229 -0.36406834251145731 0 0.144826286403443 -0.34676284914488159 0 0.12334710111447229 -0.36406834251145731 0 0.144826286403443 -0.34676284914488159 0 0.12334710111447229 -0.36406834251145731 0 0.11573058637367541 -0.34380091622275832 0 0.13273239812562251 -0.3803535413873157 0 0.1208593498238435 -0.38006314209191833 0 0.12334710111447229 -0.36406834251145731 0 0.14673951295096799 -0.37363029079717242 0 0.14952990885070691 -0.36034775620209553 0 0.12334710111447229 -0.36406834251145731 0 0.14673951295096799 -0.37363029079717242 0 0.13273239812562251 -0.3803535413873157 0 0.12334710111447229 -0.36406834251145731 0 0.15719449589681389 -0.32866913917705798 0 0.13978194378111039 -0.33004063130878142 0 0.14857199665810869 -0.30427702587315197 0 0.15719449589681389 -0.32866913917705798 0 0.14857199665810869 -0.30427702587315197 0 0.15719449589681389 -0.32866913917705798 0 0.144826286403443 -0.34676284914488159 0 0.13978194378111039 -0.33004063130878142 0 0.15719449589681389 -0.32866913917705798 0 0.16581699513551909 -0.35306125248096398 0 0.144826286403443 -0.34676284914488159 0 0.13978194378111039 -0.33004063130878142 0 0.1249111379911398 -0.32186001205002218 0 0.11573058637367541 -0.34380091622275832 0 0.144826286403443 -0.34676284914488159 0 0.13978194378111039 -0.33004063130878142 0 0.11573058637367541 -0.34380091622275832 0 0.13978194378111039 -0.33004063130878142 0 0.14857199665810869 -0.30427702587315197 0 0.1249111379911398 -0.32186001205002218 0 0.14857199665810869 -0.30427702587315197 0 0.13584279120622419 -0.29064916595208462 0 0.1212075847983899 -0.30357596212866123 0 0.14857199665810869 -0.30427702587315197 0 0.1212075847983899 -0.30357596212866123 0 0.1249111379911398 -0.32186001205002218 0 0.14857199665810869 -0.30427702587315197 0 0.14941647374314521 -0.28066083506566319 0 0.1659314811884508 -0.28303851802095531 0 0.14857199665810869 -0.30427702587315197 0 0.13584279120622419 -0.29064916595208462 0 0.14941647374314521 -0.28066083506566319 0 0.13554841089854469 -0.28148943716570812 0 0.13584279120622419 -0.29064916595208462 0 0.14941647374314521 -0.28066083506566319 0 0.13554841089854469 -0.28148943716570812 0 0.13584279120622419 -0.29064916595208462 0 0.1176113560141319 -0.2851589593963586 0 0.1376178273856396 -0.2676878026278281 0 0.13932302263067731 -0.26948878824872591 0 0.1176113560141319 -0.2851589593963586 0 0.13554841089854469 -0.28148943716570812 0 0.13932302263067731 -0.26948878824872591 0 0.1176113560141319 -0.2851589593963586 0 0.13932302263067731 -0.26948878824872591 0 0.1176113560141319 -0.2851589593963586 0 0.1376178273856396 -0.2676878026278281 0 0.1200034520355143 -0.24749468667538321 0 0.1376178273856396 -0.2676878026278281 0 0.1200034520355143 -0.24749468667538321 0 0.1412434604122122 -0.24631040783256791 0 0.1376178273856396 -0.2676878026278281 0 0.16103468924722281 -0.25381861710109321 0 0.1412434604122122 -0.24631040783256791 0 0.1376178273856396 -0.2676878026278281 0 0.13932302263067731 -0.26948878824872591 0 0.16103468924722281 -0.25381861710109321 0 0.13932302263067731 -0.26948878824872591 0 0.16103468924722281 -0.25381861710109321 0 0.13932302263067731 -0.26948878824872591 0 0.14941647374314521 -0.28066083506566319 0 0.16103468924722281 -0.25381861710109321 0 0.13554841089854469 -0.28148943716570812 0 0.13932302263067731 -0.26948878824872591 0 0.14941647374314521 -0.28066083506566319 0 0.14941647374314521 -0.28066083506566319 0 0.16103468924722281 -0.25381861710109321 0 0.1659314811884508 -0.28303851802095531 0 0.16103468924722281 -0.25381861710109321 0 0.1779690690817976 -0.26589134009717008 0 0.1659314811884508 -0.28303851802095531 0 0.16103468924722281 -0.25381861710109321 0 0.1779690690817976 -0.26589134009717008 0 0.18013525364959199 -0.24590787480667409 0 0.1960217485778272 -0.26205501631648559 0 0.1779690690817976 -0.26589134009717008 0 0.18013525364959199 -0.24590787480667409 0 0.1960217485778272 -0.26205501631648559 0 0.1779690690817976 -0.26589134009717008 0 0.18672217274589489 -0.28463667424064248 0 0.1779690690817976 -0.26589134009717008 0 0.18672217274589489 -0.28463667424064248 0 0.1659314811884508 -0.28303851802095531 0 0.18672217274589489 -0.28463667424064248 0 0.17186855286937899 -0.30453082832045192 0 0.1659314811884508 -0.28303851802095531 0 0.19163287831415901 -0.30538761534618902 0 0.18384400034678741 -0.32250280289756078 0 0.17186855286937899 -0.30453082832045192 0 0.19163287831415901 -0.30538761534618902 0 0.18672217274589489 -0.28463667424064248 0 0.17186855286937899 -0.30453082832045192 0 0.14857199665810869 -0.30427702587315197 0 0.17186855286937899 -0.30453082832045192 0 0.1659314811884508 -0.28303851802095531 0 0.15719449589681389 -0.32866913917705798 0 0.14857199665810869 -0.30427702587315197 0 0.17186855286937899 -0.30453082832045192 0 0.27004646425256568 -0.5 0 0.19840125792562099 -0.499999999999995 0 0.2258071254777905 -0.47806137695806639 0 0.19840125792562099 -0.499999999999995 0 0.1955652389629654 -0.47833395417678298 0 0.19840125792562099 -0.499999999999995 0 0.1955652389629654 -0.47833395417678298 0 0.1857239970351309 -0.48926605560099218 0 0.1955652389629654 -0.47833395417678298 0 0.2258071254777905 -0.47806137695806639 0 0.20496909670773639 -0.46039718082621561 0 0.19840125792562099 -0.499999999999995 0 0.1955652389629654 -0.47833395417678298 0 0.2258071254777905 -0.47806137695806639 0 0.2532296876789632 -0.47497352743918242 0 0.27004646425256568 -0.5 0 0.2258071254777905 -0.47806137695806639 0 0.2532296876789632 -0.47497352743918242 0 0.2258071254777905 -0.47806137695806639 0 0.23317765179809191 -0.45416130837427687 0 0.2258071254777905 -0.47806137695806639 0 0.23317765179809191 -0.45416130837427687 0 0.20496909670773639 -0.46039718082621561 0 0.23317765179809191 -0.45416130837427687 0 0.20496909670773639 -0.46039718082621561 0 0.26339579246569877 -0.46312143350125029 0 0.2532296876789632 -0.47497352743918242 0 0.23317765179809191 -0.45416130837427687 0 0.26138620688844749 -0.44792543592233808 0 0.2518592606704963 -0.43815060111373921 0 0.23317765179809191 -0.45416130837427687 0 0.26138620688844749 -0.44792543592233808 0 0.23317765179809191 -0.45416130837427687 0 0.2518592606704963 -0.43815060111373921 0 0.23317765179809191 -0.45416130837427687 0 0.24161391479158839 -0.43048581688246368 0 0.23317765179809191 -0.45416130837427687 0 0.21274467024756119 -0.44537306322652892 0 0.22596778666418391 -0.43195218695593612 0 0.23317765179809191 -0.45416130837427687 0 0.22596778666418391 -0.43195218695593612 0 0.24161391479158839 -0.43048581688246368 0 0.20738663592967541 -0.43977689630152639 0 0.21274467024756119 -0.44537306322652892 0 0.21231789143938981 -0.43260924517595267 0 0.20738663592967541 -0.43977689630152639 0 0.20306963394956029 -0.44528763306514119 0 0.2014143480821905 -0.43583764373848299 0 0.20738663592967541 -0.43977689630152639 0 0.21274467024756119 -0.44537306322652892 0 0.20306963394956029 -0.44528763306514119 0 0.21274467024756119 -0.44537306322652892 0 0.20306963394956029 -0.44528763306514119 0 0.20202636709778779 -0.45196992376671852 0 0.21274467024756119 -0.44537306322652892 0 0.20496909670773639 -0.46039718082621561 0 0.20202636709778779 -0.45196992376671852 0 0.23317765179809191 -0.45416130837427687 0 0.21274467024756119 -0.44537306322652892 0 0.20496909670773639 -0.46039718082621561 0 0.1955652389629654 -0.47833395417678298 0 0.20496909670773639 -0.46039718082621561 0 0.1927292200003092 -0.45666790835357102 0 0.1955652389629654 -0.47833395417678298 0 0.1927292200003092 -0.45666790835357102 0 0.1955652389629654 -0.47833395417678298 0 0.19047701204926121 -0.46094242075341862 0 0.1927292200003092 -0.45666790835357102 0 0.20496909670773639 -0.46039718082621561 0 0.1927292200003092 -0.45666790835357102 0 0.20202636709778779 -0.45196992376671852 0 0.19047701204926121 -0.46094242075341862 0 0.1927292200003092 -0.45666790835357102 0 0.1876592352144193 -0.45673372923780892 0 0.1927292200003092 -0.45666790835357102 0 0.1876592352144193 -0.45673372923780892 0 0.18777566972406101 -0.44981142861604279 0 0.1927292200003092 -0.45666790835357102 0 0.19595067699787469 -0.4453334870477933 0 0.18989320103765239 -0.43500186253035911 0 0.1927292200003092 -0.45666790835357102 0 0.18989320103765239 -0.43500186253035911 0 0.1927292200003092 -0.45666790835357102 0 0.18777566972406101 -0.44981142861604279 0 0.18989320103765239 -0.43500186253035911 0 0.19521760998379711 -0.43854214036159178 0 0.19595067699787469 -0.4453334870477933 0 0.1916906899727929 -0.43609695451772118 0 0.19595067699787469 -0.4453334870477933 0 0.1916906899727929 -0.43609695451772118 0 0.18989320103765239 -0.43500186253035911 0 0.19521760998379711 -0.43854214036159178 0 0.19821003569121751 -0.44088076654097252 0 0.19595067699787469 -0.4453334870477933 0 0.19821003569121751 -0.44088076654097252 0 0.20306963394956029 -0.44528763306514119 0 0.19595067699787469 -0.4453334870477933 0 0.19821003569121751 -0.44088076654097252 0 0.20306963394956029 -0.44528763306514119 0 0.2014143480821905 -0.43583764373848299 0 0.19521760998379711 -0.43854214036159178 0 0.19821003569121751 -0.44088076654097252 0 0.19632921389935129 -0.43529695882979857 0 0.20306963394956029 -0.44528763306514119 0 0.20202636709778779 -0.45196992376671852 0 0.19595067699787469 -0.4453334870477933 0 0.1927292200003092 -0.45666790835357102 0 0.20202636709778779 -0.45196992376671852 0 0.19595067699787469 -0.4453334870477933 0 0.18989320103765239 -0.43500186253035911 0 0.193210065479164 -0.42351508711829272 0 0.18667504034831339 -0.41041640739772162 0 0.18989320103765239 -0.43500186253035911 0 0.18667504034831339 -0.41041640739772162 0 0.1973860855611401 -0.42692030526330021 0 0.193210065479164 -0.42351508711829272 0 0.19846083006015189 -0.42045811652912207 0 0.1973860855611401 -0.42692030526330021 0 0.19846083006015189 -0.42045811652912207 0 0.20326441538295181 -0.42746054266679712 0 0.1973860855611401 -0.42692030526330021 0 0.19826447490927249 -0.43151164360587502 0 0.20326441538295181 -0.42746054266679712 0 0.2014143480821905 -0.43583764373848299 0 0.19826447490927249 -0.43151164360587502 0 0.20326441538295181 -0.42746054266679712 0 0.19821003569121751 -0.44088076654097252 0 0.2014143480821905 -0.43583764373848299 0 0.19632921389935129 -0.43529695882979857 0 0.2014143480821905 -0.43583764373848299 0 0.19632921389935129 -0.43529695882979857 0 0.19826447490927249 -0.43151164360587502 0 0.19632921389935129 -0.43529695882979857 0 0.19826447490927249 -0.43151164360587502 0 0.1929283116207289 -0.43204276753099607 0 0.1973860855611401 -0.42692030526330021 0 0.19826447490927249 -0.43151164360587502 0 0.1929283116207289 -0.43204276753099607 0 0.1929283116207289 -0.43204276753099607 0 0.18989320103765239 -0.43500186253035911 0 0.193210065479164 -0.42351508711829272 0 0.19521760998379711 -0.43854214036159178 0 0.19632921389935129 -0.43529695882979857 0 0.19377820557052011 -0.43520734882518619 0 0.19521760998379711 -0.43854214036159178 0 0.19377820557052011 -0.43520734882518619 0 0.1916906899727929 -0.43609695451772118 0 0.19632921389935129 -0.43529695882979857 0 0.1929283116207289 -0.43204276753099607 0 0.19377820557052011 -0.43520734882518619 0 0.1929283116207289 -0.43204276753099607 0 0.19210490899723079 -0.4345610298626873 0 0.18989320103765239 -0.43500186253035911 0 0.19377820557052011 -0.43520734882518619 0 0.19210490899723079 -0.4345610298626873 0 0.1916906899727929 -0.43609695451772118 0 0.1929283116207289 -0.43204276753099607 0 0.19377820557052011 -0.43520734882518619 0 0.19210490899723079 -0.4345610298626873 0 0.1916906899727929 -0.43609695451772118 0 0.18989320103765239 -0.43500186253035911 0 0.19210490899723079 -0.4345610298626873 0 0.1916906899727929 -0.43609695451772118 0 0.18989320103765239 -0.43500186253035911 0 0.1973860855611401 -0.42692030526330021 0 0.1929283116207289 -0.43204276753099607 0 0.193210065479164 -0.42351508711829272 0 0.193210065479164 -0.42351508711829272 0 0.1939169242469973 -0.41625106345825691 0 0.18667504034831339 -0.41041640739772162 0 0.193210065479164 -0.42351508711829272 0 0.1939169242469973 -0.41625106345825691 0 0.19846083006015189 -0.42045811652912207 0 0.1968341740193896 -0.41150644481021997 0 0.19418069224578771 -0.40518464808912641 0 0.18667504034831339 -0.41041640739772162 0 0.1939169242469973 -0.41625106345825691 0 0.1968341740193896 -0.41150644481021997 0 0.18667504034831339 -0.41041640739772162 0 0.1968341740193896 -0.41150644481021997 0 0.20469814770209749 -0.41520386531910081 0 0.20485234226760879 -0.40188257102108682 0 0.19846083006015189 -0.42045811652912207 0 0.20469814770209749 -0.41520386531910081 0 0.20326441538295181 -0.42746054266679712 0 0.1939169242469973 -0.41625106345825691 0 0.1968341740193896 -0.41150644481021997 0 0.19846083006015189 -0.42045811652912207 0 0.1968341740193896 -0.41150644481021997 0 0.19846083006015189 -0.42045811652912207 0 0.20469814770209749 -0.41520386531910081 0 0.20469814770209749 -0.41520386531910081 0 0.21626227209603979 -0.41615869782113413 0 0.20326441538295181 -0.42746054266679712 0 0.20469814770209749 -0.41520386531910081 0 0.21626227209603979 -0.41615869782113413 0 0.20485234226760879 -0.40188257102108682 0 0.21626227209603979 -0.41615869782113413 0 0.20326441538295181 -0.42746054266679712 0 0.21231789143938981 -0.43260924517595267 0 0.21626227209603979 -0.41615869782113413 0 0.21231789143938981 -0.43260924517595267 0 0.22596778666418391 -0.43195218695593612 0 0.20738663592967541 -0.43977689630152639 0 0.2014143480821905 -0.43583764373848299 0 0.21231789143938981 -0.43260924517595267 0 0.2014143480821905 -0.43583764373848299 0 0.20326441538295181 -0.42746054266679712 0 0.21231789143938981 -0.43260924517595267 0 0.21274467024756119 -0.44537306322652892 0 0.21231789143938981 -0.43260924517595267 0 0.22596778666418391 -0.43195218695593612 0 0.22596778666418391 -0.43195218695593612 0 0.24161391479158839 -0.43048581688246368 0 0.2333640889907381 -0.41241884790723538 0 0.25610826383841628 -0.42120346698794331 0 0.2518592606704963 -0.43815060111373921 0 0.24161391479158839 -0.43048581688246368 0 0.25610826383841628 -0.42120346698794331 0 0.24161391479158839 -0.43048581688246368 0 0.2333640889907381 -0.41241884790723538 0 0.21626227209603979 -0.41615869782113413 0 0.22596778666418391 -0.43195218695593612 0 0.2333640889907381 -0.41241884790723538 0 0.2333640889907381 -0.41241884790723538 0 0.24502858373403441 -0.39146921073642488 0 0.22031030243082139 -0.38906492162812378 0 0.21626227209603979 -0.41615869782113413 0 0.2333640889907381 -0.41241884790723538 0 0.22031030243082139 -0.38906492162812378 0 0.2333640889907381 -0.41241884790723538 0 0.22031030243082139 -0.38906492162812378 0 0.26125098829365018 -0.39969694482297641 0 0.2333640889907381 -0.41241884790723538 0 0.24502858373403441 -0.39146921073642488 0 0.24971336314328341 -0.36520417674804972 0 0.24502858373403441 -0.39146921073642488 0 0.24971336314328341 -0.36520417674804972 0 0.229200177642885 -0.36995291413531828 0 0.24502858373403441 -0.39146921073642488 0 0.229200177642885 -0.36995291413531828 0 0.24502858373403441 -0.39146921073642488 0 0.22031030243082139 -0.38906492162812378 0 0.20725651587090471 -0.36571099534901208 0 0.22031030243082139 -0.38906492162812378 0 0.19952097201101759 -0.38537913368264481 0 0.20725651587090471 -0.36571099534901208 0 0.22031030243082139 -0.38906492162812378 0 0.21626227209603979 -0.41615869782113413 0 0.22031030243082139 -0.38906492162812378 0 0.20485234226760879 -0.40188257102108682 0 0.22031030243082139 -0.38906492162812378 0 0.20485234226760879 -0.40188257102108682 0 0.19952097201101759 -0.38537913368264481 0 0.20485234226760879 -0.40188257102108682 0 0.19159455078491761 -0.39726910731705511 0 0.19952097201101759 -0.38537913368264481 0 0.1968341740193896 -0.41150644481021997 0 0.20485234226760879 -0.40188257102108682 0 0.19418069224578771 -0.40518464808912641 0 0.20485234226760879 -0.40188257102108682 0 0.19418069224578771 -0.40518464808912641 0 0.19159455078491761 -0.39726910731705511 0 0.19418069224578771 -0.40518464808912641 0 0.19159455078491761 -0.39726910731705511 0 0.18667504034831339 -0.41041640739772162 0 0.20725651587090471 -0.36571099534901208 0 0.19261827162763251 -0.374541644607297 0 0.19952097201101759 -0.38537913368264481 0 0.19261827162763251 -0.374541644607297 0 0.19952097201101759 -0.38537913368264481 0 0.1834568796589737 -0.38583095226508418 0 0.19159455078491761 -0.39726910731705511 0 0.19952097201101759 -0.38537913368264481 0 0.1834568796589737 -0.38583095226508418 0 0.17443949437422429 -0.37745336578486988 0 0.18306199361292941 -0.40184547908877583 0 0.1834568796589737 -0.38583095226508418 0 0.17443949437422429 -0.37745336578486988 0 0.18306199361292941 -0.40184547908877583 0 0.17443949437422429 -0.37745336578486988 0 0.18306199361292941 -0.40184547908877583 0 0.1699565165384864 -0.39219147373696051 0 0.19159455078491761 -0.39726910731705511 0 0.1834568796589737 -0.38583095226508418 0 0.18667504034831339 -0.41041640739772162 0 0.1834568796589737 -0.38583095226508418 0 0.18667504034831339 -0.41041640739772162 0 0.1834568796589737 -0.38583095226508418 0 0.18306199361292941 -0.40184547908877583 0 0.18667504034831339 -0.41041640739772162 0 0.18306199361292941 -0.40184547908877583 0 0.1699565165384864 -0.39219147373696051 0 0.17103987791038719 -0.40450309618882169 0 0.18306199361292941 -0.40184547908877583 0 0.17103987791038719 -0.40450309618882169 0 0.1814131781600461 -0.40758752999736902 0 0.1699565165384864 -0.39219147373696051 0 0.17103987791038719 -0.40450309618882169 0 0.15993177942481909 -0.39557864441750712 0 0.17103987791038719 -0.40450309618882169 0 0.15993177942481909 -0.39557864441750712 0 0.14638679418839309 -0.40849626541203388 0 0.1699565165384864 -0.39219147373696051 0 0.15993177942481909 -0.39557864441750712 0 0.1595700277473481 -0.38298567724053401 0 0.17443949437422429 -0.37745336578486988 0 0.1699565165384864 -0.39219147373696051 0 0.1595700277473481 -0.38298567724053401 0 0.1602354860011011 -0.36875954027416918 0 0.17443949437422429 -0.37745336578486988 0 0.1595700277473481 -0.38298567724053401 0 0.1602354860011011 -0.36875954027416918 0 0.14673951295096799 -0.37363029079717242 0 0.1595700277473481 -0.38298567724053401 0 0.14673951295096799 -0.37363029079717242 0 0.1595700277473481 -0.38298567724053401 0 0.14586341328622179 -0.39002728499933198 0 0.14673951295096799 -0.37363029079717242 0 0.14586341328622179 -0.39002728499933198 0 0.13273239812562251 -0.3803535413873157 0 0.15993177942481909 -0.39557864441750712 0 0.1595700277473481 -0.38298567724053401 0 0.14586341328622179 -0.39002728499933198 0 0.14586341328622179 -0.39002728499933198 0 0.13273239812562251 -0.3803535413873157 0 0.12412735500694751 -0.39493505064503392 0 0.13273239812562251 -0.3803535413873157 0 0.12412735500694751 -0.39493505064503392 0 0.1208593498238435 -0.38006314209191833 0 0.14586341328622179 -0.39002728499933198 0 0.14638679418839309 -0.40849626541203388 0 0.12412735500694751 -0.39493505064503392 0 0.14638679418839309 -0.40849626541203388 0 0.1185943653130178 -0.41089393958744808 0 0.12412735500694751 -0.39493505064503392 0 0.14638679418839309 -0.40849626541203388 0 0.12412735500694751 -0.39493505064503392 0 0.15993177942481909 -0.39557864441750712 0 0.14586341328622179 -0.39002728499933198 0 0.14638679418839309 -0.40849626541203388 0 0.14638679418839309 -0.40849626541203388 0 0.12945713117598301 -0.42527718494859718 0 0.1185943653130178 -0.41089393958744808 0 0.12945713117598301 -0.42527718494859718 0 0.1521605439778134 -0.43517333823265708 0 0.13567485458578729 -0.448289196286278 0 0.14638679418839309 -0.40849626541203388 0 0.12945713117598301 -0.42527718494859718 0 0.1521605439778134 -0.43517333823265708 0 0.14638679418839309 -0.40849626541203388 0 0.1521605439778134 -0.43517333823265708 0 0.16864623336983819 -0.42205748017903449 0 0.1521605439778134 -0.43517333823265708 0 0.16864623336983819 -0.42205748017903449 0 0.1521605439778134 -0.43517333823265708 0 0.16864623336983819 -0.42205748017903449 0 0.16573483381671769 -0.43911683261624462 0 0.16864623336983819 -0.42205748017903449 0 0.17670256027174869 -0.43608133600128551 0 0.16573483381671769 -0.43911683261624462 0 0.17103987791038719 -0.40450309618882169 0 0.14638679418839309 -0.40849626541203388 0 0.16962733287145829 -0.41306172809692981 0 0.14638679418839309 -0.40849626541203388 0 0.16864623336983819 -0.42205748017903449 0 0.14638679418839309 -0.40849626541203388 0 0.16864623336983819 -0.42205748017903449 0 0.16962733287145829 -0.41306172809692981 0 0.16864623336983819 -0.42205748017903449 0 0.17965678171287719 -0.41329759239238029 0 0.18989320103765239 -0.43500186253035911 0 0.17965678171287719 -0.41329759239238029 0 0.18667504034831339 -0.41041640739772162 0 0.16864623336983819 -0.42205748017903449 0 0.16962733287145829 -0.41306172809692981 0 0.17965678171287719 -0.41329759239238029 0 0.17103987791038719 -0.40450309618882169 0 0.16962733287145829 -0.41306172809692981 0 0.17965678171287719 -0.41329759239238029 0 0.17103987791038719 -0.40450309618882169 0 0.17965678171287719 -0.41329759239238029 0 0.1814131781600461 -0.40758752999736902 0 0.18306199361292941 -0.40184547908877583 0 0.1814131781600461 -0.40758752999736902 0 0.18667504034831339 -0.41041640739772162 0 0.17965678171287719 -0.41329759239238029 0 0.1814131781600461 -0.40758752999736902 0 0.18667504034831339 -0.41041640739772162 0 0.18989320103765239 -0.43500186253035911 0 0.16864623336983819 -0.42205748017903449 0 0.18989320103765239 -0.43500186253035911 0 0.16864623336983819 -0.42205748017903449 0 0.17965678171287719 -0.41329759239238029 0 0.18989320103765239 -0.43500186253035911 0 0.16864623336983819 -0.42205748017903449 0 0.17670256027174869 -0.43608133600128551 0 0.18989320103765239 -0.43500186253035911 0 0.17670256027174869 -0.43608133600128551 0 0.18208037526260021 -0.440172852945236 0 0.17851738694434799 -0.45081987712854771 0 0.17618275988476059 -0.44374183802639611 0 0.18401323307134959 -0.44581129240036288 0 0.17851738694434799 -0.45081987712854771 0 0.1776998484129505 -0.456552179461992 0 0.17120073938054131 -0.45123220200337888 0 0.17851738694434799 -0.45081987712854771 0 0.17618275988476059 -0.44374183802639611 0 0.17120073938054131 -0.45123220200337888 0 0.17670256027174869 -0.43608133600128551 0 0.17618275988476059 -0.44374183802639611 0 0.16573483381671769 -0.43911683261624462 0 0.17670256027174869 -0.43608133600128551 0 0.17618275988476059 -0.44374183802639611 0 0.18208037526260021 -0.440172852945236 0 0.18989320103765239 -0.43500186253035911 0 0.18208037526260021 -0.440172852945236 0 0.18401323307134959 -0.44581129240036288 0 0.18777566972406101 -0.44981142861604279 0 0.18989320103765239 -0.43500186253035911 0 0.18401323307134959 -0.44581129240036288 0 0.17618275988476059 -0.44374183802639611 0 0.18208037526260021 -0.440172852945236 0 0.18401323307134959 -0.44581129240036288 0 0.18777566972406101 -0.44981142861604279 0 0.18401323307134959 -0.44581129240036288 0 0.18385690407389799 -0.45446609953290928 0 0.17851738694434799 -0.45081987712854771 0 0.18401323307134959 -0.44581129240036288 0 0.18385690407389799 -0.45446609953290928 0 0.19047701204926121 -0.46094242075341862 0 0.1876592352144193 -0.45673372923780892 0 0.1806900259799068 -0.46227126151247672 0 0.1876592352144193 -0.45673372923780892 0 0.18777566972406101 -0.44981142861604279 0 0.18385690407389799 -0.45446609953290928 0 0.19047701204926121 -0.46094242075341862 0 0.1806900259799068 -0.46227126151247672 0 0.17298031468751371 -0.48047121037671059 0 0.1876592352144193 -0.45673372923780892 0 0.18385690407389799 -0.45446609953290928 0 0.1806900259799068 -0.46227126151247672 0 0.18385690407389799 -0.45446609953290928 0 0.1806900259799068 -0.46227126151247672 0 0.1776998484129505 -0.456552179461992 0 0.17851738694434799 -0.45081987712854771 0 0.18385690407389799 -0.45446609953290928 0 0.1776998484129505 -0.456552179461992 0 0.1806900259799068 -0.46227126151247672 0 0.1776998484129505 -0.456552179461992 0 0.17146684144139809 -0.46446192971202138 0 0.1776998484129505 -0.456552179461992 0 0.17146684144139809 -0.46446192971202138 0 0.17120073938054131 -0.45123220200337888 0 0.17146684144139809 -0.46446192971202138 0 0.15759213853868431 -0.45113306297151079 0 0.14900727366634989 -0.46501884712825781 0 0.17146684144139809 -0.46446192971202138 0 0.15759213853868431 -0.45113306297151079 0 0.17120073938054131 -0.45123220200337888 0 0.1521605439778134 -0.43517333823265708 0 0.15759213853868431 -0.45113306297151079 0 0.16573483381671769 -0.43911683261624462 0 0.15759213853868431 -0.45113306297151079 0 0.17120073938054131 -0.45123220200337888 0 0.16573483381671769 -0.43911683261624462 0 0.17618275988476059 -0.44374183802639611 0 0.17120073938054131 -0.45123220200337888 0 0.16573483381671769 -0.43911683261624462 0 0.1521605439778134 -0.43517333823265708 0 0.15759213853868431 -0.45113306297151079 0 0.13567485458578729 -0.448289196286278 0 0.1521605439778134 -0.43517333823265708 0 0.13567485458578729 -0.448289196286278 0 0.13567485458578729 -0.448289196286278 0 0.1191891651937612 -0.46140505433989892 0 0.12203304576274319 -0.43975504748265359 0 0.12945713117598301 -0.42527718494859718 0 0.13567485458578729 -0.448289196286278 0 0.12203304576274319 -0.43975504748265359 0 0.13567485458578729 -0.448289196286278 0 0.1191891651937612 -0.46140505433989892 0 0.13567485458578729 -0.448289196286278 0 0.13480127744719991 -0.46410976413563299 0 0.1191891651937612 -0.46140505433989892 0 0.13567485458578729 -0.448289196286278 0 0.13480127744719991 -0.46410976413563299 0 0.14900727366634989 -0.46501884712825781 0 0.15759213853868431 -0.45113306297151079 0 0.13567485458578729 -0.448289196286278 0 0.14900727366634989 -0.46501884712825781 0 0.14900727366634989 -0.46501884712825781 0 0.15577652408963519 -0.48266000469618581 0 0.13873200589539489 -0.47945912496791759 0 0.13480127744719991 -0.46410976413563299 0 0.14900727366634989 -0.46501884712825781 0 0.13873200589539489 -0.47945912496791759 0 0.13480127744719991 -0.46410976413563299 0 0.13873200589539489 -0.47945912496791759 0 0.11801755443736479 -0.48060781756800708 0 0.13873200589539489 -0.47945912496791759 0 0.13581988522262109 -0.50000000000000244 0 0.11801755443736479 -0.48060781756800708 0 0.13581988522262109 -0.50000000000000244 0 0.11801755443736479 -0.48060781756800708 0 0.15577652408963519 -0.48266000469618581 0 0.13873200589539489 -0.47945912496791759 0 0.13581988522262109 -0.50000000000000244 0 0.15577652408963519 -0.48266000469618581 0 0.13581988522262109 -0.50000000000000244 0 0.15548361732576529 -0.50000000000000178 0 0.15577652408963519 -0.48266000469618581 0 0.15548361732576529 -0.50000000000000178 0 0.17298031468751371 -0.48047121037671059 0 0.15548361732576529 -0.50000000000000178 0 0.17298031468751371 -0.48047121037671059 0 0.1769424376256932 -0.5 0 0.15548361732576529 -0.50000000000000178 0 0.17298031468751371 -0.48047121037671059 0 0.17146684144139809 -0.46446192971202138 0 0.15577652408963519 -0.48266000469618581 0 0.17298031468751371 -0.48047121037671059 0 0.17146684144139809 -0.46446192971202138 0 0.14900727366634989 -0.46501884712825781 0 0.15577652408963519 -0.48266000469618581 0 0.19047701204926121 -0.46094242075341862 0 0.17298031468751371 -0.48047121037671059 0 0.1806900259799068 -0.46227126151247672 0 0.17146684144139809 -0.46446192971202138 0 0.17298031468751371 -0.48047121037671059 0 0.1955652389629654 -0.47833395417678298 0 0.19047701204926121 -0.46094242075341862 0 0.17298031468751371 -0.48047121037671059 0 0.1955652389629654 -0.47833395417678298 0 0.17298031468751371 -0.48047121037671059 0 0.1857239970351309 -0.48926605560099218 0 0.19840125792562099 -0.499999999999995 0 0.1857239970351309 -0.48926605560099218 0 0.1769424376256932 -0.5 0 0.17298031468751371 -0.48047121037671059 0 0.1857239970351309 -0.48926605560099218 0 0.1769424376256932 -0.5 0 0.074737975103940479 -0.48487994098964171 0 0.071046826552429457 -0.50000000000000733 0 0.059434139084113012 -0.47963991399004141 0 0.071046826552429457 -0.50000000000000733 0 0.059434139084113012 -0.47963991399004141 0 0.074737975103940479 -0.48487994098964171 0 0.05802097188470097 -0.46975988197928431 0 0.059434139084113012 -0.47963991399004141 0 0.074737975103940479 -0.48487994098964171 0 0.071955909258469009 -0.46877079283141743 0 0.05802097188470097 -0.46975988197928431 0 0.074737975103940479 -0.48487994098964171 0 0.071955909258469009 -0.46877079283141743 0 0.082737354296077953 -0.47427357099325013 0 0.074737975103940479 -0.48487994098964171 0 0.05802097188470097 -0.46975988197928431 0 0.074737975103940479 -0.48487994098964171 0 0.082737354296077953 -0.47427357099325013 0 0.094811061721812542 -0.48112121468145302 0 0.082737354296077953 -0.47427357099325013 0 0.094811061721812542 -0.48112121468145302 0 0.1002152236521098 -0.46121563513601083 0 0.074737975103940479 -0.48487994098964171 0 0.091454978323179614 -0.49999999999999939 0 0.094811061721812542 -0.48112121468145302 0 0.074737975103940479 -0.48487994098964171 0 0.091454978323179614 -0.49999999999999939 0 0.074737975103940479 -0.48487994098964171 0 0.071046826552429457 -0.50000000000000733 0 0.091454978323179614 -0.49999999999999939 0 0.1136374317729003 -0.5 0 0.11801755443736479 -0.48060781756800708 0 0.094811061721812542 -0.48112121468145302 0 0.091454978323179614 -0.49999999999999939 0 0.1136374317729003 -0.5 0 0.094811061721812542 -0.48112121468145302 0 0.13581988522262109 -0.50000000000000244 0 0.1136374317729003 -0.5 0 0.11801755443736479 -0.48060781756800708 0 0.11801755443736479 -0.48060781756800708 0 0.094811061721812542 -0.48112121468145302 0 0.1002152236521098 -0.46121563513601083 0 0.11801755443736479 -0.48060781756800708 0 0.1002152236521098 -0.46121563513601083 0 0.1002152236521098 -0.46121563513601083 0 0.1191891651937612 -0.46140505433989892 0 0.1082504500781146 -0.44478934181291102 0 0.11801755443736479 -0.48060781756800708 0 0.1002152236521098 -0.46121563513601083 0 0.1191891651937612 -0.46140505433989892 0 0.13480127744719991 -0.46410976413563299 0 0.11801755443736479 -0.48060781756800708 0 0.1191891651937612 -0.46140505433989892 0 0.1191891651937612 -0.46140505433989892 0 0.12203304576274319 -0.43975504748265359 0 0.1082504500781146 -0.44478934181291102 0 0.1002152236521098 -0.46121563513601083 0 0.1082504500781146 -0.44478934181291102 0 0.082412892866854714 -0.44182345270401441 0 0.1002152236521098 -0.46121563513601083 0 0.082412892866854714 -0.44182345270401441 0 0.082737354296077953 -0.47427357099325013 0 0.1002152236521098 -0.46121563513601083 0 0.07989865607697158 -0.46093656822545309 0 0.1002152236521098 -0.46121563513601083 0 0.082412892866854714 -0.44182345270401441 0 0.07989865607697158 -0.46093656822545309 0 0.071955909258469009 -0.46877079283141743 0 0.082737354296077953 -0.47427357099325013 0 0.07989865607697158 -0.46093656822545309 0 0.071955909258469009 -0.46877079283141743 0 0.07989865607697158 -0.46093656822545309 0 0.064942869781788204 -0.45298741250561531 0 0.071955909258469009 -0.46877079283141743 0 0.064942869781788204 -0.45298741250561531 0 0.05802097188470097 -0.46975988197928431 0 0.082412892866854714 -0.44182345270401441 0 0.07989865607697158 -0.46093656822545309 0 0.064942869781788204 -0.45298741250561531 0 0.082412892866854714 -0.44182345270401441 0 0.064942869781788204 -0.45298741250561531 0 0.064610562081599654 -0.42243127027201799 0 0.082412892866854714 -0.44182345270401441 0 0.064610562081599654 -0.42243127027201799 0 0.085410796704641828 -0.41553833344022301 0 0.082412892866854714 -0.44182345270401441 0 0.064610562081599654 -0.42243127027201799 0 0.064610562081599654 -0.42243127027201799 0 0.085410796704641828 -0.41553833344022301 0 0.071260751408415451 -0.40583032332525898 0 0.082412892866854714 -0.44182345270401441 0 0.085410796704641828 -0.41553833344022301 0 0.10565257718969159 -0.42402980380391259 0 0.1082504500781146 -0.44478934181291102 0 0.10565257718969159 -0.42402980380391259 0 0.1082504500781146 -0.44478934181291102 0 0.082412892866854714 -0.44182345270401441 0 0.10565257718969159 -0.42402980380391259 0 0.12203304576274319 -0.43975504748265359 0 0.1082504500781146 -0.44478934181291102 0 0.10565257718969159 -0.42402980380391259 0 0.12945713117598301 -0.42527718494859718 0 0.12203304576274319 -0.43975504748265359 0 0.10565257718969159 -0.42402980380391259 0 0.12945713117598301 -0.42527718494859718 0 0.10565257718969159 -0.42402980380391259 0 0.1185943653130178 -0.41089393958744808 0 0.10565257718969159 -0.42402980380391259 0 0.10305470430126849 -0.40327026579491432 0 0.10565257718969159 -0.42402980380391259 0 0.1185943653130178 -0.41089393958744808 0 0.10305470430126849 -0.40327026579491432 0 0.085410796704641828 -0.41553833344022301 0 0.10565257718969159 -0.42402980380391259 0 0.10305470430126849 -0.40327026579491432 0 0.10305470430126849 -0.40327026579491432 0 0.1092296532162271 -0.39195520602732847 0 0.1018679158255022 -0.38137383587803358 0 0.10305470430126849 -0.40327026579491432 0 0.1018679158255022 -0.38137383587803358 0 0.084827885114816814 -0.39510276155480978 0 0.10305470430126849 -0.40327026579491432 0 0.1018679158255022 -0.38137383587803358 0 0.1185943653130178 -0.41089393958744808 0 0.10305470430126849 -0.40327026579491432 0 0.1092296532162271 -0.39195520602732847 0 0.1185943653130178 -0.41089393958744808 0 0.1092296532162271 -0.39195520602732847 0 0.12412735500694751 -0.39493505064503392 0 0.12412735500694751 -0.39493505064503392 0 0.1208593498238435 -0.38006314209191833 0 0.1018679158255022 -0.38137383587803358 0 0.1092296532162271 -0.39195520602732847 0 0.12412735500694751 -0.39493505064503392 0 0.1018679158255022 -0.38137383587803358 0 0.12412735500694751 -0.39493505064503392 0 0.1018679158255022 -0.38137383587803358 0 0.1208593498238435 -0.38006314209191833 0 0.1018679158255022 -0.38137383587803358 0 0.12334710111447229 -0.36406834251145731 0 0.1018679158255022 -0.38137383587803358 0 0.1001863568717406 -0.38034937241650962 0 0.10879209213087419 -0.36797725762153549 0 0.1018679158255022 -0.38137383587803358 0 0.1001863568717406 -0.38034937241650962 0 0.092680417082859706 -0.38189565836938699 0 0.1018679158255022 -0.38137383587803358 0 0.1001863568717406 -0.38034937241650962 0 0.1001863568717406 -0.38034937241650962 0 0.092680417082859706 -0.38189565836938699 0 0.078941289569781151 -0.36740614783332631 0 0.1018679158255022 -0.38137383587803358 0 0.084827885114816814 -0.39510276155480978 0 0.1018679158255022 -0.38137383587803358 0 0.092680417082859706 -0.38189565836938699 0 0.084827885114816814 -0.39510276155480978 0 0.083667078469080447 -0.3817485906143725 0 0.076461538166658155 -0.38231907318138902 0 0.078941289569781151 -0.36740614783332631 0 0.092680417082859706 -0.38189565836938699 0 0.083667078469080447 -0.3817485906143725 0 0.078941289569781151 -0.36740614783332631 0 0.084827885114816814 -0.39510276155480978 0 0.073546264855348126 -0.39398280964304111 0 0.076461538166658155 -0.38231907318138902 0 0.083667078469080447 -0.3817485906143725 0 0.084827885114816814 -0.39510276155480978 0 0.076461538166658155 -0.38231907318138902 0 0.092680417082859706 -0.38189565836938699 0 0.083667078469080447 -0.3817485906143725 0 0.084827885114816814 -0.39510276155480978 0 0.085410796704641828 -0.41553833344022301 0 0.10305470430126849 -0.40327026579491432 0 0.084827885114816814 -0.39510276155480978 0 0.085410796704641828 -0.41553833344022301 0 0.084827885114816814 -0.39510276155480978 0 0.071260751408415451 -0.40583032332525898 0 0.084827885114816814 -0.39510276155480978 0 0.073546264855348126 -0.39398280964304111 0 0.071260751408415451 -0.40583032332525898 0 0.073546264855348126 -0.39398280964304111 0 0.071260751408415451 -0.40583032332525898 0 0.061634884731502082 -0.39267908051070671 0 0.076461538166658155 -0.38231907318138902 0 0.061634884731502082 -0.39267908051070671 0 0.076461538166658155 -0.38231907318138902 0 0.061634884731502082 -0.39267908051070671 0 0.061904282875925747 -0.37237526148823941 0 0.073546264855348126 -0.39398280964304111 0 0.076461538166658155 -0.38231907318138902 0 0.061634884731502082 -0.39267908051070671 0 0.051370350477500881 -0.3764161884637201 0 0.045801185216693012 -0.38580832539780119 0 0.043663507306638913 -0.36868104746756258 0 0.051370350477500881 -0.3764161884637201 0 0.061634884731502082 -0.39267908051070671 0 0.045801185216693012 -0.38580832539780119 0 0.051370350477500881 -0.3764161884637201 0 0.061634884731502082 -0.39267908051070671 0 0.061904282875925747 -0.37237526148823941 0 0.071260751408415451 -0.40583032332525898 0 0.061634884731502082 -0.39267908051070671 0 0.04680823129634433 -0.40303908784002201 0 0.061634884731502082 -0.39267908051070671 0 0.04680823129634433 -0.40303908784002201 0 0.045801185216693012 -0.38580832539780119 0 0.061634884731502082 -0.39267908051070671 0 0.04680823129634433 -0.40303908784002201 0 0.04680823129634433 -0.40303908784002201 0 0.02837172461734 -0.38295609391969199 0 0.04680823129634433 -0.40303908784002201 0 0.02837172461734 -0.38295609391969199 0 0.028215565298714249 -0.40094151263492078 0 0.045801185216693012 -0.38580832539780119 0 0.02837172461734 -0.38295609391969199 0 0.043663507306638913 -0.36868104746756258 0 0.04680823129634433 -0.40303908784002201 0 0.045801185216693012 -0.38580832539780119 0 0.02837172461734 -0.38295609391969199 0 0.02837172461734 -0.38295609391969199 0 0.0122991559467155 -0.37891225603134221 0 0.011208636448502229 -0.39508796301279092 0 -0.002178803782163227 -0.37161627006544062 0 0.0122991559467155 -0.37891225603134221 0 0.011208636448502229 -0.39508796301279092 0 -0.002178803782163227 -0.37161627006544062 0 0.011208636448502229 -0.39508796301279092 0 -0.002178803782163227 -0.37161627006544062 0 -0.0066930742226519926 -0.39143820132839208 0 0.011208636448502229 -0.39508796301279092 0 -0.001728596279610697 -0.40597762003102339 0 0.011208636448502229 -0.39508796301279092 0 0.0082246319185010179 -0.41465428951275207 0 -0.0066930742226519926 -0.39143820132839208 0 -0.001728596279610697 -0.40597762003102339 0 0.011208636448502229 -0.39508796301279092 0 0.011208636448502229 -0.39508796301279092 0 0.028215565298714249 -0.40094151263492078 0 0.024596076679173799 -0.41855965596013778 0 0.02837172461734 -0.38295609391969199 0 0.011208636448502229 -0.39508796301279092 0 0.028215565298714249 -0.40094151263492078 0 0.011208636448502229 -0.39508796301279092 0 0.024596076679173799 -0.41855965596013778 0 0.011208636448502229 -0.39508796301279092 0 0.024596076679173799 -0.41855965596013778 0 0.0082246319185010179 -0.41465428951275207 0 0.024596076679173799 -0.41855965596013778 0 0.0082246319185010179 -0.41465428951275207 0 0.01039378864355619 -0.42848339288335913 0 -0.009537301248459449 -0.42510302968362512 0 0.0082246319185010179 -0.41465428951275207 0 0.01039378864355619 -0.42848339288335913 0 0.024596076679173799 -0.41855965596013778 0 0.036208764147486278 -0.43891974197010591 0 0.024596076679173799 -0.41855965596013778 0 0.036208764147486278 -0.43891974197010591 0 0.020713539006084219 -0.44010250100644183 0 0.024596076679173799 -0.41855965596013778 0 0.01039378864355619 -0.42848339288335913 0 0.020713539006084219 -0.44010250100644183 0 0.024596076679173799 -0.41855965596013778 0 0.01039378864355619 -0.42848339288335913 0 0.024596076679173799 -0.41855965596013778 0 0.043950702345966319 -0.42295947833088071 0 0.036208764147486278 -0.43891974197010591 0 0.043950702345966319 -0.42295947833088071 0 0.051347790295756007 -0.43901682978775403 0 0.036208764147486278 -0.43891974197010591 0 0.04680823129634433 -0.40303908784002201 0 0.024596076679173799 -0.41855965596013778 0 0.04680823129634433 -0.40303908784002201 0 0.028215565298714249 -0.40094151263492078 0 0.024596076679173799 -0.41855965596013778 0 0.04680823129634433 -0.40303908784002201 0 0.024596076679173799 -0.41855965596013778 0 0.043950702345966319 -0.42295947833088071 0 0.064610562081599654 -0.42243127027201799 0 0.071260751408415451 -0.40583032332525898 0 0.04680823129634433 -0.40303908784002201 0 0.064610562081599654 -0.42243127027201799 0 0.04680823129634433 -0.40303908784002201 0 0.064610562081599654 -0.42243127027201799 0 0.04680823129634433 -0.40303908784002201 0 0.043950702345966319 -0.42295947833088071 0 0.064610562081599654 -0.42243127027201799 0 0.043950702345966319 -0.42295947833088071 0 0.051347790295756007 -0.43901682978775403 0 0.064942869781788204 -0.45298741250561531 0 0.064610562081599654 -0.42243127027201799 0 0.051347790295756007 -0.43901682978775403 0 0.064942869781788204 -0.45298741250561531 0 0.051347790295756007 -0.43901682978775403 0 0.047821451615799627 -0.45927982798007361 0 0.064942869781788204 -0.45298741250561531 0 0.047821451615799627 -0.45927982798007361 0 0.05802097188470097 -0.46975988197928431 0 0.047821451615799627 -0.45927982798007361 0 0.023714967739582489 -0.4565662814222432 0 0.032020960621095843 -0.47777188036233098 0 0.047821451615799627 -0.45927982798007361 0 0.036208764147486278 -0.43891974197010591 0 0.051347790295756007 -0.43901682978775403 0 0.047821451615799627 -0.45927982798007361 0 0.036208764147486278 -0.43891974197010591 0 0.047821451615799627 -0.45927982798007361 0 0.036208764147486278 -0.43891974197010591 0 0.023714967739582489 -0.4565662814222432 0 0.036208764147486278 -0.43891974197010591 0 0.020713539006084219 -0.44010250100644183 0 0.023714967739582489 -0.4565662814222432 0 -0.0013374034004768371 -0.44947558896604423 0 0.01039378864355619 -0.42848339288335913 0 0.020713539006084219 -0.44010250100644183 0 -0.0013374034004768371 -0.44947558896604423 0 0.020713539006084219 -0.44010250100644183 0 0.023714967739582489 -0.4565662814222432 0 -0.0013374034004768371 -0.44947558896604423 0 0.0068624944475057766 -0.47384814824846327 0 -0.0013374034004768371 -0.44947558896604423 0 0.023714967739582489 -0.4565662814222432 0 0.0068624944475057766 -0.47384814824846327 0 0.023714967739582489 -0.4565662814222432 0 0.0068624944475057766 -0.47384814824846327 0 0.032020960621095843 -0.47777188036233098 0 0.0068624944475057766 -0.47384814824846327 0 0.0150623922954884 -0.49822070753088238 0 0.032020960621095843 -0.47777188036233098 0 -0.015217900669161011 -0.5 0 0.0024053695883212941 -0.48891336768777249 0 0.013537008404702511 -0.5 0 0.0068624944475057766 -0.47384814824846327 0 0.0024053695883212941 -0.48891336768777249 0 0.0150623922954884 -0.49822070753088238 0 0.0068624944475057766 -0.47384814824846327 0 0.0150623922954884 -0.49822070753088238 0 0.0024053695883212941 -0.48891336768777249 0 0.0150623922954884 -0.49822070753088238 0 0.013537008404702511 -0.5 0 0.0150623922954884 -0.49822070753088238 0 0.013537008404702511 -0.5 0 0.042291917478565873 -0.5 0 0.0150623922954884 -0.49822070753088238 0 0.042291917478565873 -0.5 0 0.032020960621095843 -0.47777188036233098 0 0.042291917478565873 -0.5 0 0.032020960621095843 -0.47777188036233098 0 0.059434139084113012 -0.47963991399004141 0 0.047821451615799627 -0.45927982798007361 0 0.032020960621095843 -0.47777188036233098 0 0.059434139084113012 -0.47963991399004141 0 0.047821451615799627 -0.45927982798007361 0 0.05802097188470097 -0.46975988197928431 0 0.059434139084113012 -0.47963991399004141 0 0.047821451615799627 -0.45927982798007361 0 0.059434139084113012 -0.47963991399004141 0 0.071046826552429457 -0.50000000000000733 0 0.042291917478565873 -0.5 0 0.059434139084113012 -0.47963991399004141 0 0.078456545354339768 -0.28525100698693651 0 0.075192778843485145 -0.3004755496101415 0 0.095899689397586599 -0.3008291305439913 0 0.078456545354339768 -0.28525100698693651 0 0.095711127176573443 -0.2751242682777974 0 0.095899689397586599 -0.3008291305439913 0 0.075192778843485145 -0.3004755496101415 0 0.095899689397586599 -0.3008291305439913 0 0.074188022781041252 -0.31649930169162399 0 0.095899689397586599 -0.3008291305439913 0 0.074188022781041252 -0.31649930169162399 0 0.075192778843485145 -0.3004755496101415 0 0.074188022781041252 -0.31649930169162399 0 0.058270312985904418 -0.30816514798469019 0 0.075192778843485145 -0.3004755496101415 0 0.068995976747761104 -0.2945131319279734 0 0.058270312985904418 -0.30816514798469019 0 0.068995976747761104 -0.2945131319279734 0 0.064064269807315097 -0.28416082313012542 0 0.058270312985904418 -0.30816514798469019 0 0.078456545354339768 -0.28525100698693651 0 0.075192778843485145 -0.3004755496101415 0 0.068995976747761104 -0.2945131319279734 0 0.078456545354339768 -0.28525100698693651 0 0.068995976747761104 -0.2945131319279734 0 0.064064269807315097 -0.28416082313012542 0 0.064064269807315097 -0.28416082313012542 0 0.069858226628725775 -0.26015649827556059 0 0.078456545354339768 -0.28525100698693651 0 0.064064269807315097 -0.28416082313012542 0 0.069858226628725775 -0.26015649827556059 0 0.069858226628725775 -0.26015649827556059 0 0.095711127176573443 -0.2751242682777974 0 0.096521476943682558 -0.25181800011133371 0 0.078456545354339768 -0.28525100698693651 0 0.069858226628725775 -0.26015649827556059 0 0.095711127176573443 -0.2751242682777974 0 0.095711127176573443 -0.2751242682777974 0 0.114720785939063 -0.26575264298982931 0 0.1176113560141319 -0.2851589593963586 0 0.095711127176573443 -0.2751242682777974 0 0.096521476943682558 -0.25181800011133371 0 0.114720785939063 -0.26575264298982931 0 0.1376178273856396 -0.2676878026278281 0 0.114720785939063 -0.26575264298982931 0 0.1200034520355143 -0.24749468667538321 0 0.096521476943682558 -0.25181800011133371 0 0.114720785939063 -0.26575264298982931 0 0.1200034520355143 -0.24749468667538321 0 0.1376178273856396 -0.2676878026278281 0 0.114720785939063 -0.26575264298982931 0 0.1176113560141319 -0.2851589593963586 0 0.13584279120622419 -0.29064916595208462 0 0.1176113560141319 -0.2851589593963586 0 0.1212075847983899 -0.30357596212866123 0 0.1176113560141319 -0.2851589593963586 0 0.095899689397586599 -0.3008291305439913 0 0.1212075847983899 -0.30357596212866123 0 0.1176113560141319 -0.2851589593963586 0 0.095899689397586599 -0.3008291305439913 0 0.095711127176573443 -0.2751242682777974 0 0.1176113560141319 -0.2851589593963586 0 0.095899689397586599 -0.3008291305439913 0 0.095899689397586599 -0.3008291305439913 0 0.1212075847983899 -0.30357596212866123 0 0.1047724191350739 -0.31963875894108951 0 0.1212075847983899 -0.30357596212866123 0 0.1249111379911398 -0.32186001205002218 0 0.1047724191350739 -0.31963875894108951 0 0.1249111379911398 -0.32186001205002218 0 0.1047724191350739 -0.31963875894108951 0 0.11573058637367541 -0.34380091622275832 0 0.094619564876377599 -0.33586527524184762 0 0.1047724191350739 -0.31963875894108951 0 0.11573058637367541 -0.34380091622275832 0 0.094619564876377599 -0.33586527524184762 0 0.1047724191350739 -0.31963875894108951 0 0.086339338786571823 -0.32698567366184278 0 0.095899689397586599 -0.3008291305439913 0 0.1047724191350739 -0.31963875894108951 0 0.086339338786571823 -0.32698567366184278 0 0.1018679158255022 -0.38137383587803358 0 0.12334710111447229 -0.36406834251145731 0 0.1018679158255022 -0.38137383587803358 0 0.12334710111447229 -0.36406834251145731 0 0.10879209213087419 -0.36797725762153549 0 0.12334710111447229 -0.36406834251145731 0 0.11573058637367541 -0.34380091622275832 0 0.10879209213087419 -0.36797725762153549 0 0.11573058637367541 -0.34380091622275832 0 0.097402960874061584 -0.35810732382917831 0 0.10879209213087419 -0.36797725762153549 0 0.094619564876377599 -0.33586527524184762 0 0.11573058637367541 -0.34380091622275832 0 0.097402960874061584 -0.35810732382917831 0 0.094619564876377599 -0.33586527524184762 0 0.097402960874061584 -0.35810732382917831 0 0.1001863568717406 -0.38034937241650962 0 0.097402960874061584 -0.35810732382917831 0 0.1001863568717406 -0.38034937241650962 0 0.097402960874061584 -0.35810732382917831 0 0.10879209213087419 -0.36797725762153549 0 0.1001863568717406 -0.38034937241650962 0 0.097402960874061584 -0.35810732382917831 0 0.078941289569781151 -0.36740614783332631 0 0.1001863568717406 -0.38034937241650962 0 0.078941289569781151 -0.36740614783332631 0 0.094619564876377599 -0.33586527524184762 0 0.097402960874061584 -0.35810732382917831 0 0.084740357312199394 -0.34701535865000288 0 0.078941289569781151 -0.36740614783332631 0 0.084740357312199394 -0.34701535865000288 0 0.072564810466095128 -0.35396504242622201 0 0.097402960874061584 -0.35810732382917831 0 0.078941289569781151 -0.36740614783332631 0 0.084740357312199394 -0.34701535865000288 0 0.078941289569781151 -0.36740614783332631 0 0.072564810466095128 -0.35396504242622201 0 0.057696222267823373 -0.35446292325014028 0 0.084740357312199394 -0.34701535865000288 0 0.072564810466095128 -0.35396504242622201 0 0.073102422775426085 -0.33909783780230318 0 0.064643683218506637 -0.34920539315333932 0 0.072564810466095128 -0.35396504242622201 0 0.073102422775426085 -0.33909783780230318 0 0.064643683218506637 -0.34920539315333932 0 0.072564810466095128 -0.35396504242622201 0 0.057696222267823373 -0.35446292325014028 0 0.078941289569781151 -0.36740614783332631 0 0.057696222267823373 -0.35446292325014028 0 0.076461538166658155 -0.38231907318138902 0 0.078941289569781151 -0.36740614783332631 0 0.061904282875925747 -0.37237526148823941 0 0.078941289569781151 -0.36740614783332631 0 0.061904282875925747 -0.37237526148823941 0 0.057696222267823373 -0.35446292325014028 0 0.095899689397586599 -0.3008291305439913 0 0.086339338786571823 -0.32698567366184278 0 0.074188022781041252 -0.31649930169162399 0 0.094619564876377599 -0.33586527524184762 0 0.084740357312199394 -0.34701535865000288 0 0.086339338786571823 -0.32698567366184278 0 0.084740357312199394 -0.34701535865000288 0 0.086339338786571823 -0.32698567366184278 0 0.073102422775426085 -0.33909783780230318 0 0.073102422775426085 -0.33909783780230318 0 0.074188022781041252 -0.31649930169162399 0 0.052476356164494947 -0.33216947283925541 0 0.064643683218506637 -0.34920539315333932 0 0.073102422775426085 -0.33909783780230318 0 0.060945063747813971 -0.34285112352430303 0 0.074188022781041252 -0.31649930169162399 0 0.052476356164494947 -0.33216947283925541 0 0.086339338786571823 -0.32698567366184278 0 0.073102422775426085 -0.33909783780230318 0 0.074188022781041252 -0.31649930169162399 0 0.052476356164494947 -0.33216947283925541 0 0.058270312985904418 -0.30816514798469019 0 0.052476356164494947 -0.33216947283925541 0 0.044648526871603783 -0.31770081170742831 0 0.058270312985904418 -0.30816514798469019 0 0.074188022781041252 -0.31649930169162399 0 0.052476356164494947 -0.33216947283925541 0 0.058270312985904418 -0.30816514798469019 0 0.052476356164494947 -0.33216947283925541 0 0.047583047975914103 -0.35244241635483559 0 0.073102422775426085 -0.33909783780230318 0 0.060945063747813971 -0.34285112352430303 0 0.052476356164494947 -0.33216947283925541 0 0.060945063747813971 -0.34285112352430303 0 0.052476356164494947 -0.33216947283925541 0 0.054181307711507642 -0.34983992205818981 0 0.052476356164494947 -0.33216947283925541 0 0.04071506683574927 -0.34065806194451792 0 0.047583047975914103 -0.35244241635483559 0 0.052476356164494947 -0.33216947283925541 0 0.04071506683574927 -0.34065806194451792 0 0.044648526871603783 -0.31770081170742831 0 0.04071506683574927 -0.34065806194451792 0 0.03015636661650286 -0.3225410253719756 0 0.04071506683574927 -0.34065806194451792 0 0.03015636661650286 -0.3225410253719756 0 0.02636863849756152 -0.33688388254537838 0 0.052476356164494947 -0.33216947283925541 0 0.04071506683574927 -0.34065806194451792 0 0.04071506683574927 -0.34065806194451792 0 0.044648526871603783 -0.31770081170742831 0 0.03015636661650286 -0.3225410253719756 0 0.044648526871603783 -0.31770081170742831 0 0.03015636661650286 -0.3225410253719756 0 0.034491627806478041 -0.30853974567073322 0 0.061904282875925747 -0.37237526148823941 0 0.053259535722039633 -0.3641180164926533 0 0.057696222267823373 -0.35446292325014028 0 0.051370350477500881 -0.3764161884637201 0 0.053259535722039633 -0.3641180164926533 0 0.043663507306638913 -0.36868104746756258 0 0.051370350477500881 -0.3764161884637201 0 0.061904282875925747 -0.37237526148823941 0 0.053259535722039633 -0.3641180164926533 0 0.053259535722039633 -0.3641180164926533 0 0.048773826387857627 -0.3544856011778737 0 0.043663507306638913 -0.36868104746756258 0 0.052476356164494947 -0.33216947283925541 0 0.047583047975914103 -0.35244241635483559 0 0.054181307711507642 -0.34983992205818981 0 0.053259535722039633 -0.3641180164926533 0 0.053244657324237762 -0.3582642649149802 0 0.048773826387857627 -0.3544856011778737 0 0.053244657324237762 -0.3582642649149802 0 0.048773826387857627 -0.3544856011778737 0 0.054181307711507642 -0.34983992205818981 0 0.048773826387857627 -0.3544856011778737 0 0.047583047975914103 -0.35244241635483559 0 0.054181307711507642 -0.34983992205818981 0 0.048773826387857627 -0.3544856011778737 0 0.047583047975914103 -0.35244241635483559 0 0.053259535722039633 -0.3641180164926533 0 0.053244657324237762 -0.3582642649149802 0 0.057696222267823373 -0.35446292325014028 0 0.053244657324237762 -0.3582642649149802 0 0.057696222267823373 -0.35446292325014028 0 0.054181307711507642 -0.34983992205818981 0 0.064643683218506637 -0.34920539315333932 0 0.057696222267823373 -0.35446292325014028 0 0.054181307711507642 -0.34983992205818981 0 0.064643683218506637 -0.34920539315333932 0 0.060945063747813971 -0.34285112352430303 0 0.054181307711507642 -0.34983992205818981 0 0.048773826387857627 -0.3544856011778737 0 0.047583047975914103 -0.35244241635483559 0 0.043663507306638913 -0.36868104746756258 0 0.04071506683574927 -0.34065806194451792 0 0.047583047975914103 -0.35244241635483559 0 0.04071506683574927 -0.34065806194451792 0 0.047583047975914103 -0.35244241635483559 0 0.03985573710467899 -0.35136837444597901 0 0.04071506683574927 -0.34065806194451792 0 0.03985573710467899 -0.35136837444597901 0 0.03205896378917665 -0.35434441690964041 0 0.04071506683574927 -0.34065806194451792 0 0.03205896378917665 -0.35434441690964041 0 0.025431496553892478 -0.35168882095041942 0 0.04071506683574927 -0.34065806194451792 0 0.025431496553892478 -0.35168882095041942 0 0.03985573710467899 -0.35136837444597901 0 0.03205896378917665 -0.35434441690964041 0 0.039065869817875902 -0.35802860257492208 0 0.047583047975914103 -0.35244241635483559 0 0.03985573710467899 -0.35136837444597901 0 0.039065869817875902 -0.35802860257492208 0 0.02837172461734 -0.38295609391969199 0 0.033371525452051833 -0.36592480980272157 0 0.043663507306638913 -0.36868104746756258 0 0.047583047975914103 -0.35244241635483559 0 0.039065869817875902 -0.35802860257492208 0 0.043663507306638913 -0.36868104746756258 0 0.047583047975914103 -0.35244241635483559 0 0.043663507306638913 -0.36868104746756258 0 0.039065869817875902 -0.35802860257492208 0 0.033371525452051833 -0.36592480980272157 0 0.043663507306638913 -0.36868104746756258 0 0.03205896378917665 -0.35434441690964041 0 0.039065869817875902 -0.35802860257492208 0 0.033371525452051833 -0.36592480980272157 0 0.02837172461734 -0.38295609391969199 0 0.0099352179383349771 -0.36287309999936251 0 0.02837172461734 -0.38295609391969199 0 0.023697561729227701 -0.3656138881417908 0 0.0099352179383349771 -0.36287309999936251 0 0.02837172461734 -0.38295609391969199 0 0.033371525452051833 -0.36592480980272157 0 0.023697561729227701 -0.3656138881417908 0 0.02837172461734 -0.38295609391969199 0 0.0122991559467155 -0.37891225603134221 0 0.0099352179383349771 -0.36287309999936251 0 0.03205896378917665 -0.35434441690964041 0 0.033371525452051833 -0.36592480980272157 0 0.023697561729227701 -0.3656138881417908 0 0.023697561729227701 -0.3656138881417908 0 0.025431496553892478 -0.35168882095041942 0 0.0099352179383349771 -0.36287309999936251 0 0.025431496553892478 -0.35168882095041942 0 0.0075807645751098419 -0.34453611388615663 0 0.025431496553892478 -0.35168882095041942 0 0.0075807645751098419 -0.34453611388615663 0 0.02636863849756152 -0.33688388254537838 0 0.025431496553892478 -0.35168882095041942 0 0.0099352179383349771 -0.36287309999936251 0 0.03205896378917665 -0.35434441690964041 0 0.023697561729227701 -0.3656138881417908 0 0.025431496553892478 -0.35168882095041942 0 0.03205896378917665 -0.35434441690964041 0 0.025431496553892478 -0.35168882095041942 0 -0.0096343958099064687 -0.34155580596031437 0 0.0099352179383349771 -0.36287309999936251 0 -0.0096343958099064687 -0.34155580596031437 0 0.0075807645751098419 -0.34453611388615663 0 0.0099352179383349771 -0.36287309999936251 0 0.025431496553892478 -0.35168882095041942 0 0.0075807645751098419 -0.34453611388615663 0 0.0099352179383349771 -0.36287309999936251 0 -0.002178803782163227 -0.37161627006544062 0 0.0122991559467155 -0.37891225603134221 0 0.0099352179383349771 -0.36287309999936251 0 -0.0070150904897389628 -0.35875101633193152 0 -0.002178803782163227 -0.37161627006544062 0 0.0099352179383349771 -0.36287309999936251 0 -0.002178803782163227 -0.37161627006544062 0 0.0099352179383349771 -0.36287309999936251 0 0.03015636661650286 -0.3225410253719756 0 0.019597666397256509 -0.30442398879943339 0 0.03015636661650286 -0.3225410253719756 0 0.014793392922354411 -0.31628120652474823 0 0.019597666397256509 -0.30442398879943339 0 0.03015636661650286 -0.3225410253719756 0 0.01453256369494863 -0.32953892791496292 0 0.014793392922354411 -0.31628120652474823 0 0.03015636661650286 -0.3225410253719756 0 0.02636863849756152 -0.33688388254537838 0 0.01453256369494863 -0.32953892791496292 0 0.0075807645751098419 -0.34453611388615663 0 0.02636863849756152 -0.33688388254537838 0 0.01453256369494863 -0.32953892791496292 0 0.04071506683574927 -0.34065806194451792 0 0.025431496553892478 -0.35168882095041942 0 0.02636863849756152 -0.33688388254537838 0 0.0075807645751098419 -0.34453611388615663 0 0.01453256369494863 -0.32953892791496292 0 0.0034794820758208261 -0.33361449123698089 0 -0.010269967403673339 -0.33738340682189533 0 0.0075807645751098419 -0.34453611388615663 0 0.0034794820758208261 -0.33361449123698089 0 0.01453256369494863 -0.32953892791496292 0 0.0034794820758208261 -0.33361449123698089 0 0.001904989571353899 -0.32214434476741449 0 0.001904989571353899 -0.32214434476741449 0 0.014793392922354411 -0.31628120652474823 0 0.0019518825097332619 -0.30029273945570772 0 0.01453256369494863 -0.32953892791496292 0 0.001904989571353899 -0.32214434476741449 0 0.014793392922354411 -0.31628120652474823 0 0.0019518825097332619 -0.30029273945570772 0 0.0090389661780101715 -0.28630695222689118 0 0.019597666397256509 -0.30442398879943339 0 0.014793392922354411 -0.31628120652474823 0 0.0019518825097332619 -0.30029273945570772 0 0.019597666397256509 -0.30442398879943339 0 -0.0020851015340006161 -0.28052611142458661 0 0.0019518825097332619 -0.30029273945570772 0 0.0090389661780101715 -0.28630695222689118 0 0.0090389661780101715 -0.28630695222689118 0 0.019597666397256509 -0.30442398879943339 0 0.0090389661780101715 -0.28630695222689118 0 0.019597666397256509 -0.30442398879943339 0 0.033821918158706138 -0.27707393290215671 0 0.03015636661650286 -0.3225410253719756 0 0.019597666397256509 -0.30442398879943339 0 0.034491627806478041 -0.30853974567073322 0 0.019597666397256509 -0.30442398879943339 0 0.034491627806478041 -0.30853974567073322 0 0.043330632548044458 -0.29475484461045087 0 0.044648526871603783 -0.31770081170742831 0 0.034491627806478041 -0.30853974567073322 0 0.043330632548044458 -0.29475484461045087 0 0.019597666397256509 -0.30442398879943339 0 0.043330632548044458 -0.29475484461045087 0 0.033821918158706138 -0.27707393290215671 0 0.043330632548044458 -0.29475484461045087 0 0.062049371387241412 -0.28749956346879602 0 0.033821918158706138 -0.27707393290215671 0 0.064064269807315097 -0.28416082313012542 0 0.058270312985904418 -0.30816514798469019 0 0.062049371387241412 -0.28749956346879602 0 0.033821918158706138 -0.27707393290215671 0 0.064064269807315097 -0.28416082313012542 0 0.062049371387241412 -0.28749956346879602 0 0.058270312985904418 -0.30816514798469019 0 0.043330632548044458 -0.29475484461045087 0 0.062049371387241412 -0.28749956346879602 0 0.058270312985904418 -0.30816514798469019 0 0.044648526871603783 -0.31770081170742831 0 0.043330632548044458 -0.29475484461045087 0 0.058270312985904418 -0.30816514798469019 0 0.069858226628725775 -0.26015649827556059 0 0.051624075113339378 -0.26919050519125598 0 0.046498349670861652 -0.24826912251879649 0 0.064064269807315097 -0.28416082313012542 0 0.069858226628725775 -0.26015649827556059 0 0.051624075113339378 -0.26919050519125598 0 0.062049371387241412 -0.28749956346879602 0 0.051624075113339378 -0.26919050519125598 0 0.033821918158706138 -0.27707393290215671 0 0.064064269807315097 -0.28416082313012542 0 0.062049371387241412 -0.28749956346879602 0 0.051624075113339378 -0.26919050519125598 0 0.051624075113339378 -0.26919050519125598 0 0.033821918158706138 -0.27707393290215671 0 0.034240698289148337 -0.25967273023798509 0 0.051624075113339378 -0.26919050519125598 0 0.034240698289148337 -0.25967273023798509 0 0.046498349670861652 -0.24826912251879649 0 0.034240698289148337 -0.25967273023798509 0 0.02296875629887114 -0.2464092256209898 0 0.046498349670861652 -0.24826912251879649 0 0.034240698289148337 -0.25967273023798509 0 0.0055944649301708496 -0.26664830233551728 0 0.02296875629887114 -0.2464092256209898 0 0.0090389661780101715 -0.28630695222689118 0 0.033821918158706138 -0.27707393290215671 0 0.0055944649301708496 -0.26664830233551728 0 0.033821918158706138 -0.27707393290215671 0 0.034240698289148337 -0.25967273023798509 0 0.0055944649301708496 -0.26664830233551728 0 0.033821918158706138 -0.27707393290215671 0 0.0055944649301708496 -0.26664830233551728 0 -0.0020851015340006161 -0.28052611142458661 0 0.0090389661780101715 -0.28630695222689118 0 0.0055944649301708496 -0.26664830233551728 0 0.0055944649301708496 -0.26664830233551728 0 0.0055632338660241776 -0.24332209518663511 0 0.02296875629887114 -0.2464092256209898 0 -0.0080727856436109482 -0.2481099565327444 0 0.0055944649301708496 -0.26664830233551728 0 0.0055632338660241776 -0.24332209518663511 0 0.0055632338660241776 -0.24332209518663511 0 0.0032521440618358652 -0.23009641691855939 0 0.019268989126464159 -0.2308348024940351 0 -0.0084819670471955304 -0.2367225590632196 0 0.0055632338660241776 -0.24332209518663511 0 0.0032521440618358652 -0.23009641691855939 0 -0.0075276580997289226 -0.21896018305478171 0 0.0032521440618358652 -0.23009641691855939 0 0.012041166441398349 -0.21677938876306921 0 0.0032521440618358652 -0.23009641691855939 0 0.019268989126464159 -0.2308348024940351 0 0.012041166441398349 -0.21677938876306921 0 0.019268989126464159 -0.2308348024940351 0 0.028464877365028059 -0.21915571909051779 0 0.012041166441398349 -0.21677938876306921 0 0.019268989126464159 -0.2308348024940351 0 0.028464877365028059 -0.21915571909051779 0 0.041174919052571327 -0.22964645066930789 0 0.0055632338660241776 -0.24332209518663511 0 0.019268989126464159 -0.2308348024940351 0 0.02296875629887114 -0.2464092256209898 0 0.019268989126464159 -0.2308348024940351 0 0.02296875629887114 -0.2464092256209898 0 0.041174919052571327 -0.22964645066930789 0 -0.0075276580997289226 -0.21896018305478171 0 0.003555539334036632 -0.19934620758084881 0 0.012041166441398349 -0.21677938876306921 0 0.003555539334036632 -0.19934620758084881 0 0.012041166441398349 -0.21677938876306921 0 0.02523310686075431 -0.20228300343967229 0 0.028464877365028059 -0.21915571909051779 0 0.012041166441398349 -0.21677938876306921 0 0.02523310686075431 -0.20228300343967229 0 0.02523310686075431 -0.20228300343967229 0 0.033125333554059701 -0.1865598477748947 0 0.018588522793563201 -0.18166153924030251 0 0.003555539334036632 -0.19934620758084881 0 0.02523310686075431 -0.20228300343967229 0 0.018588522793563201 -0.18166153924030251 0 0.048648578511840943 -0.20623258170594561 0 0.049880579816306267 -0.17970719815632741 0 0.033125333554059701 -0.1865598477748947 0 0.02523310686075431 -0.20228300343967229 0 0.048648578511840943 -0.20623258170594561 0 0.033125333554059701 -0.1865598477748947 0 0.028464877365028059 -0.21915571909051779 0 0.02523310686075431 -0.20228300343967229 0 0.048648578511840943 -0.20623258170594561 0 0.028464877365028059 -0.21915571909051779 0 0.048648578511840943 -0.20623258170594561 0 0.041174919052571327 -0.22964645066930789 0 0.048648578511840943 -0.20623258170594561 0 0.059757914812518881 -0.22869522271940709 0 0.066598585428591164 -0.21133354617687591 0 0.048648578511840943 -0.20623258170594561 0 0.067160325985138131 -0.18691533881804831 0 0.049880579816306267 -0.17970719815632741 0 0.048648578511840943 -0.20623258170594561 0 0.066598585428591164 -0.21133354617687591 0 0.067160325985138131 -0.18691533881804831 0 0.069858226628725775 -0.26015649827556059 0 0.046498349670861652 -0.24826912251879649 0 0.059757914812518881 -0.22869522271940709 0 0.02296875629887114 -0.2464092256209898 0 0.046498349670861652 -0.24826912251879649 0 0.041174919052571327 -0.22964645066930789 0 0.048648578511840943 -0.20623258170594561 0 0.041174919052571327 -0.22964645066930789 0 0.059757914812518881 -0.22869522271940709 0 0.046498349670861652 -0.24826912251879649 0 0.041174919052571327 -0.22964645066930789 0 0.059757914812518881 -0.22869522271940709 0 0.069858226628725775 -0.26015649827556059 0 0.059757914812518881 -0.22869522271940709 0 0.080941623453078815 -0.2334444244951252 0 0.069858226628725775 -0.26015649827556059 0 0.096521476943682558 -0.25181800011133371 0 0.080941623453078815 -0.2334444244951252 0 0.096521476943682558 -0.25181800011133371 0 0.080941623453078815 -0.2334444244951252 0 0.102389076685389 -0.22730157072293841 0 0.080941623453078815 -0.2334444244951252 0 0.084774701335263575 -0.20710845477049339 0 0.102389076685389 -0.22730157072293841 0 0.059757914812518881 -0.22869522271940709 0 0.080941623453078815 -0.2334444244951252 0 0.066598585428591164 -0.21133354617687591 0 0.080941623453078815 -0.2334444244951252 0 0.066598585428591164 -0.21133354617687591 0 0.084774701335263575 -0.20710845477049339 0 0.084774701335263575 -0.20710845477049339 0 0.067160325985138131 -0.18691533881804831 0 0.066598585428591164 -0.21133354617687591 0 0.084774701335263575 -0.20710845477049339 0 0.067160325985138131 -0.18691533881804831 0 0.092537347032927528 -0.18889969997864839 0 0.084774701335263575 -0.20710845477049339 0 0.067160325985138131 -0.18691533881804831 0 0.084774701335263575 -0.20710845477049339 0 0.102389076685389 -0.22730157072293841 0 0.084774701335263575 -0.20710845477049339 0 0.10575093398731179 -0.20517541990618701 0 0.102389076685389 -0.22730157072293841 0 0.092537347032927528 -0.18889969997864839 0 0.10575093398731179 -0.20517541990618701 0 0.11404320040195411 -0.17785048998131209 0 0.092537347032927528 -0.18889969997864839 0 0.084774701335263575 -0.20710845477049339 0 0.10575093398731179 -0.20517541990618701 0 0.10575093398731179 -0.20517541990618701 0 0.11404320040195411 -0.17785048998131209 0 0.12592289232087811 -0.19910656028939411 0 0.10575093398731179 -0.20517541990618701 0 0.1284413173888232 -0.22347585252773641 0 0.12592289232087811 -0.19910656028939411 0 0.10575093398731179 -0.20517541990618701 0 0.102389076685389 -0.22730157072293841 0 0.1284413173888232 -0.22347585252773641 0 0.1200034520355143 -0.24749468667538321 0 0.102389076685389 -0.22730157072293841 0 0.1284413173888232 -0.22347585252773641 0 0.1200034520355143 -0.24749468667538321 0 0.102389076685389 -0.22730157072293841 0 0.096521476943682558 -0.25181800011133371 0 0.1200034520355143 -0.24749468667538321 0 0.102389076685389 -0.22730157072293841 0 0.099885875260422058 -0.15149088269105351 0 0.1161887790728692 -0.1476769396888597 0 0.1105045846919957 -0.16013033574144619 0 0.099885875260422058 -0.15149088269105351 0 0.099597293261818404 -0.1347502866929414 0 0.1161887790728692 -0.1476769396888597 0 0.099597293261818404 -0.1347502866929414 0 0.1161887790728692 -0.1476769396888597 0 0.099597293261818404 -0.1347502866929414 0 0.1047785765018954 -0.13712350701568179 0 0.1161887790728692 -0.1476769396888597 0 0.099597293261818404 -0.1347502866929414 0 0.093527805260815264 -0.13002146576964491 0 0.104312872852085 -0.12243825994362539 0 0.099597293261818404 -0.1347502866929414 0 0.093527805260815264 -0.13002146576964491 0 0.099597293261818404 -0.1347502866929414 0 0.093527805260815264 -0.13002146576964491 0 0.092996203934319052 -0.1329056080468716 0 0.099597293261818404 -0.1347502866929414 0 0.1088944047617572 -0.13480079442927331 0 0.104312872852085 -0.12243825994362539 0 0.099597293261818404 -0.1347502866929414 0 0.1047785765018954 -0.13712350701568179 0 0.1088944047617572 -0.13480079442927331 0 0.099597293261818404 -0.1347502866929414 0 0.1088944047617572 -0.13480079442927331 0 0.1047785765018954 -0.13712350701568179 0 0.1088944047617572 -0.13480079442927331 0 0.1088944047617572 -0.13480079442927331 0 0.1161887790728692 -0.1476769396888597 0 0.13638976604354719 -0.13495016646355951 0 0.1088944047617572 -0.13480079442927331 0 0.12800820934211829 -0.12401417466047961 0 0.13638976604354719 -0.13495016646355951 0 0.1047785765018954 -0.13712350701568179 0 0.1088944047617572 -0.13480079442927331 0 0.1161887790728692 -0.1476769396888597 0 0.1088944047617572 -0.13480079442927331 0 0.104312872852085 -0.12243825994362539 0 0.12800820934211829 -0.12401417466047961 0 0.1088944047617572 -0.13480079442927331 0 0.12800820934211829 -0.12401417466047961 0 0.1088944047617572 -0.13480079442927331 0 0.13638976604354719 -0.13495016646355951 0 0.1161887790728692 -0.1476769396888597 0 0.1105045846919957 -0.16013033574144619 0 0.1305387904294309 -0.15561497697083931 0 0.1105045846919957 -0.16013033574144619 0 0.11404320040195411 -0.17785048998131209 0 0.1305387904294309 -0.15561497697083931 0 0.092537347032927528 -0.18889969997864839 0 0.11404320040195411 -0.17785048998131209 0 0.090957573454969964 -0.1674487964172009 0 0.1105045846919957 -0.16013033574144619 0 0.11404320040195411 -0.17785048998131209 0 0.090957573454969964 -0.1674487964172009 0 0.099885875260422058 -0.15149088269105351 0 0.1105045846919957 -0.16013033574144619 0 0.090957573454969964 -0.1674487964172009 0 0.099885875260422058 -0.15149088269105351 0 0.090957573454969964 -0.1674487964172009 0 0.080257725164813276 -0.1505404030764457 0 0.090957573454969964 -0.1674487964172009 0 0.065342325237630991 -0.1650228072456788 0 0.080257725164813276 -0.1505404030764457 0 0.092537347032927528 -0.18889969997864839 0 0.090957573454969964 -0.1674487964172009 0 0.067160325985138131 -0.18691533881804831 0 0.090957573454969964 -0.1674487964172009 0 0.067160325985138131 -0.18691533881804831 0 0.065342325237630991 -0.1650228072456788 0 0.065342325237630991 -0.1650228072456788 0 0.080257725164813276 -0.1505404030764457 0 0.056224073158944461 -0.14994265306170279 0 0.080257725164813276 -0.1505404030764457 0 0.069539210615093855 -0.1345869923500955 0 0.056224073158944461 -0.14994265306170279 0 0.099885875260422058 -0.15149088269105351 0 0.099597293261818404 -0.1347502866929414 0 0.080257725164813276 -0.1505404030764457 0 0.099597293261818404 -0.1347502866929414 0 0.080257725164813276 -0.1505404030764457 0 0.069539210615093855 -0.1345869923500955 0 0.099597293261818404 -0.1347502866929414 0 0.092996203934319052 -0.1329056080468716 0 0.069539210615093855 -0.1345869923500955 0 0.099597293261818404 -0.1347502866929414 0 0.069539210615093855 -0.1345869923500955 0 0.092996203934319052 -0.1329056080468716 0 0.069539210615093855 -0.1345869923500955 0 0.079322302472514483 -0.11895376470488229 0 0.093527805260815264 -0.13002146576964491 0 0.092996203934319052 -0.1329056080468716 0 0.079322302472514483 -0.11895376470488229 0 0.093527805260815264 -0.13002146576964491 0 0.092996203934319052 -0.1329056080468716 0 0.069539210615093855 -0.1345869923500955 0 0.052298963826290519 -0.1211548808236817 0 0.066569319149528045 -0.1206454253796948 0 0.069539210615093855 -0.1345869923500955 0 0.039481127968369292 -0.1344236980072451 0 0.052298963826290519 -0.1211548808236817 0 0.069539210615093855 -0.1345869923500955 0 0.056224073158944461 -0.14994265306170279 0 0.039481127968369292 -0.1344236980072451 0 0.069539210615093855 -0.1345869923500955 0 0.039481127968369292 -0.1344236980072451 0 0.056224073158944461 -0.14994265306170279 0 0.038811693183881758 -0.15444647348478721 0 0.047368807546727579 -0.16279517251764489 0 0.056224073158944461 -0.14994265306170279 0 0.038811693183881758 -0.15444647348478721 0 0.039481127968369292 -0.1344236980072451 0 0.038811693183881758 -0.15444647348478721 0 0.039481127968369292 -0.1344236980072451 0 0.019056913867763529 -0.155566515408149 0 0.034777770017858589 -0.1343981464191871 0 0.039481127968369292 -0.1344236980072451 0 0.022320289212787989 -0.1422177528203018 0 0.034777770017858589 -0.1343981464191871 0 0.039481127968369292 -0.1344236980072451 0 0.034777770017858589 -0.1343981464191871 0 0.029299678594365521 -0.12697140115214181 0 0.037800108132664212 -0.12348471533883321 0 0.034777770017858589 -0.1343981464191871 0 0.039481127968369292 -0.1344236980072451 0 0.037800108132664212 -0.12348471533883321 0 0.039481127968369292 -0.1344236980072451 0 0.052298963826290519 -0.1211548808236817 0 0.039481127968369292 -0.1344236980072451 0 0.052298963826290519 -0.1211548808236817 0 0.037800108132664212 -0.12348471533883321 0 0.067160325985138131 -0.18691533881804831 0 0.065342325237630991 -0.1650228072456788 0 0.049880579816306267 -0.17970719815632741 0 0.065342325237630991 -0.1650228072456788 0 0.049880579816306267 -0.17970719815632741 0 0.047368807546727579 -0.16279517251764489 0 0.065342325237630991 -0.1650228072456788 0 0.056224073158944461 -0.14994265306170279 0 0.047368807546727579 -0.16279517251764489 0 0.049880579816306267 -0.17970719815632741 0 0.047368807546727579 -0.16279517251764489 0 0.031927543377605602 -0.16950432842919569 0 0.038811693183881758 -0.15444647348478721 0 0.047368807546727579 -0.16279517251764489 0 0.031927543377605602 -0.16950432842919569 0 0.049880579816306267 -0.17970719815632741 0 0.031927543377605602 -0.16950432842919569 0 0.033125333554059701 -0.1865598477748947 0 0.031927543377605602 -0.16950432842919569 0 0.033125333554059701 -0.1865598477748947 0 0.018588522793563201 -0.18166153924030251 0 0.031927543377605602 -0.16950432842919569 0 0.018588522793563201 -0.18166153924030251 0 0.019056913867763529 -0.155566515408149 0 0.038811693183881758 -0.15444647348478721 0 0.031927543377605602 -0.16950432842919569 0 0.019056913867763529 -0.155566515408149 0 -0.0013673002328405961 -0.1767093328090546 0 0.018588522793563201 -0.18166153924030251 0 0.019056913867763529 -0.155566515408149 0 -0.0013673002328405961 -0.1767093328090546 0 0.019056913867763529 -0.155566515408149 0 -0.0013673002328405961 -0.1767093328090546 0 0.019056913867763529 -0.155566515408149 0 0.0027310736070901482 -0.15493719994590471 0 -0.0013673002328405961 -0.1767093328090546 0 0.003555539334036632 -0.19934620758084881 0 0.018588522793563201 -0.18166153924030251 0 0.020222670022858619 -0.12863691797839069 0 0.022320289212787989 -0.1422177528203018 0 0.0088678229424013627 -0.13941235935176011 0 0.020222670022858619 -0.12863691797839069 0 0.02665510196196769 -0.1330560545925053 0 0.022320289212787989 -0.1422177528203018 0 0.034777770017858589 -0.1343981464191871 0 0.029299678594365521 -0.12697140115214181 0 0.02665510196196769 -0.1330560545925053 0 0.020222670022858619 -0.12863691797839069 0 0.029299678594365521 -0.12697140115214181 0 0.02665510196196769 -0.1330560545925053 0 0.034777770017858589 -0.1343981464191871 0 0.02665510196196769 -0.1330560545925053 0 0.022320289212787989 -0.1422177528203018 0 0.039481127968369292 -0.1344236980072451 0 0.019056913867763529 -0.155566515408149 0 0.019056913867763529 -0.155566515408149 0 0.022320289212787989 -0.1422177528203018 0 0.0088678229424013627 -0.13941235935176011 0 0.039481127968369292 -0.1344236980072451 0 0.019056913867763529 -0.155566515408149 0 0.022320289212787989 -0.1422177528203018 0 0.019056913867763529 -0.155566515408149 0 0.0027310736070901482 -0.15493719994590471 0 0.0088678229424013627 -0.13941235935176011 0 0.020222670022858619 -0.12863691797839069 0 0.0088678229424013627 -0.13941235935176011 0 0.0015243557028834459 -0.11711868301268021 0 0.020222670022858619 -0.12863691797839069 0 0.0015243557028834459 -0.11711868301268021 0 0.0144479962461943 -0.1082343501681014 0 0.020222670022858619 -0.12863691797839069 0 0.02728947708542654 -0.1146689930447462 0 0.0144479962461943 -0.1082343501681014 0 0.020222670022858619 -0.12863691797839069 0 0.029299678594365521 -0.12697140115214181 0 0.02728947708542654 -0.1146689930447462 0 0.0144479962461943 -0.1082343501681014 0 0.01674231050701382 -0.093658367309864349 0 0.03170108987002046 -0.10050694789866579 0 0.02728947708542654 -0.1146689930447462 0 0.0144479962461943 -0.1082343501681014 0 0.03170108987002046 -0.10050694789866579 0 0.01674231050701382 -0.093658367309864349 0 0.02745527456064175 -0.089089442263575569 0 0.03170108987002046 -0.10050694789866579 0 0.0144479962461943 -0.1082343501681014 0 0.001856719827670471 -0.098182337095309047 0 0.01674231050701382 -0.093658367309864349 0 0.0015243557028834459 -0.11711868301268021 0 0.0144479962461943 -0.1082343501681014 0 0.001856719827670471 -0.098182337095309047 0 0.001856719827670471 -0.098182337095309047 0 0.0065051428120863272 -0.082127796022149757 0 0.01674231050701382 -0.093658367309864349 0 0.0065051428120863272 -0.082127796022149757 0 0.018539693253586439 -0.071597204448153262 0 0.01731060528333208 -0.084118202510935727 0 0.0065051428120863272 -0.082127796022149757 0 0.01674231050701382 -0.093658367309864349 0 0.01731060528333208 -0.084118202510935727 0 0.0065051428120863272 -0.082127796022149757 0 0.018539693253586439 -0.071597204448153262 0 0.00035237720396625368 -0.061086817302918282 0 0.018539693253586439 -0.071597204448153262 0 0.00035237720396625368 -0.061086817302918282 0 0.029337839486141829 -0.062098975348790997 0 0.018539693253586439 -0.071597204448153262 0 0.036998616429076953 -0.080413518666692163 0 0.029337839486141829 -0.062098975348790997 0 0.018539693253586439 -0.071597204448153262 0 0.039278739387756327 -0.087755278287702396 0 0.018539693253586439 -0.071597204448153262 0 0.02745527456064175 -0.089089442263575569 0 0.039278739387756327 -0.087755278287702396 0 0.018539693253586439 -0.071597204448153262 0 0.01731060528333208 -0.084118202510935727 0 0.02745527456064175 -0.089089442263575569 0 0.01674231050701382 -0.093658367309864349 0 0.01731060528333208 -0.084118202510935727 0 0.02745527456064175 -0.089089442263575569 0 0.018539693253586439 -0.071597204448153262 0 0.036998616429076953 -0.080413518666692163 0 0.039278739387756327 -0.087755278287702396 0 0.02745527456064175 -0.089089442263575569 0 0.039278739387756327 -0.087755278287702396 0 0.036114206476440321 -0.094502097047588079 0 0.036998616429076953 -0.080413518666692163 0 0.039278739387756327 -0.087755278287702396 0 0.050747139898636717 -0.081209848062237813 0 0.058323301768317432 -0.063111133394663815 0 0.029337839486141829 -0.062098975348790997 0 0.036998616429076953 -0.080413518666692163 0 0.058323301768317432 -0.063111133394663815 0 0.029337839486141829 -0.062098975348790997 0 0.036998616429076953 -0.080413518666692163 0 0.058323301768317432 -0.063111133394663815 0 0.058323301768317432 -0.063111133394663815 0 0.050747139898636717 -0.081209848062237813 0 0.060228637404373828 -0.081759239016750626 0 0.036998616429076953 -0.080413518666692163 0 0.058323301768317432 -0.063111133394663815 0 0.050747139898636717 -0.081209848062237813 0 0.039278739387756327 -0.087755278287702396 0 0.050747139898636717 -0.081209848062237813 0 0.060818353003097771 -0.090653503469919336 0 0.050747139898636717 -0.081209848062237813 0 0.060228637404373828 -0.081759239016750626 0 0.060818353003097771 -0.090653503469919336 0 0.060017785521926562 -0.10391335212725129 0 0.042153090511964017 -0.099193769589441219 0 0.043653631303676513 -0.1092911725859987 0 0.060017785521926562 -0.10391335212725129 0 0.043653631303676513 -0.1092911725859987 0 0.039278739387756327 -0.087755278287702396 0 0.060818353003097771 -0.090653503469919336 0 0.060017785521926562 -0.10391335212725129 0 0.060017785521926562 -0.10391335212725129 0 0.053375718786791107 -0.1112883554404277 0 0.043653631303676513 -0.1092911725859987 0 0.039278739387756327 -0.087755278287702396 0 0.060017785521926562 -0.10391335212725129 0 0.039278739387756327 -0.087755278287702396 0 0.060017785521926562 -0.10391335212725129 0 0.042153090511964017 -0.099193769589441219 0 0.060017785521926562 -0.10391335212725129 0 0.053375718786791107 -0.1112883554404277 0 0.065116799684213397 -0.10788606364011991 0 0.052298963826290519 -0.1211548808236817 0 0.066569319149528045 -0.1206454253796948 0 0.065116799684213397 -0.10788606364011991 0 0.052298963826290519 -0.1211548808236817 0 0.065116799684213397 -0.10788606364011991 0 0.052298963826290519 -0.1211548808236817 0 0.053375718786791107 -0.1112883554404277 0 0.065116799684213397 -0.10788606364011991 0 0.052298963826290519 -0.1211548808236817 0 0.053375718786791107 -0.1112883554404277 0 0.043653631303676513 -0.1092911725859987 0 0.02728947708542654 -0.1146689930447462 0 0.037800108132664212 -0.12348471533883321 0 0.043653631303676513 -0.1092911725859987 0 0.02728947708542654 -0.1146689930447462 0 0.043653631303676513 -0.1092911725859987 0 0.052298963826290519 -0.1211548808236817 0 0.037800108132664212 -0.12348471533883321 0 0.043653631303676513 -0.1092911725859987 0 0.029299678594365521 -0.12697140115214181 0 0.02728947708542654 -0.1146689930447462 0 0.037800108132664212 -0.12348471533883321 0 0.02728947708542654 -0.1146689930447462 0 0.03170108987002046 -0.10050694789866579 0 0.043653631303676513 -0.1092911725859987 0 0.036114206476440321 -0.094502097047588079 0 0.03170108987002046 -0.10050694789866579 0 0.042153090511964017 -0.099193769589441219 0 0.02745527456064175 -0.089089442263575569 0 0.036114206476440321 -0.094502097047588079 0 0.03170108987002046 -0.10050694789866579 0 0.039278739387756327 -0.087755278287702396 0 0.036114206476440321 -0.094502097047588079 0 0.042153090511964017 -0.099193769589441219 0 0.03170108987002046 -0.10050694789866579 0 0.042153090511964017 -0.099193769589441219 0 0.043653631303676513 -0.1092911725859987 0 0.025695344612614111 0.0095801541182225364 0 0.02812452509478746 -0.0099579005571815878 0 0.006935528729737548 -0.0054826371559186567 0 0.02812452509478746 -0.0099579005571815878 0 0.006935528729737548 -0.0054826371559186567 0 0.01889941714368459 -0.025130787452367569 0 0.006935528729737548 -0.0054826371559186567 0 0.0027408304473846411 -0.028176541972939319 0 0.01889941714368459 -0.025130787452367569 0 0.02812452509478746 -0.0099579005571815878 0 0.01889941714368459 -0.025130787452367569 0 0.035567370731091272 -0.02454493013615917 0 0.01889941714368459 -0.025130787452367569 0 0.02846567832778216 -0.042756626880165419 0 0.035567370731091272 -0.02454493013615917 0 0.01889941714368459 -0.025130787452367569 0 0.02846567832778216 -0.042756626880165419 0 0.0096258971738255473 -0.043108802377643002 0 0.02846567832778216 -0.042756626880165419 0 0.0096258971738255473 -0.043108802377643002 0 0.016945448047928951 -0.052262805477379423 0 0.01889941714368459 -0.025130787452367569 0 0.0096258971738255473 -0.043108802377643002 0 -0.01026660782967455 -0.041229232136501717 0 0.0027408304473846411 -0.028176541972939319 0 0.0096258971738255473 -0.043108802377643002 0 0.0027408304473846411 -0.028176541972939319 0 0.01889941714368459 -0.025130787452367569 0 0.0096258971738255473 -0.043108802377643002 0 0.0096258971738255473 -0.043108802377643002 0 0.00035237720396625368 -0.061086817302918282 0 0.016945448047928951 -0.052262805477379423 0 0.00035237720396625368 -0.061086817302918282 0 0.016945448047928951 -0.052262805477379423 0 0.029337839486141829 -0.062098975348790997 0 0.0096258971738255473 -0.043108802377643002 0 0.00035237720396625368 -0.061086817302918282 0 0.00035237720396625368 -0.061086817302918282 0 0.029337839486141829 -0.062098975348790997 0 0.02846567832778216 -0.042756626880165419 0 0.016945448047928951 -0.052262805477379423 0 0.029337839486141829 -0.062098975348790997 0 0.02846567832778216 -0.042756626880165419 0 0.029337839486141829 -0.062098975348790997 0 0.044041605111135473 -0.049431168693685697 0 0.058323301768317432 -0.063111133394663815 0 0.029337839486141829 -0.062098975348790997 0 0.044041605111135473 -0.049431168693685697 0 0.058323301768317432 -0.063111133394663815 0 0.044041605111135473 -0.049431168693685697 0 0.059903341899081253 -0.040049795258846832 0 0.059903341899081253 -0.040049795258846832 0 0.045154502468205723 -0.035444412579530127 0 0.052999286202529479 -0.022291816621987929 0 0.044041605111135473 -0.049431168693685697 0 0.059903341899081253 -0.040049795258846832 0 0.045154502468205723 -0.035444412579530127 0 0.02846567832778216 -0.042756626880165419 0 0.044041605111135473 -0.049431168693685697 0 0.045154502468205723 -0.035444412579530127 0 0.02846567832778216 -0.042756626880165419 0 0.045154502468205723 -0.035444412579530127 0 0.035567370731091272 -0.02454493013615917 0 0.045154502468205723 -0.035444412579530127 0 0.035567370731091272 -0.02454493013615917 0 0.052999286202529479 -0.022291816621987929 0 0.035567370731091272 -0.02454493013615917 0 0.052999286202529479 -0.022291816621987929 0 0.04138045704507981 -0.013293391242584921 0 0.02812452509478746 -0.0099579005571815878 0 0.035567370731091272 -0.02454493013615917 0 0.04138045704507981 -0.013293391242584921 0 0.059903341899081253 -0.040049795258846832 0 0.052999286202529479 -0.022291816621987929 0 0.073093181043766914 -0.026775388104941698 0 0.052999286202529479 -0.022291816621987929 0 0.049896637954744763 -0.0073960790217490677 0 0.04138045704507981 -0.013293391242584921 0 0.052999286202529479 -0.022291816621987929 0 0.049896637954744763 -0.0073960790217490677 0 0.066530330394949447 -0.012320269852860621 0 0.049896637954744763 -0.0073960790217490677 0 0.040314465242246092 -0.002276229875846851 0 0.04138045704507981 -0.013293391242584921 0 0.025695344612614111 0.0095801541182225364 0 0.02812452509478746 -0.0099579005571815878 0 0.040314465242246092 -0.002276229875846851 0 0.046640351189982193 0.001482106492276504 0 0.049896637954744763 -0.0073960790217490677 0 0.040314465242246092 -0.002276229875846851 0 0.02812452509478746 -0.0099579005571815878 0 0.040314465242246092 -0.002276229875846851 0 0.04138045704507981 -0.013293391242584921 0 0.075461568133428525 0.0044331687040122013 0 0.081703970602104437 -0.011974759962048749 0 0.098011391193308373 -0.0056982583262641584 0 0.075461568133428525 0.0044331687040122013 0 0.049896637954744763 -0.0073960790217490677 0 0.075461568133428525 0.0044331687040122013 0 0.049896637954744763 -0.0073960790217490677 0 0.066530330394949447 -0.012320269852860621 0 0.075461568133428525 0.0044331687040122013 0 0.081703970602104437 -0.011974759962048749 0 0.066530330394949447 -0.012320269852860621 0 0.081703970602104437 -0.011974759962048749 0 0.066530330394949447 -0.012320269852860621 0 0.073093181043766914 -0.026775388104941698 0 0.052999286202529479 -0.022291816621987929 0 0.066530330394949447 -0.012320269852860621 0 0.073093181043766914 -0.026775388104941698 0 0.081703970602104437 -0.011974759962048749 0 0.097837743661838034 -0.031049975793767819 0 0.098011391193308373 -0.0056982583262641584 0 0.081703970602104437 -0.011974759962048749 0 0.073093181043766914 -0.026775388104941698 0 0.097837743661838034 -0.031049975793767819 0 0.078080522715077566 -0.047080554594215653 0 0.097861902682226248 -0.045151270938537998 0 0.097837743661838034 -0.031049975793767819 0 0.073093181043766914 -0.026775388104941698 0 0.078080522715077566 -0.047080554594215653 0 0.097837743661838034 -0.031049975793767819 0 0.078080522715077566 -0.047080554594215653 0 0.097837743661838034 -0.031049975793767819 0 0.059903341899081253 -0.040049795258846832 0 0.073093181043766914 -0.026775388104941698 0 0.078080522715077566 -0.047080554594215653 0 0.058323301768317432 -0.063111133394663815 0 0.078080522715077566 -0.047080554594215653 0 0.058323301768317432 -0.063111133394663815 0 0.059903341899081253 -0.040049795258846832 0 0.078080522715077566 -0.047080554594215653 0 0.058323301768317432 -0.063111133394663815 0 0.078080522715077566 -0.047080554594215653 0 0.081939961595450139 -0.063935815506958552 0 0.078080522715077566 -0.047080554594215653 0 0.094142039140793971 -0.055881476276546937 0 0.081939961595450139 -0.063935815506958552 0 0.078080522715077566 -0.047080554594215653 0 0.094142039140793971 -0.055881476276546937 0 0.097861902682226248 -0.045151270938537998 0 0.094142039140793971 -0.055881476276546937 0 0.081939961595450139 -0.063935815506958552 0 0.1067368008806147 -0.064801708903802782 0 0.094142039140793971 -0.055881476276546937 0 0.1075629424949773 -0.053875431803618333 0 0.097861902682226248 -0.045151270938537998 0 0.094142039140793971 -0.055881476276546937 0 0.1075629424949773 -0.053875431803618333 0 0.1067368008806147 -0.064801708903802782 0 0.1075629424949773 -0.053875431803618333 0 0.1067368008806147 -0.064801708903802782 0 0.1075629424949773 -0.053875431803618333 0 0.1232921759667842 -0.047663851323270827 0 0.1067368008806147 -0.064801708903802782 0 0.1232921759667842 -0.047663851323270827 0 0.1067368008806147 -0.064801708903802782 0 0.1075629424949773 -0.053875431803618333 0 0.1232921759667842 -0.047663851323270827 0 0.1109518143893137 -0.039435966374661548 0 0.1232921759667842 -0.047663851323270827 0 0.1067368008806147 -0.064801708903802782 0 0.13548767730717889 -0.06580567532731052 0 0.1232921759667842 -0.047663851323270827 0 0.1109518143893137 -0.039435966374661548 0 0.124582941869709 -0.030507807285028901 0 0.1109518143893137 -0.039435966374661548 0 0.097861902682226248 -0.045151270938537998 0 0.097837743661838034 -0.031049975793767819 0 0.1075629424949773 -0.053875431803618333 0 0.1109518143893137 -0.039435966374661548 0 0.097861902682226248 -0.045151270938537998 0 0.097837743661838034 -0.031049975793767819 0 0.1175949646085984 -0.015019396993320021 0 0.097837743661838034 -0.031049975793767819 0 0.1175949646085984 -0.015019396993320021 0 0.098011391193308373 -0.0056982583262641584 0 0.1109518143893137 -0.039435966374661548 0 0.097837743661838034 -0.031049975793767819 0 0.1175949646085984 -0.015019396993320021 0 0.1109518143893137 -0.039435966374661548 0 0.124582941869709 -0.030507807285028901 0 0.1175949646085984 -0.015019396993320021 0 0.124582941869709 -0.030507807285028901 0 0.1175949646085984 -0.015019396993320021 0 0.13165260102391191 -0.019660205177744808 0 0.11882011836095251 0.0065886106746579649 0 0.1175949646085984 -0.015019396993320021 0 0.098011391193308373 -0.0056982583262641584 0 0.11882011836095251 0.0065886106746579649 0 0.13735218555535891 0.001011181807127467 0 0.1175949646085984 -0.015019396993320021 0 0.073111172643960082 -0.099610417542301155 0 0.10058413041743761 -0.090581864498492995 0 0.088608598291174498 -0.101420796185217 0 0.073111172643960082 -0.099610417542301155 0 0.10058413041743761 -0.090581864498492995 0 0.083297568291202648 -0.10670285905343881 0 0.088608598291174498 -0.101420796185217 0 0.073111172643960082 -0.099610417542301155 0 0.083297568291202648 -0.10670285905343881 0 0.088608598291174498 -0.101420796185217 0 0.097441521812097198 -0.10878804364663471 0 0.093527805260815264 -0.13002146576964491 0 0.079322302472514483 -0.11895376470488229 0 0.097441521812097198 -0.10878804364663471 0 0.083297568291202648 -0.10670285905343881 0 0.079322302472514483 -0.11895376470488229 0 0.097441521812097198 -0.10878804364663471 0 0.093527805260815264 -0.13002146576964491 0 0.079322302472514483 -0.11895376470488229 0 0.079322302472514483 -0.11895376470488229 0 0.065116799684213397 -0.10788606364011991 0 0.083297568291202648 -0.10670285905343881 0 0.079322302472514483 -0.11895376470488229 0 0.065116799684213397 -0.10788606364011991 0 0.079322302472514483 -0.11895376470488229 0 0.066569319149528045 -0.1206454253796948 0 0.065116799684213397 -0.10788606364011991 0 0.069539210615093855 -0.1345869923500955 0 0.079322302472514483 -0.11895376470488229 0 0.066569319149528045 -0.1206454253796948 0 0.060017785521926562 -0.10391335212725129 0 0.065116799684213397 -0.10788606364011991 0 0.060017785521926562 -0.10391335212725129 0 0.073111172643960082 -0.099610417542301155 0 0.065116799684213397 -0.10788606364011991 0 0.073111172643960082 -0.099610417542301155 0 0.083297568291202648 -0.10670285905343881 0 0.065116799684213397 -0.10788606364011991 0 0.073111172643960082 -0.099610417542301155 0 0.060017785521926562 -0.10391335212725129 0 0.065116799684213397 -0.10788606364011991 0 0.073111172643960082 -0.099610417542301155 0 0.060818353003097771 -0.090653503469919336 0 0.060017785521926562 -0.10391335212725129 0 0.073111172643960082 -0.099610417542301155 0 0.060818353003097771 -0.090653503469919336 0 0.073111172643960082 -0.099610417542301155 0 0.074211161232423301 -0.082716200610011378 0 0.060228637404373828 -0.081759239016750626 0 0.060818353003097771 -0.090653503469919336 0 0.074211161232423301 -0.082716200610011378 0 0.058323301768317432 -0.063111133394663815 0 0.081939961595450139 -0.063935815506958552 0 0.058323301768317432 -0.063111133394663815 0 0.074211161232423301 -0.082716200610011378 0 0.081939961595450139 -0.063935815506958552 0 0.058323301768317432 -0.063111133394663815 0 0.060228637404373828 -0.081759239016750626 0 0.074211161232423301 -0.082716200610011378 0 0.074211161232423301 -0.082716200610011378 0 0.081939961595450139 -0.063935815506958552 0 0.089190063779311518 -0.082965808471458069 0 0.081939961595450139 -0.063935815506958552 0 0.089190063779311518 -0.082965808471458069 0 0.1052689549146623 -0.0663211994006144 0 0.073111172643960082 -0.099610417542301155 0 0.074211161232423301 -0.082716200610011378 0 0.089190063779311518 -0.082965808471458069 0 0.073111172643960082 -0.099610417542301155 0 0.089190063779311518 -0.082965808471458069 0 0.073111172643960082 -0.099610417542301155 0 0.089190063779311518 -0.082965808471458069 0 0.10058413041743761 -0.090581864498492995 0 0.089190063779311518 -0.082965808471458069 0 0.1017080788123951 -0.087804556385465471 0 0.1052689549146623 -0.0663211994006144 0 0.089190063779311518 -0.082965808471458069 0 0.10058413041743761 -0.090581864498492995 0 0.1017080788123951 -0.087804556385465471 0 0.1017080788123951 -0.087804556385465471 0 0.1084674426683357 -0.077888137089068013 0 0.1052689549146623 -0.0663211994006144 0 0.089190063779311518 -0.082965808471458069 0 0.1052689549146623 -0.0663211994006144 0 0.081939961595450139 -0.063935815506958552 0 0.1067368008806147 -0.064801708903802782 0 0.1052689549146623 -0.0663211994006144 0 0.081939961595450139 -0.063935815506958552 0 0.1067368008806147 -0.064801708903802782 0 0.1017080788123951 -0.087804556385465471 0 0.1052689549146623 -0.0663211994006144 0 0.1084674426683357 -0.077888137089068013 0 0.1067368008806147 -0.064801708903802782 0 0.1052689549146623 -0.0663211994006144 0 0.1067368008806147 -0.064801708903802782 0 0.1052689549146623 -0.0663211994006144 0 0.1067368008806147 -0.064801708903802782 0 0.13548767730717889 -0.06580567532731052 0 0.1084674426683357 -0.077888137089068013 0 0.1067368008806147 -0.064801708903802782 0 0.1232061248222129 -0.075206297362028066 0 0.1067368008806147 -0.064801708903802782 0 0.1232061248222129 -0.075206297362028066 0 0.13548767730717889 -0.06580567532731052 0 0.1017080788123951 -0.087804556385465471 0 0.1084674426683357 -0.077888137089068013 0 0.1272797878356694 -0.088593758706814907 0 0.1017080788123951 -0.087804556385465471 0 0.1272797878356694 -0.088593758706814907 0 0.1084674426683357 -0.077888137089068013 0 0.1232061248222129 -0.075206297362028066 0 0.1272797878356694 -0.088593758706814907 0 0.1017080788123951 -0.087804556385465471 0 0.11567178204704499 -0.10568275569041199 0 0.1272797878356694 -0.088593758706814907 0 0.1017080788123951 -0.087804556385465471 0 0.11567178204704499 -0.10568275569041199 0 0.097441521812097198 -0.10878804364663471 0 0.1017080788123951 -0.087804556385465471 0 0.097441521812097198 -0.10878804364663471 0 0.088608598291174498 -0.101420796185217 0 0.10058413041743761 -0.090581864498492995 0 0.097441521812097198 -0.10878804364663471 0 0.10058413041743761 -0.090581864498492995 0 0.1017080788123951 -0.087804556385465471 0 0.097441521812097198 -0.10878804364663471 0 0.093527805260815264 -0.13002146576964491 0 0.097441521812097198 -0.10878804364663471 0 0.104312872852085 -0.12243825994362539 0 0.093527805260815264 -0.13002146576964491 0 0.097441521812097198 -0.10878804364663471 0 0.11567178204704499 -0.10568275569041199 0 0.097441521812097198 -0.10878804364663471 0 0.104312872852085 -0.12243825994362539 0 0.11567178204704499 -0.10568275569041199 0 0.104312872852085 -0.12243825994362539 0 0.12800820934211829 -0.12401417466047961 0 0.12800820934211829 -0.12401417466047961 0 0.14712201392247631 -0.1132275548916801 0 0.13655559816636781 -0.1031347463460832 0 0.12800820934211829 -0.12401417466047961 0 0.14712201392247631 -0.1132275548916801 0 0.11567178204704499 -0.10568275569041199 0 0.12800820934211829 -0.12401417466047961 0 0.13655559816636781 -0.1031347463460832 0 0.12800820934211829 -0.12401417466047961 0 0.14712201392247631 -0.1132275548916801 0 0.1486045981545247 -0.12747252536747111 0 0.14712201392247631 -0.1132275548916801 0 0.16095359288685571 -0.1184472051676727 0 0.1486045981545247 -0.12747252536747111 0 0.15146120268426411 -0.099532086410862586 0 0.13655559816636781 -0.1031347463460832 0 0.1528514968589437 -0.089382961028164357 0 0.14712201392247631 -0.1132275548916801 0 0.15146120268426411 -0.099532086410862586 0 0.16623581850283431 -0.10244093512288061 0 0.14712201392247631 -0.1132275548916801 0 0.15146120268426411 -0.099532086410862586 0 0.13655559816636781 -0.1031347463460832 0 0.11567178204704499 -0.10568275569041199 0 0.13655559816636781 -0.1031347463460832 0 0.1272797878356694 -0.088593758706814907 0 0.1272797878356694 -0.088593758706814907 0 0.13805891541926751 -0.078942206783145619 0 0.1528514968589437 -0.089382961028164357 0 0.1272797878356694 -0.088593758706814907 0 0.1528514968589437 -0.089382961028164357 0 0.13655559816636781 -0.1031347463460832 0 0.1272797878356694 -0.088593758706814907 0 0.1528514968589437 -0.089382961028164357 0 0.1232061248222129 -0.075206297362028066 0 0.1272797878356694 -0.088593758706814907 0 0.13805891541926751 -0.078942206783145619 0 0.1232061248222129 -0.075206297362028066 0 0.13805891541926751 -0.078942206783145619 0 0.13548767730717889 -0.06580567532731052 0 0.13548767730717889 -0.06580567532731052 0 0.16423855373374319 -0.066809641750814969 0 0.13548767730717889 -0.06580567532731052 0 0.1516507619880918 -0.076739651506421189 0 0.16423855373374319 -0.066809641750814969 0 0.13548767730717889 -0.06580567532731052 0 0.16423855373374319 -0.066809641750814969 0 0.16004124225532049 -0.061841453839887157 0 0.13805891541926751 -0.078942206783145619 0 0.13548767730717889 -0.06580567532731052 0 0.1516507619880918 -0.076739651506421189 0 0.13805891541926751 -0.078942206783145619 0 0.1516507619880918 -0.076739651506421189 0 0.1528514968589437 -0.089382961028164357 0 0.15146120268426411 -0.099532086410862586 0 0.1528514968589437 -0.089382961028164357 0 0.15581646250916109 -0.090151240212135456 0 0.1528514968589437 -0.089382961028164357 0 0.15581646250916109 -0.090151240212135456 0 0.17842320588221819 -0.090172163349513806 0 0.1528514968589437 -0.089382961028164357 0 0.17842320588221819 -0.090172163349513806 0 0.15581646250916109 -0.090151240212135456 0 0.16859491992305889 -0.093070393687126218 0 0.17842320588221819 -0.090172163349513806 0 0.1528514968589437 -0.089382961028164357 0 0.1653897445003264 -0.079862578323319361 0 0.17842320588221819 -0.090172163349513806 0 0.1516507619880918 -0.076739651506421189 0 0.1528514968589437 -0.089382961028164357 0 0.1653897445003264 -0.079862578323319361 0 0.1516507619880918 -0.076739651506421189 0 0.1653897445003264 -0.079862578323319361 0 0.16423855373374319 -0.066809641750814969 0 0.1653897445003264 -0.079862578323319361 0 0.16423855373374319 -0.066809641750814969 0 0.17833356117891219 -0.077628002067558224 0 0.16423855373374319 -0.066809641750814969 0 0.1727598808088672 -0.056322389892066158 0 0.1929894301603077 -0.067813608174319001 0 0.16423855373374319 -0.066809641750814969 0 0.1929894301603077 -0.067813608174319001 0 0.16423855373374319 -0.066809641750814969 0 0.17833356117891219 -0.077628002067558224 0 0.1929894301603077 -0.067813608174319001 0 0.17833356117891219 -0.077628002067558224 0 0.19040307974074269 -0.080139672987034255 0 0.1929894301603077 -0.067813608174319001 0 0.16859491992305889 -0.093070393687126218 0 0.17842320588221819 -0.090172163349513806 0 0.17335524666804841 -0.094081054567607611 0 0.17842320588221819 -0.090172163349513806 0 0.17824607109877541 -0.095663109832525739 0 0.17335524666804841 -0.094081054567607611 0 0.1653897445003264 -0.079862578323319361 0 0.17833356117891219 -0.077628002067558224 0 0.17842320588221819 -0.090172163349513806 0 0.17833356117891219 -0.077628002067558224 0 0.1854866420256687 -0.084161575248007242 0 0.19040307974074269 -0.080139672987034255 0 0.17833356117891219 -0.077628002067558224 0 0.17842320588221819 -0.090172163349513806 0 0.1854866420256687 -0.084161575248007242 0 0.18404025852736719 -0.096743595743047278 0 0.18504385230606449 -0.10434071571553651 0 0.19243594079672521 -0.096163448387799222 0 0.17824607109877541 -0.095663109832525739 0 0.18504385230606449 -0.10434071571553651 0 0.16623581850283431 -0.10244093512288061 0 0.18504385230606449 -0.10434071571553651 0 0.18014950107347269 -0.1188522098678762 0 0.16623581850283431 -0.10244093512288061 0 0.18404025852736719 -0.096743595743047278 0 0.17824607109877541 -0.095663109832525739 0 0.18504385230606449 -0.10434071571553651 0 0.17842320588221819 -0.090172163349513806 0 0.18404025852736719 -0.096743595743047278 0 0.19243594079672521 -0.096163448387799222 0 0.17842320588221819 -0.090172163349513806 0 0.18404025852736719 -0.096743595743047278 0 0.17824607109877541 -0.095663109832525739 0 0.17824607109877541 -0.095663109832525739 0 0.17335524666804841 -0.094081054567607611 0 0.16623581850283431 -0.10244093512288061 0 0.17824607109877541 -0.095663109832525739 0 0.16623581850283431 -0.10244093512288061 0 0.18504385230606449 -0.10434071571553651 0 0.18014950107347269 -0.1188522098678762 0 0.1922879604253335 -0.1099500278873989 0 0.18014950107347269 -0.1188522098678762 0 0.16623581850283431 -0.10244093512288061 0 0.18014950107347269 -0.1188522098678762 0 0.16095359288685571 -0.1184472051676727 0 0.16623581850283431 -0.10244093512288061 0 0.14712201392247631 -0.1132275548916801 0 0.16095359288685571 -0.1184472051676727 0 0.16623581850283431 -0.10244093512288061 0 0.18014950107347269 -0.1188522098678762 0 0.16095359288685571 -0.1184472051676727 0 0.16265603278097029 -0.1302428005884553 0 0.14712201392247631 -0.1132275548916801 0 0.16623581850283431 -0.10244093512288061 0 0.15581646250916109 -0.090151240212135456 0 0.16859491992305889 -0.093070393687126218 0 0.16623581850283431 -0.10244093512288061 0 0.15146120268426411 -0.099532086410862586 0 0.15581646250916109 -0.090151240212135456 0 0.16623581850283431 -0.10244093512288061 0 0.15581646250916109 -0.090151240212135456 0 0.16623581850283431 -0.10244093512288061 0 0.16859491992305889 -0.093070393687126218 0 0.17335524666804841 -0.094081054567607611 0 0.16623581850283431 -0.10244093512288061 0 0.13735218555535891 0.001011181807127467 0 0.1449152044553462 -0.019939696741877431 0 0.14216046477152491 0.0049125148476896544 0 0.15727218843160701 -0.01758578836774349 0 0.15849764294065671 -0.0060544572746906826 0 0.14216046477152491 0.0049125148476896544 0 0.15727218843160701 -0.01758578836774349 0 0.14216046477152491 0.0049125148476896544 0 0.1449152044553462 -0.019939696741877431 0 0.15727218843160701 -0.01758578836774349 0 0.14216046477152491 0.0049125148476896544 0 0.13735218555535891 0.001011181807127467 0 0.1449152044553462 -0.019939696741877431 0 0.13735218555535891 0.001011181807127467 0 0.1175949646085984 -0.015019396993320021 0 0.13735218555535891 0.001011181807127467 0 0.1175949646085984 -0.015019396993320021 0 0.13165260102391191 -0.019660205177744808 0 0.13735218555535891 0.001011181807127467 0 0.13165260102391191 -0.019660205177744808 0 0.1449152044553462 -0.019939696741877431 0 0.13165260102391191 -0.019660205177744808 0 0.13984755105295521 -0.030525993742740402 0 0.1449152044553462 -0.019939696741877431 0 0.124582941869709 -0.030507807285028901 0 0.13165260102391191 -0.019660205177744808 0 0.13984755105295521 -0.030525993742740402 0 0.1449152044553462 -0.019939696741877431 0 0.15247822335533329 -0.040890575290882317 0 0.15727218843160701 -0.01758578836774349 0 0.13984755105295521 -0.030525993742740402 0 0.1449152044553462 -0.019939696741877431 0 0.15247822335533329 -0.040890575290882317 0 0.1449152044553462 -0.019939696741877431 0 0.15247822335533329 -0.040890575290882317 0 0.15247822335533329 -0.040890575290882317 0 0.1379109625223634 -0.045605004272587249 0 0.14629243763992239 -0.054068479542427092 0 0.13984755105295521 -0.030525993742740402 0 0.15247822335533329 -0.040890575290882317 0 0.1379109625223634 -0.045605004272587249 0 0.1232921759667842 -0.047663851323270827 0 0.13984755105295521 -0.030525993742740402 0 0.1379109625223634 -0.045605004272587249 0 0.1232921759667842 -0.047663851323270827 0 0.124582941869709 -0.030507807285028901 0 0.13984755105295521 -0.030525993742740402 0 0.1232921759667842 -0.047663851323270827 0 0.13984755105295521 -0.030525993742740402 0 0.1232921759667842 -0.047663851323270827 0 0.13548767730717889 -0.06580567532731052 0 0.1379109625223634 -0.045605004272587249 0 0.13548767730717889 -0.06580567532731052 0 0.1379109625223634 -0.045605004272587249 0 0.14629243763992239 -0.054068479542427092 0 0.13548767730717889 -0.06580567532731052 0 0.14629243763992239 -0.054068479542427092 0 0.16004124225532049 -0.061841453839887157 0 0.15247822335533329 -0.040890575290882317 0 0.14629243763992239 -0.054068479542427092 0 0.16004124225532049 -0.061841453839887157 0 0.15247822335533329 -0.040890575290882317 0 0.16004124225532049 -0.061841453839887157 0 0.1644158146278025 -0.049784627651503079 0 0.1644158146278025 -0.049784627651503079 0 0.1727598808088672 -0.056322389892066158 0 0.1723839120916891 -0.040084091583176683 0 0.15247822335533329 -0.040890575290882317 0 0.16004124225532049 -0.061841453839887157 0 0.16423855373374319 -0.066809641750814969 0 0.16004124225532049 -0.061841453839887157 0 0.1727598808088672 -0.056322389892066158 0 0.16004124225532049 -0.061841453839887157 0 0.1644158146278025 -0.049784627651503079 0 0.1727598808088672 -0.056322389892066158 0 0.1727598808088672 -0.056322389892066158 0 0.18434240851125541 -0.050289724698312777 0 0.1723839120916891 -0.040084091583176683 0 0.1727598808088672 -0.056322389892066158 0 0.18434240851125541 -0.050289724698312777 0 0.1929894301603077 -0.067813608174319001 0 0.1723839120916891 -0.040084091583176683 0 0.18077822909658589 -0.032018797610549231 0 0.17598651952492231 -0.0227560541305885 0 0.18434240851125541 -0.050289724698312777 0 0.1723839120916891 -0.040084091583176683 0 0.18674227588606429 -0.037749552466939278 0 0.1723839120916891 -0.040084091583176683 0 0.18674227588606429 -0.037749552466939278 0 0.18077822909658589 -0.032018797610549231 0 0.18674227588606429 -0.037749552466939278 0 0.18077822909658589 -0.032018797610549231 0 0.18610830639217099 -0.030062433202775862 0 0.15247822335533329 -0.040890575290882317 0 0.1723839120916891 -0.040084091583176683 0 0.15727218843160701 -0.01758578836774349 0 0.15247822335533329 -0.040890575290882317 0 0.1644158146278025 -0.049784627651503079 0 0.1723839120916891 -0.040084091583176683 0 0.1723839120916891 -0.040084091583176683 0 0.15727218843160701 -0.01758578836774349 0 0.1723839120916891 -0.040084091583176683 0 0.1668946229318731 -0.019675061199070819 0 0.17598651952492231 -0.0227560541305885 0 0.1723839120916891 -0.040084091583176683 0 0.15727218843160701 -0.01758578836774349 0 0.1668946229318731 -0.019675061199070819 0 0.1668946229318731 -0.019675061199070819 0 0.17598651952492231 -0.0227560541305885 0 0.16985348277487761 -0.0099868764823510571 0 0.18077822909658589 -0.032018797610549231 0 0.18438258456793261 -0.021379302004443181 0 0.17598651952492231 -0.0227560541305885 0 0.18077822909658589 -0.032018797610549231 0 0.18610830639217099 -0.030062433202775862 0 0.18438258456793261 -0.021379302004443181 0 0.18438258456793261 -0.021379302004443181 0 0.17598651952492231 -0.0227560541305885 0 0.17878486519392331 -0.011645355321630489 0 0.17598651952492231 -0.0227560541305885 0 0.17878486519392331 -0.011645355321630489 0 0.16985348277487761 -0.0099868764823510571 0 0.17878486519392331 -0.011645355321630489 0 0.17506184651935949 -0.0021247232161890161 0 0.16985348277487761 -0.0099868764823510571 0 0.18438258456793261 -0.021379302004443181 0 0.17878486519392331 -0.011645355321630489 0 0.18863989258252481 -0.001979820774580698 0 0.17878486519392331 -0.011645355321630489 0 0.17506184651935949 -0.0021247232161890161 0 0.18863989258252481 -0.001979820774580698 0 0.1628037813635097 0.0015330777282007481 0 0.17506184651935949 -0.0021247232161890161 0 0.16985348277487761 -0.0099868764823510571 0 0.1668946229318731 -0.019675061199070819 0 0.16985348277487761 -0.0099868764823510571 0 0.15849764294065671 -0.0060544572746906826 0 0.15727218843160701 -0.01758578836774349 0 0.1668946229318731 -0.019675061199070819 0 0.15849764294065671 -0.0060544572746906826 0 0.1628037813635097 0.0015330777282007481 0 0.16985348277487761 -0.0099868764823510571 0 0.15849764294065671 -0.0060544572746906826 0 0.1628037813635097 0.0015330777282007481 0 0.15453230216132671 0.0032055715019124438 0 0.15849764294065671 -0.0060544572746906826 0 0.21174544862736719 0.0096628206364345465 0 0.20589386385567829 -0.0063134785331596111 0 0.2185782736923042 -0.0038367730406402641 0 0.20589386385567829 -0.0063134785331596111 0 0.2185782736923042 -0.0038367730406402641 0 0.2199828155312514 -0.0225516893132638 0 0.20589386385567829 -0.0063134785331596111 0 0.18863989258252481 -0.001979820774580698 0 0.1936475112771239 -0.030998707124919651 0 0.20589386385567829 -0.0063134785331596111 0 0.1936475112771239 -0.030998707124919651 0 0.20001428446098229 -0.034334459813343092 0 0.18863989258252481 -0.001979820774580698 0 0.1936475112771239 -0.030998707124919651 0 0.20589386385567829 -0.0063134785331596111 0 0.20001428446098229 -0.034334459813343092 0 0.18438258456793261 -0.021379302004443181 0 0.18863989258252481 -0.001979820774580698 0 0.1936475112771239 -0.030998707124919651 0 0.18610830639217099 -0.030062433202775862 0 0.18438258456793261 -0.021379302004443181 0 0.1936475112771239 -0.030998707124919651 0 0.20589386385567829 -0.0063134785331596111 0 0.20001428446098229 -0.034334459813343092 0 0.2199828155312514 -0.0225516893132638 0 0.20001428446098229 -0.034334459813343092 0 0.22061008072662569 -0.045125245157715169 0 0.20001428446098229 -0.034334459813343092 0 0.22061008072662569 -0.045125245157715169 0 0.2199828155312514 -0.0225516893132638 0 0.20001428446098229 -0.034334459813343092 0 0.19683654360934791 -0.049478981375062181 0 0.22061008072662569 -0.045125245157715169 0 0.1936475112771239 -0.030998707124919651 0 0.19683654360934791 -0.049478981375062181 0 0.18674227588606429 -0.037749552466939278 0 0.1936475112771239 -0.030998707124919651 0 0.19683654360934791 -0.049478981375062181 0 0.1936475112771239 -0.030998707124919651 0 0.20001428446098229 -0.034334459813343092 0 0.19683654360934791 -0.049478981375062181 0 0.1936475112771239 -0.030998707124919651 0 0.20001428446098229 -0.034334459813343092 0 0.18674227588606429 -0.037749552466939278 0 0.18610830639217099 -0.030062433202775862 0 0.1936475112771239 -0.030998707124919651 0 0.18434240851125541 -0.050289724698312777 0 0.18674227588606429 -0.037749552466939278 0 0.19683654360934791 -0.049478981375062181 0 0.20001428446098229 -0.034334459813343092 0 0.19683654360934791 -0.049478981375062181 0 0.19683654360934791 -0.049478981375062181 0 0.1929894301603077 -0.067813608174319001 0 0.2000429458732931 -0.068059913463883598 0 0.19683654360934791 -0.049478981375062181 0 0.21158346953455981 -0.057932445704329483 0 0.2000429458732931 -0.068059913463883598 0 0.19683654360934791 -0.049478981375062181 0 0.2000429458732931 -0.068059913463883598 0 0.19683654360934791 -0.049478981375062181 0 0.1929894301603077 -0.067813608174319001 0 0.18434240851125541 -0.050289724698312777 0 0.19683654360934791 -0.049478981375062181 0 0.1929894301603077 -0.067813608174319001 0 0.19683654360934791 -0.049478981375062181 0 0.21158346953455981 -0.057932445704329483 0 0.22061008072662569 -0.045125245157715169 0 0.24120587699226881 -0.055916030502087773 0 0.22061008072662569 -0.045125245157715169 0 0.2288443079289719 -0.069065642820655804 0 0.21158346953455981 -0.057932445704329483 0 0.22061008072662569 -0.045125245157715169 0 0.2288443079289719 -0.069065642820655804 0 0.24120587699226881 -0.055916030502087773 0 0.22061008072662569 -0.045125245157715169 0 0.25030159180115191 -0.034143426788088307 0 0.24120587699226881 -0.055916030502087773 0 0.23430517811137791 -0.037629801295311363 0 0.25030159180115191 -0.034143426788088307 0 0.23430517811137791 -0.037629801295311363 0 0.23651070060392609 -0.023431292744830981 0 0.22061008072662569 -0.045125245157715169 0 0.23430517811137791 -0.037629801295311363 0 0.2199828155312514 -0.0225516893132638 0 0.24120587699226881 -0.055916030502087773 0 0.22061008072662569 -0.045125245157715169 0 0.23430517811137791 -0.037629801295311363 0 0.2199828155312514 -0.0225516893132638 0 0.23651070060392609 -0.023431292744830981 0 0.2300866381754704 -0.0072438550720441714 0 0.23430517811137791 -0.037629801295311363 0 0.2199828155312514 -0.0225516893132638 0 0.23651070060392609 -0.023431292744830981 0 0.25030159180115191 -0.034143426788088307 0 0.23651070060392609 -0.023431292744830981 0 0.2464198669495459 -0.012097030270161889 0 0.23790413247208811 0.0091049515404343275 0 0.2464198669495459 -0.012097030270161889 0 0.2300866381754704 -0.0072438550720441714 0 0.23651070060392609 -0.023431292744830981 0 0.2464198669495459 -0.012097030270161889 0 0.2300866381754704 -0.0072438550720441714 0 0.2185782736923042 -0.0038367730406402641 0 0.2199828155312514 -0.0225516893132638 0 0.2300866381754704 -0.0072438550720441714 0 0.22518260227175371 0.0072623370788317187 0 0.2185782736923042 -0.0038367730406402641 0 0.2300866381754704 -0.0072438550720441714 0 0.20666963866093291 -0.1113398018781358 0 0.20399491490549271 -0.090961365670864353 0 0.20666963866093291 -0.1113398018781358 0 0.23081911420975029 -0.091789222750733895 0 0.20666963866093291 -0.1113398018781358 0 0.20399491490549271 -0.090961365670864353 0 0.23081911420975029 -0.091789222750733895 0 0.2184940671700534 -0.12394732724419751 0 0.20666963866093291 -0.1113398018781358 0 0.22056261316880149 -0.1108234873110058 0 0.2184940671700534 -0.12394732724419751 0 0.20975191972323501 -0.12432290509972491 0 0.20666963866093291 -0.1113398018781358 0 0.2184940671700534 -0.12394732724419751 0 0.20666963866093291 -0.1113398018781358 0 0.20975191972323501 -0.12432290509972491 0 0.20666963866093291 -0.1113398018781358 0 0.1971408692894723 -0.1190539635876471 0 0.20975191972323501 -0.12432290509972491 0 0.20666963866093291 -0.1113398018781358 0 0.18014950107347269 -0.1188522098678762 0 0.1971408692894723 -0.1190539635876471 0 0.19406318364410949 -0.13526348461287321 0 0.20666963866093291 -0.1113398018781358 0 0.1971408692894723 -0.1190539635876471 0 0.18014950107347269 -0.1188522098678762 0 0.1971408692894723 -0.1190539635876471 0 0.1922879604253335 -0.1099500278873989 0 0.20666963866093291 -0.1113398018781358 0 0.1971408692894723 -0.1190539635876471 0 0.1922879604253335 -0.1099500278873989 0 0.20666963866093291 -0.1113398018781358 0 0.19243594079672521 -0.096163448387799222 0 0.20399491490549271 -0.090961365670864353 0 0.18504385230606449 -0.10434071571553651 0 0.1922879604253335 -0.1099500278873989 0 0.19243594079672521 -0.096163448387799222 0 0.20666963866093291 -0.1113398018781358 0 0.1922879604253335 -0.1099500278873989 0 0.19243594079672521 -0.096163448387799222 0 0.20666963866093291 -0.1113398018781358 0 0.19243594079672521 -0.096163448387799222 0 0.1854866420256687 -0.084161575248007242 0 0.19040307974074269 -0.080139672987034255 0 0.20399491490549271 -0.090961365670864353 0 0.17842320588221819 -0.090172163349513806 0 0.19243594079672521 -0.096163448387799222 0 0.20399491490549271 -0.090961365670864353 0 0.17842320588221819 -0.090172163349513806 0 0.20399491490549271 -0.090961365670864353 0 0.17842320588221819 -0.090172163349513806 0 0.1854866420256687 -0.084161575248007242 0 0.20399491490549271 -0.090961365670864353 0 0.2000429458732931 -0.068059913463883598 0 0.20399491490549271 -0.090961365670864353 0 0.19040307974074269 -0.080139672987034255 0 0.2000429458732931 -0.068059913463883598 0 0.20399491490549271 -0.090961365670864353 0 0.19040307974074269 -0.080139672987034255 0 0.1929894301603077 -0.067813608174319001 0 0.2000429458732931 -0.068059913463883598 0 0.19040307974074269 -0.080139672987034255 0 0.1929894301603077 -0.067813608174319001 0 0.1929894301603077 -0.067813608174319001 0 0.2000429458732931 -0.068059913463883598 0 0.2000429458732931 -0.068059913463883598 0 0.2288443079289719 -0.069065642820655804 0 0.2000429458732931 -0.068059913463883598 0 0.21771238563745279 -0.081480669998114597 0 0.2288443079289719 -0.069065642820655804 0 0.21158346953455981 -0.057932445704329483 0 0.2000429458732931 -0.068059913463883598 0 0.2288443079289719 -0.069065642820655804 0 0.2000429458732931 -0.068059913463883598 0 0.20399491490549271 -0.090961365670864353 0 0.21771238563745279 -0.081480669998114597 0 0.20399491490549271 -0.090961365670864353 0 0.21771238563745279 -0.081480669998114597 0 0.23081911420975029 -0.091789222750733895 0 0.20399491490549271 -0.090961365670864353 0 0.23081911420975029 -0.091789222750733895 0 0.21771238563745279 -0.081480669998114597 0 0.23081911420975029 -0.091789222750733895 0 0.2288443079289719 -0.069065642820655804 0 0.25764566998465072 -0.070071372177431313 0 0.24120587699226881 -0.055916030502087773 0 0.2288443079289719 -0.069065642820655804 0 0.25764566998465072 -0.070071372177431313 0 0.2288443079289719 -0.069065642820655804 0 0.25764566998465072 -0.070071372177431313 0 0.2288443079289719 -0.069065642820655804 0 0.24423239209720191 -0.080930297464084477 0 0.25666672159796139 -0.092586939936295867 0 0.23081911420975029 -0.091789222750733895 0 0.23081911420975029 -0.091789222750733895 0 0.2288443079289719 -0.069065642820655804 0 0.24423239209720191 -0.080930297464084477 0 0.25666672159796139 -0.092586939936295867 0 0.23081911420975029 -0.091789222750733895 0 0.24423239209720191 -0.080930297464084477 0 0.23081911420975029 -0.091789222750733895 0 0.24423239209720191 -0.080930297464084477 0 0.25666672159796139 -0.092586939936295867 0 0.23081911420975029 -0.091789222750733895 0 0.23839025179526999 -0.1151992729885977 0 0.20666963866093291 -0.1113398018781358 0 0.23081911420975029 -0.091789222750733895 0 0.22056261316880149 -0.1108234873110058 0 0.23081911420975029 -0.091789222750733895 0 0.22056261316880149 -0.1108234873110058 0 0.23839025179526999 -0.1151992729885977 0 0.2184940671700534 -0.12394732724419751 0 0.22056261316880149 -0.1108234873110058 0 0.23839025179526999 -0.1151992729885977 0 0.2184940671700534 -0.12394732724419751 0 0.23839025179526999 -0.1151992729885977 0 0.22928680998153819 -0.13545484142638689 0 0.25915390151091949 -0.11811210275817149 0 0.25133622254172122 -0.13557462765415079 0 0.23839025179526999 -0.1151992729885977 0 0.25133622254172122 -0.13557462765415079 0 0.25208407187516418 -0.1419613505697605 0 0.23274332603383319 -0.13914027229300069 0 0.25133622254172122 -0.13557462765415079 0 0.23839025179526999 -0.1151992729885977 0 0.22928680998153819 -0.13545484142638689 0 0.25133622254172122 -0.13557462765415079 0 0.22928680998153819 -0.13545484142638689 0 0.25133622254172122 -0.13557462765415079 0 0.23274332603383319 -0.13914027229300069 0 0.22928680998153819 -0.13545484142638689 0 0.25208407187516418 -0.1419613505697605 0 0.23274332603383319 -0.13914027229300069 0 0.2530488896403309 -0.16079061319898569 0 0.23274332603383319 -0.13914027229300069 0 0.2530488896403309 -0.16079061319898569 0 0.23274332603383319 -0.13914027229300069 0 0.2334622085995452 -0.15779257262933219 0 0.2530488896403309 -0.16079061319898569 0 0.25208407187516418 -0.1419613505697605 0 0.23274332603383319 -0.13914027229300069 0 0.22694604844669111 -0.15137512496012309 0 0.2202725953444182 -0.1456731206256075 0 0.22100128495381829 -0.16152072110389429 0 0.22694604844669111 -0.15137512496012309 0 0.23274332603383319 -0.13914027229300069 0 0.2334622085995452 -0.15779257262933219 0 0.22694604844669111 -0.15137512496012309 0 0.2202725953444182 -0.1456731206256075 0 0.23274332603383319 -0.13914027229300069 0 0.23274332603383319 -0.13914027229300069 0 0.20959101376118139 -0.13576323162740581 0 0.22928680998153819 -0.13545484142638689 0 0.2116749968128239 -0.1353591630196288 0 0.23274332603383319 -0.13914027229300069 0 0.22928680998153819 -0.13545484142638689 0 0.2116749968128239 -0.1353591630196288 0 0.2184940671700534 -0.12394732724419751 0 0.22928680998153819 -0.13545484142638689 0 0.2116749968128239 -0.1353591630196288 0 0.2202725953444182 -0.1456731206256075 0 0.23274332603383319 -0.13914027229300069 0 0.20959101376118139 -0.13576323162740581 0 0.23274332603383319 -0.13914027229300069 0 0.22928680998153819 -0.13545484142638689 0 0.2184940671700534 -0.12394732724419751 0 0.22928680998153819 -0.13545484142638689 0 0.23274332603383319 -0.13914027229300069 0 0.20959101376118139 -0.13576323162740581 0 0.2116749968128239 -0.1353591630196288 0 0.20975191972323501 -0.12432290509972491 0 0.2116749968128239 -0.1353591630196288 0 0.19406318364410949 -0.13526348461287321 0 0.2184940671700534 -0.12394732724419751 0 0.20975191972323501 -0.12432290509972491 0 0.2116749968128239 -0.1353591630196288 0 0.20959101376118139 -0.13576323162740581 0 0.2116749968128239 -0.1353591630196288 0 0.19406318364410949 -0.13526348461287321 0 0.2202725953444182 -0.1456731206256075 0 0.21077041390333781 -0.15496976615408631 0 0.22100128495381829 -0.16152072110389429 0 0.2202725953444182 -0.1456731206256075 0 0.20959101376118139 -0.13576323162740581 0 0.21077041390333781 -0.15496976615408631 0 0.20959101376118139 -0.13576323162740581 0 0.21077041390333781 -0.15496976615408631 0 0.19406318364410949 -0.13526348461287321 0 0.21077041390333781 -0.15496976615408631 0 0.19019323353294471 -0.15547991582157239 0 0.19406318364410949 -0.13526348461287321 0 0.21077041390333781 -0.15496976615408631 0 0.19406318364410949 -0.13526348461287321 0 0.20975191972323501 -0.12432290509972491 0 0.1971408692894723 -0.1190539635876471 0 0.19406318364410949 -0.13526348461287321 0 0.2116749968128239 -0.1353591630196288 0 0.19406318364410949 -0.13526348461287321 0 0.2064216300685435 -0.1763378775815001 0 0.19333004299069351 -0.19482382871724169 0 0.185888281266576 -0.1738959907954824 0 0.21077041390333781 -0.15496976615408631 0 0.19019323353294471 -0.15547991582157239 0 0.2064216300685435 -0.1763378775815001 0 0.19019323353294471 -0.15547991582157239 0 0.2064216300685435 -0.1763378775815001 0 0.185888281266576 -0.1738959907954824 0 0.21077041390333781 -0.15496976615408631 0 0.2064216300685435 -0.1763378775815001 0 0.22100128495381829 -0.16152072110389429 0 0.2064216300685435 -0.1763378775815001 0 0.22637928715471201 -0.1750627007060517 0 0.22100128495381829 -0.16152072110389429 0 0.2064216300685435 -0.1763378775815001 0 0.22637928715471201 -0.1750627007060517 0 0.2213864998634191 -0.19074186604973761 0 0.22637928715471201 -0.1750627007060517 0 0.2363010186387848 -0.18586727398715949 0 0.2213864998634191 -0.19074186604973761 0 0.22637928715471201 -0.1750627007060517 0 0.22100128495381829 -0.16152072110389429 0 0.2334622085995452 -0.15779257262933219 0 0.22637928715471201 -0.1750627007060517 0 0.2334622085995452 -0.15779257262933219 0 0.24133419147104179 -0.17110858194103351 0 0.22694604844669111 -0.15137512496012309 0 0.22100128495381829 -0.16152072110389429 0 0.2334622085995452 -0.15779257262933219 0 0.2530488896403309 -0.16079061319898569 0 0.2334622085995452 -0.15779257262933219 0 0.24133419147104179 -0.17110858194103351 0 0.2550208565069661 -0.17514012483034949 0 0.2530488896403309 -0.16079061319898569 0 0.24133419147104179 -0.17110858194103351 0 0.22637928715471201 -0.1750627007060517 0 0.24133419147104179 -0.17110858194103351 0 0.2363010186387848 -0.18586727398715949 0 0.25030889548151403 -0.1837077448593728 0 0.2550208565069661 -0.17514012483034949 0 0.24133419147104179 -0.17110858194103351 0 0.25030889548151403 -0.1837077448593728 0 0.24133419147104179 -0.17110858194103351 0 0.2363010186387848 -0.18586727398715949 0 0.25030889548151403 -0.1837077448593728 0 0.2363010186387848 -0.18586727398715949 0 0.24624710011957149 -0.19756578472926509 0 0.2363010186387848 -0.18586727398715949 0 0.24624710011957149 -0.19756578472926509 0 0.23232272155890341 -0.19906227567560569 0 0.24624710011957149 -0.19756578472926509 0 0.2390873575194972 -0.2119906927462733 0 0.23232272155890341 -0.19906227567560569 0 0.25806059678156651 -0.21160485628964759 0 0.24624710011957149 -0.19756578472926509 0 0.2390873575194972 -0.2119906927462733 0 0.25806059678156651 -0.21160485628964759 0 0.2390873575194972 -0.2119906927462733 0 0.2485278721491469 -0.22983386195931649 0 0.22156570902884701 -0.2081716276760221 0 0.2275965143199381 -0.22680811778712909 0 0.21130945108473639 -0.22000441216527869 0 0.2390873575194972 -0.2119906927462733 0 0.22156570902884701 -0.2081716276760221 0 0.23232272155890341 -0.19906227567560569 0 0.2390873575194972 -0.2119906927462733 0 0.22156570902884701 -0.2081716276760221 0 0.2275965143199381 -0.22680811778712909 0 0.22156570902884701 -0.2081716276760221 0 0.2213864998634191 -0.19074186604973761 0 0.23232272155890341 -0.19906227567560569 0 0.2363010186387848 -0.18586727398715949 0 0.2213864998634191 -0.19074186604973761 0 0.23232272155890341 -0.19906227567560569 0 0.2410490216361528 -0.25300372010805161 0 0.2485278721491469 -0.22983386195931649 0 0.2275965143199381 -0.22680811778712909 0 0.25787859859726192 -0.24372773219337371 0 0.2410490216361528 -0.25300372010805161 0 0.2485278721491469 -0.22983386195931649 0 0.2390873575194972 -0.2119906927462733 0 0.2485278721491469 -0.22983386195931649 0 0.2275965143199381 -0.22680811778712909 0 0.2410490216361528 -0.25300372010805161 0 0.2275965143199381 -0.22680811778712909 0 0.2136455624920251 -0.24586339942155419 0 0.2410490216361528 -0.25300372010805161 0 0.2136455624920251 -0.24586339942155419 0 0.2136455624920251 -0.24586339942155419 0 0.1995187067769538 -0.22648505830905971 0 0.1970165427207646 -0.2431475676051908 0 0.2275965143199381 -0.22680811778712909 0 0.2136455624920251 -0.24586339942155419 0 0.21130945108473639 -0.22000441216527869 0 0.2136455624920251 -0.24586339942155419 0 0.21130945108473639 -0.22000441216527869 0 0.1995187067769538 -0.22648505830905971 0 0.1995187067769538 -0.22648505830905971 0 0.1970165427207646 -0.2431475676051908 0 0.1843931124890181 -0.23269732176232691 0 0.21130945108473639 -0.22000441216527869 0 0.1995187067769538 -0.22648505830905971 0 0.19847161958806309 -0.21206345826637629 0 0.2064216300685435 -0.1763378775815001 0 0.2213864998634191 -0.19074186604973761 0 0.20705859430259141 -0.20063481153153051 0 0.22156570902884701 -0.2081716276760221 0 0.2213864998634191 -0.19074186604973761 0 0.20705859430259141 -0.20063481153153051 0 0.22156570902884701 -0.2081716276760221 0 0.21130945108473639 -0.22000441216527869 0 0.20705859430259141 -0.20063481153153051 0 0.21130945108473639 -0.22000441216527869 0 0.20705859430259141 -0.20063481153153051 0 0.19847161958806309 -0.21206345826637629 0 0.19847161958806309 -0.21206345826637629 0 0.19333004299069351 -0.19482382871724169 0 0.184507054165965 -0.21658659277756609 0 0.1995187067769538 -0.22648505830905971 0 0.19847161958806309 -0.21206345826637629 0 0.184507054165965 -0.21658659277756609 0 0.20705859430259141 -0.20063481153153051 0 0.19847161958806309 -0.21206345826637629 0 0.19333004299069351 -0.19482382871724169 0 0.2064216300685435 -0.1763378775815001 0 0.20705859430259141 -0.20063481153153051 0 0.19333004299069351 -0.19482382871724169 0 0.1776330785524223 -0.18942424135099509 0 0.184507054165965 -0.21658659277756609 0 0.16837846483810831 -0.20319749351435479 0 0.19333004299069351 -0.19482382871724169 0 0.1776330785524223 -0.18942424135099509 0 0.184507054165965 -0.21658659277756609 0 0.1776330785524223 -0.18942424135099509 0 0.184507054165965 -0.21658659277756609 0 0.184507054165965 -0.21658659277756609 0 0.1749867686249286 -0.21735889230250449 0 0.16837846483810831 -0.20319749351435479 0 0.1749867686249286 -0.21735889230250449 0 0.16837846483810831 -0.20319749351435479 0 0.15045483047290331 -0.2082327262959493 0 0.1749867686249286 -0.21735889230250449 0 0.15045483047290331 -0.2082327262959493 0 0.1749867686249286 -0.21735889230250449 0 0.16226861639455931 -0.22172210758959859 0 0.15045483047290331 -0.2082327262959493 0 0.16837846483810831 -0.20319749351435479 0 0.15045483047290331 -0.2082327262959493 0 0.15431059237432221 -0.18438501484475869 0 0.1776330785524223 -0.18942424135099509 0 0.16837846483810831 -0.20319749351435479 0 0.15431059237432221 -0.18438501484475869 0 0.1970165427207646 -0.2431475676051908 0 0.18013525364959199 -0.24590787480667409 0 0.1843931124890181 -0.23269732176232691 0 0.18013525364959199 -0.24590787480667409 0 0.1843931124890181 -0.23269732176232691 0 0.17030829067285161 -0.2305872157882054 0 0.1995187067769538 -0.22648505830905971 0 0.1749867686249286 -0.21735889230250449 0 0.1995187067769538 -0.22648505830905971 0 0.1749867686249286 -0.21735889230250449 0 0.1843931124890181 -0.23269732176232691 0 0.1995187067769538 -0.22648505830905971 0 0.184507054165965 -0.21658659277756609 0 0.1749867686249286 -0.21735889230250449 0 0.1749867686249286 -0.21735889230250449 0 0.1843931124890181 -0.23269732176232691 0 0.17030829067285161 -0.2305872157882054 0 0.16226861639455931 -0.22172210758959859 0 0.17030829067285161 -0.2305872157882054 0 0.15332457580755371 -0.23070959597173549 0 0.1749867686249286 -0.21735889230250449 0 0.16226861639455931 -0.22172210758959859 0 0.17030829067285161 -0.2305872157882054 0 0.16103468924722281 -0.25381861710109321 0 0.18013525364959199 -0.24590787480667409 0 0.17030829067285161 -0.2305872157882054 0 0.16103468924722281 -0.25381861710109321 0 0.17030829067285161 -0.2305872157882054 0 0.15332457580755371 -0.23070959597173549 0 0.16103468924722281 -0.25381861710109321 0 0.1412434604122122 -0.24631040783256791 0 0.15332457580755371 -0.23070959597173549 0 0.1412434604122122 -0.24631040783256791 0 0.15332457580755371 -0.23070959597173549 0 0.1284413173888232 -0.22347585252773641 0 0.15332457580755371 -0.23070959597173549 0 0.1284413173888232 -0.22347585252773641 0 0.15045483047290331 -0.2082327262959493 0 0.16226861639455931 -0.22172210758959859 0 0.15332457580755371 -0.23070959597173549 0 0.15045483047290331 -0.2082327262959493 0 0.1200034520355143 -0.24749468667538321 0 0.1412434604122122 -0.24631040783256791 0 0.1284413173888232 -0.22347585252773641 0 0.15045483047290331 -0.2082327262959493 0 0.12592289232087811 -0.19910656028939411 0 0.15431059237432221 -0.18438501484475869 0 0.15045483047290331 -0.2082327262959493 0 0.12592289232087811 -0.19910656028939411 0 0.1284413173888232 -0.22347585252773641 0 0.15045483047290331 -0.2082327262959493 0 0.12592289232087811 -0.19910656028939411 0 0.11404320040195411 -0.17785048998131209 0 0.12592289232087811 -0.19910656028939411 0 0.1362427207560932 -0.1734399905344442 0 0.12592289232087811 -0.19910656028939411 0 0.1362427207560932 -0.1734399905344442 0 0.15431059237432221 -0.18438501484475869 0 0.1362427207560932 -0.1734399905344442 0 0.15431059237432221 -0.18438501484475869 0 0.1498051255961938 -0.157092757972084 0 0.11404320040195411 -0.17785048998131209 0 0.1362427207560932 -0.1734399905344442 0 0.1305387904294309 -0.15561497697083931 0 0.1362427207560932 -0.1734399905344442 0 0.1498051255961938 -0.157092757972084 0 0.1305387904294309 -0.15561497697083931 0 0.1498051255961938 -0.157092757972084 0 0.1305387904294309 -0.15561497697083931 0 0.13638976604354719 -0.13495016646355951 0 0.1161887790728692 -0.1476769396888597 0 0.1305387904294309 -0.15561497697083931 0 0.13638976604354719 -0.13495016646355951 0 0.12800820934211829 -0.12401417466047961 0 0.13638976604354719 -0.13495016646355951 0 0.1486045981545247 -0.12747252536747111 0 0.13638976604354719 -0.13495016646355951 0 0.16388512732533739 -0.13509953849785281 0 0.13638976604354719 -0.13495016646355951 0 0.1486045981545247 -0.12747252536747111 0 0.16388512732533739 -0.13509953849785281 0 0.1498051255961938 -0.157092757972084 0 0.13638976604354719 -0.13495016646355951 0 0.16388512732533739 -0.13509953849785281 0 0.16388512732533739 -0.13509953849785281 0 0.17075910293887969 -0.16226188992442411 0 0.1498051255961938 -0.157092757972084 0 0.16388512732533739 -0.13509953849785281 0 0.17075910293887969 -0.16226188992442411 0 0.18014950107347269 -0.1188522098678762 0 0.16265603278097029 -0.1302428005884553 0 0.16388512732533739 -0.13509953849785281 0 0.16095359288685571 -0.1184472051676727 0 0.1486045981545247 -0.12747252536747111 0 0.16265603278097029 -0.1302428005884553 0 0.1486045981545247 -0.12747252536747111 0 0.16265603278097029 -0.1302428005884553 0 0.16388512732533739 -0.13509953849785281 0 0.16265603278097029 -0.1302428005884553 0 0.16388512732533739 -0.13509953849785281 0 0.19406318364410949 -0.13526348461287321 0 0.16388512732533739 -0.13509953849785281 0 0.18014950107347269 -0.1188522098678762 0 0.19406318364410949 -0.13526348461287321 0 0.18014950107347269 -0.1188522098678762 0 0.19406318364410949 -0.13526348461287321 0 0.16388512732533739 -0.13509953849785281 0 0.19019323353294471 -0.15547991582157239 0 0.16388512732533739 -0.13509953849785281 0 0.17075910293887969 -0.16226188992442411 0 0.19019323353294471 -0.15547991582157239 0 0.19406318364410949 -0.13526348461287321 0 0.16388512732533739 -0.13509953849785281 0 0.19019323353294471 -0.15547991582157239 0 0.185888281266576 -0.1738959907954824 0 0.17075910293887969 -0.16226188992442411 0 0.1776330785524223 -0.18942424135099509 0 0.185888281266576 -0.1738959907954824 0 0.17075910293887969 -0.16226188992442411 0 0.1776330785524223 -0.18942424135099509 0 0.17075910293887969 -0.16226188992442411 0 0.19333004299069351 -0.19482382871724169 0 0.1776330785524223 -0.18942424135099509 0 0.185888281266576 -0.1738959907954824 0 0.1776330785524223 -0.18942424135099509 0 0.15431059237432221 -0.18438501484475869 0 0.17075910293887969 -0.16226188992442411 0 0.15431059237432221 -0.18438501484475869 0 0.1498051255961938 -0.157092757972084 0 0.17075910293887969 -0.16226188992442411 0 
</DataArray>
</Points>
<Cells>
<DataArray type="UInt32" Name="connectivity" format="ascii">
0 1 2 3 4 5 6 7 8 9 10 11 12 13 14 15 16 17 18 19 20 21 22 23 24 25 26 27 28 29 30 31 32 33 34 35 36 37 38 39 40 41 42 43 44 45 46 47 48 49 50 51 52 53 54 55 56 57 58 59 60 61 62 63 64 65 66 67 68 69 70 71 72 73 74 75 76 77 78 79 80 81 82 83 84 85 86 87 88 89 90 91 92 93 94 95 96 97 98 99 100 101 102 103 104 105 106 107 108 109 110 111 112 113 114 115 116 117 118 119 120 121 122 123 124 125 126 127 128 129 130 131 132 133 134 135 136 137 138 139 140 141 142 143 144 145 146 147 148 149 150 151 152 153 154 155 156 157 158 159 160 161 162 163 164 165 166 167 168 169 170 171 172 173 174 175 176 177 178 179 180 181 182 183 184 185 186 187 188 189 190 191 192 193 194 195 196 197 198 199 200 201 202 203 204 205 206 207 208 209 210 211 212 213 214 215 216 217 218 219 220 221 222 223 224 225 226 227 228 229 230 231 232 233 234 235 236 237 238 239 240 241 242 243 244 245 246 247 248 249 250 251 252 253 254 255 256 257 258 259 260 261 262 263 264 265 266 267 268 269 270 271 272 273 274 275 276 277 278 279 280 281 282 283 284 285 286 287 288 289 290 291 292 293 294 295 296 297 298 299 300 301 302 303 304 305 306 307 308 309 310 311 312 313 314 315 316 317 318 319 320 321 322 323 324 325 326 327 328 329 330 331 332 333 334 335 336 337 338 339 340 341 342 343 344 345 346 347 348 349 350 351 352 353 354 355 356 357 358 359 360 361 362 363 364 365 366 367 368 369 370 371 372 373 374 375 376 377 378 379 380 381 382 383 384 385 386 387 388 389 390 391 392 393 394 395 396 397 398 399 400 401 402 403 404 405 406 407 408 409 410 411 412 413 414 415 416 417 418 419 420 421 422 423 424 425 426 427 428 429 430 431 432 433 434 435 436 437 438 439 440 441 442 443 444 445 446 447 448 449 450 451 452 453 454 455 456 457 458 459 460 461 462 463 464 465 466 467 468 469 470 471 472 473 474 475 476 477 478 479 480 481 482 483 484 485 486 487 488 489 490 491 492 493 494 495 496 497 498 499 500 501 502 503 504 505 506 507 508 509 510 511 512 513 514 515 516 517 518 519 520 521 522 523 524 525 526 527 528 529 530 531 532 533 534 535 536 537 538 539 540 541 542 543 544 545 546 547 548 549 550 551 552 553 554 555 556 557 558 559 560 561 562 563 564 565 566 567 568 569 570 571 572 573 574 575 576 577 578 579 580 581 582 583 584 585 586 587 588 589 590 591 592 593 594 595 596 597 598 599 600 601 602 603 604 605 606 607 608 609 610 611 612 613 614 615 616 617 618 619 620 621 622 623 624 625 626 627 628 629 630 631 632 633 634 635 636 637 638 639 640 641 642 643 644 645 646 647 648 649 650 651 652 653 654 655 656 657 658 659 660 661 662 663 664 665 666 667 668 669 670 671 672 673 674 675 676 677 678 679 680 681 682 683 684 685 686 687 688 689 690 691 692 693 694 695 696 697 698 699 700 701 702 703 704 705 706 707 708 709 710 711 712 713 714 715 716 717 718 719 720 721 722 723 724 725 726 727 728 729 730 731 732 733 734 735 736 737 738 739 740 741 742 743 744 745 746 747 748 749 750 751 752 753 754 755 756 757 758 759 760 761 762 763 764 765 766 767 768 769 770 771 772 773 774 775 776 777 778 779 780 781 782 783 784 785 786 787 788 789 790 791 792 793 794 795 796 797 798 799 800 801 802 803 804 805 806 807 808 809 810 811 812 813 814 815 816 817 818 819 820 821 822 823 824 825 826 827 828 829 830 831 832 833 834 835 836 837 838 839 840 841 842 843 844 845 846 847 848 849 850 851 852 853 854 855 856 857 858 859 860 861 862 863 864 865 866 867 868 869 870 871 872 873 874 875 876 877 878 879 880 881 882 883 884 885 886 887 888 889 890 891 892 893 894 895 896 897 898 899 900 901 902 903 904 905 906 907 908 909 910 911 912 913 914 915 916 917 918 919 920 921 922 923 924 925 926 927 928 929 930 931 932 933 934 935 936 937 938 939 940 941 942 943 944 945 946 947 948 949 950 951 952 953 954 955 956 957 958 959 960 961 962 963 964 965 966 967 968 969 970 971 972 973 974 975 976 977 978 979 980 981 982 983 984 985 986 987 988 989 990 991 992 993 994 995 996 997 998 999 1000 1001 1002 1003 1004 1005 1006 1007 1008 1009 1010 1011 1012 1013 1014 1015 1016 1017 1018 1019 1020 1021 1022 1023 1024 1025 1026 1027 1028 1029 1030 1031 1032 1033 1034 1035 1036 1037 1038 1039 1040 1041 1042 1043 1044 1045 1046 1047 1048 1049 1050 1051 1052 1053 1054 1055 1056 1057 1058 1059 1060 1061 1062 1063 1064 1065 1066 1067 1068 1069 1070 1071 1072 1073 1074 1075 1076 1077 1078 1079 1080 1081 1082 1083 1084 1085 1086 1087 1088 1089 1090 1091 1092 1093 1094 1095 1096 1097 1098 1099 1100 1101 1102 1103 1104 1105 1106 1107 1108 1109 1110 1111 1112 1113 1114 1115 1116 1117 1118 1119 1120 1121 1122 1123 1124 1125 1126 1127 1128 1129 1130 1131 1132 1133 1134 1135 1136 1137 1138 1139 1140 1141 1142 1143 1144 1145 1146 1147 1148 1149 1150 1151 1152 1153 1154 1155 1156 1157 1158 1159 1160 1161 1162 1163 1164 1165 1166 1167 1168 1169 1170 1171 1172 1173 1174 1175 1176 1177 1178 1179 1180 1181 1182 1183 1184 1185 1186 1187 1188 1189 1190 1191 1192 1193 1194 1195 1196 1197 1198 1199 1200 1201 1202 1203 1204 1205 1206 1207 1208 1209 1210 1211 1212 1213 1214 1215 1216 1217 1218 1219 1220 1221 1222 1223 1224 1225 1226 1227 1228 1229 1230 1231 1232 1233 1234 1235 1236 1237 1238 1239 1240 1241 1242 1243 1244 1245 1246 1247 1248 1249 1250 1251 1252 1253 1254 1255 1256 1257 1258 1259 1260 1261 1262 1263 1264 1265 1266 1267 1268 1269 1270 1271 1272 1273 1274 1275 1276 1277 1278 1279 1280 1281 1282 1283 1284 1285 1286 1287 1288 1289 1290 1291 1292 1293 1294 1295 1296 1297 1298 1299 1300 1301 1302 1303 1304 1305 1306 1307 1308 1309 1310 1311 1312 1313 1314 1315 1316 1317 1318 1319 1320 1321 1322 1323 1324 1325 1326 1327 1328 1329 1330 1331 1332 1333 1334 1335 1336 1337 1338 1339 1340 1341 1342 1343 1344 1345 1346 1347 1348 1349 1350 1351 1352 1353 1354 1355 1356 1357 1358 1359 1360 1361 1362 1363 1364 1365 1366 1367 1368 1369 1370 1371 1372 1373 1374 1375 1376 1377 1378 1379 1380 1381 1382 1383 1384 1385 1386 1387 1388 1389 1390 1391 1392 1393 1394 1395 1396 1397 1398 1399 1400 1401 1402 1403 1404 1405 1406 1407 1408 1409 1410 1411 1412 1413 1414 1415 1416 1417 1418 1419 1420 1421 1422 1423 1424 1425 1426 1427 1428 1429 1430 1431 1432 1433 1434 1435 1436 1437 1438 1439 1440 1441 1442 1443 1444 1445 1446 1447 1448 1449 1450 1451 1452 1453 1454 1455 1456 1457 1458 1459 1460 1461 1462 1463 1464 1465 1466 1467 1468 1469 1470 1471 1472 1473 1474 1475 1476 1477 1478 1479 1480 1481 1482 1483 1484 1485 1486 1487 1488 1489 1490 1491 1492 1493 1494 1495 1496 1497 1498 1499 1500 1501 1502 1503 1504 1505 1506 1507 1508 1509 1510 1511 1512 1513 1514 1515 1516 1517 1518 1519 1520 1521 1522 1523 1524 1525 1526 1527 1528 1529 1530 1531 1532 1533 1534 1535 1536 1537 1538 1539 1540 1541 1542 1543 1544 1545 1546 1547 1548 1549 1550 1551 1552 1553 1554 1555 1556 1557 1558 1559 1560 1561 1562 1563 1564 1565 1566 1567 1568 1569 1570 1571 1572 1573 1574 1575 1576 1577 1578 1579 1580 1581 1582 1583 1584 1585 1586 1587 1588 1589 1590 1591 1592 1593 1594 1595 1596 1597 1598 1599 1600 1601 1602 1603 1604 1605 1606 1607 1608 1609 1610 1611 1612 1613 1614 1615 1616 1617 1618 1619 1620 1621 1622 1623 1624 1625 1626 1627 1628 1629 1630 1631 1632 1633 1634 1635 1636 1637 1638 1639 1640 1641 1642 1643 1644 1645 1646 1647 1648 1649 1650 1651 1652 1653 1654 1655 1656 1657 1658 1659 1660 1661 1662 1663 1664 1665 1666 1667 1668 1669 1670 1671 1672 1673 1674 1675 1676 1677 1678 1679 1680 1681 1682 1683 1684 1685 1686 1687 1688 1689 1690 1691 1692 1693 1694 1695 1696 1697 1698 1699 1700 1701 1702 1703 1704 1705 1706 1707 1708 1709 1710 1711 1712 1713 1714 1715 1716 1717 1718 1719 1720 1721 1722 1723 1724 1725 1726 1727 1728 1729 1730 1731 1732 1733 1734 1735 1736 1737 1738 1739 1740 1741 1742 1743 1744 1745 1746 1747 1748 1749 1750 1751 1752 1753 1754 1755 1756 1757 1758 1759 1760 1761 1762 1763 1764 1765 1766 1767 1768 1769 1770 1771 1772 1773 1774 1775 1776 1777 1778 1779 1780 1781 1782 1783 1784 1785 1786 1787 1788 1789 1790 1791 1792 1793 1794 1795 1796 1797 1798 1799 1800 1801 1802 1803 1804 1805 1806 1807 1808 1809 1810 1811 1812 1813 1814 1815 1816 1817 1818 1819 1820 1821 1822 1823 1824 1825 1826 1827 1828 1829 1830 1831 1832 1833 1834 1835 1836 1837 1838 1839 1840 1841 1842 1843 1844 1845 1846 1847 1848 1849 1850 1851 1852 1853 1854 1855 1856 1857 1858 1859 1860 1861 1862 1863 1864 1865 1866 1867 1868 1869 1870 1871 1872 1873 1874 1875 1876 1877 1878 1879 1880 1881 1882 1883 1884 1885 1886 1887 1888 1889 1890 1891 1892 1893 1894 1895 1896 1897 1898 1899 1900 1901 1902 1903 1904 1905 1906 1907 1908 1909 1910 1911 1912 1913 1914 1915 1916 1917 1918 1919 1920 1921 1922 1923 1924 1925 1926 1927 1928 1929 1930 1931 1932 1933 1934 1935 1936 1937 1938 1939 1940 1941 1942 1943 1944 1945 1946 1947 1948 1949 1950 1951 1952 1953 1954 1955 1956 1957 1958 1959 1960 1961 1962 1963 1964 1965 1966 1967 1968 1969 1970 1971 1972 1973 1974 1975 1976 1977 1978 1979 1980 1981 1982 1983 1984 1985 1986 1987 1988 1989 1990 1991 1992 1993 1994 1995 1996 1997 1998 1999 2000 2001 2002 2003 2004 2005 2006 2007 2008 2009 2010 2011 2012 2013 2014 2015 2016 2017 2018 2019 2020 2021 2022 2023 2024 2025 2026 2027 2028 2029 2030 2031 2032 2033 2034 2035 2036 2037 2038 2039 2040 2041 2042 2043 2044 2045 2046 2047 2048 2049 2050 2051 2052 2053 2054 2055 2056 2057 2058 2059 2060 2061 2062 2063 2064 2065 2066 2067 2068 2069 2070 2071 2072 2073 2074 2075 2076 2077 2078 2079 2080 2081 2082 2083 2084 2085 2086 2087 2088 2089 2090 2091 2092 2093 2094 2095 2096 2097 2098 2099 2100 2101 2102 2103 2104 2105 2106 2107 2108 2109 2110 2111 2112 2113 2114 2115 2116 2117 2118 2119 2120 2121 2122 2123 2124 2125 2126 2127 2128 2129 2130 2131 2132 2133 2134 2135 2136 2137 2138 2139 2140 2141 2142 2143 2144 2145 2146 2147 2148 2149 2150 2151 2152 2153 2154 2155 2156 2157 2158 2159 2160 2161 2162 2163 2164 2165 2166 2167 2168 2169 2170 2171 2172 2173 2174 2175 2176 2177 2178 2179 2180 2181 2182 2183 2184 2185 2186 2187 2188 2189 2190 2191 2192 2193 2194 2195 2196 2197 2198 2199 2200 2201 2202 2203 2204 2205 2206 2207 2208 2209 2210 2211 2212 2213 2214 2215 2216 2217 2218 2219 2220 2221 2222 2223 2224 2225 2226 2227 2228 2229 2230 2231 2232 2233 2234 2235 2236 2237 2238 2239 2240 2241 2242 2243 2244 2245 2246 2247 2248 2249 2250 2251 2252 2253 2254 2255 2256 2257 2258 2259 2260 2261 2262 2263 2264 2265 2266 2267 2268 2269 2270 2271 2272 2273 2274 2275 2276 2277 2278 2279 2280 2281 2282 2283 2284 2285 2286 2287 2288 2289 2290 2291 2292 2293 2294 2295 2296 2297 2298 2299 2300 2301 2302 2303 2304 2305 2306 2307 2308 2309 2310 2311 2312 2313 2314 2315 2316 2317 2318 2319 2320 2321 2322 2323 2324 2325 2326 2327 2328 2329 2330 2331 2332 2333 2334 2335 2336 2337 2338 2339 2340 2341 2342 2343 2344 2345 2346 2347 2348 2349 2350 2351 2352 2353 2354 2355 2356 2357 2358 2359 2360 2361 2362 2363 2364 2365 2366 2367 2368 2369 2370 2371 2372 2373 2374 2375 2376 2377 2378 2379 2380 2381 2382 2383 2384 2385 2386 2387 2388 2389 2390 2391 2392 2393 2394 2395 2396 2397 2398 2399 2400 2401 2402 2403 2404 2405 2406 2407 2408 2409 2410 2411 2412 2413 2414 2415 2416 2417 2418 2419 2420 2421 2422 2423 2424 2425 2426 2427 2428 2429 2430 2431 2432 2433 2434 2435 2436 2437 2438 2439 2440 2441 2442 2443 2444 2445 2446 2447 2448 2449 2450 2451 2452 2453 2454 2455 2456 2457 2458 2459 2460 2461 2462 2463 2464 2465 2466 2467 2468 2469 2470 2471 2472 2473 2474 2475 2476 2477 2478 2479 2480 2481 2482 2483 2484 2485 2486 2487 2488 2489 2490 2491 2492 2493 2494 2495 2496 2497 2498 2499 2500 2501 2502 2503 2504 2505 2506 2507 2508 2509 2510 2511 2512 2513 2514 2515 2516 2517 2518 2519 2520 2521 2522 2523 2524 2525 2526 2527 2528 2529 2530 2531 2532 2533 2534 2535 2536 2537 2538 2539 2540 2541 2542 2543 2544 2545 2546 2547 2548 2549 2550 2551 2552 2553 2554 2555 2556 2557 2558 2559 2560 2561 2562 2563 2564 2565 2566 2567 2568 2569 2570 2571 2572 2573 2574 2575 2576 2577 2578 2579 2580 2581 2582 2583 2584 2585 2586 2587 2588 2589 2590 2591 2592 2593 2594 2595 2596 2597 2598 2599 2600 2601 2602 2603 2604 2605 2606 2607 2608 2609 2610 2611 2612 2613 2614 2615 2616 2617 2618 2619 2620 2621 2622 2623 2624 2625 2626 2627 2628 2629 2630 2631 2632 2633 2634 2635 2636 2637 2638 2639 2640 2641 2642 2643 2644 2645 2646 2647 2648 2649 2650 2651 2652 2653 2654 2655 2656 2657 2658 2659 2660 2661 2662 2663 2664 2665 2666 2667 2668 2669 2670 2671 2672 2673 2674 2675 2676 2677 2678 2679 2680 2681 2682 2683 2684 2685 2686 2687 2688 2689 2690 2691 2692 2693 2694 2695 2696 2697 2698 2699 2700 2701 2702 2703 2704 2705 2706 2707 2708 2709 2710 2711 2712 2713 2714 2715 2716 2717 2718 2719 2720 2721 2722 2723 2724 2725 2726 2727 2728 2729 2730 2731 2732 2733 2734 2735 2736 2737 2738 2739 2740 2741 2742 2743 2744 2745 2746 2747 2748 2749 2750 2751 2752 2753 2754 2755 2756 2757 2758 2759 2760 2761 2762 2763 2764 2765 2766 2767 2768 2769 2770 2771 2772 2773 2774 2775 2776 2777 2778 2779 2780 2781 2782 2783 2784 2785 2786 2787 2788 2789 2790 2791 2792 2793 2794 2795 2796 2797 2798 2799 2800 2801 2802 2803 2804 2805 2806 2807 2808 2809 2810 2811 2812 2813 2814 2815 2816 2817 2818 2819 2820 2821 2822 2823 2824 2825 2826 2827 2828 2829 2830 2831 2832 2833 2834 2835 2836 2837 2838 2839 2840 2841 2842 2843 2844 2845 2846 2847 2848 2849 2850 2851 2852 2853 2854 2855 2856 2857 2858 2859 2860 2861 2862 2863 2864 2865 2866 2867 2868 2869 2870 2871 2872 2873 2874 2875 2876 2877 2878 2879 2880 2881 2882 2883 2884 2885 2886 2887 2888 2889 2890 2891 2892 2893 2894 2895 2896 2897 2898 2899 2900 2901 2902 2903 2904 2905 2906 2907 2908 2909 2910 2911 2912 2913 2914 2915 2916 2917 2918 2919 2920 2921 2922 2923 2924 2925 2926 2927 2928 2929 2930 2931 2932 2933 2934 2935 2936 2937 2938 2939 2940 2941 2942 2943 2944 2945 2946 2947 2948 2949 2950 2951 2952 2953 2954 2955 2956 2957 2958 2959 2960 2961 2962 2963 2964 2965 2966 2967 2968 2969 2970 2971 2972 2973 2974 2975 2976 2977 2978 2979 2980 2981 2982 2983 2984 2985 2986 2987 2988 2989 2990 2991 2992 2993 2994 2995 2996 2997 2998 2999 3000 3001 3002 3003 3004 3005 3006 3007 3008 3009 3010 3011 3012 3013 3014 3015 3016 3017 3018 3019 3020 3021 3022 3023 3024 3025 3026 3027 3028 3029 3030 3031 3032 3033 3034 3035 3036 3037 3038 3039 3040 3041 3042 3043 3044 3045 3046 3047 3048 3049 3050 3051 3052 3053 3054 3055 3056 3057 3058 3059 3060 3061 3062 3063 3064 3065 3066 3067 3068 3069 3070 3071 3072 3073 3074 3075 3076 3077 3078 3079 3080 3081 3082 3083 3084 3085 3086 3087 3088 3089 3090 3091 3092 3093 3094 3095 3096 3097 3098 3099 3100 3101 3102 3103 3104 3105 3106 3107 3108 3109 3110 3111 3112 3113 3114 3115 3116 3117 3118 3119 3120 3121 3122 3123 3124 3125 3126 3127 3128 3129 3130 3131 3132 3133 3134 3135 3136 3137 3138 3139 3140 3141 3142 3143 3144 3145 3146 3147 3148 3149 3150 3151 3152 3153 3154 3155 3156 3157 3158 3159 3160 3161 3162 3163 3164 3165 3166 3167 3168 3169 3170 3171 3172 3173 3174 3175 3176 3177 3178 3179 3180 3181 3182 3183 3184 3185 3186 3187 3188 3189 3190 3191 3192 3193 3194 3195 3196 3197 3198 3199 3200 3201 3202 3203 3204 3205 3206 3207 3208 3209 3210 3211 3212 3213 3214 3215 3216 3217 3218 3219 3220 3221 3222 3223 3224 3225 3226 3227 3228 3229 3230 3231 3232 3233 3234 3235 3236 3237 3238 3239 3240 3241 3242 3243 3244 3245 3246 3247 3248 3249 3250 3251 3252 3253 3254 3255 3256 3257 3258 3259 3260 3261 3262 3263 3264 3265 3266 3267 3268 3269 3270 3271 3272 3273 3274 3275 3276 3277 3278 3279 3280 3281 3282 3283 3284 3285 3286 3287 3288 3289 3290 3291 3292 3293 3294 3295 3296 3297 3298 3299 3300 3301 3302 3303 3304 3305 3306 3307 3308 3309 3310 3311 3312 3313 3314 3315 3316 3317 3318 3319 3320 3321 3322 3323 3324 3325 3326 3327 3328 3329 3330 3331 3332 3333 3334 3335 3336 3337 3338 3339 3340 3341 3342 3343 3344 3345 3346 3347 3348 3349 3350 3351 3352 3353 3354 3355 3356 3357 3358 3359 3360 3361 3362 3363 3364 3365 3366 3367 3368 3369 3370 3371 3372 3373 3374 3375 3376 3377 3378 3379 3380 3381 3382 3383 3384 3385 3386 3387 3388 3389 3390 3391 3392 3393 3394 3395 3396 3397 3398 3399 3400 3401 3402 3403 3404 3405 3406 3407 3408 3409 3410 3411 3412 3413 3414 3415 3416 3417 3418 3419 3420 3421 3422 3423 3424 3425 3426 3427 3428 3429 3430 3431 3432 3433 3434 3435 3436 3437 3438 3439 3440 3441 3442 3443 3444 3445 3446 3447 3448 3449 3450 3451 3452 3453 3454 3455 3456 3457 3458 3459 3460 3461 3462 3463 3464 3465 3466 3467 3468 3469 3470 3471 3472 3473 3474 3475 3476 3477 3478 3479 3480 3481 3482 3483 3484 3485 3486 3487 3488 3489 3490 3491 3492 3493 3494 3495 3496 3497 3498 3499 3500 3501 3502 3503 3504 3505 3506 3507 3508 3509 3510 3511 3512 3513 3514 3515 3516 3517 3518 3519 3520 3521 3522 3523 3524 3525 3526 3527 3528 3529 3530 3531 3532 3533 3534 3535 3536 3537 3538 3539 3540 3541 3542 3543 3544 3545 3546 3547 3548 3549 3550 3551 3552 3553 3554 3555 3556 3557 3558 3559 3560 3561 3562 3563 3564 3565 3566 3567 3568 3569 3570 3571 3572 3573 3574 3575 3576 3577 3578 3579 3580 3581 3582 3583 3584 3585 3586 3587 3588 3589 3590 3591 3592 3593 3594 3595 3596 3597 3598 3599 3600 3601 3602 3603 3604 3605 3606 3607 3608 3609 3610 3611 3612 3613 3614 3615 3616 3617 3618 3619 3620 3621 3622 3623 3624 3625 3626 3627 3628 3629 3630 3631 3632 3633 3634 3635 3636 3637 3638 3639 3640 3641 3642 3643 3644 3645 3646 3647 3648 3649 3650 3651 3652 3653 3654 3655 3656 3657 3658 3659 3660 3661 3662 3663 3664 3665 3666 3667 3668 3669 3670 3671 3672 3673 3674 3675 3676 3677 3678 3679 3680 3681 3682 3683 3684 3685 3686 3687 3688 3689 3690 3691 3692 3693 3694 3695 3696 3697 3698 3699 3700 3701 3702 3703 3704 3705 3706 3707 3708 3709 3710 3711 3712 3713 3714 3715 3716 3717 3718 3719 3720 3721 3722 3723 3724 3725 3726 3727 3728 3729 3730 3731 3732 3733 3734 3735 3736 3737 3738 3739 3740 3741 3742 3743 3744 3745 3746 3747 3748 3749 3750 3751 3752 3753 3754 3755 3756 3757 3758 3759 3760 3761 3762 3763 3764 3765 3766 3767 3768 3769 3770 3771 3772 3773 3774 3775 3776 3777 3778 3779 3780 3781 3782 3783 3784 3785 3786 3787 3788 3789 3790 3791 3792 3793 3794 3795 3796 3797 3798 3799 3800 3801 3802 3803 3804 3805 3806 3807 3808 3809 3810 3811 3812 3813 3814 3815 3816 3817 3818 3819 3820 3821 3822 3823 3824 3825 3826 3827 3828 3829 3830 3831 3832 3833 3834 3835 3836 3837 3838 3839 3840 3841 3842 3843 3844 3845 3846 3847 3848 3849 3850 3851 3852 3853 3854 3855 3856 3857 3858 3859 3860 3861 3862 3863 3864 3865 3866 3867 3868 3869 3870 3871 3872 3873 3874 3875 3876 3877 3878 3879 3880 3881 3882 3883 3884 3885 3886 3887 3888 3889 3890 3891 3892 3893 3894 3895 3896 3897 3898 3899 3900 3901 3902 3903 3904 3905 3906 3907 3908 3909 3910 3911 3912 3913 3914 3915 3916 3917 3918 3919 3920 3921 3922 3923 3924 3925 3926 3927 3928 3929 3930 3931 3932 3933 3934 3935 3936 3937 3938 3939 3940 3941 3942 3943 3944 3945 3946 3947 3948 3949 3950 3951 3952 3953 3954 3955 3956 3957 3958 3959 3960 3961 3962 3963 3964 3965 3966 3967 3968 3969 3970 3971 3972 3973 3974 3975 3976 3977 3978 3979 3980 3981 3982 3983 3984 3985 3986 3987 3988 3989 3990 3991 3992 3993 3994 3995 3996 3997 3998 3999 4000 4001 4002 4003 4004 4005 4006 4007 4008 4009 4010 4011 4012 4013 4014 4015 4016 4017 4018 4019 4020 4021 4022 4023 4024 4025 4026 4027 4028 4029 4030 4031 4032 4033 4034 4035 4036 4037 4038 4039 4040 4041 4042 4043 4044 4045 4046 4047 4048 4049 4050 4051 4052 4053 4054 4055 4056 4057 4058 4059 4060 4061 4062 4063 4064 4065 4066 4067 4068 4069 4070 4071 4072 4073 4074 4075 4076 4077 4078 4079 4080 4081 4082 4083 4084 4085 4086 4087 4088 4089 4090 4091 4092 4093 4094 4095 4096 4097 4098 4099 4100 4101 4102 4103 4104 4105 4106 4107 4108 4109 4110 4111 4112 4113 4114 4115 4116 4117 4118 4119 4120 4121 4122 4123 4124 4125 4126 4127 4128 4129 4130 4131 4132 4133 4134 4135 4136 4137 4138 4139 4140 4141 4142 4143 4144 4145 4146 4147 4148 4149 4150 4151 4152 4153 4154 4155 4156 4157 4158 4159 4160 4161 4162 4163 4164 4165 4166 4167 4168 4169 4170 4171 4172 4173 4174 4175 4176 4177 4178 4179 4180 4181 4182 4183 4184 4185 4186 4187 4188 4189 4190 4191 4192 4193 4194 4195 4196 4197 4198 4199 4200 4201 4202 4203 4204 4205 4206 4207 4208 4209 4210 4211 4212 4213 4214 4215 4216 4217 4218 4219 4220 4221 4222 4223 4224 4225 4226 4227 4228 4229 4230 4231 4232 4233 4234 4235 4236 4237 4238 4239 4240 4241 4242 4243 4244 4245 4246 4247 4248 4249 4250 4251 4252 4253 4254 4255 4256 4257 4258 4259 4260 4261 4262 4263 4264 4265 4266 4267 4268 4269 4270 4271 4272 4273 4274 4275 4276 4277 4278 4279 4280 4281 4282 4283 4284 4285 4286 4287 4288 4289 4290 4291 4292 4293 4294 4295 4296 4297 4298 4299 4300 4301 4302 4303 4304 4305 4306 4307 4308 4309 4310 4311 4312 4313 4314 4315 4316 4317 4318 4319 4320 4321 4322 4323 4324 4325 4326 4327 4328 4329 4330 4331 4332 4333 4334 4335 4336 4337 4338 4339 4340 4341 4342 4343 4344 4345 4346 4347 4348 4349 4350 4351 4352 4353 4354 4355 4356 4357 4358 4359 4360 4361 4362 4363 4364 4365 4366 4367 4368 4369 4370 4371 4372 4373 4374 4375 4376 4377 4378 4379 4380 4381 4382 4383 4384 4385 4386 4387 4388 4389 4390 4391 4392 4393 4394 4395 4396 4397 4398 4399 4400 4401 4402 4403 4404 4405 4406 4407 4408 4409 4410 4411 4412 4413 4414 4415 4416 4417 4418 4419 4420 4421 4422 4423 4424 4425 4426 4427 4428 4429 4430 4431 4432 4433 4434 4435 4436 4437 4438 4439 4440 4441 4442 4443 4444 4445 4446 4447 4448 4449 4450 4451 4452 4453 4454 4455 4456 4457 4458 4459 4460 4461 4462 4463 4464 4465 4466 4467 4468 4469 4470 4471 4472 4473 4474 4475 4476 4477 4478 4479 4480 4481 4482 4483 4484 4485 4486 4487 4488 4489 4490 4491 4492 4493 4494 4495 4496 4497 4498 4499 4500 4501 4502 4503 4504 4505 4506 4507 4508 4509 4510 4511 4512 4513 4514 4515 4516 4517 4518 4519 4520 4521 4522 4523 4524 4525 4526 4527 4528 4529 4530 4531 4532 4533 4534 4535 4536 4537 4538 4539 4540 4541 4542 4543 4544 4545 4546 4547 4548 4549 4550 4551 4552 4553 4554 4555 4556 4557 4558 4559 4560 4561 4562 4563 4564 4565 4566 4567 4568 4569 4570 4571 4572 4573 4574 4575 4576 4577 4578 4579 4580 4581 4582 4583 4584 4585 4586 4587 4588 4589 4590 4591 4592 4593 4594 4595 4596 4597 4598 4599 4600 4601 4602 4603 4604 4605 4606 4607 4608 4609 4610 4611 4612 4613 4614 4615 4616 4617 4618 4619 4620 4621 4622 4623 4624 4625 4626 4627 4628 4629 4630 4631 4632 4633 4634 4635 4636 4637 4638 4639 4640 4641 4642 4643 4644 4645 4646 4647 4648 4649 4650 4651 4652 4653 4654 4655 4656 4657 4658 4659 4660 4661 4662 4663 4664 4665 4666 4667 4668 4669 4670 4671 4672 4673 4674 4675 4676 4677 4678 4679 4680 4681 4682 4683 4684 4685 4686 4687 4688 4689 4690 4691 4692 4693 4694 4695 4696 4697 4698 4699 4700 4701 4702 4703 4704 4705 4706 4707 4708 4709 4710 4711 4712 4713 4714 4715 4716 4717 4718 4719 4720 4721 4722 4723 4724 4725 4726 4727 4728 4729 4730 4731 4732 4733 4734 4735 4736 4737 4738 4739 4740 4741 4742 4743 4744 4745 4746 4747 4748 4749 4750 4751 4752 4753 4754 4755 4756 4757 4758 4759 4760 4761 4762 4763 4764 4765 4766 4767 4768 4769 4770 4771 4772 4773 4774 4775 4776 4777 4778 4779 4780 4781 4782 4783 4784 4785 4786 4787 4788 4789 4790 4791 4792 4793 4794 4795 4796 4797 4798 4799 4800 4801 4802 4803 4804 4805 4806 4807 4808 4809 4810 4811 4812 4813 4814 4815 4816 4817 4818 4819 4820 4821 4822 4823 4824 4825 4826 4827 4828 4829 4830 4831 4832 4833 4834 4835 4836 4837 4838 4839 4840 4841 4842 4843 4844 4845 4846 4847 4848 4849 4850 4851 4852 4853 4854 4855 4856 4857 4858 4859 4860 4861 4862 4863 4864 4865 4866 4867 4868 4869 4870 4871 4872 4873 4874 4875 4876 4877 4878 4879 4880 4881 4882 4883 4884 4885 4886 4887 4888 4889 4890 4891 4892 4893 4894 4895 4896 4897 4898 4899 4900 4901 4902 4903 4904 4905 4906 4907 4908 4909 4910 4911 4912 4913 4914 4915 4916 4917 4918 4919 4920 4921 4922 4923 4924 4925 4926 4927 4928 4929 4930 4931 4932 4933 4934 4935 4936 4937 4938 4939 4940 4941 4942 4943 4944 4945 4946 4947 4948 4949 4950 4951 4952 4953 4954 4955 4956 4957 4958 4959 4960 4961 4962 4963 4964 4965 4966 4967 4968 4969 4970 4971 4972 4973 4974 4975 4976 4977 4978 4979 4980 4981 4982 4983 4984 4985 4986 4987 4988 4989 4990 4991 4992 4993 4994 4995 4996 4997 4998 4999 5000 5001 5002 5003 5004 5005 5006 5007 5008 5009 5010 5011 5012 5013 5014 5015 5016 5017 5018 5019 5020 5021 5022 5023 5024 5025 5026 5027 5028 5029 5030 5031 5032 5033 5034 5035 5036 5037 5038 5039 5040 5041 5042 5043 5044 5045 5046 5047 5048 5049 5050 5051 5052 5053 5054 5055 5056 5057 5058 5059 5060 5061 5062 5063 5064 5065 5066 5067 5068 5069 5070 5071 5072 5073 5074 5075 5076 5077 5078 5079 5080 5081 5082 5083 5084 5085 5086 5087 5088 5089 5090 5091 5092 5093 5094 5095 5096 5097 5098 5099 5100 5101 5102 5103 5104 5105 5106 5107 5108 5109 5110 5111 5112 5113 5114 5115 5116 5117 5118 5119 5120 5121 5122 5123 5124 5125 5126 5127 5128 5129 5130 5131 5132 5133 5134 5135 5136 5137 5138 5139 5140 5141 5142 5143 5144 5145 5146 5147 5148 5149 5150 5151 5152 5153 5154 5155 5156 5157 5158 5159 5160 5161 5162 5163 5164 5165 5166 5167 5168 5169 5170 5171 5172 5173 5174 5175 5176 5177 5178 5179 5180 5181 5182 5183 5184 5185 5186 5187 5188 5189 5190 5191 5192 5193 5194 5195 5196 5197 5198 5199 5200 5201 5202 5203 5204 5205 5206 5207 5208 5209 5210 5211 5212 5213 5214 5215 5216 5217 5218 5219 5220 5221 5222 5223 5224 5225 5226 5227 5228 5229 5230 5231 5232 5233 5234 5235 5236 5237 5238 5239 5240 5241 5242 5243 5244 5245 5246 5247 5248 5249 5250 5251 5252 5253 5254 5255 5256 5257 5258 5259 5260 5261 5262 5263 5264 5265 5266 5267 5268 5269 5270 5271 5272 5273 5274 5275 5276 5277 5278 5279 5280 5281 5282 5283 5284 5285 5286 5287 5288 5289 5290 5291 5292 5293 5294 5295 5296 5297 5298 5299 5300 5301 5302 5303 5304 5305 5306 5307 5308 5309 5310 5311 5312 5313 5314 5315 5316 5317 5318 5319 5320 5321 5322 5323 5324 5325 5326 5327 5328 5329 5330 5331 5332 5333 5334 5335 5336 5337 5338 5339 5340 5341 5342 5343 5344 5345 5346 5347 5348 5349 5350 5351 5352 5353 5354 5355 5356 5357 5358 5359 5360 5361 5362 5363 5364 5365 5366 5367 5368 5369 5370 5371 5372 5373 5374 5375 5376 5377 5378 5379 5380 5381 5382 5383 5384 5385 5386 5387 5388 5389 5390 5391 5392 5393 5394 5395 5396 5397 5398 5399 5400 5401 5402 5403 5404 5405 5406 5407 5408 5409 5410 5411 5412 5413 5414 5415 5416 5417 5418 5419 5420 5421 5422 5423 5424 5425 5426 5427 5428 5429 5430 5431 5432 5433 5434 5435 5436 5437 5438 5439 5440 5441 5442 5443 5444 5445 5446 5447 5448 5449 5450 5451 5452 5453 5454 5455 5456 5457 5458 5459 5460 5461 5462 5463 5464 5465 5466 5467 5468 5469 5470 5471 5472 5473 5474 5475 5476 5477 5478 5479 5480 5481 5482 5483 5484 5485 5486 5487 5488 5489 5490 5491 5492 5493 5494 5495 5496 5497 5498 5499 5500 5501 5502 5503 5504 5505 5506 5507 5508 5509 5510 5511 5512 5513 5514 5515 5516 5517 5518 5519 5520 5521 5522 5523 5524 5525 5526 5527 5528 5529 5530 5531 5532 5533 5534 5535 5536 5537 5538 5539 5540 5541 5542 5543 5544 5545 5546 5547 5548 5549 5550 5551 5552 5553 5554 5555 5556 5557 5558 5559 5560 5561 5562 5563 5564 5565 5566 5567 5568 5569 5570 5571 5572 5573 5574 5575 5576 5577 5578 5579 5580 5581 5582 5583 5584 5585 5586 5587 5588 5589 5590 5591 5592 5593 5594 5595 5596 5597 5598 5599 5600 5601 5602 5603 5604 5605 5606 5607 5608 5609 5610 5611 5612 5613 5614 5615 5616 5617 5618 5619 5620 5621 5622 5623 5624 5625 5626 5627 5628 5629 5630 5631 5632 5633 5634 5635 5636 5637 5638 5639 5640 5641 5642 5643 5644 5645 5646 5647 5648 5649 5650 5651 5652 5653 5654 5655 5656 5657 5658 5659 5660 5661 5662 5663 5664 5665 5666 5667 5668 5669 5670 5671 5672 5673 5674 5675 5676 5677 5678 5679 5680 5681 5682 5683 5684 5685 5686 5687 5688 5689 5690 5691 5692 5693 5694 5695 5696 5697 5698 5699 5700 5701 5702 5703 5704 5705 5706 5707 5708 5709 5710 5711 5712 5713 5714 5715 5716 5717 5718 5719 5720 5721 5722 5723 5724 5725 5726 5727 5728 5729 5730 5731 5732 5733 5734 5735 5736 5737 5738 5739 5740 5741 5742 5743 5744 5745 5746 5747 5748 5749 5750 5751 5752 5753 5754 5755 5756 5757 5758 5759 5760 5761 5762 5763 5764 5765 5766 5767 5768 5769 5770 5771 5772 5773 5774 5775 5776 5777 5778 5779 5780 5781 5782 5783 5784 5785 5786 5787 5788 5789 5790 5791 5792 5793 5794 5795 5796 5797 5798 5799 5800 5801 5802 5803 5804 5805 5806 5807 5808 5809 5810 5811 5812 5813 5814 5815 5816 5817 5818 5819 5820 5821 5822 5823 5824 5825 5826 5827 5828 5829 5830 5831 5832 5833 5834 5835 5836 5837 5838 5839 5840 5841 5842 5843 5844 5845 5846 5847 5848 5849 5850 5851 5852 5853 5854 5855 5856 5857 5858 5859 5860 5861 5862 5863 5864 5865 5866 5867 5868 5869 5870 5871 5872 5873 5874 5875 5876 5877 5878 5879 5880 5881 5882 5883 5884 5885 5886 5887 5888 5889 5890 5891 5892 5893 5894 5895 5896 5897 5898 5899 5900 5901 5902 5903 5904 5905 5906 5907 5908 5909 5910 5911 5912 5913 5914 5915 5916 5917 5918 5919 5920 5921 5922 5923 5924 5925 5926 5927 5928 5929 5930 5931 5932 5933 5934 5935 5936 5937 5938 5939 5940 5941 5942 5943 5944 5945 5946 5947 5948 5949 5950 5951 5952 5953 5954 5955 5956 5957 5958 5959 5960 5961 5962 5963 5964 5965 5966 5967 5968 5969 5970 5971 5972 5973 5974 5975 5976 5977 5978 5979 5980 5981 5982 5983 5984 5985 5986 5987 5988 5989 5990 5991 5992 5993 5994 5995 5996 5997 5998 5999 6000 6001 6002 6003 6004 6005 6006 6007 6008 6009 6010 6011 6012 6013 6014 6015 6016 6017 6018 6019 6020 6021 6022 6023 6024 6025 6026 6027 6028 6029 6030 6031 6032 6033 6034 6035 6036 6037 6038 6039 6040 6041 6042 6043 6044 6045 6046 6047 6048 6049 6050 6051 6052 6053 6054 6055 6056 6057 6058 6059 6060 6061 6062 6063 6064 6065 6066 6067 6068 6069 6070 6071 6072 6073 6074 6075 6076 6077 6078 6079 6080 6081 6082 6083 6084 6085 6086 6087 6088 6089 6090 6091 6092 6093 6094 6095 6096 6097 6098 6099 6100 6101 6102 6103 6104 6105 6106 6107 6108 6109 6110 6111 6112 6113 6114 6115 6116 6117 6118 6119 6120 6121 6122 6123 6124 6125 6126 6127 6128 6129 6130 6131 6132 6133 6134 6135 6136 6137 6138 6139 6140 6141 6142 6143 6144 6145 6146 6147 6148 6149 6150 6151 6152 6153 6154 6155 6156 6157 6158 6159 6160 6161 6162 6163 6164 6165 6166 6167 6168 6169 6170 6171 6172 6173 6174 6175 6176 6177 6178 6179 6180 6181 6182 6183 6184 6185 6186 6187 6188 6189 6190 6191 6192 6193 6194 6195 6196 6197 6198 6199 6200 6201 6202 6203 6204 6205 6206 6207 6208 6209 6210 6211 6212 6213 6214 6215 6216 6217 6218 6219 6220 6221 6222 6223 6224 6225 6226 6227 6228 6229 6230 6231 6232 6233 6234 6235 6236 6237 6238 6239 6240 6241 6242 6243 6244 6245 6246 6247 6248 6249 6250 6251 6252 6253 6254 6255 6256 6257 6258 6259 6260 6261 6262 6263 6264 6265 6266 6267 6268 6269 6270 6271 6272 6273 6274 6275 6276 6277 6278 6279 6280 6281 6282 6283 6284 6285 6286 6287 6288 6289 6290 6291 6292 6293 6294 6295 6296 6297 6298 6299 6300 6301 6302 6303 6304 6305 6306 6307 6308 6309 6310 6311 6312 6313 6314 6315 6316 6317 6318 6319 6320 6321 6322 6323 6324 6325 6326 6327 6328 6329 6330 6331 6332 6333 6334 6335 6336 6337 6338 6339 6340 6341 6342 6343 6344 6345 6346 6347 6348 6349 6350 6351 6352 6353 6354 6355 6356 6357 6358 6359 6360 6361 6362 6363 6364 6365 6366 6367 6368 6369 6370 6371 6372 6373 6374 6375 6376 6377 6378 6379 6380 6381 6382 6383 6384 6385 6386 6387 6388 6389 6390 6391 6392 6393 6394 6395 6396 6397 6398 6399 6400 6401 6402 6403 6404 6405 6406 6407 6408 6409 6410 6411 6412 6413 6414 6415 6416 6417 6418 6419 6420 6421 6422 6423 6424 6425 6426 6427 6428 6429 6430 6431 6432 6433 6434 6435 6436 6437 6438 6439 6440 6441 6442 6443 6444 6445 6446 6447 6448 6449 6450 6451 6452 6453 6454 6455 6456 6457 6458 6459 6460 6461 6462 6463 6464 6465 6466 6467 6468 6469 6470 6471 6472 6473 6474 6475 6476 6477 6478 6479 6480 6481 6482 6483 6484 6485 6486 6487 6488 6489 6490 6491 6492 6493 6494 6495 6496 6497 6498 6499 6500 6501 6502 6503 6504 6505 6506 6507 6508 6509 6510 6511 6512 6513 6514 6515 6516 6517 6518 6519 6520 6521 6522 6523 6524 6525 6526 6527 6528 6529 6530 6531 6532 6533 6534 6535 6536 6537 6538 6539 6540 6541 6542 6543 6544 6545 6546 6547 6548 6549 6550 6551 6552 6553 6554 6555 6556 6557 6558 6559 6560 6561 6562 6563 6564 6565 6566 6567 6568 6569 6570 6571 6572 6573 6574 6575 6576 6577 6578 6579 6580 6581 6582 6583 6584 6585 6586 6587 6588 6589 6590 6591 6592 6593 6594 6595 6596 6597 6598 6599 6600 6601 6602 6603 6604 6605 6606 6607 6608 6609 6610 6611 6612 6613 6614 6615 6616 6617 6618 6619 6620 6621 6622 6623 6624 6625 6626 6627 6628 6629 6630 6631 6632 6633 6634 6635 6636 6637 6638 6639 6640 6641 6642 6643 6644 6645 6646 6647 6648 6649 6650 6651 6652 6653 6654 6655 6656 6657 6658 6659 6660 6661 6662 6663 6664 6665 6666 6667 6668 6669 6670 6671 6672 6673 6674 6675 6676 6677 6678 6679 6680 6681 6682 6683 6684 6685 6686 6687 6688 6689 6690 6691 6692 6693 6694 6695 6696 6697 6698 6699 6700 6701 6702 6703 6704 6705 6706 6707 6708 6709 6710 6711 6712 6713 6714 6715 6716 6717 6718 6719 6720 6721 6722 6723 6724 6725 6726 6727 6728 6729 6730 6731 6732 6733 6734 6735 6736 6737 6738 6739 6740 6741 6742 6743 6744 6745 6746 6747 6748 6749 6750 6751 6752 6753 6754 6755 6756 6757 6758 6759 6760 6761 6762 6763 6764 6765 6766 6767 6768 6769 6770 6771 6772 6773 6774 6775 6776 6777 6778 6779 6780 6781 6782 6783 6784 6785 6786 6787 6788 6789 6790 6791 6792 6793 6794 6795 6796 6797 6798 6799 6800 6801 6802 6803 6804 6805 6806 6807 6808 6809 6810 6811 6812 6813 6814 6815 6816 6817 6818 6819 6820 6821 6822 6823 6824 6825 6826 6827 6828 6829 6830 6831 6832 6833 6834 6835 6836 6837 6838 6839 6840 6841 6842 6843 6844 6845 6846 6847 6848 6849 6850 6851 6852 6853 6854 6855 6856 6857 6858 6859 6860 6861 6862 6863 6864 6865 6866 6867 6868 6869 6870 6871 6872 6873 6874 6875 6876 6877 6878 6879 6880 6881 6882 6883 6884 6885 6886 6887 6888 6889 6890 6891 6892 6893 6894 6895 6896 6897 6898 6899 6900 6901 6902 6903 6904 6905 6906 6907 6908 6909 6910 6911 6912 6913 6914 6915 6916 6917 6918 6919 6920 6921 6922 6923 6924 6925 6926 6927 6928 6929 6930 6931 6932 6933 6934 6935 6936 6937 6938 6939 6940 6941 6942 6943 6944 6945 6946 6947 6948 6949 6950 6951 6952 6953 6954 6955 6956 6957 6958 6959 6960 6961 6962 6963 6964 6965 6966 6967 6968 6969 6970 6971 6972 6973 6974 6975 6976 6977 6978 6979 6980 6981 6982 6983 6984 6985 6986 6987 6988 6989 6990 6991 6992 6993 6994 6995 6996 6997 6998 6999 7000 7001 7002 7003 7004 7005 7006 7007 7008 7009 7010 7011 7012 7013 7014 7015 7016 7017 7018 7019 7020 7021 7022 7023 7024 7025 7026 7027 7028 7029 7030 7031 7032 7033 7034 7035 7036 7037 7038 7039 7040 7041 7042 7043 7044 7045 7046 7047 7048 7049 7050 7051 7052 7053 7054 7055 7056 7057 7058 7059 7060 7061 7062 7063 7064 7065 7066 7067 7068 7069 7070 7071 7072 7073 7074 7075 7076 7077 7078 7079 7080 7081 7082 7083 7084 7085 7086 7087 7088 7089 7090 7091 7092 7093 7094 7095 7096 7097 7098 7099 7100 7101 7102 7103 7104 7105 7106 7107 7108 7109 7110 7111 7112 7113 7114 7115 7116 7117 7118 7119 7120 7121 7122 7123 7124 7125 7126 7127 7128 7129 7130 7131 7132 7133 7134 7135 7136 7137 7138 7139 7140 7141 7142 7143 7144 7145 7146 7147 7148 7149 7150 7151 7152 7153 7154 7155 7156 7157 7158 7159 7160 7161 7162 7163 7164 7165 7166 7167 7168 7169 7170 7171 7172 7173 7174 7175 7176 7177 7178 7179 7180 7181 7182 7183 7184 7185 7186 7187 7188 7189 7190 7191 7192 7193 7194 7195 7196 7197 7198 7199 7200 7201 7202 7203 7204 7205 7206 7207 7208 7209 7210 7211 7212 7213 7214 7215 7216 7217 7218 7219 7220 7221 7222 7223 7224 7225 7226 7227 7228 7229 7230 7231 7232 7233 7234 7235 7236 7237 7238 7239 7240 7241 7242 7243 7244 7245 7246 7247 7248 7249 7250 7251 7252 7253 7254 7255 7256 7257 7258 7259 7260 7261 7262 7263 7264 7265 7266 7267 7268 7269 7270 7271 7272 7273 7274 7275 7276 7277 7278 7279 7280 7281 7282 7283 7284 7285 7286 7287 7288 7289 7290 7291 7292 7293 7294 7295 7296 7297 7298 7299 7300 7301 7302 7303 7304 7305 7306 7307 7308 7309 7310 7311 7312 7313 7314 7315 7316 7317 7318 7319 7320 7321 7322 7323 7324 7325 7326 7327 7328 7329 7330 7331 7332 7333 7334 7335 7336 7337 7338 7339 7340 7341 7342 7343 7344 7345 7346 7347 7348 7349 7350 7351 7352 7353 7354 7355 7356 7357 7358 7359 7360 7361 7362 7363 7364 7365 7366 7367 7368 7369 7370 7371 7372 7373 7374 7375 7376 7377 7378 7379 7380 7381 7382 7383 7384 7385 7386 7387 7388 7389 7390 7391 7392 7393 7394 7395 7396 7397 7398 7399 7400 7401 7402 7403 7404 7405 7406 7407 7408 7409 7410 7411 7412 7413 7414 7415 7416 7417 7418 7419 7420 7421 7422 7423 7424 7425 7426 7427 7428 7429 7430 7431 7432 7433 7434 7435 7436 7437 7438 7439 7440 7441 7442 7443 7444 7445 7446 7447 7448 7449 7450 7451 7452 7453 7454 7455 7456 7457 7458 7459 7460 7461 7462 7463 7464 7465 7466 7467 7468 7469 7470 7471 7472 7473 7474 7475 7476 7477 7478 7479 7480 7481 7482 7483 7484 7485 7486 7487 7488 7489 7490 7491 7492 7493 7494 7495 7496 7497 7498 7499 7500 7501 7502 7503 7504 7505 7506 7507 7508 7509 7510 7511 7512 7513 7514 7515 7516 7517 7518 7519 7520 7521 7522 7523 7524 7525 7526 7527 7528 7529 7530 7531 7532 7533 7534 7535 7536 7537 7538 7539 7540 7541 7542 7543 7544 7545 7546 7547 7548 7549 7550 7551 7552 7553 7554 7555 7556 7557 7558 7559 7560 7561 7562 7563 7564 7565 7566 7567 7568 7569 7570 7571 7572 7573 7574 7575 7576 7577 7578 7579 7580 7581 7582 7583 7584 7585 7586 7587 7588 7589 7590 7591 7592 7593 7594 7595 7596 7597 7598 7599 7600 7601 7602 7603 7604 7605 7606 7607 7608 7609 7610 7611 7612 7613 7614 7615 7616 7617 7618 7619 7620 7621 7622 7623 7624 7625 7626 7627 7628 7629 7630 7631 7632 7633 7634 7635 7636 7637 7638 7639 7640 7641 7642 7643 7644 7645 7646 7647 7648 7649 7650 7651 7652 7653 7654 7655 7656 7657 7658 7659 7660 7661 7662 7663 7664 7665 7666 7667 7668 7669 7670 7671 7672 7673 7674 7675 7676 7677 7678 7679 7680 7681 7682 7683 7684 7685 7686 7687 7688 7689 7690 7691 7692 7693 7694 7695 7696 7697 7698 7699 7700 7701 7702 7703 7704 7705 7706 7707 7708 7709 7710 7711 7712 7713 7714 7715 7716 7717 7718 7719 7720 7721 7722 7723 7724 7725 7726 7727 7728 7729 7730 7731 7732 7733 7734 7735 7736 7737 7738 7739 7740 7741 7742 7743 7744 7745 7746 7747 7748 7749 7750 7751 7752 7753 7754 7755 7756 7757 7758 7759 7760 7761 7762 7763 7764 7765 7766 7767 7768 7769 7770 7771 7772 7773 7774 7775 7776 7777 7778 7779 7780 7781 7782 7783 7784 7785 7786 7787 7788 7789 7790 7791 7792 7793 7794 7795 7796 7797 7798 7799 7800 7801 7802 7803 7804 7805 7806 7807 7808 7809 7810 7811 7812 7813 7814 7815 7816 7817 7818 7819 7820 7821 7822 7823 7824 7825 7826 7827 7828 7829 7830 7831 7832 7833 7834 7835 7836 7837 7838 7839 7840 7841 7842 7843 7844 7845 7846 7847 7848 7849 7850 7851 7852 7853 7854 7855 7856 7857 7858 7859 7860 7861 7862 7863 7864 7865 7866 7867 7868 7869 7870 7871 7872 7873 7874 7875 7876 7877 7878 7879 7880 7881 7882 7883 7884 7885 7886 7887 7888 7889 7890 7891 7892 7893 7894 7895 7896 7897 7898 7899 7900 7901 7902 7903 7904 7905 7906 7907 7908 7909 7910 7911 7912 7913 7914 7915 7916 7917 7918 7919 7920 7921 7922 7923 7924 7925 7926 7927 7928 7929 7930 7931 7932 7933 7934 7935 7936 7937 7938 7939 7940 7941 7942 7943 7944 7945 7946 7947 7948 7949 7950 7951 7952 7953 7954 7955 7956 7957 7958 7959 7960 7961 7962 7963 7964 7965 7966 7967 7968 7969 7970 7971 7972 7973 7974 7975 7976 7977 7978 7979 7980 7981 7982 7983 7984 7985 7986 7987 7988 7989 7990 7991 7992 7993 7994 7995 7996 7997 7998 7999 8000 8001 8002 8003 8004 8005 8006 8007 8008 8009 8010 8011 8012 8013 8014 8015 8016 8017 8018 8019 8020 8021 8022 8023 8024 8025 8026 8027 8028 8029 8030 8031 8032 8033 8034 8035 8036 8037 8038 8039 8040 8041 8042 8043 8044 8045 8046 8047 8048 8049 8050 8051 8052 8053 8054 8055 8056 8057 8058 8059 8060 8061 8062 8063 8064 8065 8066 8067 8068 8069 8070 8071 8072 8073 8074 8075 8076 8077 8078 8079 8080 8081 8082 8083 8084 8085 8086 8087 8088 8089 8090 8091 8092 8093 8094 8095 8096 8097 8098 8099 8100 8101 8102 8103 8104 8105 8106 8107 8108 8109 8110 8111 8112 8113 8114 8115 8116 8117 8118 8119 8120 8121 8122 8123 8124 8125 8126 8127 8128 8129 8130 8131 8132 8133 8134 8135 8136 8137 8138 8139 8140 8141 8142 8143 8144 8145 8146 8147 8148 8149 8150 8151 8152 8153 8154 8155 8156 8157 8158 8159 8160 8161 8162 8163 8164 8165 8166 8167 8168 8169 8170 8171 8172 8173 8174 8175 8176 8177 8178 8179 8180 8181 8182 8183 8184 8185 8186 8187 8188 8189 8190 8191 8192 8193 8194 8195 8196 8197 8198 8199 8200 8201 8202 8203 8204 8205 8206 8207 8208 8209 8210 8211 8212 8213 8214 8215 8216 8217 8218 8219 8220 8221 8222 8223 8224 8225 8226 8227 8228 8229 8230 8231 8232 8233 8234 8235 8236 8237 8238 8239 8240 8241 8242 8243 8244 8245 8246 8247 8248 8249 8250 8251 8252 8253 8254 8255 8256 8257 8258 8259 8260 8261 8262 8263 8264 8265 8266 8267 8268 8269 8270 8271 8272 8273 8274 8275 8276 8277 8278 8279 8280 8281 8282 8283 8284 8285 8286 8287 8288 8289 8290 8291 8292 8293 8294 8295 8296 8297 8298 8299 8300 8301 8302 8303 8304 8305 8306 8307 8308 8309 8310 8311 8312 8313 8314 8315 8316 8317 8318 8319 8320 8321 8322 8323 8324 8325 8326 8327 8328 8329 8330 8331 8332 8333 8334 8335 8336 8337 8338 8339 8340 8341 8342 8343 8344 8345 8346 8347 8348 8349 8350 8351 8352 8353 8354 8355 8356 8357 8358 8359 8360 8361 8362 8363 8364 8365 8366 8367 8368 8369 8370 8371 8372 8373 8374 8375 8376 8377 8378 8379 8380 8381 8382 8383 8384 8385 8386 8387 8388 8389 8390 8391 8392 8393 8394 8395 8396 8397 8398 8399 8400 8401 8402 8403 8404 8405 8406 8407 8408 8409 8410 8411 8412 8413 8414 8415 8416 8417 8418 8419 8420 8421 8422 8423 8424 8425 8426 8427 8428 8429 8430 8431 8432 8433 8434 8435 8436 8437 8438 8439 8440 8441 8442 8443 8444 8445 8446 8447 8448 8449 8450 8451 8452 8453 8454 8455 8456 8457 8458 8459 8460 8461 8462 8463 8464 8465 8466 8467 8468 8469 8470 8471 8472 8473 8474 8475 8476 8477 8478 8479 8480 8481 8482 8483 8484 8485 8486 8487 8488 8489 8490 8491 8492 8493 8494 8495 8496 8497 8498 8499 8500 8501 8502 8503 8504 8505 8506 8507 8508 8509 8510 8511 8512 8513 8514 8515 8516 8517 8518 8519 8520 8521 8522 8523 8524 8525 8526 8527 8528 8529 8530 8531 8532 8533 8534 8535 8536 8537 8538 8539 8540 8541 8542 8543 8544 8545 8546 8547 8548 8549 8550 8551 8552 8553 8554 8555 8556 8557 8558 8559 8560 8561 8562 8563 8564 8565 8566 8567 8568 8569 8570 8571 8572 8573 8574 8575 8576 8577 8578 8579 8580 8581 8582 8583 8584 8585 8586 8587 8588 8589 8590 8591 8592 8593 8594 8595 8596 8597 8598 8599 8600 8601 8602 8603 8604 8605 8606 8607 8608 8609 8610 8611 8612 8613 8614 8615 8616 8617 8618 8619 8620 8621 8622 8623 8624 8625 8626 8627 8628 8629 8630 8631 8632 8633 8634 8635 8636 8637 8638 8639 8640 8641 8642 8643 8644 8645 8646 8647 8648 8649 8650 8651 8652 8653 8654 8655 8656 8657 8658 8659 8660 8661 8662 8663 8664 8665 8666 8667 8668 8669 8670 8671 8672 8673 8674 8675 8676 8677 8678 8679 8680 8681 8682 8683 8684 8685 8686 8687 8688 8689 8690 8691 8692 8693 8694 8695 8696 8697 8698 8699 8700 8701 8702 8703 8704 8705 8706 8707 8708 8709 8710 8711 8712 8713 8714 8715 8716 8717 8718 8719 8720 8721 8722 8723 8724 8725 8726 8727 8728 8729 8730 8731 8732 8733 8734 8735 8736 8737 8738 8739 8740 8741 8742 8743 8744 8745 8746 8747 8748 8749 8750 8751 8752 8753 8754 8755 8756 8757 8758 8759 8760 8761 8762 8763 8764 8765 8766 8767 8768 8769 8770 8771 8772 8773 8774 8775 8776 8777 8778 8779 8780 8781 8782 8783 8784 8785 8786 8787 8788 8789 8790 8791 8792 8793 8794 8795 8796 8797 8798 8799 8800 8801 8802 8803 8804 8805 8806 8807 8808 8809 8810 8811 8812 8813 8814 8815 8816 8817 8818 8819 8820 8821 8822 8823 8824 8825 8826 8827 8828 8829 8830 8831 8832 8833 8834 8835 8836 8837 8838 8839 8840 8841 8842 8843 8844 8845 8846 8847 8848 8849 8850 8851 8852 8853 8854 8855 8856 8857 8858 8859 8860 8861 8862 8863 8864 8865 8866 8867 8868 8869 8870 8871 8872 8873 8874 8875 8876 8877 8878 8879 8880 8881 8882 8883 8884 8885 8886 8887 8888 8889 8890 8891 8892 8893 8894 8895 8896 8897 8898 8899 8900 8901 8902 8903 8904 8905 8906 8907 8908 8909 8910 8911 8912 8913 8914 8915 8916 8917 8918 8919 8920 8921 8922 8923 8924 8925 8926 8927 8928 8929 8930 8931 8932 8933 8934 8935 8936 8937 8938 8939 8940 8941 8942 8943 8944 8945 8946 8947 8948 8949 8950 8951 8952 8953 8954 8955 8956 8957 8958 8959 8960 8961 8962 8963 8964 8965 8966 8967 8968 8969 8970 8971 8972 8973 8974 8975 8976 8977 8978 8979 8980 8981 8982 8983 8984 8985 8986 8987 8988 8989 8990 8991 8992 8993 8994 8995 8996 8997 8998 8999 9000 9001 9002 9003 9004 9005 9006 9007 9008 9009 9010 9011 9012 9013 9014 9015 9016 9017 9018 9019 9020 9021 9022 9023 9024 9025 9026 9027 9028 9029 9030 9031 9032 9033 9034 9035 9036 9037 9038 9039 9040 9041 9042 9043 9044 9045 9046 9047 9048 9049 9050 9051 9052 9053 9054 9055 9056 9057 9058 9059 9060 9061 9062 9063 9064 9065 9066 9067 9068 9069 9070 9071 9072 9073 9074 9075 9076 9077 9078 9079 9080 9081 9082 9083 9084 9085 9086 9087 9088 9089 9090 9091 9092 9093 9094 9095 9096 9097 9098 9099 9100 9101 9102 9103 9104 9105 9106 9107 9108 9109 9110 9111 9112 9113 9114 9115 9116 9117 9118 9119 9120 9121 9122 9123 9124 9125 9126 9127 9128 9129 9130 9131 9132 9133 9134 9135 9136 9137 9138 9139 9140 9141 9142 9143 9144 9145 9146 9147 9148 9149 9150 9151 9152 9153 9154 9155 9156 9157 9158 9159 9160 9161 9162 9163 9164 9165 9166 9167 9168 9169 9170 9171 9172 9173 9174 9175 9176 9177 9178 9179 9180 9181 9182 9183 9184 9185 9186 9187 9188 9189 9190 9191 9192 9193 9194 9195 9196 9197 9198 9199 9200 9201 9202 9203 9204 9205 9206 9207 9208 9209 9210 9211 9212 9213 9214 9215 9216 9217 9218 9219 9220 9221 9222 9223 9224 9225 9226 9227 9228 9229 9230 9231 9232 9233 9234 9235 9236 9237 9238 9239 9240 9241 9242 9243 9244 9245 9246 9247 9248 9249 9250 9251 9252 9253 9254 9255 9256 9257 9258 9259 9260 9261 9262 9263 9264 9265 9266 9267 9268 9269 9270 9271 9272 9273 9274 9275 9276 9277 9278 9279 9280 9281 9282 9283 9284 9285 9286 9287 9288 9289 9290 9291 9292 9293 9294 9295 9296 9297 9298 9299 9300 9301 9302 9303 9304 9305 9306 9307 9308 9309 9310 9311 9312 9313 9314 9315 9316 9317 9318 9319 9320 9321 9322 9323 9324 9325 9326 9327 9328 9329 9330 9331 9332 9333 9334 9335 9336 9337 9338 9339 9340 9341 9342 9343 9344 9345 9346 9347 9348 9349 9350 9351 9352 9353 9354 9355 9356 9357 9358 9359 9360 9361 9362 9363 9364 9365 9366 9367 9368 9369 9370 9371 9372 9373 9374 9375 9376 9377 9378 9379 9380 9381 9382 9383 9384 9385 9386 9387 9388 9389 9390 9391 9392 9393 9394 9395 9396 9397 9398 9399 9400 9401 9402 9403 9404 9405 9406 9407 9408 9409 9410 9411 9412 9413 9414 9415 9416 9417 9418 9419 9420 9421 9422 9423 9424 9425 9426 9427 9428 9429 9430 9431 9432 9433 9434 9435 9436 9437 9438 9439 9440 9441 9442 9443 9444 9445 9446 9447 9448 9449 9450 9451 9452 9453 9454 9455 9456 9457 9458 9459 9460 9461 9462 9463 9464 9465 9466 9467 9468 9469 9470 9471 9472 9473 9474 9475 9476 9477 9478 9479 9480 9481 9482 9483 9484 9485 9486 9487 9488 9489 9490 9491 9492 9493 9494 9495 9496 9497 9498 9499 9500 9501 9502 9503 9504 9505 9506 9507 9508 9509 9510 9511 9512 9513 9514 9515 9516 9517 9518 9519 9520 9521 9522 9523 9524 9525 9526 9527 9528 9529 9530 9531 9532 9533 9534 9535 9536 9537 9538 9539 9540 9541 9542 9543 9544 9545 9546 9547 9548 9549 9550 9551 9552 9553 9554 9555 9556 9557 9558 9559 9560 9561 9562 9563 9564 9565 9566 9567 9568 9569 9570 9571 9572 9573 9574 9575 9576 9577 9578 9579 9580 9581 9582 9583 9584 9585 9586 9587 9588 9589 9590 9591 9592 9593 9594 9595 9596 9597 9598 9599 9600 9601 9602 9603 9604 9605 9606 9607 9608 9609 9610 9611 9612 9613 9614 9615 9616 9617 9618 9619 9620 9621 9622 9623 9624 9625 9626 9627 9628 9629 9630 9631 9632 9633 9634 9635 9636 9637 9638 9639 9640 9641 9642 9643 9644 9645 9646 9647 9648 9649 9650 9651 9652 9653 9654 9655 9656 9657 9658 9659 9660 9661 9662 9663 9664 9665 9666 9667 9668 9669 9670 9671 9672 9673 9674 9675 9676 9677 9678 9679 9680 9681 9682 9683 9684 9685 9686 9687 9688 9689 9690 9691 9692 9693 9694 9695 9696 9697 9698 9699 9700 9701 9702 9703 9704 9705 9706 9707 9708 9709 9710 9711 9712 9713 9714 9715 9716 9717 9718 9719 9720 9721 9722 9723 9724 9725 9726 9727 9728 9729 9730 9731 9732 9733 9734 9735 9736 9737 9738 9739 9740 9741 9742 9743 9744 9745 9746 9747 9748 9749 9750 9751 9752 9753 9754 9755 9756 9757 9758 9759 9760 9761 9762 9763 9764 9765 9766 9767 9768 9769 9770 9771 9772 9773 9774 9775 9776 9777 9778 9779 9780 9781 9782 9783 9784 9785 9786 9787 9788 9789 9790 9791 9792 9793 9794 9795 9796 9797 9798 9799 9800 9801 9802 9803 9804 9805 9806 9807 9808 9809 9810 9811 9812 9813 9814 9815 9816 9817 9818 9819 9820 9821 9822 9823 9824 9825 9826 9827 9828 9829 9830 9831 9832 9833 9834 9835 9836 9837 9838 9839 9840 9841 9842 9843 9844 9845 9846 9847 9848 9849 9850 9851 9852 9853 9854 9855 9856 9857 9858 9859 9860 9861 9862 9863 9864 9865 9866 9867 9868 9869 9870 9871 9872 9873 9874 9875 9876 9877 9878 9879 9880 9881 9882 9883 9884 9885 9886 9887 9888 9889 9890 9891 9892 9893 9894 9895 9896 9897 9898 9899 9900 9901 9902 9903 9904 9905 9906 9907 9908 9909 9910 9911 9912 9913 9914 9915 9916 9917 9918 9919 9920 9921 9922 9923 9924 9925 9926 9927 9928 9929 9930 9931 9932 9933 9934 9935 9936 9937 9938 9939 9940 9941 9942 9943 9944 9945 9946 9947 9948 9949 9950 9951 9952 9953 9954 9955 9956 9957 9958 9959 9960 9961 9962 9963 9964 9965 9966 9967 9968 9969 9970 9971 9972 9973 9974 9975 9976 9977 9978 9979 9980 9981 9982 9983 9984 9985 9986 9987 9988 9989 9990 9991 9992 9993 9994 9995 9996 9997 9998 9999 10000 10001 10002 10003 10004 10005 10006 10007 10008 10009 10010 10011 10012 10013 10014 10015 10016 10017 10018 10019 10020 10021 10022 10023 10024 10025 10026 10027 10028 10029 10030 10031 10032 10033 10034 10035 10036 10037 10038 10039 10040 10041 10042 10043 10044 10045 10046 10047 10048 10049 10050 10051 10052 10053 10054 10055 10056 10057 10058 10059 10060 10061 10062 10063 10064 10065 10066 10067 10068 10069 10070 10071 10072 10073 10074 10075 10076 10077 10078 10079 10080 10081 10082 10083 10084 10085 10086 10087 10088 10089 10090 10091 10092 10093 10094 10095 10096 10097 10098 10099 10100 10101 10102 10103 10104 10105 10106 10107 10108 10109 10110 10111 10112 10113 10114 10115 10116 10117 10118 10119 10120 10121 10122 10123 10124 10125 10126 10127 10128 10129 10130 10131 10132 10133 10134 10135 10136 10137 10138 10139 10140 10141 10142 10143 10144 10145 10146 10147 10148 10149 10150 10151 10152 10153 10154 10155 10156 10157 10158 10159 10160 10161 10162 10163 10164 10165 10166 10167 10168 10169 10170 10171 10172 10173 10174 10175 10176 10177 10178 10179 10180 10181 10182 10183 10184 10185 10186 10187 10188 10189 10190 10191 10192 10193 10194 10195 10196 10197 10198 10199 10200 10201 10202 10203 10204 10205 10206 10207 10208 10209 10210 10211 10212 10213 10214 10215 10216 10217 10218 10219 10220 10221 10222 10223 10224 10225 10226 10227 10228 10229 10230 10231 10232 10233 10234 10235 10236 10237 10238 10239 10240 10241 10242 10243 10244 10245 10246 10247 10248 10249 10250 10251 10252 10253 10254 10255 10256 10257 10258 10259 10260 10261 10262 10263 10264 10265 10266 10267 10268 10269 10270 10271 10272 10273 10274 10275 10276 10277 10278 10279 10280 10281 10282 10283 10284 10285 10286 10287 10288 10289 10290 10291 10292 10293 10294 10295 10296 10297 10298 10299 10300 10301 10302 10303 10304 10305 10306 10307 10308 10309 10310 10311 10312 10313 10314 10315 10316 10317 10318 10319 10320 10321 10322 10323 10324 10325 10326 10327 10328 10329 10330 10331 10332 10333 10334 10335 10336 10337 10338 10339 10340 10341 10342 10343 10344 10345 10346 10347 10348 10349 10350 10351 10352 10353 10354 10355 10356 10357 10358 10359 10360 10361 10362 10363 10364 10365 10366 10367 10368 10369 10370 10371 10372 10373 10374 10375 10376 10377 10378 10379 10380 10381 10382 10383 10384 10385 10386 10387 10388 10389 10390 10391 10392 10393 10394 10395 10396 10397 10398 10399 10400 10401 10402 10403 10404 10405 10406 10407 10408 10409 10410 10411 10412 10413 10414 10415 10416 10417 10418 10419 10420 10421 10422 10423 10424 10425 10426 10427 10428 10429 10430 10431 10432 10433 10434 10435 10436 10437 10438 10439 10440 10441 10442 10443 10444 10445 10446 10447 10448 10449 10450 10451 10452 10453 10454 10455 10456 10457 10458 10459 10460 10461 10462 10463 10464 10465 10466 10467 10468 10469 10470 10471 10472 10473 10474 10475 10476 10477 10478 10479 10480 10481 10482 10483 10484 10485 10486 10487 10488 10489 10490 10491 10492 10493 10494 10495 10496 10497 10498 10499 10500 10501 10502 10503 10504 10505 10506 10507 10508 10509 10510 10511 10512 10513 10514 10515 10516 10517 10518 10519 10520 10521 10522 10523 10524 10525 10526 10527 10528 10529 10530 10531 10532 10533 10534 10535 10536 10537 10538 10539 10540 10541 10542 10543 10544 10545 10546 10547 10548 10549 10550 10551 10552 10553 10554 10555 10556 10557 10558 10559 10560 10561 10562 10563 10564 10565 10566 10567 10568 10569 10570 10571 10572 10573 10574 10575 10576 10577 10578 10579 10580 10581 10582 10583 10584 10585 10586 10587 10588 10589 10590 10591 10592 10593 10594 10595 10596 10597 10598 10599 10600 10601 10602 10603 10604 10605 10606 10607 10608 10609 10610 10611 10612 10613 10614 10615 10616 10617 10618 10619 10620 10621 10622 10623 10624 10625 10626 10627 10628 10629 10630 10631 10632 10633 10634 10635 10636 10637 10638 10639 10640 10641 10642 10643 10644 10645 10646 10647 10648 10649 10650 10651 10652 10653 10654 10655 10656 10657 10658 10659 10660 10661 10662 10663 10664 10665 10666 10667 10668 10669 10670 10671 10672 10673 10674 10675 10676 10677 10678 10679 10680 10681 10682 10683 10684 10685 10686 10687 10688 10689 10690 10691 10692 10693 10694 10695 10696 10697 10698 10699 10700 10701 10702 10703 10704 10705 10706 10707 10708 10709 10710 10711 10712 10713 10714 10715 10716 10717 10718 10719 10720 10721 10722 10723 10724 10725 10726 10727 10728 10729 10730 10731 10732 10733 10734 10735 10736 10737 10738 10739 10740 10741 10742 10743 10744 10745 10746 10747 10748 10749 10750 10751 10752 10753 10754 10755 10756 10757 10758 10759 10760 10761 10762 10763 10764 10765 10766 10767 10768 10769 10770 10771 10772 10773 10774 10775 10776 10777 10778 10779 10780 10781 10782 10783 10784 10785 10786 10787 10788 10789 10790 10791 10792 10793 10794 10795 10796 10797 10798 10799 10800 10801 10802 10803 10804 10805 10806 10807 10808 10809 10810 10811 10812 10813 10814 10815 10816 10817 10818 10819 10820 10821 10822 10823 10824 10825 10826 10827 10828 10829 10830 10831 10832 10833 10834 10835 10836 10837 10838 10839 10840 10841 10842 10843 10844 10845 10846 10847 10848 10849 10850 10851 10852 10853 10854 10855 10856 10857 10858 10859 10860 10861 10862 10863 10864 10865 10866 10867 10868 10869 10870 10871 10872 10873 10874 10875 10876 10877 10878 10879 10880 10881 10882 10883 10884 10885 10886 10887 10888 10889 10890 10891 10892 10893 10894 10895 10896 10897 10898 10899 10900 10901 10902 10903 10904 10905 10906 10907 10908 10909 10910 10911 10912 10913 10914 10915 10916 10917 10918 10919 10920 10921 10922 10923 10924 10925 10926 10927 10928 10929 10930 10931 10932 10933 10934 10935 10936 10937 10938 10939 10940 10941 10942 10943 10944 10945 10946 10947 10948 10949 10950 10951 10952 10953 10954 10955 10956 10957 10958 10959 10960 10961 10962 10963 10964 10965 10966 10967 10968 10969 10970 10971 10972 10973 10974 10975 10976 10977 10978 10979 10980 10981 10982 10983 10984 10985 10986 10987 10988 10989 10990 10991 10992 10993 10994 10995 10996 10997 10998 10999 11000 11001 11002 11003 11004 11005 11006 11007 11008 11009 11010 11011 11012 11013 11014 11015 11016 11017 11018 11019 11020 11021 11022 11023 11024 11025 11026 11027 11028 11029 11030 11031 11032 11033 11034 11035 11036 11037 11038 11039 11040 11041 11042 11043 11044 11045 11046 11047 11048 11049 11050 11051 11052 11053 11054 11055 11056 11057 11058 11059 11060 11061 11062 11063 11064 11065 11066 11067 11068 11069 11070 11071 11072 11073 11074 11075 11076 11077 11078 11079 11080 11081 11082 11083 11084 11085 11086 11087 11088 11089 11090 11091 11092 11093 11094 11095 11096 11097 11098 11099 11100 11101 11102 11103 11104 11105 11106 11107 11108 11109 11110 11111 11112 11113 11114 11115 11116 11117 11118 11119 11120 11121 11122 11123 11124 11125 11126 11127 11128 11129 11130 11131 11132 11133 11134 11135 11136 11137 11138 11139 11140 11141 11142 11143 11144 11145 11146 11147 11148 11149 11150 11151 11152 11153 11154 11155 11156 11157 11158 11159 11160 11161 11162 11163 11164 11165 11166 11167 11168 11169 11170 11171 11172 11173 11174 11175 11176 11177 11178 11179 11180 11181 11182 11183 11184 11185 11186 11187 11188 11189 11190 11191 11192 11193 11194 11195 11196 11197 11198 11199 11200 11201 11202 11203 11204 11205 11206 11207 11208 11209 11210 11211 11212 11213 11214 11215 11216 11217 11218 11219 11220 11221 11222 11223 11224 11225 11226 11227 11228 11229 11230 11231 11232 11233 11234 11235 11236 11237 11238 11239 11240 11241 11242 11243 11244 11245 11246 11247 11248 11249 11250 11251 11252 11253 11254 11255 11256 11257 11258 11259 11260 11261 11262 11263 11264 11265 11266 11267 11268 11269 11270 11271 11272 11273 11274 11275 11276 11277 11278 11279 11280 11281 11282 11283 11284 11285 11286 11287 11288 11289 11290 11291 11292 11293 11294 11295 11296 11297 11298 11299 11300 11301 11302 11303 11304 11305 11306 11307 11308 11309 11310 11311 11312 11313 11314 11315 11316 11317 11318 11319 11320 11321 11322 11323 11324 11325 11326 11327 11328 11329 11330 11331 11332 11333 11334 11335 11336 11337 11338 11339 11340 11341 11342 11343 11344 11345 11346 11347 11348 11349 11350 11351 11352 11353 11354 11355 11356 11357 11358 11359 11360 11361 11362 11363 11364 11365 11366 11367 11368 11369 11370 11371 11372 11373 11374 11375 11376 11377 11378 11379 11380 11381 11382 11383 11384 11385 11386 11387 11388 11389 11390 11391 11392 11393 11394 11395 11396 11397 11398 11399 11400 11401 11402 11403 11404 11405 11406 11407 11408 11409 11410 11411 11412 11413 11414 11415 11416 11417 11418 11419 11420 11421 11422 11423 11424 11425 11426 11427 11428 11429 11430 11431 11432 11433 11434 11435 11436 11437 11438 11439 11440 11441 11442 11443 11444 11445 11446 11447 11448 11449 11450 11451 11452 11453 11454 11455 11456 11457 11458 11459 11460 11461 11462 11463 11464 11465 11466 11467 11468 11469 11470 11471 11472 11473 11474 11475 11476 11477 11478 11479 11480 11481 11482 11483 11484 11485 11486 11487 11488 11489 11490 11491 11492 11493 11494 11495 11496 11497 11498 11499 11500 11501 11502 11503 11504 11505 11506 11507 11508 11509 11510 11511 11512 11513 11514 11515 11516 11517 11518 11519 11520 11521 11522 11523 11524 11525 11526 11527 11528 11529 11530 11531 11532 11533 11534 11535 11536 11537 11538 11539 11540 11541 11542 11543 11544 11545 11546 11547 11548 11549 11550 11551 11552 11553 11554 11555 11556 11557 11558 11559 11560 11561 11562 11563 11564 11565 11566 11567 11568 11569 11570 11571 11572 11573 11574 11575 11576 11577 11578 11579 11580 11581 11582 11583 11584 11585 11586 11587 11588 11589 11590 11591 11592 11593 11594 11595 11596 11597 11598 11599 11600 11601 11602 11603 11604 11605 11606 11607 11608 11609 11610 11611 11612 11613 11614 11615 11616 11617 11618 11619 11620 11621 11622 11623 11624 11625 11626 11627 11628 11629 11630 11631 11632 11633 11634 11635 11636 11637 11638 11639 11640 11641 11642 11643 11644 11645 11646 11647 11648 11649 11650 11651 11652 11653 11654 11655 11656 11657 11658 11659 11660 11661 11662 11663 11664 11665 11666 11667 11668 11669 11670 11671 11672 11673 11674 11675 11676 11677 11678 11679 11680 11681 11682 11683 11684 11685 11686 11687 11688 11689 11690 11691 11692 11693 11694 11695 11696 11697 11698 11699 11700 11701 11702 11703 11704 11705 11706 11707 11708 11709 11710 11711 11712 11713 11714 11715 11716 11717 11718 11719 11720 11721 11722 11723 11724 11725 11726 11727 11728 11729 11730 11731 11732 11733 11734 11735 11736 11737 11738 11739 11740 11741 11742 11743 11744 11745 11746 11747 11748 11749 11750 11751 11752 11753 11754 11755 11756 11757 11758 11759 11760 11761 11762 11763 11764 11765 11766 11767 11768 11769 11770 11771 11772 11773 11774 11775 11776 11777 11778 11779 11780 11781 11782 11783 11784 11785 11786 11787 11788 11789 11790 11791 11792 11793 11794 11795 11796 11797 11798 11799 11800 11801 11802 11803 11804 11805 11806 11807 11808 11809 11810 11811 11812 11813 11814 11815 11816 11817 11818 11819 11820 11821 11822 11823 11824 11825 11826 11827 11828 11829 11830 11831 11832 11833 11834 11835 11836 11837 11838 11839 11840 11841 11842 11843 11844 11845 11846 11847 11848 11849 11850 11851 11852 11853 11854 11855 11856 11857 11858 11859 11860 11861 11862 11863 11864 11865 11866 11867 11868 11869 11870 11871 11872 11873 11874 11875 11876 11877 11878 11879 11880 11881 11882 11883 11884 11885 11886 11887 11888 11889 11890 11891 11892 11893 11894 11895 11896 11897 11898 11899 11900 11901 11902 11903 11904 11905 11906 11907 11908 11909 11910 11911 11912 11913 11914 11915 11916 11917 11918 11919 11920 11921 11922 11923 11924 11925 11926 11927 11928 11929 11930 11931 11932 11933 11934 11935 11936 11937 11938 11939 11940 11941 11942 11943 11944 11945 11946 11947 11948 11949 11950 11951 11952 11953 11954 11955 11956 11957 11958 11959 11960 11961 11962 11963 11964 11965 11966 11967 11968 11969 11970 11971 11972 11973 11974 11975 11976 11977 11978 11979 11980 11981 11982 11983 11984 11985 11986 11987 11988 11989 11990 11991 11992 11993 11994 11995 11996 11997 11998 11999 12000 12001 12002 12003 12004 12005 12006 12007 12008 12009 12010 12011 12012 12013 12014 12015 12016 12017 12018 12019 12020 12021 12022 12023 12024 12025 12026 12027 12028 12029 12030 12031 12032 12033 12034 12035 12036 12037 12038 12039 12040 12041 12042 12043 12044 12045 12046 12047 12048 12049 12050 12051 12052 12053 12054 12055 12056 12057 12058 12059 12060 12061 12062 12063 12064 12065 12066 12067 12068 12069 12070 12071 12072 12073 12074 12075 12076 12077 12078 12079 12080 12081 12082 12083 12084 12085 12086 12087 12088 12089 12090 12091 12092 12093 12094 12095 12096 12097 12098 12099 12100 12101 12102 12103 12104 12105 12106 12107 12108 12109 12110 12111 12112 12113 12114 12115 12116 12117 12118 12119 12120 12121 12122 12123 12124 12125 12126 12127 12128 12129 12130 12131 12132 12133 12134 12135 12136 12137 12138 12139 12140 12141 12142 12143 12144 12145 12146 12147 12148 12149 12150 12151 12152 12153 12154 12155 12156 12157 12158 12159 12160 12161 12162 12163 12164 12165 12166 12167 12168 12169 12170 12171 12172 12173 12174 12175 12176 12177 12178 12179 12180 12181 12182 12183 12184 12185 12186 12187 12188 12189 12190 12191 12192 12193 12194 12195 12196 12197 12198 12199 12200 12201 12202 12203 12204 12205 12206 12207 12208 12209 12210 12211 12212 12213 12214 12215 12216 12217 12218 12219 12220 12221 12222 12223 12224 12225 12226 12227 12228 12229 12230 12231 12232 12233 12234 12235 12236 12237 12238 12239 12240 12241 12242 12243 12244 12245 12246 12247 12248 12249 12250 12251 12252 12253 12254 12255 12256 12257 12258 12259 12260 12261 12262 12263 12264 12265 12266 12267 12268 12269 12270 12271 12272 12273 12274 12275 12276 12277 12278 12279 12280 12281 12282 12283 12284 12285 12286 12287 12288 12289 12290 12291 12292 12293 12294 12295 12296 12297 12298 12299 12300 12301 12302 12303 12304 12305 12306 12307 12308 12309 12310 12311 12312 12313 12314 12315 12316 12317 12318 12319 12320 12321 12322 12323 12324 12325 12326 12327 12328 12329 12330 12331 12332 12333 12334 12335 12336 12337 12338 12339 12340 12341 12342 12343 12344 12345 12346 12347 12348 12349 12350 12351 12352 12353 12354 12355 12356 12357 12358 12359 12360 12361 12362 12363 12364 12365 12366 12367 12368 12369 12370 12371 12372 12373 12374 12375 12376 12377 12378 12379 12380 12381 12382 12383 12384 12385 12386 12387 12388 12389 12390 12391 12392 12393 12394 12395 12396 12397 12398 12399 12400 12401 12402 12403 12404 12405 12406 12407 12408 12409 12410 12411 12412 12413 12414 12415 12416 12417 12418 12419 12420 12421 12422 12423 12424 12425 12426 12427 12428 12429 12430 12431 12432 12433 12434 12435 12436 12437 12438 12439 12440 12441 12442 12443 12444 12445 12446 12447 12448 12449 12450 12451 12452 12453 12454 12455 12456 12457 12458 12459 12460 12461 12462 12463 12464 12465 12466 12467 12468 12469 12470 12471 12472 12473 12474 12475 12476 12477 12478 12479 12480 12481 12482 12483 12484 12485 12486 12487 12488 12489 12490 12491 12492 12493 12494 12495 12496 12497 12498 12499 12500 12501 12502 12503 12504 12505 12506 12507 12508 12509 12510 12511 12512 12513 12514 12515 12516 12517 12518 12519 12520 12521 12522 12523 12524 12525 12526 12527 12528 12529 12530 12531 12532 12533 12534 12535 12536 12537 12538 12539 12540 12541 12542 12543 12544 12545 12546 12547 12548 12549 12550 12551 12552 12553 12554 12555 12556 12557 12558 12559 12560 12561 12562 12563 12564 12565 12566 12567 12568 12569 12570 12571 12572 12573 12574 12575 12576 12577 12578 12579 12580 12581 12582 12583 12584 12585 12586 12587 12588 12589 12590 12591 12592 12593 12594 12595 12596 12597 12598 12599 12600 12601 12602 12603 12604 12605 12606 12607 12608 12609 12610 12611 12612 12613 12614 12615 12616 12617 12618 12619 12620 12621 12622 12623 12624 12625 12626 12627 12628 12629 12630 12631 12632 12633 12634 12635 12636 12637 12638 12639 12640 12641 12642 12643 12644 12645 12646 12647 12648 12649 12650 12651 12652 12653 12654 12655 12656 12657 12658 12659 12660 12661 12662 12663 12664 12665 12666 12667 12668 12669 12670 12671 12672 12673 12674 12675 12676 12677 12678 12679 12680 12681 12682 12683 12684 12685 12686 12687 12688 12689 12690 12691 12692 12693 12694 12695 12696 12697 12698 12699 12700 12701 12702 12703 12704 12705 12706 12707 12708 12709 12710 12711 12712 12713 12714 12715 12716 12717 12718 12719 12720 12721 12722 12723 12724 12725 12726 12727 12728 12729 12730 12731 12732 12733 12734 12735 12736 12737 12738 12739 12740 12741 12742 12743 12744 12745 12746 12747 12748 12749 12750 12751 12752 12753 12754 12755 12756 12757 12758 12759 12760 12761 12762 12763 12764 12765 12766 12767 12768 12769 12770 12771 12772 12773 12774 12775 12776 12777 12778 12779 12780 12781 12782 12783 12784 12785 12786 12787 12788 12789 12790 12791 12792 12793 12794 12795 12796 12797 12798 12799 12800 12801 12802 12803 12804 12805 12806 12807 12808 12809 12810 12811 12812 12813 12814 12815 12816 12817 12818 12819 12820 12821 12822 12823 12824 12825 12826 12827 12828 12829 12830 12831 12832 12833 12834 12835 12836 12837 12838 12839 12840 12841 12842 12843 12844 12845 12846 12847 12848 12849 12850 12851 12852 12853 12854 12855 12856 12857 12858 12859 12860 12861 12862 12863 12864 12865 12866 12867 12868 12869 12870 12871 12872 12873 12874 12875 12876 12877 12878 12879 12880 12881 12882 12883 12884 12885 12886 12887 12888 12889 12890 12891 12892 12893 12894 12895 12896 12897 12898 12899 12900 12901 12902 12903 12904 12905 12906 12907 12908 12909 12910 12911 12912 12913 12914 12915 12916 12917 12918 12919 12920 12921 12922 12923 12924 12925 12926 12927 12928 12929 12930 12931 12932 12933 12934 12935 12936 12937 12938 12939 12940 12941 12942 12943 12944 12945 12946 12947 12948 12949 12950 12951 12952 12953 12954 12955 12956 12957 12958 12959 12960 12961 12962 12963 12964 12965 12966 12967 12968 12969 12970 12971 12972 12973 12974 12975 12976 12977 12978 12979 12980 12981 12982 12983 12984 12985 12986 12987 12988 12989 12990 12991 12992 12993 12994 12995 12996 12997 12998 12999 13000 13001 13002 13003 13004 13005 13006 13007 13008 13009 13010 13011 13012 13013 13014 13015 13016 13017 13018 13019 13020 13021 13022 13023 13024 13025 13026 13027 13028 13029 13030 13031 13032 13033 13034 13035 13036 13037 13038 13039 13040 13041 13042 13043 13044 13045 13046 13047 13048 13049 13050 13051 13052 13053 13054 13055 13056 13057 13058 13059 13060 13061 13062 13063 13064 13065 13066 13067 13068 13069 13070 13071 13072 13073 13074 13075 13076 13077 13078 13079 13080 13081 13082 13083 13084 13085 13086 13087 13088 13089 13090 13091 13092 13093 13094 13095 13096 13097 13098 13099 13100 13101 13102 13103 13104 13105 13106 13107 13108 13109 13110 13111 13112 13113 13114 13115 13116 13117 13118 13119 13120 13121 13122 13123 13124 13125 13126 13127 13128 13129 13130 13131 13132 13133 13134 13135 13136 13137 13138 13139 13140 13141 13142 13143 13144 13145 13146 13147 13148 13149 13150 13151 13152 13153 13154 13155 13156 13157 13158 13159 13160 13161 13162 13163 13164 13165 13166 13167 13168 13169 13170 13171 13172 13173 13174 13175 13176 13177 13178 13179 13180 13181 13182 13183 13184 13185 13186 13187 13188 13189 13190 13191 13192 13193 13194 13195 13196 13197 13198 13199 13200 13201 13202 13203 13204 13205 13206 13207 13208 13209 13210 13211 13212 13213 13214 13215 13216 13217 13218 13219 13220 13221 13222 13223 13224 13225 13226 13227 13228 13229 13230 13231 13232 13233 13234 13235 13236 13237 13238 13239 13240 13241 13242 13243 13244 13245 13246 13247 13248 13249 13250 13251 13252 13253 13254 13255 13256 13257 13258 13259 13260 13261 13262 13263 13264 13265 13266 13267 13268 13269 13270 13271 13272 13273 13274 13275 13276 13277 13278 13279 13280 13281 13282 13283 13284 13285 13286 13287 13288 13289 13290 13291 13292 13293 13294 13295 13296 13297 13298 13299 13300 13301 13302 13303 13304 13305 13306 13307 13308 13309 13310 13311 13312 13313 13314 13315 13316 13317 13318 13319 13320 13321 13322 13323 13324 13325 13326 13327 13328 13329 13330 13331 13332 13333 13334 13335 13336 13337 13338 13339 13340 13341 13342 13343 13344 13345 13346 13347 13348 13349 13350 13351 13352 13353 13354 13355 13356 13357 13358 13359 13360 13361 13362 13363 13364 13365 13366 13367 13368 13369 13370 13371 13372 13373 13374 13375 13376 13377 13378 13379 13380 13381 13382 13383 13384 13385 13386 13387 13388 13389 13390 13391 13392 13393 13394 13395 13396 13397 13398 13399 13400 13401 13402 13403 13404 13405 13406 13407 13408 13409 13410 13411 13412 13413 13414 13415 13416 13417 13418 13419 13420 13421 13422 13423 13424 13425 13426 13427 13428 13429 13430 13431 13432 13433 13434 13435 13436 13437 13438 13439 13440 13441 13442 13443 13444 13445 13446 13447 13448 13449 13450 13451 13452 13453 13454 13455 13456 13457 13458 13459 13460 13461 13462 13463 13464 13465 13466 13467 13468 13469 13470 13471 13472 13473 13474 13475 13476 13477 13478 13479 13480 13481 13482 13483 13484 13485 13486 13487 13488 13489 13490 13491 13492 13493 13494 13495 13496 13497 13498 13499 13500 13501 13502 13503 13504 13505 13506 13507 13508 13509 13510 13511 13512 13513 13514 13515 13516 13517 13518 13519 13520 13521 13522 13523 13524 13525 13526 13527 13528 13529 13530 13531 13532 13533 13534 13535 13536 13537 13538 13539 13540 13541 13542 13543 13544 13545 13546 13547 13548 13549 13550 13551 13552 13553 13554 13555 13556 13557 13558 13559 13560 13561 13562 13563 13564 13565 13566 13567 13568 13569 13570 13571 13572 13573 13574 13575 13576 13577 13578 13579 13580 13581 13582 13583 13584 13585 13586 13587 13588 13589 13590 13591 13592 13593 13594 13595 13596 13597 13598 13599 13600 13601 13602 13603 13604 13605 13606 13607 13608 13609 13610 13611 13612 13613 13614 13615 13616 13617 13618 13619 13620 13621 13622 13623 13624 13625 13626 13627 13628 13629 13630 13631 13632 13633 13634 13635 13636 13637 13638 13639 13640 13641 13642 13643 13644 13645 13646 13647 13648 13649 13650 13651 13652 13653 13654 13655 13656 13657 13658 13659 13660 13661 13662 13663 13664 13665 13666 13667 13668 13669 13670 13671 13672 13673 13674 13675 13676 13677 13678 13679 13680 13681 13682 13683 13684 13685 13686 13687 13688 13689 13690 13691 13692 13693 13694 13695 13696 13697 13698 13699 13700 13701 13702 13703 13704 13705 13706 13707 13708 13709 13710 13711 13712 13713 13714 13715 13716 13717 13718 13719 13720 13721 13722 13723 13724 13725 13726 13727 13728 13729 13730 13731 13732 13733 13734 13735 13736 13737 13738 13739 13740 13741 13742 13743 13744 13745 13746 13747 13748 13749 13750 13751 13752 13753 13754 13755 13756 13757 13758 13759 13760 13761 13762 13763 13764 13765 13766 13767 13768 13769 13770 13771 13772 13773 13774 13775 13776 13777 13778 13779 13780 13781 13782 13783 13784 13785 13786 13787 13788 13789 13790 13791 13792 13793 13794 13795 13796 13797 13798 13799 13800 13801 13802 13803 13804 13805 13806 13807 13808 13809 13810 13811 13812 13813 13814 13815 13816 13817 13818 13819 13820 13821 13822 13823 13824 13825 13826 13827 13828 13829 13830 13831 13832 13833 13834 13835 13836 13837 13838 13839 13840 13841 13842 13843 13844 13845 13846 13847 13848 13849 13850 13851 13852 13853 13854 13855 13856 13857 13858 13859 13860 13861 13862 13863 13864 13865 13866 13867 13868 13869 13870 13871 13872 13873 13874 13875 13876 13877 13878 13879 13880 13881 13882 13883 13884 13885 13886 13887 13888 13889 13890 13891 13892 13893 13894 13895 13896 13897 13898 13899 13900 13901 13902 13903 13904 13905 13906 13907 13908 13909 13910 13911 13912 13913 13914 13915 13916 13917 13918 13919 13920 13921 13922 13923 13924 13925 13926 13927 13928 13929 13930 13931 13932 13933 13934 13935 13936 13937 13938 13939 13940 13941 13942 13943 13944 13945 13946 13947 13948 13949 13950 13951 13952 13953 13954 13955 13956 13957 13958 13959 13960 13961 13962 13963 13964 13965 13966 13967 13968 13969 13970 13971 13972 13973 13974 13975 13976 13977 13978 13979 13980 13981 13982 13983 13984 13985 13986 13987 13988 13989 13990 13991 13992 13993 13994 13995 13996 13997 13998 13999 14000 14001 14002 14003 14004 14005 14006 14007 14008 14009 14010 14011 14012 14013 14014 14015 14016 14017 14018 14019 14020 14021 14022 14023 14024 14025 14026 14027 14028 14029 14030 14031 14032 14033 14034 14035 14036 14037 14038 14039 14040 14041 14042 14043 14044 14045 14046 14047 14048 14049 14050 14051 14052 14053 14054 14055 14056 14057 14058 14059 14060 14061 14062 14063 14064 14065 14066 14067 14068 14069 14070 14071 14072 14073 14074 14075 14076 14077 14078 14079 14080 14081 14082 14083 14084 14085 14086 14087 14088 14089 14090 14091 14092 14093 14094 14095 14096 14097 14098 14099 14100 14101 14102 14103 14104 14105 14106 14107 14108 14109 14110 14111 14112 14113 14114 14115 14116 14117 14118 14119 14120 14121 14122 14123 14124 14125 14126 14127 14128 14129 14130 14131 14132 14133 14134 14135 14136 14137 14138 14139 14140 14141 14142 14143 14144 14145 14146 14147 14148 14149 14150 14151 14152 14153 14154 14155 14156 14157 14158 14159 14160 14161 14162 14163 14164 14165 14166 14167 14168 14169 14170 14171 14172 14173 14174 14175 14176 14177 14178 14179 14180 14181 14182 14183 14184 14185 14186 14187 14188 14189 14190 14191 14192 14193 14194 14195 14196 14197 14198 14199 14200 14201 14202 14203 14204 14205 14206 14207 14208 14209 14210 14211 14212 14213 14214 14215 14216 14217 14218 14219 14220 14221 14222 14223 14224 14225 14226 14227 14228 14229 14230 14231 14232 14233 14234 14235 14236 14237 14238 14239 14240 14241 14242 14243 14244 14245 14246 14247 14248 14249 14250 14251 14252 14253 14254 14255 14256 14257 14258 14259 14260 14261 14262 14263 14264 14265 14266 14267 14268 14269 14270 14271 14272 14273 14274 14275 14276 14277 14278 14279 14280 14281 14282 14283 14284 14285 14286 14287 14288 14289 14290 14291 14292 14293 14294 14295 14296 14297 14298 14299 14300 14301 14302 14303 14304 14305 14306 14307 14308 14309 14310 14311 14312 14313 14314 14315 14316 14317 14318 14319 14320 14321 14322 14323 14324 14325 14326 14327 14328 14329 14330 14331 14332 14333 14334 14335 14336 14337 14338 14339 14340 14341 14342 14343 14344 14345 14346 14347 14348 14349 14350 14351 14352 14353 14354 14355 14356 14357 14358 14359 14360 14361 14362 14363 14364 14365 14366 14367 14368 14369 14370 14371 14372 14373 14374 14375 14376 14377 14378 14379 14380 14381 14382 14383 14384 14385 14386 14387 14388 14389 14390 14391 14392 14393 14394 14395 14396 14397 14398 14399 14400 14401 14402 14403 14404 14405 14406 14407 14408 14409 14410 14411 14412 14413 14414 14415 14416 14417 14418 14419 14420 14421 14422 14423 14424 14425 14426 14427 14428 14429 14430 14431 14432 14433 14434 14435 14436 14437 14438 14439 14440 14441 14442 14443 14444 14445 14446 14447 14448 14449 14450 14451 14452 14453 14454 14455 14456 14457 14458 14459 14460 14461 14462 14463 14464 14465 14466 14467 14468 14469 14470 14471 14472 14473 14474 14475 14476 14477 14478 14479 14480 14481 14482 14483 14484 14485 14486 14487 14488 14489 14490 14491 14492 14493 14494 14495 14496 14497 14498 14499 14500 14501 14502 14503 14504 14505 14506 14507 14508 14509 14510 14511 14512 14513 14514 14515 14516 14517 14518 14519 14520 14521 14522 14523 14524 14525 14526 14527 14528 14529 14530 14531 14532 14533 14534 14535 14536 14537 14538 14539 14540 14541 14542 14543 14544 14545 14546 14547 14548 14549 14550 14551 14552 14553 14554 14555 14556 14557 14558 14559 14560 14561 14562 14563 14564 14565 14566 14567 14568 14569 14570 14571 14572 14573 14574 14575 14576 14577 14578 14579 14580 14581 14582 14583 14584 14585 14586 14587 14588 14589 14590 14591 14592 14593 14594 14595 14596 14597 14598 14599 14600 14601 14602 14603 14604 14605 14606 14607 14608 14609 14610 14611 14612 14613 14614 14615 14616 14617 14618 14619 14620 14621 14622 14623 14624 14625 14626 14627 14628 14629 14630 14631 14632 14633 14634 14635 14636 14637 14638 14639 14640 14641 14642 14643 14644 14645 14646 14647 14648 14649 14650 14651 14652 14653 14654 14655 14656 14657 14658 14659 14660 14661 14662 14663 14664 14665 14666 14667 14668 14669 14670 14671 14672 14673 14674 14675 14676 14677 14678 14679 14680 14681 14682 14683 14684 14685 14686 14687 14688 14689 14690 14691 14692 14693 14694 14695 14696 14697 14698 14699 14700 14701 14702 14703 14704 14705 14706 14707 14708 14709 14710 14711 14712 14713 14714 14715 14716 14717 14718 14719 14720 14721 14722 14723 14724 14725 14726 14727 14728 14729 14730 14731 14732 14733 14734 14735 14736 14737 14738 14739 14740 14741 14742 14743 14744 14745 14746 14747 14748 14749 14750 14751 14752 14753 14754 14755 14756 14757 14758 14759 14760 14761 14762 14763 14764 14765 14766 14767 14768 14769 14770 14771 14772 14773 14774 14775 14776 14777 14778 14779 14780 14781 14782 14783 14784 14785 14786 14787 14788 14789 14790 14791 14792 14793 14794 14795 14796 14797 14798 14799 14800 14801 14802 14803 14804 14805 14806 14807 14808 14809 14810 14811 14812 14813 14814 14815 14816 14817 14818 14819 14820 14821 14822 14823 14824 14825 14826 14827 14828 14829 14830 14831 14832 14833 14834 14835 14836 14837 14838 14839 14840 14841 14842 14843 14844 14845 14846 14847 14848 14849 14850 14851 14852 14853 14854 14855 14856 14857 14858 14859 14860 14861 14862 14863 14864 14865 14866 14867 14868 14869 14870 14871 14872 14873 14874 14875 14876 14877 14878 14879 14880 14881 14882 14883 14884 14885 14886 14887 14888 14889 14890 14891 14892 14893 14894 14895 14896 14897 14898 14899 14900 14901 14902 14903 14904 14905 14906 14907 14908 14909 14910 14911 14912 14913 14914 14915 14916 14917 14918 14919 14920 14921 14922 14923 14924 14925 14926 14927 14928 14929 14930 14931 14932 14933 14934 14935 14936 14937 14938 14939 14940 14941 14942 14943 14944 14945 14946 14947 14948 14949 14950 14951 14952 14953 14954 14955 14956 14957 14958 14959 14960 14961 14962 14963 14964 14965 14966 14967 14968 14969 14970 14971 14972 14973 14974 14975 14976 14977 14978 14979 14980 14981 14982 14983 14984 14985 14986 14987 14988 14989 14990 14991 14992 14993 14994 14995 14996 14997 14998 14999 15000 15001 15002 15003 15004 15005 15006 15007 15008 15009 15010 15011 15012 15013 15014 15015 15016 15017 15018 15019 15020 15021 15022 15023 15024 15025 15026 15027 15028 15029 15030 15031 15032 15033 15034 15035 15036 15037 15038 15039 15040 15041 15042 15043 15044 15045 15046 15047 15048 15049 15050 15051 15052 15053 15054 15055 15056 15057 15058 15059 15060 15061 15062 15063 15064 15065 15066 15067 15068 15069 15070 15071 15072 15073 15074 15075 15076 15077 15078 15079 15080 15081 15082 15083 15084 15085 15086 15087 15088 15089 15090 15091 15092 15093 15094 15095 15096 15097 15098 15099 15100 15101 15102 15103 15104 15105 15106 15107 15108 15109 15110 15111 15112 15113 15114 15115 15116 15117 15118 15119 15120 15121 15122 15123 15124 15125 15126 15127 15128 15129 15130 15131 15132 15133 15134 15135 15136 15137 15138 15139 15140 15141 15142 15143 15144 15145 15146 15147 15148 15149 15150 15151 15152 15153 15154 15155 15156 15157 15158 15159 15160 15161 15162 15163 15164 15165 15166 15167 15168 15169 15170 15171 15172 15173 15174 15175 15176 15177 15178 15179 15180 15181 15182 15183 15184 15185 15186 15187 15188 15189 15190 15191 15192 15193 15194 15195 15196 15197 15198 15199 15200 15201 15202 15203 15204 15205 15206 15207 15208 15209 15210 15211 15212 15213 15214 15215 15216 15217 15218 15219 15220 15221 15222 15223 15224 15225 15226 15227 15228 15229 15230 15231 15232 15233 15234 15235 15236 15237 15238 15239 15240 15241 15242 15243 15244 15245 15246 15247 15248 15249 15250 15251 15252 15253 15254 15255 15256 15257 15258 15259 15260 15261 15262 15263 15264 15265 15266 15267 15268 15269 15270 15271 15272 15273 15274 15275 15276 15277 15278 15279 15280 15281 15282 15283 15284 15285 15286 15287 15288 15289 15290 15291 15292 15293 15294 15295 15296 15297 15298 15299 15300 15301 15302 15303 15304 15305 15306 15307 15308 15309 15310 15311 15312 15313 15314 15315 15316 15317 15318 15319 15320 15321 15322 15323 15324 15325 15326 15327 15328 15329 15330 15331 15332 15333 15334 15335 15336 15337 15338 15339 15340 15341 15342 15343 15344 15345 15346 15347 15348 15349 15350 15351 15352 15353 15354 15355 15356 15357 15358 15359 15360 15361 15362 15363 15364 15365 15366 15367 15368 15369 15370 15371 15372 15373 15374 15375 15376 15377 15378 15379 15380 15381 15382 15383 15384 15385 15386 15387 15388 15389 15390 15391 15392 15393 15394 15395 15396 15397 15398 15399 15400 15401 15402 15403 15404 15405 15406 15407 15408 15409 15410 15411 15412 15413 15414 15415 15416 15417 15418 15419 15420 15421 15422 15423 15424 15425 15426 15427 15428 15429 15430 15431 15432 15433 15434 15435 15436 15437 15438 15439 15440 15441 15442 15443 15444 15445 15446 15447 15448 15449 15450 15451 15452 15453 15454 15455 15456 15457 15458 15459 15460 15461 15462 15463 15464 15465 15466 15467 15468 15469 15470 15471 15472 15473 15474 15475 15476 15477 15478 15479 15480 15481 15482 15483 15484 15485 15486 15487 15488 15489 15490 15491 15492 15493 15494 15495 15496 15497 15498 15499 15500 15501 15502 15503 15504 15505 15506 15507 15508 15509 15510 15511 15512 15513 15514 15515 15516 15517 15518 15519 15520 15521 15522 15523 15524 15525 15526 15527 15528 15529 15530 15531 15532 15533 15534 15535 15536 15537 15538 15539 15540 15541 15542 15543 15544 15545 15546 15547 15548 15549 15550 15551 15552 15553 15554 15555 15556 15557 15558 15559 15560 15561 15562 15563 15564 15565 15566 15567 15568 15569 15570 15571 15572 15573 15574 15575 15576 15577 15578 15579 15580 15581 15582 15583 15584 15585 15586 15587 15588 15589 15590 15591 15592 15593 15594 15595 15596 15597 15598 15599 15600 15601 15602 15603 15604 15605 15606 15607 15608 15609 15610 15611 15612 15613 15614 15615 15616 15617 15618 15619 15620 15621 15622 15623 15624 15625 15626 15627 15628 15629 15630 15631 15632 15633 15634 15635 15636 15637 15638 15639 15640 15641 15642 15643 15644 15645 15646 15647 15648 15649 15650 15651 15652 15653 15654 15655 15656 15657 15658 15659 15660 15661 15662 15663 15664 15665 15666 15667 15668 15669 15670 15671 15672 15673 15674 15675 15676 15677 15678 15679 15680 15681 15682 15683 15684 15685 15686 15687 15688 15689 15690 15691 15692 15693 15694 15695 15696 15697 15698 15699 15700 15701 15702 15703 15704 15705 15706 15707 15708 15709 15710 15711 15712 15713 15714 15715 15716 15717 15718 15719 15720 15721 15722 15723 15724 15725 15726 15727 15728 15729 15730 15731 15732 15733 15734 15735 15736 15737 15738 15739 15740 15741 15742 15743 15744 15745 15746 15747 15748 15749 15750 15751 15752 15753 15754 15755 15756 15757 15758 15759 15760 15761 15762 15763 15764 15765 15766 15767 15768 15769 15770 15771 15772 15773 15774 15775 15776 15777 15778 15779 15780 15781 15782 15783 15784 15785 15786 15787 15788 15789 15790 15791 15792 15793 15794 15795 15796 15797 15798 15799 15800 15801 15802 15803 15804 15805 15806 15807 15808 15809 15810 15811 15812 15813 15814 15815 15816 15817 15818 15819 15820 15821 15822 15823 15824 15825 15826 15827 15828 15829 15830 15831 15832 15833 15834 15835 15836 15837 15838 15839 15840 15841 15842 15843 15844 15845 15846 15847 15848 15849 15850 15851 15852 15853 15854 15855 15856 15857 15858 15859 15860 15861 15862 15863 15864 15865 15866 15867 15868 15869 15870 15871 15872 15873 15874 15875 15876 15877 15878 15879 15880 15881 15882 15883 15884 15885 15886 15887 15888 15889 15890 15891 15892 15893 15894 15895 15896 15897 15898 15899 15900 15901 15902 15903 15904 15905 15906 15907 15908 15909 15910 15911 15912 15913 15914 15915 15916 15917 15918 15919 15920 15921 15922 15923 15924 15925 15926 15927 15928 15929 15930 15931 15932 15933 15934 15935 15936 15937 15938 15939 15940 15941 15942 15943 15944 15945 15946 15947 15948 15949 15950 15951 15952 15953 15954 15955 15956 15957 15958 15959 15960 15961 15962 15963 15964 15965 15966 15967 15968 15969 15970 15971 15972 15973 15974 15975 15976 15977 15978 15979 15980 15981 15982 15983 15984 15985 15986 15987 15988 15989 15990 15991 15992 15993 15994 15995 15996 15997 15998 15999 16000 16001 16002 16003 16004 16005 16006 16007 16008 16009 16010 16011 16012 16013 16014 16015 16016 16017 16018 16019 16020 16021 16022 16023 16024 16025 16026 16027 16028 16029 16030 16031 16032 16033 16034 16035 16036 16037 16038 16039 16040 16041 16042 16043 16044 16045 16046 16047 16048 16049 16050 16051 16052 16053 16054 16055 16056 16057 16058 16059 16060 16061 16062 16063 16064 16065 16066 16067 16068 16069 16070 16071 16072 16073 16074 16075 16076 16077 16078 16079 16080 16081 16082 16083 16084 16085 16086 16087 16088 16089 16090 16091 16092 16093 16094 16095 16096 16097 16098 16099 16100 16101 16102 16103 16104 16105 16106 16107 16108 16109 16110 16111 16112 16113 16114 16115 16116 16117 16118 16119 16120 16121 16122 16123 16124 16125 16126 16127 16128 16129 16130 16131 16132 16133 16134 16135 16136 16137 16138 16139 16140 16141 16142 16143 16144 16145 16146 16147 16148 16149 16150 16151 16152 16153 16154 16155 16156 16157 16158 16159 16160 16161 16162 16163 16164 16165 16166 16167 16168 16169 16170 16171 16172 16173 16174 16175 16176 16177 16178 16179 16180 16181 16182 16183 16184 16185 16186 16187 16188 16189 16190 16191 16192 16193 16194 16195 16196 16197 16198 16199 16200 16201 16202 16203 16204 16205 16206 16207 16208 16209 16210 16211 16212 16213 16214 16215 16216 16217 16218 16219 16220 16221 16222 16223 16224 16225 16226 16227 16228 16229 16230 16231 16232 16233 16234 16235 16236 16237 16238 16239 16240 16241 16242 16243 16244 16245 16246 16247 16248 16249 16250 16251 16252 16253 16254 16255 16256 16257 16258 16259 16260 16261 16262 16263 16264 16265 16266 16267 16268 16269 16270 16271 16272 16273 16274 16275 16276 16277 16278 16279 16280 16281 16282 16283 16284 16285 16286 16287 16288 16289 16290 16291 16292 16293 16294 16295 16296 16297 16298 16299 16300 16301 16302 16303 16304 16305 16306 16307 16308 16309 16310 16311 16312 16313 16314 16315 16316 16317 16318 16319 16320 16321 16322 16323 16324 16325 16326 16327 16328 16329 16330 16331 16332 16333 16334 16335 16336 16337 16338 16339 16340 16341 16342 16343 16344 16345 16346 16347 16348 16349 16350 16351 16352 16353 16354 16355 16356 16357 16358 16359 16360 16361 16362 16363 16364 16365 16366 16367 16368 16369 16370 16371 16372 16373 16374 16375 16376 16377 16378 16379 16380 16381 16382 16383 16384 16385 16386 16387 16388 16389 16390 16391 16392 16393 16394 16395 16396 16397 16398 16399 16400 16401 16402 16403 16404 16405 16406 16407 16408 16409 16410 16411 16412 16413 16414 16415 16416 16417 16418 16419 16420 16421 16422 16423 16424 16425 16426 16427 16428 16429 16430 16431 16432 16433 16434 16435 16436 16437 16438 16439 16440 16441 16442 16443 16444 16445 16446 16447 16448 16449 16450 16451 16452 16453 16454 16455 16456 16457 16458 16459 16460 16461 16462 16463 16464 16465 16466 16467 16468 16469 16470 16471 16472 16473 16474 16475 16476 16477 16478 16479 16480 16481 16482 16483 16484 16485 16486 16487 16488 16489 16490 16491 16492 16493 16494 16495 16496 16497 16498 16499 16500 16501 16502 16503 16504 16505 16506 16507 16508 16509 16510 16511 16512 16513 16514 16515 16516 16517 16518 16519 16520 16521 16522 16523 16524 16525 16526 16527 16528 16529 16530 16531 16532 16533 16534 16535 16536 16537 16538 16539 16540 16541 16542 16543 16544 16545 16546 16547 16548 16549 16550 16551 16552 16553 16554 16555 16556 16557 16558 16559 16560 16561 16562 16563 16564 16565 16566 16567 16568 16569 16570 16571 16572 16573 16574 16575 16576 16577 16578 16579 16580 16581 16582 16583 16584 16585 16586 16587 16588 16589 16590 16591 16592 16593 16594 16595 16596 16597 16598 16599 16600 16601 16602 16603 16604 16605 16606 16607 16608 16609 16610 16611 16612 16613 16614 16615 16616 16617 16618 16619 16620 16621 16622 16623 16624 16625 16626 16627 16628 16629 16630 16631 16632 16633 16634 16635 16636 16637 16638 16639 16640 16641 16642 16643 16644 16645 16646 16647 16648 16649 16650 16651 16652 16653 16654 16655 16656 16657 16658 16659 16660 16661 16662 16663 16664 16665 16666 16667 16668 16669 16670 16671 16672 16673 16674 16675 16676 16677 16678 16679 16680 16681 16682 16683 16684 16685 16686 16687 16688 16689 16690 16691 16692 16693 16694 16695 16696 16697 16698 16699 16700 16701 16702 16703 16704 16705 16706 16707 16708 16709 16710 16711 16712 16713 16714 16715 16716 16717 16718 16719 16720 16721 16722 16723 16724 16725 16726 16727 16728 16729 16730 16731 16732 16733 16734 16735 16736 16737 16738 16739 16740 16741 16742 16743 16744 16745 16746 16747 16748 16749 16750 16751 16752 16753 16754 16755 16756 16757 16758 16759 16760 16761 16762 16763 16764 16765 16766 16767 16768 16769 16770 16771 16772 16773 16774 16775 16776 16777 16778 16779 16780 16781 16782 16783 16784 16785 16786 16787 16788 16789 16790 16791 16792 16793 16794 16795 16796 16797 16798 16799 16800 16801 16802 16803 16804 16805 16806 16807 16808 16809 16810 16811 16812 16813 16814 16815 16816 16817 16818 16819 16820 16821 16822 16823 16824 16825 16826 16827 16828 16829 16830 16831 16832 16833 16834 16835 16836 16837 16838 16839 16840 16841 16842 16843 16844 16845 16846 16847 16848 16849 16850 16851 16852 16853 16854 16855 16856 16857 16858 16859 16860 16861 16862 16863 16864 16865 16866 16867 16868 16869 16870 16871 16872 16873 16874 16875 16876 16877 16878 16879 16880 16881 16882 16883 16884 16885 16886 16887 16888 16889 16890 16891 16892 16893 16894 16895 16896 16897 16898 16899 16900 16901 16902 16903 16904 16905 16906 16907 16908 16909 16910 16911 16912 16913 16914 16915 16916 16917 16918 16919 16920 16921 16922 16923 16924 16925 16926 16927 16928 16929 16930 16931 16932 16933 16934 16935 16936 16937 16938 16939 16940 16941 16942 16943 16944 16945 16946 16947 16948 16949 16950 16951 16952 16953 16954 16955 16956 16957 16958 16959 16960 16961 16962 16963 16964 16965 16966 16967 16968 16969 16970 16971 16972 16973 16974 16975 16976 16977 16978 16979 16980 16981 16982 16983 16984 16985 16986 16987 16988 16989 16990 16991 16992 16993 16994 16995 16996 16997 16998 16999 17000 17001 17002 17003 17004 17005 17006 17007 17008 17009 17010 17011 17012 17013 17014 17015 17016 17017 17018 17019 17020 17021 17022 17023 17024 17025 17026 17027 17028 17029 17030 17031 17032 17033 17034 17035 17036 17037 17038 17039 17040 17041 17042 17043 17044 17045 17046 17047 17048 17049 17050 17051 17052 17053 17054 17055 17056 17057 17058 17059 17060 17061 17062 17063 17064 17065 17066 17067 17068 17069 17070 17071 17072 17073 17074 17075 17076 17077 17078 17079 17080 17081 17082 17083 17084 17085 17086 17087 17088 17089 17090 17091 17092 17093 17094 17095 17096 17097 17098 17099 17100 17101 17102 17103 17104 17105 17106 17107 17108 17109 17110 17111 17112 17113 17114 17115 17116 17117 17118 17119 17120 17121 17122 17123 17124 17125 17126 17127 17128 17129 17130 17131 17132 17133 17134 17135 17136 17137 17138 17139 17140 17141 17142 17143 17144 17145 17146 17147 17148 17149 17150 17151 17152 17153 17154 17155 17156 17157 17158 17159 17160 17161 17162 17163 17164 17165 17166 17167 17168 17169 17170 17171 17172 17173 17174 17175 17176 17177 17178 17179 17180 17181 17182 17183 17184 17185 17186 17187 17188 17189 17190 17191 17192 17193 17194 17195 17196 17197 17198 17199 17200 17201 17202 17203 17204 17205 17206 17207 17208 17209 17210 17211 17212 17213 17214 17215 17216 17217 17218 17219 17220 17221 17222 17223 17224 17225 17226 17227 17228 17229 17230 17231 17232 17233 17234 17235 17236 17237 17238 17239 17240 17241 17242 17243 17244 17245 17246 17247 17248 17249 17250 17251 17252 17253 17254 17255 17256 17257 17258 17259 17260 17261 17262 17263 17264 17265 17266 17267 17268 17269 17270 17271 17272 17273 17274 17275 17276 17277 17278 17279 17280 17281 17282 17283 17284 17285 17286 17287 17288 17289 17290 17291 17292 17293 17294 17295 17296 17297 17298 17299 17300 17301 17302 17303 17304 17305 17306 17307 17308 17309 17310 17311 17312 17313 17314 17315 17316 17317 17318 17319 17320 17321 17322 17323 17324 17325 17326 17327 17328 17329 17330 17331 17332 17333 17334 17335 17336 17337 17338 17339 17340 17341 17342 17343 17344 17345 17346 17347 17348 17349 17350 17351 17352 17353 17354 17355 17356 17357 17358 17359 17360 17361 17362 17363 17364 17365 17366 17367 17368 17369 17370 17371 17372 17373 17374 17375 17376 17377 17378 17379 17380 17381 17382 17383 17384 17385 17386 17387 17388 17389 17390 17391 17392 17393 17394 17395 17396 17397 17398 17399 17400 17401 17402 17403 17404 17405 17406 17407 17408 17409 17410 17411 17412 17413 17414 17415 17416 17417 17418 17419 17420 17421 17422 17423 17424 17425 17426 17427 17428 17429 17430 17431 17432 17433 17434 17435 17436 17437 17438 17439 17440 17441 17442 17443 17444 17445 17446 17447 17448 17449 17450 17451 17452 17453 17454 17455 17456 17457 17458 17459 17460 17461 17462 17463 17464 17465 17466 17467 17468 17469 17470 17471 17472 17473 17474 17475 17476 17477 17478 17479 17480 17481 17482 17483 17484 17485 17486 17487 17488 17489 17490 17491 17492 17493 17494 17495 17496 17497 17498 17499 17500 17501 17502 17503 17504 17505 17506 17507 17508 17509 17510 17511 17512 17513 17514 17515 17516 17517 17518 17519 17520 17521 17522 17523 17524 17525 17526 17527 17528 17529 17530 17531 17532 17533 17534 17535 17536 17537 17538 17539 17540 17541 17542 17543 17544 17545 17546 17547 17548 17549 17550 17551 17552 17553 17554 17555 17556 17557 17558 17559 17560 17561 17562 17563 17564 17565 17566 17567 17568 17569 17570 17571 17572 17573 17574 17575 17576 17577 17578 17579 17580 17581 17582 17583 17584 17585 17586 17587 17588 17589 17590 17591 17592 17593 17594 17595 17596 17597 17598 17599 17600 17601 17602 17603 17604 17605 17606 17607 17608 17609 17610 17611 17612 17613 17614 17615 17616 17617 17618 17619 17620 17621 17622 17623 17624 17625 17626 17627 17628 17629 17630 17631 17632 17633 17634 17635 17636 17637 17638 17639 17640 17641 17642 17643 17644 17645 17646 17647 17648 17649 17650 17651 17652 17653 17654 17655 17656 17657 17658 17659 17660 17661 17662 17663 17664 17665 17666 17667 17668 17669 17670 17671 17672 17673 17674 17675 17676 17677 17678 17679 17680 17681 17682 17683 17684 17685 17686 17687 17688 17689 17690 17691 17692 17693 17694 17695 17696 17697 17698 17699 17700 17701 17702 17703 17704 17705 17706 17707 17708 17709 17710 17711 17712 17713 17714 17715 17716 17717 17718 17719 17720 17721 17722 17723 17724 17725 17726 17727 17728 17729 17730 17731 17732 17733 17734 17735 17736 17737 17738 17739 17740 17741 17742 17743 17744 17745 17746 17747 17748 17749 17750 17751 17752 17753 17754 17755 17756 17757 17758 17759 17760 17761 17762 17763 17764 17765 17766 17767 17768 17769 17770 17771 17772 17773 17774 17775 17776 17777 17778 17779 17780 17781 17782 17783 17784 17785 17786 17787 17788 17789 17790 17791 17792 17793 17794 17795 17796 17797 17798 17799 17800 17801 17802 17803 17804 17805 17806 17807 17808 17809 17810 17811 17812 17813 17814 17815 17816 17817 17818 17819 17820 17821 17822 17823 17824 17825 17826 17827 17828 17829 17830 17831 17832 17833 17834 17835 17836 17837 17838 17839 17840 17841 17842 17843 17844 17845 17846 17847 17848 17849 17850 17851 17852 17853 17854 17855 17856 17857 17858 17859 17860 17861 17862 17863 17864 17865 17866 17867 17868 17869 17870 17871 17872 17873 17874 17875 17876 17877 17878 17879 17880 17881 17882 17883 17884 17885 17886 17887 17888 17889 17890 17891 17892 17893 17894 17895 17896 17897 17898 17899 17900 17901 17902 17903 17904 17905 17906 17907 17908 17909 17910 17911 17912 17913 17914 17915 17916 17917 17918 17919 17920 17921 17922 17923 17924 17925 17926 17927 17928 17929 17930 17931 17932 17933 17934 17935 17936 17937 17938 17939 17940 17941 17942 17943 17944 17945 17946 17947 17948 17949 17950 17951 17952 17953 17954 17955 17956 17957 17958 17959 17960 17961 17962 17963 17964 17965 17966 17967 17968 17969 17970 17971 17972 17973 17974 17975 17976 17977 17978 17979 17980 17981 17982 17983 17984 17985 17986 17987 17988 17989 17990 17991 17992 17993 17994 17995 17996 17997 17998 17999 18000 18001 18002 18003 18004 18005 18006 18007 18008 18009 18010 18011 18012 18013 18014 18015 18016 18017 18018 18019 18020 18021 18022 18023 18024 18025 18026 18027 18028 18029 18030 18031 18032 18033 18034 18035 18036 18037 18038 18039 18040 18041 18042 18043 18044 18045 18046 18047 18048 18049 18050 18051 18052 18053 18054 18055 18056 18057 18058 18059 18060 18061 18062 18063 18064 18065 18066 18067 18068 18069 18070 18071 18072 18073 18074 18075 18076 18077 18078 18079 18080 18081 18082 18083 18084 18085 18086 18087 18088 18089 18090 18091 18092 18093 18094 18095 18096 18097 18098 18099 18100 18101 18102 18103 18104 18105 18106 18107 18108 18109 18110 18111 18112 18113 18114 18115 18116 18117 18118 18119 18120 18121 18122 18123 18124 18125 18126 18127 18128 18129 18130 18131 18132 18133 18134 18135 18136 18137 18138 18139 18140 18141 18142 18143 18144 18145 18146 18147 18148 18149 18150 18151 18152 18153 18154 18155 18156 18157 18158 18159 18160 18161 18162 18163 18164 18165 18166 18167 18168 18169 18170 18171 18172 18173 18174 18175 18176 18177 18178 18179 18180 18181 18182 18183 18184 18185 18186 18187 18188 18189 18190 18191 18192 18193 18194 18195 18196 18197 18198 18199 18200 18201 18202 18203 18204 18205 18206 18207 18208 18209 18210 18211 18212 18213 18214 18215 18216 18217 18218 18219 18220 18221 18222 18223 18224 18225 18226 18227 18228 18229 18230 18231 18232 18233 18234 18235 18236 18237 18238 18239 18240 18241 18242 18243 18244 18245 18246 18247 18248 18249 18250 18251 18252 18253 18254 18255 18256 18257 18258 18259 18260 18261 18262 18263 18264 18265 18266 18267 18268 18269 18270 18271 18272 18273 18274 18275 18276 18277 18278 18279 18280 18281 18282 18283 18284 18285 18286 18287 18288 18289 18290 18291 18292 18293 18294 18295 18296 18297 18298 18299 18300 18301 18302 18303 18304 18305 18306 18307 18308 18309 18310 18311 18312 18313 18314 18315 18316 18317 18318 18319 18320 18321 18322 18323 18324 18325 18326 18327 18328 18329 18330 18331 18332 18333 18334 18335 18336 18337 18338 18339 18340 18341 18342 18343 18344 18345 18346 18347 18348 18349 18350 18351 18352 18353 18354 18355 18356 18357 18358 18359 18360 18361 18362 18363 18364 18365 18366 18367 18368 18369 18370 18371 18372 18373 18374 18375 18376 18377 18378 18379 18380 18381 18382 18383 18384 18385 18386 18387 18388 18389 18390 18391 18392 18393 18394 18395 18396 18397 18398 18399 18400 18401 18402 18403 18404 18405 18406 18407 18408 18409 18410 18411 18412 18413 18414 18415 18416 18417 18418 18419 18420 18421 18422 18423 18424 18425 18426 18427 18428 18429 18430 18431 18432 18433 18434 18435 18436 18437 18438 18439 18440 18441 18442 18443 18444 18445 18446 18447 18448 18449 18450 18451 18452 18453 18454 18455 18456 18457 18458 18459 18460 18461 18462 18463 18464 18465 18466 18467 18468 18469 18470 18471 18472 18473 18474 18475 18476 18477 18478 18479 18480 18481 18482 18483 18484 18485 18486 18487 18488 18489 18490 18491 18492 18493 18494 18495 18496 18497 18498 18499 18500 18501 18502 18503 18504 18505 18506 18507 18508 18509 18510 18511 18512 18513 18514 18515 18516 18517 18518 18519 18520 18521 18522 18523 18524 18525 18526 18527 18528 18529 18530 18531 18532 18533 18534 18535 18536 18537 18538 18539 18540 18541 18542 18543 18544 18545 18546 18547 18548 18549 18550 18551 18552 18553 18554 18555 18556 18557 18558 18559 18560 18561 18562 18563 18564 18565 18566 18567 18568 18569 18570 18571 18572 18573 18574 18575 18576 18577 18578 18579 18580 18581 18582 18583 18584 18585 18586 18587 18588 18589 18590 18591 18592 18593 18594 18595 18596 18597 18598 18599 18600 18601 18602 18603 18604 18605 18606 18607 18608 18609 18610 18611 18612 18613 18614 18615 18616 18617 18618 18619 18620 18621 18622 18623 18624 18625 18626 18627 18628 18629 18630 18631 18632 18633 18634 18635 18636 18637 18638 18639 18640 18641 18642 18643 18644 18645 18646 18647 18648 18649 18650 18651 18652 18653 18654 18655 18656 18657 18658 18659 18660 18661 18662 18663 18664 18665 18666 18667 18668 18669 18670 18671 18672 18673 18674 18675 18676 18677 18678 18679 18680 18681 18682 18683 18684 18685 18686 18687 18688 18689 18690 18691 18692 18693 18694 18695 18696 18697 18698 18699 18700 18701 18702 18703 18704 18705 18706 18707 18708 18709 18710 18711 18712 18713 18714 18715 18716 18717 18718 18719 18720 18721 18722 18723 18724 18725 18726 18727 18728 18729 18730 18731 18732 18733 18734 18735 18736 18737 18738 18739 18740 18741 18742 18743 18744 18745 18746 18747 18748 18749 18750 18751 18752 18753 18754 18755 18756 18757 18758 18759 18760 18761 18762 18763 18764 18765 18766 18767 18768 18769 18770 18771 18772 18773 18774 18775 18776 18777 18778 18779 18780 18781 18782 18783 18784 18785 18786 18787 18788 18789 18790 18791 18792 18793 18794 18795 18796 18797 18798 18799 18800 18801 18802 18803 18804 18805 18806 18807 18808 18809 18810 18811 18812 18813 18814 18815 18816 18817 18818 18819 18820 18821 18822 18823 18824 18825 18826 18827 18828 18829 18830 18831 18832 18833 18834 18835 18836 18837 18838 18839 18840 18841 18842 18843 18844 18845 18846 18847 18848 18849 18850 18851 18852 18853 18854 18855 18856 18857 18858 18859 18860 18861 18862 18863 18864 18865 18866 18867 18868 18869 18870 18871 18872 18873 18874 18875 18876 18877 18878 18879 18880 18881 18882 18883 18884 18885 18886 18887 18888 18889 18890 18891 18892 18893 18894 18895 18896 18897 18898 18899 18900 18901 18902 18903 18904 18905 18906 18907 18908 18909 18910 18911 18912 18913 18914 18915 18916 18917 18918 18919 18920 18921 18922 18923 18924 18925 18926 18927 18928 18929 18930 18931 18932 18933 18934 18935 18936 18937 18938 18939 18940 18941 18942 18943 18944 18945 18946 18947 18948 18949 18950 18951 18952 18953 18954 18955 18956 18957 18958 18959 18960 18961 18962 18963 18964 18965 18966 18967 18968 18969 18970 18971 18972 18973 18974 18975 18976 18977 18978 18979 18980 18981 18982 18983 18984 18985 18986 18987 18988 18989 18990 18991 18992 18993 18994 18995 18996 18997 18998 18999 19000 19001 19002 19003 19004 19005 19006 19007 19008 19009 19010 19011 19012 19013 19014 19015 19016 19017 19018 19019 19020 19021 19022 19023 19024 19025 19026 19027 19028 19029 19030 19031 19032 19033 19034 19035 19036 19037 19038 19039 19040 19041 19042 19043 19044 19045 19046 19047 19048 19049 19050 19051 19052 19053 19054 19055 19056 19057 19058 19059 19060 19061 19062 19063 19064 19065 19066 19067 19068 19069 19070 19071 19072 19073 19074 19075 19076 19077 19078 19079 19080 19081 19082 19083 19084 19085 19086 19087 19088 19089 19090 19091 19092 19093 19094 19095 19096 19097 19098 19099 19100 19101 19102 19103 19104 19105 19106 19107 19108 19109 19110 19111 19112 19113 19114 19115 19116 19117 19118 19119 19120 19121 19122 19123 19124 19125 19126 19127 19128 19129 19130 19131 19132 19133 19134 19135 19136 19137 19138 19139 19140 19141 19142 19143 19144 19145 19146 19147 19148 19149 19150 19151 19152 19153 19154 19155 19156 19157 19158 19159 19160 19161 19162 19163 19164 19165 19166 19167 19168 19169 19170 19171 19172 19173 19174 19175 19176 19177 19178 19179 19180 19181 19182 19183 19184 19185 19186 19187 19188 19189 19190 19191 19192 19193 19194 19195 19196 19197 19198 19199 19200 19201 19202 19203 19204 19205 19206 19207 19208 19209 19210 19211 19212 19213 19214 19215 19216 19217 19218 19219 19220 19221 19222 19223 19224 19225 19226 19227 19228 19229 19230 19231 19232 19233 19234 19235 19236 19237 19238 19239 19240 19241 19242 19243 19244 19245 19246 19247 19248 19249 19250 19251 19252 19253 19254 19255 19256 19257 19258 19259 19260 19261 19262 19263 19264 19265 19266 19267 19268 19269 19270 19271 19272 19273 19274 19275 19276 19277 19278 19279 19280 19281 19282 19283 19284 19285 19286 19287 19288 19289 19290 19291 19292 19293 19294 19295 19296 19297 19298 19299 19300 19301 19302 19303 19304 19305 19306 19307 19308 19309 19310 19311 19312 19313 19314 19315 19316 19317 19318 19319 19320 19321 19322 19323 19324 19325 19326 19327 19328 19329 19330 19331 19332 19333 19334 19335 19336 19337 19338 19339 19340 19341 19342 19343 19344 19345 19346 19347 19348 19349 19350 19351 19352 19353 19354 19355 19356 19357 19358 19359 19360 19361 19362 19363 19364 19365 19366 19367 19368 19369 19370 19371 19372 19373 19374 19375 19376 19377 19378 19379 19380 19381 19382 19383 19384 19385 19386 19387 19388 19389 19390 19391 19392 19393 19394 19395 19396 19397 19398 19399 19400 19401 19402 19403 19404 19405 19406 19407 19408 19409 19410 19411 19412 19413 19414 19415 19416 19417 19418 19419 19420 19421 19422 19423 19424 19425 19426 19427 19428 19429 19430 19431 19432 19433 19434 19435 19436 19437 19438 19439 19440 19441 19442 19443 19444 19445 19446 19447 19448 19449 19450 19451 19452 19453 19454 19455 19456 19457 19458 19459 19460 19461 19462 19463 19464 19465 19466 19467 19468 19469 19470 19471 19472 19473 19474 19475 19476 19477 19478 19479 19480 19481 19482 19483 19484 19485 19486 19487 19488 19489 19490 19491 19492 19493 19494 19495 19496 19497 19498 19499 19500 19501 19502 19503 19504 19505 19506 19507 19508 19509 19510 19511 19512 19513 19514 19515 19516 19517 19518 19519 19520 19521 19522 19523 19524 19525 19526 19527 19528 19529 19530 19531 19532 19533 19534 19535 19536 19537 19538 19539 19540 19541 19542 19543 19544 19545 19546 19547 19548 19549 19550 19551 19552 19553 19554 19555 19556 19557 19558 19559 19560 19561 19562 19563 19564 19565 19566 19567 19568 19569 19570 19571 19572 19573 19574 19575 19576 19577 19578 19579 19580 19581 19582 19583 19584 19585 19586 19587 19588 19589 19590 19591 19592 19593 19594 19595 19596 19597 19598 19599 19600 19601 19602 19603 19604 19605 19606 19607 19608 19609 19610 19611 19612 19613 19614 19615 19616 19617 19618 19619 19620 19621 19622 19623 19624 19625 19626 19627 19628 19629 19630 19631 19632 19633 19634 19635 19636 19637 19638 19639 19640 19641 19642 19643 19644 19645 19646 19647 19648 19649 19650 19651 19652 19653 19654 19655 19656 19657 19658 19659 19660 19661 19662 19663 19664 19665 19666 19667 19668 19669 19670 19671 19672 19673 19674 19675 19676 19677 19678 19679 19680 19681 19682 19683 19684 19685 19686 19687 19688 19689 19690 19691 19692 19693 19694 19695 19696 19697 19698 19699 19700 19701 19702 19703 19704 19705 19706 19707 19708 19709 19710 19711 19712 19713 19714 19715 19716 19717 19718 19719 19720 19721 19722 19723 19724 19725 19726 19727 19728 19729 19730 19731 19732 19733 19734 19735 19736 19737 19738 19739 19740 19741 19742 19743 19744 19745 19746 19747 19748 19749 19750 19751 19752 19753 19754 19755 19756 19757 19758 19759 19760 19761 19762 19763 19764 19765 19766 19767 19768 19769 19770 19771 19772 19773 19774 19775 19776 19777 19778 19779 19780 19781 19782 19783 19784 19785 19786 19787 19788 19789 19790 19791 19792 19793 19794 19795 19796 19797 19798 19799 19800 19801 19802 19803 19804 19805 19806 19807 19808 19809 19810 19811 19812 19813 19814 19815 19816 19817 19818 19819 19820 19821 19822 19823 19824 19825 19826 19827 19828 19829 19830 19831 19832 19833 19834 19835 19836 19837 19838 19839 19840 19841 19842 19843 19844 19845 19846 19847 19848 19849 19850 19851 19852 19853 19854 19855 19856 19857 19858 19859 19860 19861 19862 19863 19864 19865 19866 19867 19868 19869 19870 19871 19872 19873 19874 19875 19876 19877 19878 19879 19880 19881 19882 19883 19884 19885 19886 19887 19888 19889 19890 19891 19892 19893 19894 19895 19896 19897 19898 19899 19900 19901 19902 19903 19904 19905 19906 19907 19908 19909 19910 19911 19912 19913 19914 19915 19916 19917 19918 19919 19920 19921 19922 19923 19924 19925 19926 19927 19928 19929 19930 19931 19932 19933 19934 19935 19936 19937 19938 19939 19940 19941 19942 19943 19944 19945 19946 19947 19948 19949 19950 19951 19952 19953 19954 19955 19956 19957 19958 19959 19960 19961 19962 19963 19964 19965 19966 19967 19968 19969 19970 19971 19972 19973 19974 19975 19976 19977 19978 19979 19980 19981 19982 19983 19984 19985 19986 19987 19988 19989 19990 19991 19992 19993 19994 19995 19996 19997 19998 19999 20000 20001 20002 20003 20004 20005 20006 20007 20008 20009 20010 20011 20012 20013 20014 20015 20016 20017 20018 20019 20020 20021 20022 20023 20024 20025 20026 20027 20028 20029 20030 20031 20032 20033 20034 20035 20036 20037 20038 20039 20040 20041 20042 20043 20044 20045 20046 20047 20048 20049 20050 20051 20052 20053 20054 20055 20056 20057 20058 20059 20060 20061 20062 20063 20064 20065 20066 20067 20068 20069 20070 20071 20072 20073 20074 20075 20076 20077 20078 20079 20080 20081 20082 20083 20084 20085 20086 20087 20088 20089 20090 20091 20092 20093 20094 20095 20096 20097 20098 20099 20100 20101 20102 20103 20104 20105 20106 20107 20108 20109 20110 20111 20112 20113 20114 20115 20116 20117 20118 20119 20120 20121 20122 20123 20124 20125 20126 20127 20128 20129 20130 20131 20132 20133 20134 20135 20136 20137 20138 20139 20140 20141 20142 20143 20144 20145 20146 20147 20148 20149 20150 20151 20152 20153 20154 20155 20156 20157 20158 20159 20160 20161 20162 20163 20164 20165 20166 20167 20168 20169 20170 20171 20172 20173 20174 20175 20176 20177 20178 20179 20180 20181 20182 20183 20184 20185 20186 20187 20188 20189 20190 20191 20192 20193 20194 20195 20196 20197 20198 20199 20200 20201 20202 20203 20204 20205 20206 20207 20208 20209 20210 20211 20212 20213 20214 20215 20216 20217 20218 20219 20220 20221 20222 20223 20224 20225 20226 20227 20228 20229 20230 20231 20232 20233 20234 20235 20236 20237 20238 20239 20240 20241 20242 20243 20244 20245 20246 20247 20248 20249 20250 20251 20252 20253 20254 20255 20256 20257 20258 20259 20260 20261 20262 20263 20264 20265 20266 20267 20268 20269 20270 20271 20272 20273 20274 20275 20276 20277 20278 20279 20280 20281 20282 20283 20284 20285 20286 20287 20288 20289 20290 20291 20292 20293 20294 20295 20296 20297 20298 20299 20300 20301 20302 20303 20304 20305 20306 20307 20308 20309 20310 20311 20312 20313 20314 20315 20316 20317 20318 20319 20320 20321 20322 20323 20324 20325 20326 20327 20328 20329 20330 20331 20332 20333 20334 20335 20336 20337 20338 20339 20340 20341 20342 20343 20344 20345 20346 20347 20348 20349 20350 20351 20352 20353 20354 20355 20356 20357 20358 20359 20360 20361 20362 20363 20364 20365 20366 20367 20368 20369 20370 20371 20372 20373 20374 20375 20376 20377 20378 20379 20380 20381 20382 20383 20384 20385 20386 20387 20388 20389 20390 20391 20392 20393 20394 20395 20396 20397 20398 20399 20400 20401 20402 20403 20404 20405 20406 20407 20408 20409 20410 20411 20412 20413 20414 20415 20416 20417 20418 20419 20420 20421 20422 20423 20424 20425 20426 20427 20428 20429 20430 20431 20432 20433 20434 20435 20436 20437 20438 20439 20440 20441 20442 20443 20444 20445 20446 20447 20448 20449 20450 20451 20452 20453 20454 20455 20456 20457 20458 20459 20460 20461 20462 20463 20464 20465 20466 20467 20468 20469 20470 20471 20472 20473 20474 20475 20476 20477 20478 20479 20480 20481 20482 20483 20484 20485 20486 20487 20488 20489 20490 20491 20492 20493 20494 20495 20496 20497 20498 20499 20500 20501 20502 20503 20504 20505 20506 20507 20508 20509 20510 20511 20512 20513 20514 20515 20516 20517 20518 20519 20520 20521 20522 20523 20524 20525 20526 20527 20528 20529 20530 20531 20532 20533 20534 20535 20536 20537 20538 20539 20540 20541 20542 20543 20544 20545 20546 20547 20548 20549 20550 20551 20552 20553 20554 20555 20556 20557 20558 20559 20560 20561 20562 20563 20564 20565 20566 20567 20568 20569 20570 20571 20572 20573 20574 20575 20576 20577 20578 20579 20580 20581 20582 20583 20584 20585 20586 20587 20588 20589 20590 20591 20592 20593 20594 20595 20596 20597 20598 20599 20600 20601 20602 20603 20604 20605 20606 20607 20608 20609 20610 20611 20612 20613 20614 20615 20616 20617 20618 20619 20620 20621 20622 20623 20624 20625 20626 20627 20628 20629 20630 20631 20632 20633 20634 20635 20636 20637 20638 20639 20640 20641 20642 20643 20644 20645 20646 20647 20648 20649 20650 20651 20652 20653 20654 20655 20656 20657 20658 20659 20660 20661 20662 20663 20664 20665 20666 20667 20668 20669 20670 20671 20672 20673 20674 20675 20676 20677 20678 20679 20680 20681 20682 20683 20684 20685 20686 20687 20688 20689 20690 20691 20692 20693 20694 20695 20696 20697 20698 20699 20700 20701 20702 20703 20704 20705 20706 20707 20708 20709 20710 20711 20712 20713 20714 20715 20716 20717 20718 20719 20720 20721 20722 20723 20724 20725 20726 20727 20728 20729 20730 20731 20732 20733 20734 20735 20736 20737 20738 20739 20740 20741 20742 20743 20744 20745 20746 20747 20748 20749 20750 20751 20752 20753 20754 20755 20756 20757 20758 20759 20760 20761 20762 20763 20764 20765 20766 20767 20768 20769 20770 20771 20772 20773 20774 20775 20776 20777 20778 20779 20780 20781 20782 20783 20784 20785 20786 20787 20788 20789 20790 20791 20792 20793 20794 20795 20796 20797 20798 20799 20800 20801 20802 20803 20804 20805 20806 20807 20808 20809 20810 20811 20812 20813 20814 20815 20816 20817 20818 20819 20820 20821 20822 20823 20824 20825 20826 20827 20828 20829 20830 20831 20832 20833 20834 20835 20836 20837 20838 20839 20840 20841 20842 20843 20844 20845 20846 20847 20848 20849 20850 20851 20852 20853 20854 20855 20856 20857 20858 20859 20860 20861 20862 20863 20864 20865 20866 20867 20868 20869 20870 20871 20872 20873 20874 20875 20876 20877 20878 20879 20880 20881 20882 20883 20884 20885 20886 20887 20888 20889 20890 20891 20892 20893 20894 20895 20896 20897 20898 20899 20900 20901 20902 20903 20904 20905 20906 20907 20908 20909 20910 20911 20912 20913 20914 20915 20916 20917 20918 20919 20920 20921 20922 20923 20924 20925 20926 20927 20928 20929 20930 20931 20932 20933 20934 20935 20936 20937 20938 20939 20940 20941 20942 20943 20944 20945 20946 20947 20948 20949 20950 20951 20952 20953 20954 20955 20956 20957 20958 20959 20960 20961 20962 20963 20964 20965 20966 20967 20968 20969 20970 20971 20972 20973 20974 20975 20976 20977 20978 20979 20980 20981 20982 20983 20984 20985 20986 20987 20988 20989 20990 20991 20992 20993 20994 20995 20996 20997 20998 20999 21000 21001 21002 21003 21004 21005 21006 21007 21008 21009 21010 21011 21012 21013 21014 21015 21016 21017 21018 21019 21020 21021 21022 21023 21024 21025 21026 21027 21028 21029 21030 21031 21032 21033 21034 21035 21036 21037 21038 21039 21040 21041 21042 21043 21044 21045 21046 21047 21048 21049 21050 21051 21052 21053 21054 21055 21056 21057 21058 21059 21060 21061 21062 21063 21064 21065 21066 21067 21068 21069 21070 21071 21072 21073 21074 21075 21076 21077 21078 21079 21080 21081 21082 21083 21084 21085 21086 21087 21088 21089 21090 21091 21092 21093 21094 21095 21096 21097 21098 21099 21100 21101 21102 21103 21104 21105 21106 21107 21108 21109 21110 21111 21112 21113 21114 21115 21116 21117 21118 21119 21120 21121 21122 21123 21124 21125 21126 21127 21128 21129 21130 21131 21132 21133 21134 21135 21136 21137 21138 21139 21140 21141 21142 21143 21144 21145 21146 21147 21148 21149 21150 21151 21152 21153 21154 21155 21156 21157 21158 21159 21160 21161 21162 21163 21164 21165 21166 21167 21168 21169 21170 21171 21172 21173 21174 21175 21176 21177 21178 21179 21180 21181 21182 21183 21184 21185 21186 21187 21188 21189 21190 21191 21192 21193 21194 21195 21196 21197 21198 21199 21200 21201 21202 21203 21204 21205 21206 21207 21208 21209 21210 21211 21212 21213 21214 21215 21216 21217 21218 21219 21220 21221 21222 21223 21224 21225 21226 21227 21228 21229 21230 21231 21232 21233 21234 21235 21236 21237 21238 21239 21240 21241 21242 21243 21244 21245 21246 21247 21248 21249 21250 21251 21252 21253 21254 21255 21256 21257 21258 21259 21260 21261 21262 21263 21264 21265 21266 21267 21268 21269 21270 21271 21272 21273 21274 21275 21276 21277 21278 21279 21280 21281 21282 21283 21284 21285 21286 21287 21288 21289 21290 21291 21292 21293 21294 21295 21296 21297 21298 21299 21300 21301 21302 21303 21304 21305 21306 21307 21308 21309 21310 21311 21312 21313 21314 21315 21316 21317 21318 21319 21320 21321 21322 21323 21324 21325 21326 21327 21328 21329 21330 21331 21332 21333 21334 21335 21336 21337 21338 21339 21340 21341 21342 21343 21344 21345 21346 21347 21348 21349 21350 21351 21352 21353 21354 21355 21356 21357 21358 21359 21360 21361 21362 21363 21364 21365 21366 21367 21368 21369 21370 21371 21372 21373 21374 21375 21376 21377 21378 21379 21380 21381 21382 21383 21384 21385 21386 21387 21388 21389 21390 21391 21392 21393 21394 21395 21396 21397 21398 21399 21400 21401 21402 21403 21404 21405 21406 21407 21408 21409 21410 21411 21412 21413 21414 21415 21416 21417 21418 21419 21420 21421 21422 21423 21424 21425 21426 21427 21428 21429 21430 21431 21432 21433 21434 21435 21436 21437 21438 21439 21440 21441 21442 21443 21444 21445 21446 21447 21448 21449 21450 21451 21452 21453 21454 21455 21456 21457 21458 21459 21460 21461 21462 21463 21464 21465 21466 21467 21468 21469 21470 21471 21472 21473 21474 21475 21476 21477 21478 21479 21480 21481 21482 21483 21484 21485 21486 21487 21488 21489 21490 21491 21492 21493 21494 21495 21496 21497 21498 21499 21500 21501 21502 21503 21504 21505 21506 21507 21508 21509 21510 21511 21512 21513 21514 21515 21516 21517 21518 21519 21520 21521 21522 21523 21524 21525 21526 21527 21528 21529 21530 21531 21532 21533 21534 21535 21536 21537 21538 21539 21540 21541 21542 21543 21544 21545 21546 21547 21548 21549 21550 21551 21552 21553 21554 21555 21556 21557 21558 21559 21560 21561 21562 21563 21564 21565 21566 21567 21568 21569 21570 21571 21572 21573 21574 21575 21576 21577 21578 21579 21580 21581 21582 21583 21584 21585 21586 21587 21588 21589 21590 21591 21592 21593 21594 21595 21596 21597 21598 21599 21600 21601 21602 21603 21604 21605 21606 21607 21608 21609 21610 21611 21612 21613 21614 21615 21616 21617 21618 21619 21620 21621 21622 21623 21624 21625 21626 21627 21628 21629 21630 21631 21632 21633 21634 21635 21636 21637 21638 21639 21640 21641 21642 21643 21644 21645 21646 21647 21648 21649 21650 21651 21652 21653 21654 21655 21656 21657 21658 21659 21660 21661 21662 21663 21664 21665 21666 21667 21668 21669 21670 21671 21672 21673 21674 21675 21676 21677 21678 21679 21680 21681 21682 21683 21684 21685 21686 21687 21688 21689 21690 21691 21692 21693 21694 21695 21696 21697 21698 21699 21700 21701 21702 21703 21704 21705 21706 21707 21708 21709 21710 21711 21712 21713 21714 21715 21716 21717 21718 21719 21720 21721 21722 21723 21724 21725 21726 21727 21728 21729 21730 21731 21732 21733 21734 21735 21736 21737 21738 21739 21740 21741 21742 21743 21744 21745 21746 21747 21748 21749 21750 21751 21752 21753 21754 21755 21756 21757 21758 21759 21760 21761 21762 21763 21764 21765 21766 21767 21768 21769 21770 21771 21772 21773 21774 21775 21776 21777 21778 21779 21780 21781 21782 21783 21784 21785 21786 21787 21788 21789 21790 21791 21792 21793 21794 21795 21796 21797 21798 21799 21800 21801 21802 21803 21804 21805 21806 21807 21808 21809 21810 21811 21812 21813 21814 21815 21816 21817 21818 21819 21820 21821 21822 21823 21824 21825 21826 21827 21828 21829 21830 21831 21832 21833 21834 21835 21836 21837 21838 21839 21840 21841 21842 21843 21844 21845 21846 21847 21848 21849 21850 21851 21852 21853 21854 21855 21856 21857 21858 21859 21860 21861 21862 21863 21864 21865 21866 21867 21868 21869 21870 21871 21872 21873 21874 21875 21876 21877 21878 21879 21880 21881 21882 21883 21884 21885 21886 21887 21888 21889 21890 21891 21892 21893 21894 21895 21896 21897 21898 21899 21900 21901 21902 21903 21904 21905 21906 21907 21908 21909 21910 21911 21912 21913 21914 21915 21916 21917 21918 21919 21920 21921 21922 21923 21924 21925 21926 21927 21928 21929 21930 21931 21932 21933 21934 21935 21936 21937 21938 21939 21940 21941 21942 21943 21944 21945 21946 21947 21948 21949 21950 21951 21952 21953 21954 21955 21956 21957 21958 21959 21960 21961 21962 21963 21964 21965 21966 21967 21968 21969 21970 21971 21972 21973 21974 21975 21976 21977 21978 21979 21980 21981 21982 21983 21984 21985 21986 21987 21988 21989 21990 21991 21992 21993 21994 21995 21996 21997 21998 21999 22000 22001 22002 22003 22004 22005 22006 22007 22008 22009 22010 22011 22012 22013 22014 22015 22016 22017 22018 22019 22020 22021 22022 22023 22024 22025 22026 22027 22028 22029 22030 22031 22032 22033 22034 22035 22036 22037 22038 22039 22040 22041 22042 22043 22044 22045 22046 22047 22048 22049 22050 22051 22052 22053 22054 22055 22056 22057 22058 22059 22060 22061 22062 22063 22064 22065 22066 22067 22068 22069 22070 22071 22072 22073 22074 22075 22076 22077 22078 22079 22080 22081 22082 22083 22084 22085 22086 22087 22088 22089 22090 22091 22092 22093 22094 22095 22096 22097 22098 22099 22100 22101 22102 22103 22104 22105 22106 22107 22108 22109 22110 22111 22112 22113 22114 22115 22116 22117 22118 22119 22120 22121 22122 22123 22124 22125 22126 22127 22128 22129 22130 22131 22132 22133 22134 22135 22136 22137 22138 22139 22140 22141 22142 22143 22144 22145 22146 22147 22148 22149 22150 22151 22152 22153 22154 22155 22156 22157 22158 22159 22160 22161 22162 22163 22164 22165 22166 22167 22168 22169 22170 22171 22172 22173 22174 22175 22176 22177 22178 22179 22180 22181 22182 22183 22184 22185 22186 22187 22188 22189 22190 22191 22192 22193 22194 22195 22196 22197 22198 22199 22200 22201 22202 22203 22204 22205 22206 22207 22208 22209 22210 22211 22212 22213 22214 22215 22216 22217 22218 22219 22220 22221 22222 22223 22224 22225 22226 22227 22228 22229 22230 22231 22232 22233 22234 22235 22236 22237 22238 22239 22240 22241 22242 22243 22244 22245 22246 22247 22248 22249 22250 22251 22252 22253 22254 22255 22256 22257 22258 22259 22260 22261 22262 22263 22264 22265 22266 22267 22268 22269 22270 22271 22272 22273 22274 22275 22276 22277 22278 22279 22280 22281 22282 22283 22284 22285 22286 22287 22288 22289 22290 22291 22292 22293 22294 22295 22296 22297 22298 22299 22300 22301 22302 22303 22304 22305 22306 22307 22308 22309 22310 22311 22312 22313 22314 22315 22316 22317 22318 22319 22320 22321 22322 22323 22324 22325 22326 22327 22328 22329 22330 22331 22332 22333 22334 22335 22336 22337 22338 22339 22340 22341 22342 22343 22344 22345 22346 22347 22348 22349 22350 22351 22352 22353 22354 22355 22356 22357 22358 22359 22360 22361 22362 22363 22364 22365 22366 22367 22368 22369 22370 22371 22372 22373 22374 22375 22376 22377 22378 22379 22380 22381 22382 22383 22384 22385 22386 22387 22388 22389 22390 22391 22392 22393 22394 22395 22396 22397 22398 22399 22400 22401 22402 22403 22404 22405 22406 22407 22408 22409 22410 22411 22412 22413 22414 22415 22416 22417 22418 22419 22420 22421 22422 22423 22424 22425 22426 22427 22428 22429 22430 22431 22432 22433 22434 22435 22436 22437 22438 22439 22440 22441 22442 22443 22444 22445 22446 22447 22448 22449 22450 22451 22452 22453 22454 22455 22456 22457 22458 22459 22460 22461 22462 22463 22464 22465 22466 22467 22468 22469 22470 22471 22472 22473 22474 22475 22476 22477 22478 22479 22480 22481 22482 22483 22484 22485 22486 22487 22488 22489 22490 22491 22492 22493 22494 22495 22496 22497 22498 22499 22500 22501 22502 22503 22504 22505 22506 22507 22508 22509 22510 22511 22512 22513 22514 22515 22516 22517 22518 22519 22520 22521 22522 22523 22524 22525 22526 22527 22528 22529 22530 22531 22532 22533 22534 22535 22536 22537 22538 22539 22540 22541 22542 22543 22544 22545 22546 22547 22548 22549 22550 22551 22552 22553 22554 22555 22556 22557 22558 22559 22560 22561 22562 22563 22564 22565 22566 22567 22568 22569 22570 22571 22572 22573 22574 22575 22576 22577 22578 22579 22580 22581 22582 22583 22584 22585 22586 22587 22588 22589 22590 22591 22592 22593 22594 22595 22596 22597 22598 22599 22600 22601 22602 22603 22604 22605 22606 22607 22608 22609 22610 22611 22612 22613 22614 22615 22616 22617 22618 22619 22620 22621 22622 22623 22624 22625 22626 22627 22628 22629 22630 22631 22632 22633 22634 22635 22636 22637 22638 22639 22640 22641 22642 22643 22644 22645 22646 22647 22648 22649 22650 22651 22652 22653 22654 22655 22656 22657 22658 22659 22660 22661 22662 22663 22664 22665 22666 22667 22668 22669 22670 22671 22672 22673 22674 22675 22676 22677 22678 22679 22680 22681 22682 22683 22684 22685 22686 22687 22688 22689 22690 22691 22692 22693 22694 22695 22696 22697 22698 22699 22700 22701 22702 22703 22704 22705 22706 22707 22708 22709 22710 22711 22712 22713 22714 22715 22716 22717 22718 22719 22720 22721 22722 22723 22724 22725 22726 22727 22728 22729 22730 22731 22732 22733 22734 22735 22736 22737 22738 22739 22740 22741 22742 22743 22744 22745 22746 22747 22748 22749 22750 22751 22752 22753 22754 22755 22756 22757 22758 22759 22760 22761 22762 22763 22764 22765 22766 22767 22768 22769 22770 22771 22772 22773 22774 22775 22776 22777 22778 22779 22780 22781 22782 22783 22784 22785 22786 22787 22788 22789 22790 22791 22792 22793 22794 22795 22796 22797 22798 22799 22800 22801 22802 22803 22804 22805 22806 22807 22808 22809 22810 22811 22812 22813 22814 22815 22816 22817 22818 22819 22820 22821 22822 22823 22824 22825 22826 22827 22828 22829 22830 22831 22832 22833 22834 22835 22836 22837 22838 22839 22840 22841 22842 22843 22844 22845 22846 22847 22848 22849 22850 22851 22852 22853 22854 22855 22856 22857 22858 22859 22860 22861 22862 22863 22864 22865 22866 22867 22868 22869 22870 22871 22872 22873 22874 22875 22876 22877 22878 22879 22880 22881 22882 22883 22884 22885 22886 22887 22888 22889 22890 22891 22892 22893 22894 22895 22896 22897 22898 22899 22900 22901 22902 22903 22904 22905 22906 22907 22908 22909 22910 22911 22912 22913 22914 22915 22916 22917 22918 22919 22920 22921 22922 22923 22924 22925 22926 22927 22928 22929 22930 22931 22932 22933 22934 22935 22936 22937 22938 22939 22940 22941 22942 22943 22944 22945 22946 22947 22948 22949 22950 22951 22952 22953 22954 22955 22956 22957 22958 22959 22960 22961 22962 22963 22964 22965 22966 22967 22968 22969 22970 22971 22972 22973 22974 22975 22976 22977 22978 22979 22980 22981 22982 22983 22984 22985 22986 22987 22988 22989 22990 22991 22992 22993 22994 22995 22996 22997 22998 22999 23000 23001 23002 23003 23004 23005 23006 23007 23008 23009 23010 23011 23012 23013 23014 23015 23016 23017 23018 23019 23020 23021 23022 23023 23024 23025 23026 23027 23028 23029 23030 23031 23032 23033 23034 23035 23036 23037 23038 23039 23040 23041 23042 23043 23044 23045 23046 23047 23048 23049 23050 23051 23052 23053 23054 23055 23056 23057 23058 23059 23060 23061 23062 23063 23064 23065 23066 23067 23068 23069 23070 23071 23072 23073 23074 23075 23076 23077 23078 23079 23080 23081 23082 23083 23084 23085 23086 23087 23088 23089 23090 23091 23092 23093 23094 23095 23096 23097 23098 23099 23100 23101 23102 23103 23104 23105 23106 23107 23108 23109 23110 23111 23112 23113 23114 23115 23116 23117 23118 23119 23120 23121 23122 23123 23124 23125 23126 23127 23128 23129 23130 23131 23132 23133 23134 23135 23136 23137 23138 23139 23140 23141 23142 23143 23144 23145 23146 23147 23148 23149 23150 23151 23152 23153 23154 23155 23156 23157 23158 23159 23160 23161 23162 23163 23164 23165 23166 23167 23168 23169 23170 23171 23172 23173 23174 23175 23176 23177 23178 23179 23180 23181 23182 23183 23184 23185 23186 23187 23188 23189 23190 23191 23192 23193 23194 23195 23196 23197 23198 23199 23200 23201 23202 23203 23204 23205 23206 23207 23208 23209 23210 23211 23212 23213 23214 23215 23216 23217 23218 23219 23220 23221 23222 23223 23224 23225 23226 23227 23228 23229 23230 23231 23232 23233 23234 23235 23236 23237 23238 23239 23240 23241 23242 23243 23244 23245 23246 23247 23248 23249 23250 23251 23252 23253 23254 23255 23256 23257 23258 23259 23260 23261 23262 23263 23264 23265 23266 23267 23268 23269 23270 23271 23272 23273 23274 23275 23276 23277 23278 23279 23280 23281 23282 23283 23284 23285 23286 23287 23288 23289 23290 23291 23292 23293 23294 23295 23296 23297 23298 23299 23300 23301 23302 23303 23304 23305 23306 23307 23308 23309 23310 23311 23312 23313 23314 23315 23316 23317 23318 23319 23320 23321 23322 23323 23324 23325 23326 23327 23328 23329 23330 23331 23332 23333 23334 23335 23336 23337 23338 23339 23340 23341 23342 23343 23344 23345 23346 23347 23348 23349 23350 23351 23352 23353 23354 23355 23356 23357 23358 23359 23360 23361 23362 23363 23364 23365 23366 23367 23368 23369 23370 23371 23372 23373 23374 23375 23376 23377 23378 23379 23380 23381 23382 23383 23384 23385 23386 23387 23388 23389 23390 23391 23392 23393 23394 23395 23396 23397 23398 23399 23400 23401 23402 23403 23404 23405 23406 23407 23408 23409 23410 23411 23412 23413 23414 23415 23416 23417 23418 23419 23420 23421 23422 23423 23424 23425 23426 23427 23428 23429 23430 23431 23432 23433 23434 23435 23436 23437 23438 23439 23440 23441 23442 23443 23444 23445 23446 23447 23448 23449 23450 23451 23452 23453 23454 23455 23456 23457 23458 23459 23460 23461 23462 23463 23464 23465 23466 23467 23468 23469 23470 23471 23472 23473 23474 23475 23476 23477 23478 23479 23480 23481 23482 23483 23484 23485 23486 23487 23488 23489 23490 23491 23492 23493 23494 23495 23496 23497 23498 23499 23500 23501 23502 23503 23504 23505 23506 23507 23508 23509 23510 23511 23512 23513 23514 23515 23516 23517 23518 23519 23520 23521 23522 23523 23524 23525 23526 23527 23528 23529 23530 23531 23532 23533 23534 23535 23536 23537 23538 23539 23540 23541 23542 23543 23544 23545 23546 23547 23548 23549 23550 23551 23552 23553 23554 23555 23556 23557 23558 23559 23560 23561 23562 23563 23564 23565 23566 23567 23568 23569 23570 23571 23572 23573 23574 23575 23576 23577 23578 23579 23580 23581 23582 23583 23584 23585 23586 23587 23588 23589 23590 23591 23592 23593 23594 23595 23596 23597 23598 23599 23600 23601 23602 23603 23604 23605 23606 23607 23608 23609 23610 23611 23612 23613 23614 23615 23616 23617 23618 23619 23620 23621 23622 23623 23624 23625 23626 23627 23628 23629 23630 23631 23632 23633 23634 23635 23636 23637 23638 23639 23640 23641 23642 23643 23644 23645 23646 23647 23648 23649 23650 23651 23652 23653 23654 23655 23656 23657 23658 23659 23660 23661 23662 23663 23664 23665 23666 23667 23668 23669 23670 23671 23672 23673 23674 23675 23676 23677 23678 23679 23680 23681 23682 23683 23684 23685 23686 23687 23688 23689 23690 23691 23692 23693 23694 23695 23696 23697 23698 23699 23700 23701 23702 23703 23704 23705 23706 23707 23708 23709 23710 23711 23712 23713 23714 23715 23716 23717 23718 23719 23720 23721 23722 23723 23724 23725 23726 23727 23728 23729 23730 23731 23732 23733 23734 23735 23736 23737 23738 23739 23740 23741 23742 23743 23744 23745 23746 23747 23748 23749 23750 23751 23752 23753 23754 23755 23756 23757 23758 23759 23760 23761 23762 23763 23764 23765 23766 23767 23768 23769 23770 23771 23772 23773 23774 23775 23776 23777 23778 23779 23780 23781 23782 23783 23784 23785 23786 23787 23788 23789 23790 23791 23792 23793 23794 23795 23796 23797 23798 23799 23800 23801 23802 23803 23804 23805 23806 23807 23808 23809 23810 23811 23812 23813 23814 23815 23816 23817 23818 23819 23820 23821 23822 23823 23824 23825 23826 23827 23828 23829 23830 23831 23832 23833 23834 23835 23836 23837 23838 23839 23840 23841 23842 23843 23844 23845 23846 23847 23848 23849 23850 23851 23852 23853 23854 23855 23856 23857 23858 23859 23860 23861 23862 23863 23864 23865 23866 23867 23868 23869 23870 23871 23872 23873 23874 23875 23876 23877 23878 23879 23880 23881 23882 23883 23884 23885 23886 23887 23888 23889 23890 23891 23892 23893 23894 23895 23896 23897 23898 23899 23900 23901 23902 23903 23904 23905 23906 23907 23908 23909 23910 23911 23912 23913 23914 23915 23916 23917 23918 23919 23920 23921 23922 23923 23924 23925 23926 23927 23928 23929 23930 23931 23932 23933 23934 23935 23936 23937 23938 23939 23940 23941 23942 23943 23944 23945 23946 23947 23948 23949 23950 23951 23952 23953 23954 23955 23956 23957 23958 23959 23960 23961 23962 23963 23964 23965 23966 23967 23968 23969 23970 23971 23972 23973 23974 23975 23976 23977 23978 23979 23980 23981 23982 23983 23984 23985 23986 23987 23988 23989 23990 23991 23992 23993 23994 23995 23996 23997 23998 23999 24000 24001 24002 24003 24004 24005 24006 24007 24008 24009 24010 24011 24012 24013 24014 24015 24016 24017 24018 24019 24020 24021 24022 24023 24024 24025 24026 24027 24028 24029 24030 24031 24032 24033 24034 24035 24036 24037 24038 24039 24040 24041 24042 24043 24044 24045 24046 24047 24048 24049 24050 24051 24052 24053 24054 24055 24056 24057 24058 24059 24060 24061 24062 24063 24064 24065 24066 24067 24068 24069 24070 24071 24072 24073 24074 24075 24076 24077 24078 24079 24080 24081 24082 24083 24084 24085 24086 24087 24088 24089 24090 24091 24092 24093 24094 24095 24096 24097 24098 24099 24100 24101 24102 24103 24104 24105 24106 24107 24108 24109 24110 24111 24112 24113 24114 24115 24116 24117 24118 24119 24120 24121 24122 24123 24124 24125 24126 24127 24128 24129 24130 24131 24132 24133 24134 24135 24136 24137 24138 24139 24140 24141 24142 24143 24144 24145 24146 24147 24148 24149 24150 24151 24152 24153 24154 24155 24156 24157 24158 24159 24160 24161 24162 24163 24164 24165 24166 24167 24168 24169 24170 24171 24172 24173 24174 24175 24176 24177 24178 24179 24180 24181 24182 24183 24184 24185 24186 24187 24188 24189 24190 24191 24192 24193 24194 24195 24196 24197 24198 24199 24200 24201 24202 24203 24204 24205 24206 24207 24208 24209 24210 24211 24212 24213 24214 24215 24216 24217 24218 24219 24220 24221 24222 24223 24224 24225 24226 24227 24228 24229 24230 24231 24232 24233 24234 24235 24236 24237 24238 24239 24240 24241 24242 24243 24244 24245 24246 24247 24248 24249 24250 24251 24252 24253 24254 24255 24256 24257 24258 24259 24260 24261 24262 24263 24264 24265 24266 24267 24268 24269 24270 24271 24272 24273 24274 24275 24276 24277 24278 24279 24280 24281 24282 24283 24284 24285 24286 24287 24288 24289 24290 24291 24292 24293 24294 24295 24296 24297 24298 24299 24300 24301 24302 24303 24304 24305 24306 24307 24308 24309 24310 24311 24312 24313 24314 24315 24316 24317 24318 24319 24320 24321 24322 24323 24324 24325 24326 24327 24328 24329 24330 24331 24332 24333 24334 24335 24336 24337 24338 24339 24340 24341 24342 24343 24344 24345 24346 24347 24348 24349 24350 24351 24352 24353 24354 24355 24356 24357 24358 24359 24360 24361 24362 24363 24364 24365 24366 24367 24368 24369 24370 24371 24372 24373 24374 24375 24376 24377 24378 24379 24380 24381 24382 24383 24384 24385 24386 24387 24388 24389 24390 24391 24392 24393 24394 24395 24396 24397 24398 24399 24400 24401 24402 24403 24404 24405 24406 24407 24408 24409 24410 24411 24412 24413 24414 24415 24416 24417 24418 24419 24420 24421 24422 24423 24424 24425 24426 24427 24428 24429 24430 24431 24432 24433 24434 24435 24436 24437 24438 24439 24440 24441 24442 24443 24444 24445 24446 24447 24448 24449 24450 24451 24452 24453 24454 24455 24456 24457 24458 24459 24460 24461 24462 24463 24464 24465 24466 24467 24468 24469 24470 24471 24472 24473 24474 24475 24476 24477 24478 24479 24480 24481 24482 24483 24484 24485 24486 24487 24488 24489 24490 24491 24492 24493 24494 24495 24496 24497 24498 24499 24500 24501 24502 24503 24504 24505 24506 24507 24508 24509 24510 24511 24512 24513 24514 24515 24516 24517 24518 24519 24520 24521 24522 24523 24524 24525 24526 24527 24528 24529 24530 24531 24532 24533 24534 24535 24536 24537 24538 24539 24540 24541 24542 24543 24544 24545 24546 24547 24548 24549 24550 24551 24552 24553 24554 24555 24556 24557 24558 24559 24560 24561 24562 24563 24564 24565 24566 24567 24568 24569 24570 24571 24572 24573 24574 24575 24576 24577 24578 24579 24580 24581 24582 24583 24584 24585 24586 24587 24588 24589 24590 24591 24592 24593 24594 24595 24596 24597 24598 24599 24600 24601 24602 24603 24604 24605 24606 24607 24608 24609 24610 24611 24612 24613 24614 24615 24616 24617 24618 24619 24620 24621 24622 24623 24624 24625 24626 24627 24628 24629 24630 24631 24632 24633 24634 24635 24636 24637 24638 24639 24640 24641 24642 24643 24644 24645 24646 24647 24648 24649 24650 24651 24652 24653 24654 24655 24656 24657 24658 24659 24660 24661 24662 24663 24664 24665 24666 24667 24668 24669 24670 24671 24672 24673 24674 24675 24676 24677 24678 24679 24680 24681 24682 24683 24684 24685 24686 24687 24688 24689 24690 24691 24692 24693 24694 24695 24696 24697 24698 24699 24700 24701 24702 24703 24704 24705 24706 24707 24708 24709 24710 24711 24712 24713 24714 24715 24716 24717 24718 24719 24720 24721 24722 24723 24724 24725 24726 24727 24728 24729 24730 24731 24732 24733 24734 24735 24736 24737 24738 24739 24740 24741 24742 24743 24744 24745 24746 24747 24748 24749 24750 24751 24752 24753 24754 24755 24756 24757 24758 24759 24760 24761 24762 24763 24764 24765 24766 24767 24768 24769 24770 24771 24772 24773 24774 24775 24776 24777 24778 24779 24780 24781 24782 24783 24784 24785 24786 24787 24788 24789 24790 24791 24792 24793 24794 24795 24796 24797 24798 24799 24800 24801 24802 24803 24804 24805 24806 24807 24808 24809 24810 24811 24812 24813 24814 24815 24816 24817 24818 24819 24820 24821 24822 24823 24824 24825 24826 24827 24828 24829 24830 24831 24832 24833 24834 24835 24836 24837 24838 24839 24840 24841 24842 24843 24844 24845 24846 24847 24848 24849 24850 24851 24852 24853 24854 24855 24856 24857 24858 24859 24860 24861 24862 24863 24864 24865 24866 24867 24868 24869 24870 24871 24872 24873 24874 24875 24876 24877 24878 24879 24880 24881 24882 24883 24884 24885 24886 24887 24888 24889 24890 24891 24892 24893 24894 24895 24896 24897 24898 24899 24900 24901 24902 24903 24904 24905 24906 24907 24908 24909 24910 24911 24912 24913 24914 24915 24916 24917 24918 24919 24920 24921 24922 24923 24924 24925 24926 24927 24928 24929 24930 24931 24932 24933 24934 24935 24936 24937 24938 24939 24940 24941 24942 24943 24944 24945 24946 24947 24948 24949 24950 24951 24952 24953 24954 24955 24956 24957 24958 24959 24960 24961 24962 24963 24964 24965 24966 24967 24968 24969 24970 24971 24972 24973 24974 24975 24976 24977 24978 24979 24980 24981 24982 24983 24984 24985 24986 24987 24988 24989 24990 24991 24992 24993 24994 24995 24996 24997 24998 24999 25000 25001 25002 25003 25004 25005 25006 25007 25008 25009 25010 25011 25012 25013 25014 25015 25016 25017 25018 25019 25020 25021 25022 25023 25024 25025 25026 25027 25028 25029 25030 25031 25032 25033 25034 25035 25036 25037 25038 25039 25040 25041 25042 25043 25044 25045 25046 25047 25048 25049 25050 25051 25052 25053 25054 25055 25056 25057 25058 25059 25060 25061 25062 25063 25064 25065 25066 25067 25068 25069 25070 25071 25072 25073 25074 25075 25076 25077 25078 25079 25080 25081 25082 25083 25084 25085 25086 25087 25088 25089 25090 25091 25092 25093 25094 25095 25096 25097 25098 25099 25100 25101 25102 25103 25104 25105 25106 25107 25108 25109 25110 25111 25112 25113 25114 25115 25116 25117 25118 25119 25120 25121 25122 25123 25124 25125 25126 25127 25128 25129 25130 25131 25132 25133 25134 25135 25136 25137 25138 25139 25140 25141 25142 25143 25144 25145 25146 25147 25148 25149 25150 25151 25152 25153 25154 25155 25156 25157 25158 25159 25160 25161 25162 25163 25164 25165 25166 25167 25168 25169 25170 25171 25172 25173 25174 25175 25176 25177 25178 25179 25180 25181 25182 25183 25184 25185 25186 25187 25188 25189 25190 25191 25192 25193 25194 25195 25196 25197 25198 25199 25200 25201 25202 25203 25204 25205 25206 25207 25208 25209 25210 25211 25212 25213 25214 25215 25216 25217 25218 25219 25220 25221 25222 25223 25224 25225 25226 25227 25228 25229 25230 25231 25232 25233 25234 25235 25236 25237 25238 25239 25240 25241 25242 25243 25244 25245 25246 25247 25248 25249 25250 25251 25252 25253 25254 25255 25256 25257 25258 25259 25260 25261 25262 25263 25264 25265 25266 25267 25268 25269 25270 25271 25272 25273 25274 25275 25276 25277 25278 25279 25280 25281 25282 25283 25284 25285 25286 25287 25288 25289 25290 25291 25292 25293 25294 25295 25296 25297 25298 25299 25300 25301 25302 25303 25304 25305 25306 25307 25308 25309 25310 25311 25312 25313 25314 25315 25316 25317 25318 25319 25320 25321 25322 25323 25324 25325 25326 25327 25328 25329 25330 25331 25332 25333 25334 25335 25336 25337 25338 25339 25340 25341 25342 25343 25344 25345 25346 25347 25348 25349 25350 25351 25352 25353 25354 25355 25356 25357 25358 25359 25360 25361 25362 25363 25364 25365 25366 25367 25368 25369 25370 25371 25372 25373 25374 25375 25376 25377 25378 25379 25380 25381 25382 25383 25384 25385 25386 25387 25388 25389 25390 25391 25392 25393 25394 25395 25396 25397 25398 25399 25400 25401 25402 25403 25404 25405 25406 25407 25408 25409 25410 25411 25412 25413 25414 25415 25416 25417 25418 25419 25420 25421 25422 25423 25424 25425 25426 25427 25428 25429 25430 25431 25432 25433 25434 25435 25436 25437 25438 25439 25440 25441 25442 25443 25444 25445 25446 25447 25448 25449 25450 25451 25452 25453 25454 25455 25456 25457 25458 25459 25460 25461 25462 25463 25464 25465 25466 25467 25468 25469 25470 25471 25472 25473 25474 25475 25476 25477 25478 25479 25480 25481 25482 25483 25484 25485 25486 25487 25488 25489 25490 25491 25492 25493 25494 25495 25496 25497 25498 25499 25500 25501 25502 25503 25504 25505 25506 25507 25508 25509 25510 25511 25512 25513 25514 25515 25516 25517 25518 25519 25520 25521 25522 25523 25524 25525 25526 25527 25528 25529 25530 25531 25532 25533 25534 25535 25536 25537 25538 25539 25540 25541 25542 25543 25544 25545 25546 25547 25548 25549 25550 25551 25552 25553 25554 25555 25556 25557 25558 25559 25560 25561 25562 25563 25564 25565 25566 25567 25568 25569 25570 25571 25572 25573 25574 25575 25576 25577 25578 25579 25580 25581 25582 25583 25584 25585 25586 25587 25588 25589 25590 25591 25592 25593 25594 25595 25596 25597 25598 25599 25600 25601 25602 25603 25604 25605 25606 25607 25608 25609 25610 25611 25612 25613 25614 25615 25616 25617 25618 25619 25620 25621 25622 25623 25624 25625 25626 25627 25628 25629 25630 25631 25632 25633 25634 25635 25636 25637 25638 25639 25640 25641 25642 25643 25644 25645 25646 25647 25648 25649 25650 25651 25652 25653 25654 25655 25656 25657 25658 25659 25660 25661 25662 25663 25664 25665 25666 25667 25668 25669 25670 25671 25672 25673 25674 25675 25676 25677 25678 25679 25680 25681 25682 25683 25684 25685 25686 25687 25688 25689 25690 25691 25692 25693 25694 25695 25696 25697 25698 25699 25700 25701 25702 25703 25704 25705 25706 25707 25708 25709 25710 25711 25712 25713 25714 25715 25716 25717 25718 25719 25720 25721 25722 25723 25724 25725 25726 25727 25728 25729 25730 25731 25732 25733 25734 25735 25736 25737 25738 25739 25740 25741 25742 25743 25744 25745 25746 25747 25748 25749 25750 25751 25752 25753 25754 25755 25756 25757 25758 25759 25760 25761 25762 25763 25764 25765 25766 25767 25768 25769 25770 25771 25772 25773 25774 25775 25776 25777 25778 25779 25780 25781 25782 25783 25784 25785 25786 25787 25788 25789 25790 25791 25792 25793 25794 25795 25796 25797 25798 25799 25800 25801 25802 25803 25804 25805 25806 25807 25808 25809 25810 25811 25812 25813 25814 25815 25816 25817 25818 25819 25820 25821 25822 25823 25824 25825 25826 25827 25828 25829 25830 25831 25832 25833 25834 25835 25836 25837 25838 25839 25840 25841 25842 25843 25844 25845 25846 25847 25848 25849 25850 25851 25852 25853 25854 25855 25856 25857 25858 25859 25860 25861 25862 25863 25864 25865 25866 25867 25868 25869 25870 25871 25872 25873 25874 25875 25876 25877 25878 25879 25880 25881 25882 25883 25884 25885 25886 25887 25888 25889 25890 25891 25892 25893 25894 25895 25896 25897 25898 25899 25900 25901 25902 25903 25904 25905 25906 25907 25908 25909 25910 25911 25912 25913 25914 25915 25916 25917 25918 25919 25920 25921 25922 25923 25924 25925 25926 25927 25928 25929 25930 25931 25932 25933 25934 25935 25936 25937 25938 25939 25940 25941 25942 25943 25944 25945 25946 25947 25948 25949 25950 25951 25952 25953 25954 25955 25956 25957 25958 25959 25960 25961 25962 25963 25964 25965 25966 25967 25968 25969 25970 25971 25972 25973 25974 25975 25976 25977 25978 25979 25980 25981 25982 25983 25984 25985 25986 25987 25988 25989 25990 25991 25992 25993 25994 25995 25996 25997 25998 25999 26000 26001 26002 26003 26004 26005 26006 26007 26008 26009 26010 26011 26012 26013 26014 26015 26016 26017 26018 26019 26020 26021 26022 26023 26024 26025 26026 26027 26028 26029 26030 26031 26032 26033 26034 26035 26036 26037 26038 26039 26040 26041 26042 26043 26044 26045 26046 26047 26048 26049 26050 26051 26052 26053 26054 26055 26056 26057 26058 26059 26060 26061 26062 26063 26064 26065 26066 26067 26068 26069 26070 26071 26072 26073 26074 26075 26076 26077 26078 26079 26080 26081 26082 26083 26084 26085 26086 26087 26088 26089 26090 26091 26092 26093 26094 26095 26096 26097 26098 26099 26100 26101 26102 26103 26104 26105 26106 26107 26108 26109 26110 26111 26112 26113 26114 26115 26116 26117 26118 26119 26120 26121 26122 26123 26124 26125 26126 26127 26128 26129 26130 26131 26132 26133 26134 26135 26136 26137 26138 26139 26140 26141 26142 26143 26144 26145 26146 26147 26148 26149 26150 26151 26152 26153 26154 26155 26156 26157 26158 26159 26160 26161 26162 26163 26164 26165 26166 26167 26168 26169 26170 26171 26172 26173 26174 26175 26176 26177 26178 26179 26180 26181 26182 26183 26184 26185 26186 26187 26188 26189 26190 26191 26192 26193 26194 26195 26196 26197 26198 26199 26200 26201 26202 26203 26204 26205 26206 26207 26208 26209 26210 26211 26212 26213 26214 26215 26216 26217 26218 26219 26220 26221 26222 26223 26224 26225 26226 26227 26228 26229 26230 26231 26232 26233 26234 26235 26236 26237 26238 26239 26240 26241 26242 26243 26244 26245 26246 26247 26248 26249 26250 26251 26252 26253 26254 26255 26256 26257 26258 26259 26260 26261 26262 26263 26264 26265 26266 26267 26268 26269 26270 26271 26272 26273 26274 26275 26276 26277 26278 26279 26280 26281 26282 26283 26284 26285 26286 26287 26288 26289 26290 26291 26292 26293 26294 26295 26296 26297 26298 26299 26300 26301 26302 26303 26304 26305 26306 26307 26308 26309 26310 26311 26312 26313 26314 26315 26316 26317 26318 26319 26320 26321 26322 26323 26324 26325 26326 26327 26328 26329 26330 26331 26332 26333 26334 26335 26336 26337 26338 26339 26340 26341 26342 26343 26344 26345 26346 26347 26348 26349 26350 26351 26352 26353 26354 26355 26356 26357 26358 26359 26360 26361 26362 26363 26364 26365 26366 26367 26368 26369 26370 26371 26372 26373 26374 26375 26376 26377 26378 26379 26380 26381 26382 26383 26384 26385 26386 26387 26388 26389 26390 26391 26392 26393 26394 26395 26396 26397 26398 26399 26400 26401 26402 26403 26404 26405 26406 26407 26408 26409 26410 26411 26412 26413 26414 26415 26416 26417 26418 26419 26420 26421 26422 26423 26424 26425 26426 26427 26428 26429 26430 26431 26432 26433 26434 26435 26436 26437 26438 26439 26440 26441 26442 26443 26444 26445 26446 26447 26448 26449 26450 26451 26452 26453 26454 26455 26456 26457 26458 26459 26460 26461 26462 26463 26464 26465 26466 26467 26468 26469 26470 26471 26472 26473 26474 26475 26476 26477 26478 26479 26480 26481 26482 26483 26484 26485 26486 26487 26488 26489 26490 26491 26492 26493 26494 26495 26496 26497 26498 26499 26500 26501 26502 26503 26504 26505 26506 26507 26508 26509 26510 26511 26512 26513 26514 26515 26516 26517 26518 26519 26520 26521 26522 26523 26524 26525 26526 26527 26528 26529 26530 26531 26532 26533 26534 26535 26536 26537 26538 26539 26540 26541 26542 26543 26544 26545 26546 26547 26548 26549 26550 26551 26552 26553 26554 26555 26556 26557 26558 26559 26560 26561 26562 26563 26564 26565 26566 26567 26568 26569 26570 26571 26572 26573 26574 26575 26576 26577 26578 26579 26580 26581 26582 26583 26584 26585 26586 26587 26588 26589 26590 26591 26592 26593 26594 26595 26596 26597 26598 26599 26600 26601 26602 26603 26604 26605 26606 26607 26608 26609 26610 26611 26612 26613 26614 26615 26616 26617 26618 26619 26620 26621 26622 26623 26624 26625 26626 26627 26628 26629 26630 26631 26632 26633 26634 26635 26636 26637 26638 26639 26640 26641 26642 26643 26644 26645 26646 26647 26648 26649 26650 26651 26652 26653 26654 26655 26656 26657 26658 26659 26660 26661 26662 26663 26664 26665 26666 26667 26668 26669 26670 26671 26672 26673 26674 26675 26676 26677 26678 26679 26680 26681 26682 26683 26684 26685 26686 26687 26688 26689 26690 26691 26692 26693 26694 26695 26696 26697 26698 26699 26700 26701 26702 26703 26704 26705 26706 26707 26708 26709 26710 26711 26712 26713 26714 26715 26716 26717 26718 26719 26720 26721 26722 26723 26724 26725 26726 26727 26728 26729 26730 26731 26732 26733 26734 26735 26736 26737 26738 26739 26740 26741 26742 26743 26744 26745 26746 26747 26748 26749 26750 26751 26752 26753 26754 26755 26756 26757 26758 26759 26760 26761 26762 26763 26764 26765 26766 26767 26768 26769 26770 26771 26772 26773 26774 26775 26776 26777 26778 26779 26780 26781 26782 26783 26784 26785 26786 26787 26788 26789 26790 26791 26792 26793 26794 26795 26796 26797 26798 26799 26800 26801 26802 26803 26804 26805 26806 26807 26808 26809 26810 26811 26812 26813 26814 26815 26816 26817 26818 26819 26820 26821 26822 26823 26824 26825 26826 26827 26828 26829 26830 26831 26832 26833 26834 26835 26836 26837 26838 26839 26840 26841 26842 26843 26844 26845 26846 26847 26848 26849 26850 26851 26852 26853 26854 26855 26856 26857 26858 26859 26860 26861 26862 26863 26864 26865 26866 26867 26868 26869 26870 26871 26872 26873 26874 26875 26876 26877 26878 26879 26880 26881 26882 26883 26884 26885 26886 26887 26888 26889 26890 26891 26892 26893 26894 26895 26896 26897 26898 26899 26900 26901 26902 26903 26904 26905 26906 26907 26908 26909 26910 26911 26912 26913 26914 26915 26916 26917 26918 26919 26920 26921 26922 26923 26924 26925 26926 26927 26928 26929 26930 26931 26932 26933 26934 26935 26936 26937 26938 26939 26940 26941 26942 26943 26944 26945 26946 26947 26948 26949 26950 26951 26952 26953 26954 26955 26956 26957 26958 26959 26960 26961 26962 26963 26964 26965 26966 26967 26968 26969 26970 26971 26972 26973 26974 26975 26976 26977 26978 26979 26980 26981 26982 26983 26984 26985 26986 26987 26988 26989 26990 26991 26992 26993 26994 26995 26996 26997 26998 26999 27000 27001 27002 27003 27004 27005 27006 27007 27008 27009 27010 27011 27012 27013 27014 27015 27016 27017 27018 27019 27020 27021 27022 27023 27024 27025 27026 27027 27028 27029 27030 27031 27032 27033 27034 27035 27036 27037 27038 27039 27040 27041 27042 27043 27044 27045 27046 27047 27048 27049 27050 27051 27052 27053 27054 27055 27056 27057 27058 27059 27060 27061 27062 27063 27064 27065 27066 27067 27068 27069 27070 27071 27072 27073 27074 27075 27076 27077 27078 27079 27080 27081 27082 27083 27084 27085 27086 27087 27088 27089 27090 27091 27092 27093 27094 27095 27096 27097 27098 27099 27100 27101 27102 27103 27104 27105 27106 27107 27108 27109 27110 27111 27112 27113 27114 27115 27116 27117 27118 27119 27120 27121 27122 27123 27124 27125 27126 27127 27128 27129 27130 27131 27132 27133 27134 27135 27136 27137 27138 27139 27140 27141 27142 27143 27144 27145 27146 27147 27148 27149 27150 27151 27152 27153 27154 27155 27156 27157 27158 27159 27160 27161 27162 27163 27164 27165 27166 27167 27168 27169 27170 27171 27172 27173 27174 27175 27176 27177 27178 27179 27180 27181 27182 27183 27184 27185 27186 27187 27188 27189 27190 27191 27192 27193 27194 27195 27196 27197 27198 27199 27200 27201 27202 27203 27204 27205 27206 27207 27208 27209 27210 27211 27212 27213 27214 27215 27216 27217 27218 27219 27220 27221 27222 27223 27224 27225 27226 27227 27228 27229 27230 27231 27232 27233 27234 27235 27236 27237 27238 27239 27240 27241 27242 27243 27244 27245 27246 27247 27248 27249 27250 27251 27252 27253 27254 27255 27256 27257 27258 27259 27260 27261 27262 27263 27264 27265 27266 27267 27268 27269 27270 27271 27272 27273 27274 27275 27276 27277 27278 27279 27280 27281 27282 27283 27284 27285 27286 27287 27288 27289 27290 27291 27292 27293 27294 27295 27296 27297 27298 27299 27300 27301 27302 27303 27304 27305 27306 27307 27308 27309 27310 27311 27312 27313 27314 27315 27316 27317 27318 27319 27320 27321 27322 27323 27324 27325 27326 27327 27328 27329 27330 27331 27332 27333 27334 27335 27336 27337 27338 27339 27340 27341 27342 27343 27344 27345 27346 27347 27348 27349 27350 27351 27352 27353 27354 27355 27356 27357 27358 27359 27360 27361 27362 27363 27364 27365 27366 27367 27368 27369 27370 27371 27372 27373 27374 27375 27376 27377 27378 27379 27380 27381 27382 27383 27384 27385 27386 27387 27388 27389 27390 27391 27392 27393 27394 27395 27396 27397 27398 27399 27400 27401 27402 27403 27404 27405 27406 27407 27408 27409 27410 27411 27412 27413 27414 27415 27416 27417 27418 27419 27420 27421 27422 27423 27424 27425 27426 27427 27428 27429 27430 27431 27432 27433 27434 27435 27436 27437 27438 27439 27440 27441 27442 27443 27444 27445 27446 27447 27448 27449 27450 27451 27452 27453 27454 27455 27456 27457 27458 27459 27460 27461 27462 27463 27464 27465 27466 27467 27468 27469 27470 27471 27472 27473 27474 27475 27476 27477 27478 27479 27480 27481 27482 27483 27484 27485 27486 27487 27488 27489 27490 27491 27492 27493 27494 27495 27496 27497 27498 27499 27500 27501 27502 27503 27504 27505 27506 27507 27508 27509 27510 27511 27512 27513 27514 27515 27516 27517 27518 27519 27520 27521 27522 27523 27524 27525 27526 27527 27528 27529 27530 27531 27532 27533 27534 27535 27536 27537 27538 27539 27540 27541 27542 27543 27544 27545 27546 27547 27548 27549 27550 27551 27552 27553 27554 27555 27556 27557 27558 27559 27560 27561 27562 27563 27564 27565 27566 27567 27568 27569 27570 27571 27572 27573 27574 27575 27576 27577 27578 27579 27580 27581 27582 27583 27584 27585 27586 27587 27588 27589 27590 27591 27592 27593 27594 27595 27596 27597 27598 27599 27600 27601 27602 27603 27604 27605 27606 27607 27608 27609 27610 27611 27612 27613 27614 27615 27616 27617 27618 27619 27620 27621 27622 27623 27624 27625 27626 27627 27628 27629 27630 27631 27632 27633 27634 27635 27636 27637 27638 27639 27640 27641 27642 27643 27644 27645 27646 27647 27648 27649 27650 27651 27652 27653 27654 27655 27656 27657 27658 27659 27660 27661 27662 27663 27664 27665 27666 27667 27668 27669 27670 27671 27672 27673 27674 27675 27676 27677 27678 27679 27680 27681 27682 27683 27684 27685 27686 27687 27688 27689 27690 27691 27692 27693 27694 27695 27696 27697 27698 27699 27700 27701 27702 27703 27704 27705 27706 27707 27708 27709 27710 27711 27712 27713 27714 27715 27716 27717 27718 27719 27720 27721 27722 27723 27724 27725 27726 27727 27728 27729 27730 27731 27732 27733 27734 27735 27736 27737 27738 27739 27740 27741 27742 27743 27744 27745 27746 27747 27748 27749 27750 27751 27752 27753 27754 27755 27756 27757 27758 27759 27760 27761 27762 27763 27764 27765 27766 27767 27768 27769 27770 27771 27772 27773 27774 27775 27776 27777 27778 27779 27780 27781 27782 27783 27784 27785 27786 27787 27788 27789 27790 27791 27792 27793 27794 27795 27796 27797 27798 27799 27800 27801 27802 27803 27804 27805 27806 27807 27808 27809 27810 27811 27812 27813 27814 27815 27816 27817 27818 27819 27820 27821 27822 27823 27824 27825 27826 27827 27828 27829 27830 27831 27832 27833 27834 27835 27836 27837 27838 27839 27840 27841 27842 27843 27844 27845 27846 27847 27848 27849 27850 27851 27852 27853 27854 27855 27856 27857 27858 27859 27860 27861 27862 27863 27864 27865 27866 27867 27868 27869 27870 27871 27872 27873 27874 27875 27876 27877 27878 27879 27880 27881 27882 27883 27884 27885 27886 27887 27888 27889 27890 27891 27892 27893 27894 27895 27896 27897 27898 27899 27900 27901 27902 27903 27904 27905 27906 27907 27908 27909 27910 27911 27912 27913 27914 27915 27916 27917 27918 27919 27920 27921 27922 27923 27924 27925 27926 27927 27928 27929 27930 27931 27932 27933 27934 27935 27936 27937 27938 27939 27940 27941 27942 27943 27944 27945 27946 27947 27948 27949 27950 27951 27952 27953 27954 27955 27956 27957 27958 27959 27960 27961 27962 27963 27964 27965 27966 27967 27968 27969 27970 27971 27972 27973 27974 27975 27976 27977 27978 27979 27980 27981 27982 27983 27984 27985 27986 27987 27988 27989 27990 27991 27992 27993 27994 27995 27996 27997 27998 27999 28000 28001 28002 28003 28004 28005 28006 28007 28008 28009 28010 28011 28012 28013 28014 28015 28016 28017 28018 28019 28020 28021 28022 28023 28024 28025 28026 28027 28028 28029 28030 28031 28032 28033 28034 28035 28036 28037 28038 28039 28040 28041 28042 28043 28044 28045 28046 28047 28048 28049 28050 28051 28052 28053 28054 28055 28056 28057 28058 28059 28060 28061 28062 28063 28064 28065 28066 28067 28068 28069 28070 28071 28072 28073 28074 28075 28076 28077 28078 28079 28080 28081 28082 28083 28084 28085 28086 28087 28088 28089 28090 28091 28092 28093 28094 28095 28096 28097 28098 28099 28100 28101 28102 28103 28104 28105 28106 28107 28108 28109 28110 28111 28112 28113 28114 28115 28116 28117 28118 28119 28120 28121 28122 28123 28124 28125 28126 28127 28128 28129 28130 28131 28132 28133 28134 28135 28136 28137 28138 28139 28140 28141 28142 28143 28144 28145 28146 28147 28148 28149 28150 28151 28152 28153 28154 28155 28156 28157 28158 28159 28160 28161 28162 28163 28164 28165 28166 28167 28168 28169 28170 28171 28172 28173 28174 28175 28176 28177 28178 28179 28180 28181 28182 28183 28184 28185 28186 28187 28188 28189 28190 28191 28192 28193 28194 28195 28196 28197 28198 28199 28200 28201 28202 28203 28204 28205 28206 28207 28208 28209 28210 28211 28212 28213 28214 28215 28216 28217 28218 28219 28220 28221 28222 28223 28224 28225 28226 28227 28228 28229 28230 28231 28232 28233 28234 28235 28236 28237 28238 28239 28240 28241 28242 28243 28244 28245 28246 28247 28248 28249 28250 28251 28252 28253 28254 28255 28256 28257 28258 28259 28260 28261 28262 28263 28264 28265 28266 28267 28268 28269 28270 28271 28272 28273 28274 28275 28276 28277 28278 28279 28280 28281 28282 28283 28284 28285 28286 28287 28288 28289 28290 28291 28292 28293 28294 28295 28296 28297 28298 28299 28300 28301 28302 28303 28304 28305 28306 28307 28308 28309 28310 28311 28312 28313 28314 28315 28316 28317 28318 28319 28320 28321 28322 28323 28324 28325 28326 28327 28328 28329 28330 28331 28332 28333 28334 28335 28336 28337 28338 28339 28340 28341 28342 28343 28344 28345 28346 28347 28348 28349 28350 28351 28352 28353 28354 28355 28356 28357 28358 28359 28360 28361 28362 28363 28364 28365 28366 28367 28368 28369 28370 28371 28372 28373 28374 28375 28376 28377 28378 28379 28380 28381 28382 28383 28384 28385 28386 28387 28388 28389 28390 28391 28392 28393 28394 28395 28396 28397 28398 28399 28400 28401 28402 28403 28404 28405 28406 28407 28408 28409 28410 28411 28412 28413 28414 28415 28416 28417 28418 28419 28420 28421 28422 28423 28424 28425 28426 28427 28428 28429 28430 28431 28432 28433 28434 28435 28436 28437 28438 28439 28440 28441 28442 28443 28444 28445 28446 28447 28448 28449 28450 28451 28452 28453 28454 28455 28456 28457 28458 28459 28460 28461 28462 28463 28464 28465 28466 28467 28468 28469 28470 28471 28472 28473 28474 28475 28476 28477 28478 28479 28480 28481 28482 28483 28484 28485 28486 28487 28488 28489 28490 28491 28492 28493 28494 28495 28496 28497 28498 28499 28500 28501 28502 28503 28504 28505 28506 28507 28508 28509 28510 28511 28512 28513 28514 28515 28516 28517 28518 28519 28520 28521 28522 28523 28524 28525 28526 28527 28528 28529 28530 28531 28532 28533 28534 28535 28536 28537 28538 28539 28540 28541 28542 28543 28544 28545 28546 28547 28548 28549 28550 28551 28552 28553 28554 28555 28556 28557 28558 28559 28560 28561 28562 28563 28564 28565 28566 28567 28568 28569 28570 28571 28572 28573 28574 28575 28576 28577 28578 28579 28580 28581 28582 28583 28584 28585 28586 28587 28588 28589 28590 28591 28592 28593 28594 28595 28596 28597 28598 28599 28600 28601 28602 28603 28604 28605 28606 28607 28608 28609 28610 28611 28612 28613 28614 28615 28616 28617 28618 28619 28620 28621 28622 28623 28624 28625 28626 28627 28628 28629 28630 28631 28632 28633 28634 28635 28636 28637 28638 28639 28640 28641 28642 28643 28644 28645 28646 28647 28648 28649 28650 28651 28652 28653 28654 28655 28656 28657 28658 28659 28660 28661 28662 28663 28664 28665 28666 28667 28668 28669 28670 28671 28672 28673 28674 28675 28676 28677 28678 28679 28680 28681 28682 28683 28684 28685 28686 28687 28688 28689 28690 28691 28692 28693 28694 28695 28696 28697 28698 28699 28700 28701 28702 28703 28704 28705 28706 28707 28708 28709 28710 28711 28712 28713 28714 28715 28716 28717 28718 28719 28720 28721 28722 28723 28724 28725 28726 28727 28728 28729 28730 28731 28732 28733 28734 28735 28736 28737 28738 28739 28740 28741 28742 28743 28744 28745 28746 28747 28748 28749 28750 28751 28752 28753 28754 28755 28756 28757 28758 28759 28760 28761 28762 28763 28764 28765 28766 28767 28768 28769 28770 28771 28772 28773 28774 28775 28776 28777 28778 28779 28780 28781 28782 28783 28784 28785 28786 28787 28788 28789 28790 28791 28792 28793 28794 28795 28796 28797 28798 28799 28800 28801 28802 28803 28804 28805 28806 28807 28808 28809 28810 28811 28812 28813 28814 28815 28816 28817 28818 28819 28820 28821 28822 28823 28824 28825 28826 28827 28828 28829 28830 28831 28832 28833 28834 28835 28836 28837 28838 28839 28840 28841 28842 28843 28844 28845 28846 28847 28848 28849 28850 28851 28852 28853 28854 28855 28856 28857 28858 28859 28860 28861 28862 28863 28864 28865 28866 28867 28868 28869 28870 28871 28872 28873 28874 28875 28876 28877 28878 28879 28880 28881 28882 28883 28884 28885 28886 28887 28888 28889 28890 28891 28892 28893 28894 28895 28896 28897 28898 28899 28900 28901 28902 28903 28904 28905 28906 28907 28908 28909 28910 28911 28912 28913 28914 28915 28916 28917 28918 28919 28920 28921 28922 28923 28924 28925 28926 28927 28928 28929 28930 28931 28932 28933 28934 28935 28936 28937 28938 28939 28940 28941 28942 28943 28944 28945 28946 28947 28948 28949 28950 28951 28952 28953 28954 28955 28956 28957 28958 28959 28960 28961 28962 28963 28964 28965 28966 28967 28968 28969 28970 28971 28972 28973 28974 28975 28976 28977 28978 28979 28980 28981 28982 28983 28984 28985 28986 28987 28988 28989 28990 28991 28992 28993 28994 28995 28996 28997 28998 28999 29000 29001 29002 29003 29004 29005 29006 29007 29008 29009 29010 29011 29012 29013 29014 29015 29016 29017 29018 29019 29020 29021 29022 29023 29024 29025 29026 29027 29028 29029 29030 29031 29032 29033 29034 29035 29036 29037 29038 29039 29040 29041 29042 29043 29044 29045 29046 29047 29048 29049 29050 29051 29052 29053 29054 29055 29056 29057 29058 29059 29060 29061 29062 29063 29064 29065 29066 29067 29068 29069 29070 29071 29072 29073 29074 29075 29076 29077 29078 29079 29080 29081 29082 29083 29084 29085 29086 29087 29088 29089 29090 29091 29092 29093 29094 29095 29096 29097 29098 29099 29100 29101 29102 29103 29104 29105 29106 29107 29108 29109 29110 29111 29112 29113 29114 29115 29116 29117 29118 29119 29120 29121 29122 29123 29124 29125 29126 29127 29128 29129 29130 29131 29132 29133 29134 29135 29136 29137 29138 29139 29140 29141 29142 29143 29144 29145 29146 29147 29148 29149 29150 29151 29152 29153 29154 29155 29156 29157 29158 29159 29160 29161 29162 29163 29164 29165 29166 29167 29168 29169 29170 29171 29172 29173 29174 29175 29176 29177 29178 29179 29180 29181 29182 29183 29184 29185 29186 29187 29188 29189 29190 29191 29192 29193 29194 29195 29196 29197 29198 29199 29200 29201 29202 29203 29204 29205 29206 29207 29208 29209 29210 29211 29212 29213 29214 29215 29216 29217 29218 29219 29220 29221 29222 29223 29224 29225 29226 29227 29228 29229 29230 29231 29232 29233 29234 29235 29236 29237 29238 29239 29240 29241 29242 29243 29244 29245 29246 29247 29248 29249 29250 29251 29252 29253 29254 29255 29256 29257 29258 29259 29260 29261 29262 29263 29264 29265 29266 29267 29268 29269 29270 29271 29272 29273 29274 29275 29276 29277 29278 29279 29280 29281 29282 29283 29284 29285 29286 29287 29288 29289 29290 29291 29292 29293 29294 29295 29296 29297 29298 29299 29300 29301 29302 29303 29304 29305 29306 29307 29308 29309 29310 29311 29312 29313 29314 29315 29316 29317 29318 29319 29320 29321 29322 29323 29324 29325 29326 29327 29328 29329 29330 29331 29332 29333 29334 29335 29336 29337 29338 29339 29340 29341 29342 29343 29344 29345 29346 29347 29348 29349 29350 29351 29352 29353 29354 29355 29356 29357 29358 29359 29360 29361 29362 29363 29364 29365 29366 29367 29368 29369 29370 29371 29372 29373 29374 29375 29376 29377 29378 29379 29380 29381 29382 29383 29384 29385 29386 29387 29388 29389 29390 29391 29392 29393 29394 29395 29396 29397 29398 29399 29400 29401 29402 29403 29404 29405 29406 29407 29408 29409 29410 29411 29412 29413 29414 29415 29416 29417 29418 29419 29420 29421 29422 29423 29424 29425 29426 29427 29428 29429 29430 29431 29432 29433 29434 29435 29436 29437 29438 29439 29440 29441 29442 29443 29444 29445 29446 29447 29448 29449 29450 29451 29452 29453 29454 29455 29456 29457 29458 29459 29460 29461 29462 29463 29464 29465 29466 29467 29468 29469 29470 29471 29472 29473 29474 29475 29476 29477 29478 29479 29480 29481 29482 29483 29484 29485 29486 29487 29488 29489 29490 29491 29492 29493 29494 29495 29496 29497 29498 29499 29500 29501 29502 29503 29504 29505 29506 29507 29508 29509 29510 29511 29512 29513 29514 29515 29516 29517 29518 29519 29520 29521 29522 29523 29524 29525 29526 29527 29528 29529 29530 29531 29532 29533 29534 29535 29536 29537 29538 29539 29540 29541 29542 29543 29544 29545 29546 29547 29548 29549 29550 29551 29552 29553 29554 29555 29556 29557 29558 29559 29560 29561 29562 29563 29564 29565 29566 29567 29568 29569 29570 29571 29572 29573 29574 29575 29576 29577 29578 29579 29580 29581 29582 29583 29584 29585 29586 29587 29588 29589 29590 29591 29592 29593 29594 29595 29596 29597 29598 29599 29600 29601 29602 29603 29604 29605 29606 29607 29608 29609 29610 29611 29612 29613 29614 29615 29616 29617 29618 29619 29620 29621 29622 29623 29624 29625 29626 29627 29628 29629 29630 29631 29632 29633 29634 29635 29636 29637 29638 29639 29640 29641 29642 29643 29644 29645 29646 29647 29648 29649 29650 29651 29652 29653 29654 29655 29656 29657 29658 29659 29660 29661 29662 29663 29664 29665 29666 29667 29668 29669 29670 29671 29672 29673 29674 29675 29676 29677 29678 29679 29680 29681 29682 29683 29684 29685 29686 29687 29688 29689 29690 29691 29692 29693 29694 29695 29696 29697 29698 29699 29700 29701 29702 29703 29704 29705 29706 29707 29708 29709 29710 29711 29712 29713 29714 29715 29716 29717 29718 29719 29720 29721 29722 29723 29724 29725 29726 29727 29728 29729 29730 29731 29732 29733 29734 29735 29736 29737 29738 29739 29740 29741 29742 29743 29744 29745 29746 29747 29748 29749 29750 29751 29752 29753 29754 29755 29756 29757 29758 29759 29760 29761 29762 29763 29764 29765 29766 29767 29768 29769 29770 29771 29772 29773 29774 29775 29776 29777 29778 29779 29780 29781 29782 29783 29784 29785 29786 29787 29788 29789 29790 29791 29792 29793 29794 29795 29796 29797 29798 29799 29800 29801 29802 29803 29804 29805 29806 29807 29808 29809 29810 29811 29812 29813 29814 29815 29816 29817 29818 29819 29820 29821 29822 29823 29824 29825 29826 29827 29828 29829 29830 29831 29832 29833 29834 29835 29836 29837 29838 29839 29840 29841 29842 29843 29844 29845 29846 29847 29848 29849 29850 29851 29852 29853 29854 29855 29856 29857 29858 29859 29860 29861 29862 29863 29864 29865 29866 29867 29868 29869 29870 29871 29872 29873 29874 29875 29876 29877 29878 29879 29880 29881 29882 29883 29884 29885 29886 29887 29888 29889 29890 29891 29892 29893 29894 29895 29896 29897 29898 29899 29900 29901 29902 29903 29904 29905 29906 29907 29908 29909 29910 29911 29912 29913 29914 29915 29916 29917 29918 29919 29920 29921 29922 29923 29924 29925 29926 29927 29928 29929 29930 29931 29932 29933 29934 29935 29936 29937 29938 29939 29940 29941 29942 29943 29944 29945 29946 29947 29948 29949 29950 29951 29952 29953 29954 29955 29956 29957 29958 29959 29960 29961 29962 29963 29964 29965 29966 29967 29968 29969 29970 29971 29972 29973 29974 29975 29976 29977 29978 29979 29980 29981 29982 29983 29984 29985 29986 29987 29988 29989 29990 29991 29992 29993 29994 29995 29996 29997 29998 29999 30000 30001 30002 30003 30004 30005 30006 30007 30008 30009 30010 30011 30012 30013 30014 30015 30016 30017 30018 30019 30020 30021 30022 30023 30024 30025 30026 30027 30028 30029 30030 30031 30032 30033 30034 30035 30036 30037 30038 30039 30040 30041 30042 30043 30044 30045 30046 30047 30048 30049 30050 30051 30052 30053 30054 30055 30056 30057 30058 30059 30060 30061 30062 30063 30064 30065 30066 30067 30068 30069 30070 30071 30072 30073 30074 30075 30076 30077 30078 30079 30080 30081 30082 30083 30084 30085 30086 30087 30088 30089 30090 30091 30092 30093 30094 30095 30096 30097 30098 30099 30100 30101 30102 30103 30104 30105 30106 30107 30108 30109 30110 30111 30112 30113 30114 30115 30116 30117 30118 30119 30120 30121 30122 30123 30124 30125 30126 30127 30128 30129 30130 30131 30132 30133 30134 30135 30136 30137 30138 30139 30140 30141 30142 30143 30144 30145 30146 30147 30148 30149 30150 30151 30152 30153 30154 30155 30156 30157 30158 30159 30160 30161 30162 30163 30164 30165 30166 30167 30168 30169 30170 30171 30172 30173 30174 30175 30176 30177 30178 30179 30180 30181 30182 30183 30184 30185 30186 30187 30188 30189 30190 30191 30192 30193 30194 30195 30196 30197 30198 30199 30200 30201 30202 30203 30204 30205 30206 30207 30208 30209 30210 30211 30212 30213 30214 30215 30216 30217 30218 30219 30220 30221 30222 30223 30224 30225 30226 30227 30228 30229 30230 30231 30232 30233 30234 30235 30236 30237 30238 30239 30240 30241 30242 30243 30244 30245 30246 30247 30248 30249 30250 30251 30252 30253 30254 30255 30256 30257 30258 30259 30260 30261 30262 30263 30264 30265 30266 30267 30268 30269 30270 30271 30272 30273 30274 30275 30276 30277 30278 30279 30280 30281 30282 30283 30284 30285 30286 30287 30288 30289 30290 30291 30292 30293 30294 30295 30296 30297 30298 30299 30300 30301 30302 30303 30304 30305 30306 30307 30308 30309 30310 30311 30312 30313 30314 30315 30316 30317 30318 30319 30320 30321 30322 30323 30324 30325 30326 30327 30328 30329 30330 30331 30332 30333 30334 30335 30336 30337 30338 30339 30340 30341 30342 30343 30344 30345 30346 30347 30348 30349 30350 30351 30352 30353 30354 30355 30356 30357 30358 30359 30360 30361 30362 30363 30364 30365 30366 30367 30368 30369 30370 30371 30372 30373 30374 30375 30376 30377 30378 30379 30380 30381 30382 30383 30384 30385 30386 30387 30388 30389 30390 30391 30392 30393 30394 30395 30396 30397 30398 30399 30400 30401 30402 30403 30404 30405 30406 30407 30408 30409 30410 30411 30412 30413 30414 30415 30416 30417 30418 30419 30420 30421 30422 30423 30424 30425 30426 30427 30428 30429 30430 30431 30432 30433 30434 30435 30436 30437 30438 30439 30440 30441 30442 30443 30444 30445 30446 30447 30448 30449 30450 30451 30452 30453 30454 30455 30456 30457 30458 30459 30460 30461 30462 30463 30464 30465 30466 30467 30468 30469 30470 30471 30472 30473 30474 30475 30476 30477 30478 30479 30480 30481 30482 30483 30484 30485 30486 30487 30488 30489 30490 30491 30492 30493 30494 30495 30496 30497 30498 30499 30500 30501 30502 30503 30504 30505 30506 30507 30508 30509 30510 30511 30512 30513 30514 30515 30516 30517 30518 30519 30520 30521 30522 30523 30524 30525 30526 30527 30528 30529 30530 30531 30532 30533 30534 30535 30536 30537 30538 30539 30540 30541 30542 30543 30544 30545 30546 30547 30548 30549 30550 30551 30552 30553 30554 30555 30556 30557 30558 30559 30560 30561 30562 30563 30564 30565 30566 30567 30568 30569 30570 30571 30572 30573 30574 30575 30576 30577 30578 30579 30580 30581 30582 30583 30584 30585 30586 30587 30588 30589 30590 30591 30592 30593 30594 30595 30596 30597 30598 30599 30600 30601 30602 30603 30604 30605 30606 30607 30608 30609 30610 30611 30612 30613 30614 30615 30616 30617 30618 30619 30620 30621 30622 30623 30624 30625 30626 30627 30628 30629 30630 30631 30632 30633 30634 30635 30636 30637 30638 30639 30640 30641 30642 30643 30644 30645 30646 30647 30648 30649 30650 30651 30652 30653 30654 30655 30656 30657 30658 30659 30660 30661 30662 30663 30664 30665 30666 30667 30668 30669 30670 30671 30672 30673 30674 30675 30676 30677 30678 30679 30680 30681 30682 30683 30684 30685 30686 30687 30688 30689 30690 30691 30692 30693 30694 30695 30696 30697 30698 30699 30700 30701 30702 30703 30704 30705 30706 30707 30708 30709 30710 30711 30712 30713 30714 30715 30716 30717 30718 30719 30720 30721 30722 30723 30724 30725 30726 30727 30728 30729 30730 30731 30732 30733 30734 30735 30736 30737 30738 30739 30740 30741 30742 30743 30744 30745 30746 30747 30748 30749 30750 30751 30752 30753 30754 30755 30756 30757 30758 30759 30760 30761 30762 30763 30764 30765 30766 30767 30768 30769 30770 30771 30772 30773 30774 30775 30776 30777 30778 30779 30780 30781 30782 30783 30784 30785 30786 30787 30788 30789 30790 30791 30792 30793 30794 30795 30796 30797 30798 30799 30800 30801 30802 30803 30804 30805 30806 30807 30808 30809 30810 30811 30812 30813 30814 30815 30816 30817 30818 30819 30820 30821 30822 30823 30824 30825 30826 30827 30828 30829 30830 30831 30832 30833 30834 30835 30836 30837 30838 30839 30840 30841 30842 30843 30844 30845 30846 30847 30848 30849 30850 30851 30852 30853 30854 30855 30856 30857 30858 30859 30860 30861 30862 30863 30864 30865 30866 30867 30868 30869 30870 30871 30872 30873 30874 30875 30876 30877 30878 30879 30880 
</DataArray>
<DataArray type="UInt32" Name="offsets" format="ascii">
3 6 8 11 14 17 20 22 25 28 31 34 37 40 43 46 49 52 55 58 60 63 66 69 72 74 77 80 83 86 89 92 95 97 100 103 106 109 112 115 118 121 123 126 129 132 135 138 141 144 147 150 153 156 158 160 163 166 169 172 175 178 181 184 186 189 192 195 198 201 204 207 210 213 216 219 222 225 228 231 234 237 240 243 246 249 252 254 257 260 263 266 269 272 275 278 281 284 287 289 292 295 298 300 303 306 309 312 315 318 321 324 327 330 333 336 339 342 345 348 351 354 357 360 363 366 369 372 375 378 381 384 387 390 393 396 399 402 405 408 411 414 417 420 423 426 429 432 435 437 440 442 445 448 451 454 457 460 463 466 469 472 475 478 481 484 487 490 493 496 499 502 505 508 511 514 517 520 522 525 528 530 533 535 538 541 544 547 550 553 556 559 562 565 568 571 574 577 579 582 584 587 590 593 596 599 602 605 607 610 612 615 618 621 624 627 630 632 635 638 640 643 646 649 652 655 658 660 662 665 668 670 673 675 678 680 682 685 688 691 693 696 699 702 705 708 711 714 717 720 723 726 729 732 734 737 740 743 746 749 752 755 757 760 763 766 769 772 775 778 780 783 786 789 792 794 797 800 803 806 809 812 814 817 820 823 825 828 831 834 837 840 843 846 848 851 854 857 860 863 866 868 871 874 877 880 883 886 888 891 894 897 900 903 906 909 911 914 917 920 923 926 929 932 935 938 941 944 947 950 953 956 959 962 965 968 971 974 976 978 981 984 987 990 993 995 998 1001 1004 1007 1010 1013 1016 1018 1021 1023 1026 1029 1032 1034 1037 1040 1043 1045 1048 1050 1053 1056 1059 1062 1065 1068 1071 1073 1076 1079 1082 1085 1088 1091 1094 1096 1099 1102 1105 1107 1110 1113 1116 1119 1122 1125 1128 1131 1134 1137 1140 1143 1146 1149 1152 1155 1158 1161 1164 1167 1170 1173 1176 1179 1182 1185 1188 1191 1194 1197 1200 1203 1205 1208 1211 1214 1217 1220 1223 1226 1229 1232 1235 1238 1241 1244 1247 1250 1253 1256 1259 1262 1265 1268 1271 1274 1277 1280 1283 1286 1289 1292 1295 1298 1301 1303 1306 1309 1312 1315 1318 1321 1324 1327 1330 1333 1336 1339 1342 1345 1348 1351 1354 1357 1360 1363 1365 1368 1371 1374 1377 1380 1383 1386 1388 1391 1394 1397 1400 1403 1405 1408 1411 1413 1416 1418 1421 1424 1427 1430 1432 1435 1438 1440 1443 1446 1449 1452 1455 1458 1460 1463 1466 1469 1472 1475 1478 1481 1484 1487 1490 1493 1496 1499 1502 1505 1508 1511 1514 1517 1519 1522 1525 1528 1531 1534 1537 1540 1543 1546 1549 1552 1554 1556 1559 1562 1565 1568 1571 1574 1577 1580 1583 1586 1589 1592 1595 1598 1601 1604 1607 1610 1613 1616 1619 1621 1624 1626 1628 1631 1634 1636 1639 1642 1645 1648 1651 1654 1657 1660 1663 1666 1669 1672 1675 1677 1680 1683 1686 1689 1692 1695 1698 1700 1702 1705 1708 1711 1714 1717 1720 1723 1726 1728 1730 1733 1736 1739 1741 1744 1747 1750 1753 1756 1759 1762 1765 1768 1771 1774 1777 1780 1783 1786 1789 1792 1795 1798 1801 1804 1807 1810 1813 1816 1819 1822 1825 1828 1831 1834 1837 1840 1843 1846 1848 1851 1854 1856 1859 1862 1865 1868 1870 1873 1876 1879 1881 1884 1887 1890 1892 1895 1898 1900 1903 1906 1909 1912 1915 1918 1921 1924 1927 1930 1933 1936 1939 1942 1945 1948 1951 1954 1957 1960 1963 1965 1968 1971 1974 1976 1979 1982 1985 1988 1991 1993 1996 1999 2002 2005 2008 2011 2013 2016 2019 2022 2025 2028 2031 2034 2037 2040 2043 2046 2049 2052 2055 2058 2061 2064 2067 2069 2072 2075 2078 2081 2084 2087 2090 2093 2096 2099 2102 2105 2108 2111 2114 2117 2120 2123 2126 2129 2132 2134 2137 2140 2143 2146 2149 2152 2155 2158 2161 2164 2167 2170 2173 2176 2179 2181 2184 2187 2190 2193 2196 2199 2202 2205 2208 2211 2214 2217 2220 2223 2226 2229 2232 2235 2237 2240 2243 2246 2249 2252 2255 2258 2260 2263 2266 2269 2272 2275 2278 2281 2284 2287 2290 2293 2296 2299 2302 2305 2308 2311 2314 2317 2320 2323 2325 2328 2331 2334 2337 2340 2343 2346 2349 2352 2354 2357 2360 2363 2366 2369 2372 2375 2378 2380 2383 2386 2389 2392 2395 2398 2401 2404 2407 2410 2413 2416 2419 2422 2425 2428 2431 2434 2437 2439 2442 2445 2448 2451 2454 2456 2459 2462 2465 2467 2470 2473 2476 2479 2482 2485 2487 2490 2493 2496 2499 2502 2505 2508 2511 2514 2517 2519 2522 2525 2528 2531 2534 2537 2540 2543 2546 2549 2552 2555 2557 2560 2562 2565 2568 2571 2574 2577 2580 2583 2585 2588 2590 2593 2596 2599 2602 2605 2608 2611 2614 2617 2620 2623 2626 2629 2632 2635 2638 2641 2644 2647 2650 2653 2656 2659 2662 2665 2668 2671 2674 2677 2680 2683 2686 2689 2692 2695 2698 2701 2704 2707 2710 2713 2716 2719 2722 2725 2727 2729 2732 2735 2737 2740 2743 2746 2749 2752 2755 2758 2761 2764 2767 2770 2773 2776 2779 2782 2785 2787 2790 2793 2796 2799 2801 2804 2807 2809 2812 2815 2818 2821 2824 2827 2829 2832 2834 2837 2840 2842 2845 2848 2851 2854 2857 2860 2863 2866 2869 2872 2874 2877 2880 2883 2886 2889 2891 2893 2896 2899 2902 2905 2907 2910 2913 2915 2918 2920 2923 2926 2929 2932 2935 2937 2940 2943 2945 2948 2951 2954 2957 2960 2963 2966 2969 2972 2975 2978 2981 2983 2986 2989 2992 2995 2998 3001 3004 3007 3010 3013 3016 3019 3022 3025 3028 3030 3033 3035 3038 3040 3042 3045 3047 3050 3053 3055 3058 3061 3064 3067 3070 3073 3075 3078 3080 3083 3086 3088 3091 3094 3097 3099 3102 3105 3107 3110 3113 3116 3119 3122 3124 3127 3130 3132 3135 3138 3141 3144 3147 3149 3152 3154 3157 3160 3162 3165 3168 3170 3173 3176 3179 3182 3185 3188 3191 3194 3196 3199 3202 3205 3208 3211 3214 3217 3220 3223 3226 3228 3231 3234 3237 3240 3242 3245 3248 3250 3253 3256 3259 3262 3265 3267 3270 3273 3276 3279 3282 3284 3287 3289 3292 3295 3298 3301 3304 3307 3309 3312 3315 3318 3321 3324 3327 3330 3333 3335 3337 3339 3342 3345 3348 3351 3353 3356 3358 3361 3364 3367 3369 3371 3374 3377 3380 3382 3385 3388 3391 3393 3396 3398 3401 3403 3405 3408 3410 3413 3416 3419 3422 3424 3427 3430 3433 3435 3438 3440 3443 3445 3448 3451 3454 3457 3460 3463 3466 3468 3471 3474 3477 3480 3482 3485 3488 3491 3494 3497 3500 3503 3506 3508 3511 3513 3515 3518 3521 3524 3526 3529 3532 3535 3538 3540 3542 3545 3548 3550 3552 3555 3558 3561 3564 3567 3569 3572 3575 3578 3581 3584 3587 3590 3593 3595 3598 3600 3603 3606 3609 3612 3615 3618 3621 3624 3627 3630 3633 3636 3639 3642 3645 3648 3651 3653 3656 3659 3662 3665 3668 3671 3674 3677 3680 3683 3686 3689 3692 3695 3698 3701 3704 3707 3710 3713 3716 3719 3722 3725 3728 3730 3733 3735 3738 3741 3744 3747 3750 3752 3754 3757 3760 3763 3766 3768 3770 3773 3775 3778 3781 3783 3786 3789 3791 3794 3797 3800 3803 3805 3807 3810 3813 3816 3819 3822 3825 3828 3831 3833 3836 3839 3841 3844 3847 3850 3852 3855 3858 3860 3863 3866 3869 3872 3875 3878 3880 3883 3886 3889 3892 3895 3898 3900 3903 3906 3909 3912 3915 3917 3920 3923 3925 3927 3930 3933 3935 3938 3941 3943 3946 3949 3952 3955 3958 3961 3964 3967 3970 3973 3976 3979 3981 3984 3986 3989 3992 3994 3997 4000 4003 4006 4009 4012 4014 4017 4020 4023 4025 4027 4029 4032 4035 4038 4040 4042 4045 4047 4049 4052 4055 4057 4060 4063 4065 4068 4070 4073 4075 4078 4081 4084 4086 4088 4091 4094 4096 4098 4100 4102 4105 4108 4111 4113 4115 4118 4121 4123 4125 4127 4130 4132 4134 4137 4140 4142 4145 4147 4149 4152 4154 4157 4160 4162 4165 4167 4169 4172 4175 4178 4181 4183 4185 4188 4191 4193 4196 4199 4202 4204 4207 4210 4213 4216 4219 4222 4225 4228 4231 4234 4237 4240 4243 4246 4249 4252 4255 4258 4261 4264 4267 4270 4273 4276 4279 4282 4285 4288 4291 4294 4297 4300 4303 4306 4309 4312 4315 4318 4321 4324 4327 4330 4333 4336 4339 4342 4345 4348 4351 4354 4357 4360 4363 4366 4369 4372 4375 4378 4380 4383 4385 4388 4391 4394 4397 4400 4403 4406 4409 4412 4415 4418 4421 4424 4427 4429 4432 4435 4438 4441 4444 4447 4450 4453 4456 4459 4461 4464 4467 4470 4473 4476 4479 4482 4485 4488 4491 4494 4497 4500 4503 4506 4509 4512 4515 4518 4521 4524 4527 4530 4533 4536 4539 4542 4545 4548 4551 4554 4557 4560 4563 4566 4569 4572 4575 4578 4581 4584 4587 4590 4593 4596 4599 4601 4604 4607 4610 4612 4615 4617 4620 4623 4626 4629 4632 4634 4637 4639 4642 4645 4648 4651 4654 4657 4660 4663 4666 4669 4672 4675 4678 4681 4684 4687 4690 4693 4696 4699 4702 4705 4708 4711 4714 4716 4719 4722 4725 4728 4731 4734 4736 4739 4741 4744 4747 4750 4752 4755 4758 4760 4763 4766 4769 4772 4775 4778 4781 4784 4787 4790 4793 4796 4799 4802 4805 4808 4811 4814 4817 4820 4823 4826 4829 4832 4835 4838 4841 4844 4847 4850 4853 4856 4859 4862 4865 4868 4871 4873 4876 4878 4881 4884 4887 4890 4893 4896 4899 4902 4905 4908 4910 4913 4916 4919 4922 4925 4928 4931 4934 4937 4940 4943 4946 4949 4952 4955 4958 4961 4963 4966 4969 4972 4974 4976 4979 4981 4984 4987 4990 4993 4996 4999 5002 5005 5007 5010 5013 5016 5019 5021 5024 5027 5030 5033 5036 5039 5042 5044 5047 5050 5052 5055 5057 5060 5063 5065 5068 5071 5073 5075 5078 5081 5084 5087 5090 5093 5096 5099 5102 5105 5108 5111 5114 5117 5120 5122 5125 5127 5130 5133 5136 5138 5141 5143 5146 5149 5152 5155 5158 5161 5164 5167 5170 5173 5176 5179 5181 5184 5186 5189 5192 5195 5198 5201 5204 5207 5210 5212 5215 5218 5220 5223 5226 5229 5231 5233 5236 5239 5242 5245 5248 5251 5254 5257 5260 5263 5266 5269 5272 5275 5278 5281 5284 5287 5290 5293 5296 5298 5301 5304 5307 5310 5313 5315 5318 5320 5323 5326 5329 5332 5334 5337 5340 5342 5345 5348 5351 5354 5357 5359 5362 5365 5368 5371 5373 5376 5379 5382 5385 5388 5391 5394 5396 5399 5402 5405 5407 5410 5413 5416 5419 5422 5425 5428 5431 5434 5437 5440 5442 5445 5448 5451 5454 5457 5460 5463 5466 5468 5471 5474 5477 5480 5483 5486 5488 5491 5494 5497 5500 5503 5506 5508 5511 5514 5517 5520 5523 5526 5529 5532 5535 5538 5541 5543 5546 5549 5552 5554 5557 5560 5563 5565 5568 5570 5573 5576 5579 5582 5585 5588 5590 5593 5596 5599 5602 5605 5608 5611 5614 5617 5620 5623 5626 5629 5632 5635 5637 5640 5643 5646 5649 5652 5654 5657 5660 5663 5666 5669 5672 5675 5678 5680 5683 5686 5689 5692 5695 5698 5701 5704 5707 5710 5713 5716 5719 5722 5725 5728 5730 5733 5736 5739 5742 5744 5747 5750 5753 5756 5759 5762 5765 5768 5771 5774 5777 5780 5783 5786 5789 5792 5795 5798 5801 5804 5807 5810 5813 5816 5819 5822 5824 5827 5830 5833 5835 5838 5840 5843 5846 5849 5852 5854 5857 5859 5862 5865 5868 5871 5874 5876 5879 5882 5885 5888 5891 5894 5897 5900 5903 5905 5908 5911 5914 5917 5920 5923 5926 5929 5932 5935 5938 5941 5944 5947 5950 5953 5956 5959 5962 5965 5968 5971 5974 5977 5979 5981 5984 5987 5990 5993 5996 5998 6001 6004 6007 6009 6012 6015 6018 6020 6023 6026 6028 6031 6033 6036 6039 6042 6045 6047 6050 6053 6056 6059 6061 6063 6066 6069 6072 6075 6078 6081 6084 6087 6090 6093 6096 6099 6101 6104 6107 6110 6113 6115 6118 6121 6124 6127 6130 6132 6135 6138 6140 6143 6146 6149 6152 6155 6158 6161 6164 6167 6170 6173 6176 6179 6182 6185 6188 6190 6193 6196 6198 6201 6204 6207 6209 6212 6215 6218 6221 6224 6227 6230 6233 6236 6239 6242 6244 6247 6250 6253 6256 6259 6262 6265 6268 6271 6274 6277 6280 6283 6286 6289 6292 6294 6297 6300 6302 6305 6307 6310 6313 6315 6318 6320 6323 6325 6328 6331 6334 6337 6340 6343 6346 6349 6352 6355 6358 6361 6364 6366 6369 6371 6373 6376 6379 6381 6383 6386 6389 6391 6393 6396 6399 6402 6404 6407 6409 6412 6415 6417 6420 6423 6426 6429 6431 6433 6436 6438 6441 6444 6446 6448 6451 6454 6456 6459 6462 6465 6467 6470 6473 6476 6478 6480 6482 6485 6488 6490 6493 6495 6497 6500 6503 6506 6509 6512 6515 6518 6521 6524 6527 6530 6532 6534 6537 6539 6542 6544 6547 6549 6552 6555 6558 6560 6563 6566 6569 6572 6575 6577 6580 6583 6586 6589 6592 6595 6598 6601 6604 6607 6610 6613 6616 6619 6622 6625 6628 6631 6634 6637 6640 6643 6646 6649 6651 6654 6657 6660 6663 6666 6669 6672 6675 6678 6681 6684 6687 6690 6693 6696 6699 6702 6705 6707 6710 6713 6716 6719 6722 6725 6728 6731 6734 6737 6740 6742 6745 6748 6751 6754 6757 6759 6762 6765 6768 6771 6774 6777 6780 6783 6786 6789 6792 6795 6798 6801 6803 6806 6809 6812 6815 6818 6821 6824 6827 6830 6833 6836 6839 6842 6845 6847 6850 6852 6855 6858 6861 6864 6866 6869 6872 6875 6878 6881 6884 6887 6890 6893 6896 6899 6902 6904 6907 6909 6912 6915 6918 6921 6923 6926 6929 6932 6935 6938 6941 6944 6946 6949 6952 6955 6958 6961 6964 6967 6969 6972 6975 6978 6980 6983 6985 6988 6991 6994 6997 7000 7003 7006 7009 7012 7014 7017 7020 7023 7026 7029 7032 7035 7038 7041 7044 7047 7050 7053 7056 7059 7062 7065 7068 7071 7074 7077 7080 7083 7086 7089 7092 7095 7098 7101 7104 7107 7110 7113 7116 7119 7122 7125 7128 7131 7134 7137 7140 7143 7145 7148 7151 7153 7156 7159 7162 7165 7168 7171 7174 7177 7180 7183 7185 7188 7191 7194 7197 7200 7202 7205 7208 7210 7213 7216 7219 7222 7225 7228 7230 7233 7236 7239 7242 7244 7247 7250 7252 7255 7257 7260 7263 7266 7269 7272 7275 7278 7281 7284 7287 7290 7292 7295 7297 7300 7303 7306 7309 7311 7314 7317 7320 7323 7326 7329 7332 7335 7338 7341 7344 7347 7350 7353 7356 7359 7362 7365 7368 7371 7374 7376 7379 7382 7385 7388 7390 7393 7396 7399 7402 7405 7408 7411 7413 7416 7419 7422 7425 7428 7430 7433 7436 7439 7441 7444 7447 7450 7452 7455 7458 7460 7463 7466 7469 7471 7474 7477 7479 7482 7485 7488 7491 7494 7497 7500 7503 7506 7509 7512 7515 7518 7521 7524 7527 7530 7533 7536 7539 7542 7545 7548 7551 7554 7557 7560 7563 7566 7569 7572 7574 7577 7580 7583 7586 7589 7592 7595 7598 7601 7604 7607 7609 7612 7615 7618 7621 7624 7627 7630 7633 7636 7639 7642 7645 7648 7651 7654 7656 7658 7661 7664 7667 7669 7672 7675 7678 7681 7683 7686 7689 7691 7694 7697 7700 7703 7706 7709 7712 7715 7718 7721 7724 7727 7730 7732 7734 7737 7740 7743 7746 7749 7752 7755 7758 7761 7764 7767 7769 7772 7775 7777 7780 7783 7786 7789 7792 7795 7798 7801 7804 7807 7810 7813 7816 7819 7822 7825 7828 7831 7834 7836 7839 7842 7845 7847 7850 7853 7856 7859 7862 7864 7867 7870 7873 7876 7879 7882 7885 7888 7891 7894 7897 7900 7903 7906 7909 7912 7915 7918 7921 7924 7926 7929 7932 7934 7937 7940 7943 7946 7949 7952 7955 7958 7961 7964 7967 7970 7973 7976 7979 7982 7985 7988 7991 7993 7996 7999 8002 8005 8008 8011 8014 8017 8020 8023 8026 8029 8032 8035 8038 8041 8044 8047 8050 8053 8056 8059 8062 8065 8068 8071 8074 8077 8080 8083 8086 8089 8091 8094 8097 8100 8103 8106 8109 8111 8114 8117 8120 8123 8126 8128 8131 8134 8137 8140 8142 8145 8148 8151 8154 8157 8160 8163 8166 8169 8172 8175 8178 8181 8184 8187 8190 8193 8196 8199 8202 8205 8208 8210 8213 8216 8219 8222 8225 8228 8231 8233 8236 8239 8241 8244 8247 8249 8252 8255 8258 8261 8264 8267 8269 8272 8275 8278 8281 8284 8287 8290 8293 8296 8299 8301 8304 8306 8309 8312 8315 8318 8321 8324 8327 8330 8332 8335 8338 8340 8343 8346 8349 8351 8354 8357 8360 8362 8365 8368 8371 8373 8375 8378 8381 8383 8386 8389 8391 8394 8397 8399 8402 8405 8408 8411 8414 8417 8420 8423 8426 8428 8431 8434 8437 8439 8442 8445 8448 8450 8453 8456 8459 8461 8464 8466 8469 8472 8474 8477 8480 8483 8486 8489 8492 8495 8498 8500 8503 8506 8508 8511 8514 8517 8520 8523 8526 8529 8532 8535 8538 8541 8544 8547 8549 8552 8554 8557 8560 8563 8565 8567 8570 8572 8575 8578 8581 8584 8586 8589 8591 8594 8597 8600 8603 8606 8609 8612 8615 8618 8620 8623 8626 8629 8632 8635 8638 8641 8644 8647 8650 8653 8656 8659 8662 8665 8668 8671 8674 8677 8680 8683 8686 8689 8692 8695 8698 8701 8704 8706 8709 8712 8715 8718 8721 8724 8726 8729 8732 8735 8738 8741 8744 8746 8749 8752 8755 8758 8761 8764 8766 8769 8772 8775 8777 8780 8783 8786 8788 8791 8794 8796 8799 8802 8805 8808 8811 8814 8816 8819 8822 8825 8827 8829 8832 8835 8838 8841 8844 8847 8850 8853 8856 8859 8862 8865 8868 8871 8874 8877 8880 8882 8885 8888 8891 8894 8897 8900 8903 8905 8908 8911 8914 8917 8920 8922 8925 8928 8931 8934 8937 8939 8942 8945 8947 8950 8953 8956 8959 8961 8964 8967 8970 8973 8976 8979 8981 8984 8986 8989 8991 8993 8996 8998 9001 9004 9007 9009 9012 9015 9018 9021 9024 9026 9029 9032 9035 9037 9040 9043 9046 9049 9051 9053 9055 9058 9061 9064 9067 9069 9071 9074 9076 9079 9082 9085 9088 9091 9094 9096 9099 9101 9104 9107 9109 9112 9115 9118 9120 9123 9126 9128 9131 9134 9137 9140 9143 9146 9149 9152 9155 9158 9161 9164 9166 9169 9172 9175 9178 9180 9183 9186 9189 9192 9194 9197 9200 9203 9206 9209 9212 9215 9218 9221 9223 9225 9227 9230 9233 9236 9238 9240 9243 9246 9248 9251 9253 9256 9259 9262 9265 9268 9271 9274 9276 9279 9282 9285 9288 9291 9294 9297 9300 9303 9306 9309 9312 9315 9318 9321 9324 9326 9329 9332 9335 9338 9341 9344 9347 9350 9353 9355 9358 9361 9363 9366 9368 9371 9373 9376 9379 9381 9384 9387 9390 9392 9394 9397 9400 9402 9405 9408 9411 9413 9416 9419 9422 9425 9427 9430 9433 9436 9439 9442 9445 9448 9451 9454 9457 9460 9462 9464 9467 9470 9473 9476 9479 9482 9485 9488 9491 9494 9497 9500 9503 9506 9509 9512 9515 9518 9521 9524 9527 9530 9533 9536 9539 9542 9545 9548 9551 9554 9557 9560 9562 9565 9568 9571 9574 9577 9580 9583 9586 9589 9592 9595 9598 9601 9604 9607 9610 9613 9616 9619 9621 9624 9627 9630 9633 9636 9639 9641 9643 9646 9649 9651 9653 9656 9659 9662 9664 9667 9670 9673 9676 9679 9682 9685 9688 9691 9694 9697 9700 9703 9706 9709 9712 9715 9718 9721 9724 9727 9730 9733 9735 9738 9740 9743 9745 9748 9751 9754 9757 9760 9763 9765 9768 9770 9772 9775 9778 9780 9783 9786 9789 9792 9795 9798 9800 9802 9805 9808 9810 9812 9815 9818 9820 9822 9825 9828 9831 9834 9837 9840 9843 9846 9848 9851 9854 9857 9860 9863 9865 9868 9871 9873 9876 9879 9882 9884 9887 9890 9893 9896 9899 9902 9905 9908 9911 9914 9917 9920 9923 9926 9929 9932 9935 9938 9941 9944 9947 9950 9953 9956 9959 9962 9965 9968 9971 9974 9977 9980 9983 9986 9988 9991 9994 9996 9999 10001 10003 10006 10009 10012 10015 10018 10021 10024 10027 10030 10032 10035 10038 10041 10044 10047 10049 10052 10055 10058 10061 10064 10067 10070 10072 10075 10078 10081 10084 10087 10090 10093 10096 10098 10101 10104 10107 10110 10113 10115 10118 10121 10124 10127 10130 10133 10136 10139 10142 10145 10148 10151 10154 10157 10160 10163 10166 10169 10172 10175 10178 10181 10184 10187 10190 10193 10196 10199 10202 10205 10207 10209 10212 10215 10218 10221 10224 10227 10230 10232 10235 10238 10241 10243 10246 10248 10251 10254 10257 10260 10263 10266 10269 10272 10275 10278 10281 10284 10287 10290 10293 10296 10299 10302 10305 10308 10311 10313 10316 10319 10322 10325 10328 10331 10333 10336 10339 10342 10345 10348 10351 10354 10356 10359 10362 10364 10367 10370 10373 10376 10379 10382 10384 10387 10390 10393 10395 10398 10401 10403 10405 10408 10411 10414 10417 10420 10423 10426 10429 10432 10435 10438 10441 10444 10447 10450 10453 10456 10459 10462 10465 10468 10471 10474 10477 10480 10483 10486 10489 10491 10494 10497 10500 10503 10506 10509 10512 10515 10518 10521 10524 10527 10530 10533 10536 10539 10542 10545 10548 10550 10553 10556 10559 10561 10563 10566 10569 10572 10575 10578 10580 10583 10586 10589 10591 10594 10597 10600 10603 10606 10608 10611 10614 10617 10620 10623 10626 10629 10632 10635 10638 10641 10644 10647 10650 10653 10656 10659 10662 10665 10668 10671 10673 10676 10679 10682 10685 10688 10691 10693 10696 10699 10702 10705 10708 10711 10714 10717 10720 10723 10726 10729 10731 10734 10737 10740 10743 10745 10748 10750 10753 10756 10759 10762 10765 10768 10771 10774 10777 10780 10783 10786 10789 10791 10794 10797 10800 10803 10806 10808 10811 10814 10817 10820 10823 10826 10828 10831 10834 10837 10840 10843 10846 10849 10852 10855 10858 10861 10864 10866 10869 10872 10874 10877 10880 10882 10885 10888 10890 10893 10896 10899 10902 10905 10908 10911 10914 10917 10920 10922 10925 10928 10931 10934 10937 10940 10943 10946 10948 10951 10954 10957 10959 10962 10965 10968 10970 10973 10976 10978 10981 10984 10987 10989 10992 10995 10998 11001 11004 11006 11009 11011 11014 11017 11020 11023 11025 11027 11030 11033 11036 11038 11041 11044 11047 11050 11052 11055 11058 11061 11064 11067 11070 11073 11076 11079 11082 11085 11088 11091 11094 11097 11099 11102 11105 11107 11109 11112 11115 11118 11121 11123 11126 11129 11132 11135 11138 11141 11143 11146 11149 11152 11155 11158 11161 11163 11166 11169 11172 11175 11178 11181 11184 11187 11189 11192 11195 11198 11201 11204 11207 11210 11213 11216 11219 11221 11224 11227 11229 11232 11235 11237 11240 11243 11246 11249 11252 11254 11256 11259 11262 11264 11266 11269 11271 11274 11276 11279 11281 11283 11286 11289 11291 11294 11296 11299 11301 11304 11306 11309 11311 11314 11317 11319 11322 11324 11327 11329 11332 11335 11338 11341 11344 11347 11349 11352 11355 11358 11360 11363 11366 11369 11372 11375 11378 11381 11384 11387 11389 11392 11395 11397 11400 11402 11405 11407 11410 11413 11416 11418 11420 11423 11426 11429 11432 11435 11438 11441 11444 11447 11450 11453 11455 11458 11461 11464 11467 11470 11472 11475 11478 11481 11484 11487 11490 11493 11496 11499 11502 11505 11508 11511 11514 11517 11520 11523 11525 11528 11531 11534 11537 11540 11543 11545 11548 11551 11554 11556 11559 11562 11564 11567 11570 11573 11575 11578 11580 11582 11585 11588 11591 11594 11597 11600 11603 11606 11609 11611 11614 11617 11620 11623 11626 11629 11632 11634 11637 11639 11642 11644 11647 11650 11653 11656 11659 11662 11665 11668 11671 11674 11677 11680 11683 11686 11689 11692 11695 11698 11701 11704 11707 11710 11713 11716 11719 11722 11725 11728 11731 11734 11737 11740 11743 11746 11749 11752 11755 11757 11760 11763 11765 11767 11770 11773 11776 11779 11781 11784 11787 11790 11793 11796 11798 11801 11804 11806 11808 11811 11814 11817 11820 11823 11826 11828 11831 11833 11836 11839 11841 11843 11846 11848 11851 11854 11857 11859 11862 11865 11868 11871 11873 11876 11879 11882 11884 11887 11890 11892 11894 11897 11900 11903 11905 11908 11911 11914 11917 11919 11922 11925 11927 11930 11933 11936 11938 11941 11944 11946 11949 11952 11955 11957 11960 11962 11965 11968 11970 11973 11976 11978 11980 11983 11986 11988 11991 11993 11995 11998 12001 12004 12007 12009 12012 12015 12018 12021 12023 12026 12029 12032 12035 12038 12041 12044 12047 12050 12053 12056 12059 12061 12064 12067 12070 12073 12075 12078 12080 12083 12086 12089 12092 12095 12097 12099 12101 12104 12107 12110 12113 12116 12119 12122 12125 12127 12130 12133 12136 12139 12142 12145 12147 12150 12153 12156 12159 12161 12164 12167 12170 12173 12176 12179 12182 12185 12188 12191 12194 12197 12200 12203 12206 12209 12212 12215 12217 12220 12222 12225 12228 12230 12232 12235 12237 12240 12243 12245 12248 12250 12253 12255 12258 12260 12263 12266 12269 12272 12274 12277 12280 12283 12285 12288 12291 12294 12297 12300 12303 12306 12309 12312 12315 12318 12321 12324 12327 12330 12333 12336 12339 12342 12345 12348 12351 12354 12357 12360 12362 12365 12368 12371 12374 12377 12379 12382 12385 12388 12391 12394 12397 12400 12403 12406 12409 12412 12414 12417 12420 12423 12426 12429 12431 12434 12437 12439 12441 12444 12447 12450 12452 12455 12458 12460 12462 12465 12467 12470 12473 12476 12479 12482 12485 12488 12491 12494 12497 12500 12503 12506 12509 12512 12515 12517 12520 12523 12526 12529 12531 12534 12537 12540 12543 12546 12549 12552 12555 12557 12559 12562 12565 12567 12570 12573 12576 12579 12582 12585 12588 12591 12594 12596 12598 12601 12604 12606 12609 12612 12615 12617 12620 12623 12626 12629 12632 12635 12638 12641 12644 12647 12650 12653 12656 12659 12662 12665 12668 12671 12674 12677 12680 12683 12686 12689 12692 12695 12697 12700 12703 12706 12709 12712 12715 12718 12721 12724 12727 12730 12733 12736 12739 12742 12745 12748 12751 12754 12757 12759 12762 12765 12768 12770 12772 12775 12778 12781 12783 12786 12789 12791 12794 12797 12800 12803 12806 12808 12811 12813 12816 12819 12822 12825 12828 12831 12834 12837 12839 12842 12845 12848 12850 12853 12856 12858 12861 12863 12866 12869 12872 12874 12877 12880 12883 12885 12888 12891 12894 12897 12900 12903 12906 12909 12912 12915 12918 12921 12924 12927 12930 12933 12936 12938 12941 12944 12947 12950 12953 12956 12959 12962 12965 12967 12970 12973 12976 12979 12982 12985 12988 12991 12993 12996 12999 13002 13005 13008 13011 13014 13017 13020 13023 13026 13029 13032 13034 13037 13040 13043 13045 13048 13051 13054 13057 13060 13063 13066 13069 13072 13075 13078 13081 13084 13087 13090 13093 13096 13099 13102 13104 13107 13110 13113 13115 13118 13120 13123 13126 13129 13131 13134 13137 13140 13142 13144 13147 13150 13153 13156 13159 13162 13165 13168 13171 13174 13177 13180 13183 13186 13189 13192 13195 13198 13201 13204 13207 13210 13212 13215 13218 13221 13224 13226 13229 13232 13235 13238 13240 13243 13246 13249 13252 13255 13258 13261 13263 13266 13269 13272 13275 13277 13280 13283 13286 13289 13292 13295 13297 13300 13303 13306 13309 13312 13315 13317 13320 13323 13326 13328 13331 13334 13337 13340 13343 13346 13349 13352 13355 13357 13360 13363 13366 13369 13372 13375 13377 13380 13383 13386 13389 13392 13395 13398 13401 13404 13407 13410 13412 13415 13418 13420 13423 13426 13429 13432 13435 13437 13440 13443 13445 13448 13451 13454 13457 13460 13463 13466 13468 13470 13473 13476 13479 13482 13484 13487 13490 13493 13496 13499 13502 13504 13507 13510 13513 13516 13519 13522 13525 13528 13531 13534 13536 13539 13542 13545 13548 13551 13554 13557 13560 13563 13566 13569 13572 13574 13577 13579 13582 13585 13588 13590 13593 13596 13598 13601 13604 13607 13610 13612 13615 13618 13621 13624 13627 13629 13632 13635 13638 13641 13644 13647 13650 13653 13655 13658 13661 13664 13667 13669 13672 13675 13678 13681 13684 13687 13690 13692 13695 13698 13701 13704 13707 13710 13713 13716 13719 13722 13724 13727 13730 13733 13735 13738 13740 13743 13746 13749 13752 13755 13758 13760 13763 13765 13768 13770 13773 13776 13779 13782 13784 13787 13790 13793 13796 13799 13802 13805 13808 13811 13814 13817 13820 13823 13826 13828 13831 13833 13836 13839 13842 13845 13848 13851 13854 13856 13859 13862 13865 13868 13871 13874 13877 13880 13883 13886 13889 13892 13895 13897 13900 13903 13906 13909 13911 13914 13917 13920 13923 13926 13929 13932 13935 13938 13941 13944 13947 13950 13953 13956 13959 13962 13965 13968 13971 13974 13977 13980 13983 13985 13988 13991 13994 13997 13999 14002 14005 14008 14010 14013 14016 14018 14021 14024 14026 14029 14032 14035 14038 14041 14044 14047 14050 14053 14056 14059 14062 14065 14068 14071 14073 14076 14079 14081 14084 14087 14090 14093 14096 14099 14102 14104 14107 14110 14113 14116 14119 14121 14124 14127 14130 14132 14135 14138 14141 14143 14146 14149 14152 14155 14158 14161 14164 14166 14169 14172 14175 14177 14180 14182 14184 14187 14190 14193 14196 14199 14201 14204 14207 14210 14213 14216 14219 14222 14225 14228 14231 14233 14236 14239 14242 14245 14248 14251 14254 14257 14260 14263 14266 14269 14272 14275 14278 14281 14284 14287 14290 14293 14296 14299 14302 14305 14308 14311 14314 14317 14320 14323 14326 14329 14332 14335 14338 14341 14344 14346 14349 14352 14355 14358 14361 14364 14367 14370 14373 14376 14379 14382 14385 14388 14391 14394 14396 14399 14402 14405 14408 14411 14414 14417 14420 14423 14425 14428 14431 14434 14437 14440 14443 14446 14448 14451 14454 14457 14460 14463 14466 14469 14472 14475 14478 14481 14484 14487 14490 14493 14496 14499 14502 14505 14508 14511 14513 14516 14519 14522 14525 14528 14531 14534 14537 14540 14543 14546 14549 14552 14555 14558 14561 14564 14566 14569 14572 14575 14578 14581 14584 14587 14590 14593 14596 14599 14602 14605 14608 14611 14614 14617 14620 14623 14626 14629 14632 14635 14638 14641 14644 14647 14650 14653 14656 14659 14662 14665 14668 14671 14674 14677 14680 14683 14686 14689 14692 14695 14698 14701 14704 14706 14709 14712 14715 14718 14721 14724 14727 14730 14733 14736 14739 14742 14745 14747 14750 14752 14755 14758 14761 14764 14767 14769 14772 14775 14778 14781 14784 14786 14788 14791 14794 14797 14800 14803 14806 14809 14812 14815 14818 14821 14824 14827 14830 14833 14836 14839 14841 14843 14846 14849 14852 14855 14858 14861 14863 14866 14868 14871 14874 14877 14880 14883 14886 14889 14892 14895 14897 14900 14903 14906 14909 14912 14915 14918 14921 14924 14927 14930 14933 14936 14939 14942 14945 14948 14951 14954 14956 14959 14962 14965 14968 14971 14973 14976 14978 14981 14984 14987 14990 14993 14996 14999 15001 15004 15007 15010 15012 15015 15018 15021 15023 15026 15029 15031 15034 15037 15040 15042 15045 15048 15050 15053 15055 15058 15060 15063 15066 15068 15071 15074 15077 15080 15083 15086 15089 15092 15095 15098 15101 15104 15107 15110 15113 15116 15119 15122 15125 15128 15131 15133 15136 15138 15141 15144 15147 15150 15153 15156 15159 15161 15164 15167 15170 15173 15176 15179 15182 15185 15188 15191 15194 15197 15200 15203 15206 15209 15212 15215 15218 15220 15223 15226 15229 15231 15234 15237 15240 15243 15246 15249 15252 15255 15258 15261 15263 15266 15269 15272 15275 15277 15280 15283 15285 15288 15291 15294 15297 15300 15302 15305 15308 15311 15314 15316 15319 15321 15324 15327 15329 15332 15335 15338 15341 15344 15347 15350 15352 15355 15358 15360 15363 15365 15368 15371 15374 15377 15380 15383 15386 15389 15392 15395 15398 15401 15404 15407 15410 15413 15416 15419 15421 15424 15427 15430 15433 15436 15439 15442 15444 15447 15450 15453 15456 15458 15461 15464 15467 15470 15473 15476 15479 15482 15485 15487 15490 15493 15496 15499 15501 15504 15507 15510 15513 15516 15519 15522 15525 15528 15531 15534 15537 15539 15542 15545 15548 15551 15554 15557 15560 15563 15566 15568 15571 15574 15577 15580 15583 15586 15589 15592 15595 15598 15601 15604 15606 15609 15612 15614 15617 15620 15623 15626 15629 15632 15635 15638 15641 15643 15645 15647 15650 15653 15656 15658 15661 15664 15667 15670 15673 15676 15678 15681 15684 15687 15689 15691 15694 15697 15700 15703 15706 15709 15712 15715 15718 15721 15724 15727 15729 15732 15735 15738 15740 15742 15745 15748 15751 15754 15757 15759 15762 15765 15768 15771 15773 15776 15779 15782 15785 15787 15790 15793 15796 15799 15802 15804 15806 15808 15811 15814 15817 15819 15821 15824 15827 15830 15833 15836 15839 15842 15845 15848 15850 15852 15855 15858 15861 15863 15865 15868 15871 15874 15877 15880 15883 15886 15889 15892 15895 15898 15901 15904 15907 15910 15913 15916 15918 15921 15923 15926 15929 15932 15935 15937 15940 15943 15946 15949 15952 15955 15958 15960 15963 15966 15969 15972 15975 15978 15981 15983 15986 15989 15991 15994 15996 15998 16001 16004 16007 16009 16011 16014 16017 16020 16022 16024 16027 16030 16033 16036 16039 16042 16045 16048 16051 16054 16056 16059 16062 16065 16068 16071 16074 16077 16079 16082 16085 16088 16091 16093 16096 16099 16102 16105 16108 16111 16113 16116 16119 16122 16125 16127 16130 16132 16135 16138 16141 16144 16147 16150 16153 16156 16159 16162 16165 16168 16171 16174 16176 16179 16182 16185 16188 16191 16194 16197 16199 16202 16205 16208 16211 16213 16216 16219 16222 16224 16227 16230 16233 16236 16239 16242 16245 16248 16251 16254 16257 16260 16263 16266 16269 16272 16275 16278 16281 16284 16287 16290 16292 16295 16297 16300 16303 16305 16308 16311 16314 16316 16319 16322 16324 16327 16330 16333 16336 16339 16342 16345 16348 16351 16354 16357 16360 16363 16366 16369 16372 16375 16378 16381 16384 16386 16388 16390 16393 16396 16399 16402 16405 16408 16411 16414 16417 16420 16423 16426 16429 16431 16434 16437 16440 16442 16445 16448 16450 16453 16456 16459 16462 16464 16467 16470 16472 16474 16477 16480 16483 16486 16488 16491 16494 16496 16499 16501 16504 16507 16510 16513 16516 16519 16522 16525 16528 16531 16534 16537 16539 16542 16545 16548 16551 16554 16557 16560 16562 16565 16567 16570 16573 16576 16579 16581 16584 16587 16590 16593 16596 16599 16602 16605 16608 16611 16614 16617 16620 16623 16626 16629 16632 16635 16638 16641 16644 16647 16650 16652 16655 16658 16661 16663 16666 16668 16671 16674 16677 16679 16682 16685 16688 16691 16694 16696 16699 16702 16704 16707 16710 16713 16716 16719 16722 16725 16728 16730 16733 16736 16739 16742 16745 16747 16750 16753 16756 16759 16762 16765 16768 16771 16774 16777 16780 16783 16786 16789 16791 16794 16797 16800 16803 16805 16808 16811 16814 16817 16820 16823 16826 16829 16832 16835 16838 16841 16843 16846 16849 16852 16855 16857 16860 16863 16866 16869 16872 16875 16878 16881 16884 16887 16890 16893 16896 16898 16901 16904 16906 16909 16912 16915 16917 16920 16923 16926 16929 16932 16935 16938 16941 16944 16947 16950 16953 16956 16958 16960 16963 16965 16967 16970 16973 16976 16978 16980 16983 16985 16988 16990 16993 16995 16998 17001 17004 17006 17009 17011 17014 17017 17020 17023 17025 17028 17031 17034 17037 17040 17043 17045 17048 17051 17054 17057 17060 17062 17065 17068 17070 17073 17076 17078 17081 17084 17086 17089 17092 17095 17098 17101 17103 17106 17108 17111 17114 17117 17120 17123 17126 17129 17132 17135 17138 17141 17144 17147 17149 17152 17155 17157 17160 17163 17166 17169 17172 17175 17178 17181 17184 17186 17189 17192 17195 17198 17201 17204 17207 17210 17213 17215 17218 17221 17223 17226 17228 17231 17234 17237 17240 17243 17246 17249 17251 17254 17257 17260 17263 17266 17269 17272 17274 17277 17279 17282 17285 17287 17290 17293 17296 17298 17301 17304 17307 17310 17312 17315 17318 17321 17324 17327 17329 17332 17335 17338 17341 17344 17347 17350 17353 17356 17359 17362 17365 17368 17371 17374 17377 17380 17383 17386 17389 17392 17394 17397 17400 17402 17405 17408 17411 17413 17416 17419 17422 17425 17427 17430 17433 17436 17439 17442 17445 17448 17451 17454 17457 17460 17463 17466 17469 17472 17475 17478 17481 17484 17487 17490 17493 17496 17498 17501 17504 17507 17510 17513 17516 17518 17521 17524 17527 17530 17533 17536 17539 17542 17545 17548 17551 17554 17557 17559 17562 17564 17567 17570 17572 17575 17578 17581 17584 17586 17588 17591 17593 17596 17598 17601 17604 17607 17610 17613 17615 17618 17621 17623 17625 17628 17631 17634 17637 17640 17642 17645 17648 17650 17653 17656 17659 17662 17665 17668 17671 17674 17676 17678 17681 17684 17687 17689 17692 17694 17697 17700 17703 17706 17709 17711 17714 17716 17719 17722 17725 17728 17731 17733 17735 17738 17741 17744 17747 17749 17752 17755 17758 17761 17763 17766 17769 17772 17775 17778 17781 17784 17787 17790 17793 17796 17799 17802 17805 17808 17811 17814 17816 17819 17822 17824 17827 17830 17833 17835 17838 17841 17844 17847 17850 17853 17856 17859 17862 17865 17868 17871 17874 17877 17880 17883 17886 17889 17892 17894 17897 17900 17903 17906 17909 17912 17915 17918 17921 17924 17927 17930 17933 17936 17938 17940 17943 17946 17949 17951 17954 17957 17960 17963 17966 17968 17971 17974 17977 17980 17983 17986 17989 17992 17995 17998 18001 18003 18006 18009 18011 18014 18017 18020 18023 18026 18029 18032 18035 18038 18041 18043 18046 18049 18052 18054 18057 18059 18062 18064 18067 18070 18073 18075 18077 18080 18082 18085 18088 18090 18093 18096 18098 18100 18103 18106 18109 18111 18114 18117 18119 18122 18124 18127 18130 18133 18135 18138 18141 18143 18145 18148 18150 18153 18156 18158 18161 18163 18166 18169 18172 18175 18178 18181 18184 18187 18190 18192 18195 18198 18201 18204 18207 18209 18212 18215 18218 18221 18224 18227 18230 18233 18236 18239 18241 18244 18247 18250 18253 18255 18257 18260 18263 18265 18268 18270 18273 18276 18279 18282 18285 18287 18290 18293 18295 18298 18300 18303 18306 18309 18312 18315 18318 18321 18323 18326 18329 18332 18335 18338 18341 18344 18347 18350 18352 18355 18357 18360 18362 18365 18367 18370 18373 18376 18379 18381 18384 18387 18390 18393 18396 18398 18400 18403 18406 18409 18412 18415 18418 18420 18423 18426 18429 18432 18435 18437 18440 18443 18446 18449 18451 18454 18457 18459 18462 18464 18467 18470 18473 18475 18478 18480 18483 18486 18488 18490 18492 18495 18498 18501 18504 18507 18510 18512 18514 18516 18519 18522 18525 18528 18530 18533 18535 18538 18540 18543 18546 18549 18552 18555 18558 18560 18563 18566 18569 18572 18575 18578 18581 18584 18587 18590 18593 18596 18599 18602 18605 18608 18611 18614 18617 18620 18623 18626 18629 18632 18635 18638 18641 18644 18647 18650 18653 18656 18659 18662 18665 18668 18671 18674 18677 18680 18683 18686 18689 18692 18695 18698 18701 18704 18707 18709 18712 18715 18718 18720 18722 18725 18728 18731 18734 18737 18740 18743 18746 18749 18752 18755 18758 18761 18764 18767 18770 18773 18776 18779 18781 18784 18787 18790 18793 18796 18799 18802 18804 18807 18810 18812 18815 18818 18820 18823 18826 18828 18831 18833 18836 18839 18841 18844 18847 18850 18852 18855 18857 18860 18862 18864 18867 18870 18873 18875 18877 18880 18883 18885 18888 18891 18893 18896 18899 18902 18905 18908 18911 18914 18917 18920 18923 18926 18929 18931 18934 18937 18940 18943 18945 18948 18951 18954 18957 18959 18962 18965 18968 18971 18974 18977 18980 18983 18986 18988 18991 18993 18996 18999 19002 19005 19007 19010 19013 19016 19018 19021 19024 19027 19030 19033 19036 19038 19041 19044 19046 19049 19052 19055 19057 19060 19063 19066 19069 19072 19075 19078 19080 19083 19086 19089 19092 19095 19097 19100 19103 19106 19109 19112 19115 19118 19121 19124 19127 19130 19133 19136 19139 19142 19144 19147 19150 19153 19156 19159 19161 19164 19167 19169 19172 19174 19177 19180 19183 19186 19188 19190 19193 19196 19198 19201 19204 19207 19210 19213 19216 19219 19222 19225 19228 19231 19233 19236 19238 19241 19244 19247 19250 19253 19255 19258 19261 19264 19266 19269 19272 19275 19277 19280 19283 19286 19289 19292 19295 19298 19301 19304 19307 19310 19313 19316 19318 19321 19324 19327 19330 19333 19336 19339 19341 19344 19346 19349 19352 19355 19358 19361 19364 19367 19369 19371 19374 19377 19380 19383 19386 19389 19392 19395 19398 19400 19403 19406 19409 19412 19415 19418 19420 19422 19424 19427 19429 19432 19435 19438 19441 19444 19447 19449 19452 19454 19457 19459 19462 19464 19467 19470 19473 19476 19479 19482 19484 19487 19490 19492 19495 19498 19501 19504 19506 19509 19512 19515 19518 19521 19524 19527 19530 19533 19536 19539 19542 19545 19548 19551 19554 19557 19560 19563 19566 19569 19571 19574 19576 19579 19582 19585 19588 19591 19594 19597 19600 19603 19606 19609 19612 19615 19618 19621 19624 19627 19630 19633 19636 19639 19642 19645 19648 19651 19654 19657 19660 19663 19666 19669 19672 19675 19678 19681 19684 19687 19690 19693 19696 19699 19702 19705 19708 19711 19714 19717 19720 19723 19726 19729 19732 19735 19738 19741 19744 19747 19750 19752 19755 19758 19761 19764 19767 19770 19773 19776 19779 19782 19785 19788 19791 19794 19797 19800 19803 19806 19809 19812 19815 19818 19821 19823 19826 19829 19832 19834 19837 19839 19842 19845 19848 19851 19854 19857 19860 19863 19866 19869 19872 19875 19878 19881 19884 19887 19890 19893 19896 19899 19902 19905 19908 19911 19914 19917 19920 19923 19926 19929 19932 19935 19938 19941 19944 19947 19950 19953 19956 19958 19961 19963 19966 19969 19972 19975 19978 19981 19984 19987 19990 19993 19996 19999 20002 20005 20008 20011 20014 20017 20020 20023 20026 20029 20032 20035 20038 20040 20043 20046 20049 20052 20055 20058 20061 20064 20067 20070 20073 20076 20079 20082 20085 20088 20091 20094 20097 20100 20103 20106 20109 20112 20115 20118 20121 20124 20127 20130 20133 20136 20139 20142 20145 20148 20151 20154 20157 20160 20163 20166 20169 20172 20175 20178 20181 20184 20187 20190 20193 20196 20199 20202 20205 20208 20211 20214 20217 20220 20223 20226 20229 20232 20235 20238 20241 20244 20247 20249 20252 20255 20258 20261 20264 20267 20270 20272 20275 20278 20280 20283 20286 20289 20292 20295 20298 20301 20304 20307 20310 20313 20316 20319 20322 20325 20328 20331 20334 20337 20340 20342 20345 20348 20351 20354 20357 20360 20363 20366 20369 20372 20375 20378 20381 20384 20387 20390 20393 20396 20399 20402 20405 20408 20411 20414 20417 20420 20423 20426 20429 20432 20435 20438 20440 20443 20446 20449 20452 20454 20457 20459 20462 20465 20468 20471 20474 20477 20479 20482 20485 20487 20490 20493 20495 20497 20500 20502 20505 20508 20511 20513 20516 20519 20522 20525 20528 20531 20534 20537 20540 20543 20546 20549 20552 20555 20558 20560 20563 20566 20569 20572 20575 20578 20581 20584 20586 20589 20592 20595 20598 20601 20604 20607 20610 20613 20616 20619 20622 20625 20628 20631 20634 20637 20640 20643 20646 20649 20652 20655 20658 20661 20664 20667 20670 20673 20676 20679 20682 20685 20688 20691 20694 20696 20699 20702 20705 20708 20711 20714 20717 20719 20722 20725 20727 20730 20732 20735 20738 20741 20744 20747 20750 20753 20756 20759 20762 20765 20767 20769 20772 20775 20777 20780 20783 20785 20787 20790 20793 20796 20799 20801 20804 20806 20809 20812 20814 20817 20819 20821 20824 20826 20829 20831 20834 20837 20840 20843 20846 20849 20852 20854 20857 20859 20862 20865 20868 20871 20874 20876 20879 20882 20885 20887 20890 20893 20895 20898 20900 20903 20905 20907 20910 20913 20915 20918 20921 20924 20927 20930 20933 20935 20938 20941 20944 20947 20950 20953 20956 20959 20961 20963 20966 20969 20972 20974 20977 20980 20983 20986 20988 20990 20993 20995 20998 21001 21004 21006 21009 21012 21015 21018 21021 21024 21027 21030 21033 21036 21039 21042 21045 21048 21051 21054 21056 21059 21062 21065 21068 21071 21074 21076 21079 21081 21084 21087 21090 21092 21094 21097 21100 21102 21105 21107 21110 21113 21116 21119 21122 21125 21128 21131 21134 21137 21140 21143 21145 21147 21150 21153 21156 21159 21162 21164 21167 21170 21173 21176 21179 21182 21185 21187 21190 21193 21196 21198 21201 21203 21206 21209 21211 21214 21217 21220 21223 21226 21229 21232 21235 21238 21240 21243 21246 21248 21251 21254 21257 21260 21263 21266 21269 21272 21275 21278 21281 21283 21286 21289 21292 21295 21298 21301 21304 21307 21310 21313 21316 21319 21322 21325 21328 21331 21334 21337 21340 21343 21346 21349 21351 21354 21357 21360 21363 21366 21369 21372 21375 21378 21381 21384 21386 21389 21392 21395 21398 21400 21403 21406 21409 21412 21415 21418 21421 21424 21427 21430 21433 21435 21438 21441 21444 21447 21450 21452 21455 21457 21460 21463 21466 21469 21472 21475 21478 21481 21484 21486 21489 21492 21494 21497 21500 21502 21505 21508 21511 21514 21516 21519 21522 21525 21528 21531 21534 21537 21540 21543 21546 21549 21552 21555 21558 21561 21564 21567 21570 21573 21576 21579 21581 21584 21587 21589 21592 21594 21597 21600 21603 21606 21609 21612 21615 21618 21621 21623 21626 21629 21631 21633 21635 21638 21641 21644 21646 21649 21652 21655 21658 21661 21664 21666 21668 21671 21673 21676 21679 21681 21684 21687 21689 21692 21695 21698 21701 21703 21706 21709 21712 21715 21717 21720 21723 21726 21729 21732 21735 21738 21741 21744 21747 21750 21752 21755 21758 21760 21763 21765 21767 21770 21773 21775 21777 21779 21782 21785 21788 21791 21794 21797 21800 21803 21806 21809 21811 21814 21817 21820 21823 21826 21829 21832 21835 21838 21840 21843 21846 21849 21852 21855 21857 21860 21863 21866 21869 21872 21875 21878 21881 21884 21887 21889 21892 21895 21898 21901 21904 21907 21910 21913 21916 21919 21922 21925 21928 21931 21934 21937 21940 21943 21946 21949 21952 21955 21958 21961 21963 21965 21968 21971 21974 21977 21980 21983 21986 21989 21991 21994 21997 22000 22003 22006 22009 22012 22015 22018 22021 22024 22027 22030 22033 22036 22039 22041 22044 22047 22050 22053 22055 22058 22061 22064 22066 22068 22071 22074 22077 22080 22083 22086 22088 22091 22093 22096 22099 22102 22104 22107 22110 22113 22116 22119 22122 22125 22128 22130 22133 22135 22137 22140 22143 22146 22149 22152 22155 22158 22161 22164 22167 22170 22173 22175 22178 22181 22183 22186 22188 22191 22194 22197 22200 22203 22206 22209 22212 22215 22218 22221 22224 22227 22230 22233 22236 22239 22242 22245 22248 22251 22254 22257 22259 22262 22265 22268 22271 22274 22276 22279 22282 22285 22288 22291 22294 22297 22300 22303 22306 22308 22311 22314 22317 22319 22322 22325 22328 22331 22334 22337 22340 22343 22346 22349 22352 22354 22356 22359 22362 22365 22368 22371 22373 22376 22379 22382 22384 22387 22390 22393 22396 22399 22402 22405 22408 22411 22414 22416 22419 22422 22425 22428 22431 22434 22437 22439 22441 22444 22446 22449 22452 22455 22458 22460 22463 22466 22469 22472 22475 22477 22480 22483 22486 22489 22492 22495 22498 22501 22504 22507 22509 22512 22515 22518 22521 22524 22527 22530 22533 22536 22539 22541 22544 22547 22550 22553 22556 22559 22562 22564 22567 22570 22573 22576 22579 22582 22585 22588 22591 22594 22597 22600 22603 22606 22609 22612 22615 22618 22621 22624 22626 22629 22632 22635 22637 22640 22643 22646 22649 22652 22655 22658 22661 22664 22667 22670 22673 22676 22678 22681 22683 22685 22688 22690 22692 22695 22698 22701 22704 22707 22709 22712 22715 22718 22721 22724 22727 22730 22732 22735 22738 22740 22743 22746 22748 22751 22754 22756 22759 22762 22764 22766 22768 22770 22773 22776 22778 22780 22783 22786 22788 22791 22794 22796 22799 22802 22805 22808 22810 22812 22814 22816 22819 22822 22825 22827 22830 22832 22835 22837 22840 22842 22844 22847 22850 22853 22856 22859 22862 22865 22867 22870 22873 22875 22878 22880 22883 22886 22888 22890 22893 22896 22899 22902 22905 22908 22911 22914 22917 22920 22923 22926 22929 22932 22935 22938 22941 22943 22946 22949 22952 22955 22958 22961 22964 22967 22970 22973 22976 22979 22982 22985 22988 22991 22994 22996 22999 23002 23005 23008 23011 23014 23017 23020 23023 23026 23029 23032 23035 23038 23040 23042 23045 23048 23051 23054 23056 23059 23061 23064 23067 23070 23072 23074 23077 23079 23082 23085 23088 23091 23094 23097 23100 23103 23106 23109 23112 23115 23118 23121 23124 23127 23130 23133 23136 23138 23141 23143 23146 23149 23152 23155 23157 23160 23163 23166 23169 23172 23175 23178 23181 23184 23187 23190 23193 23196 23199 23202 23205 23208 23211 23214 23217 23219 23222 23225 23228 23231 23234 23237 23240 23243 23246 23249 23252 23255 23258 23261 23263 23266 23269 23272 23275 23278 23281 23284 23287 23290 23293 23296 23299 23302 23305 23308 23311 23314 23317 23320 23323 23326 23329 23332 23335 23338 23341 23344 23347 23350 23353 23356 23359 23362 23365 23368 23371 23374 23377 23380 23383 23386 23389 23392 23395 23398 23401 23404 23407 23410 23413 23416 23419 23422 23425 23428 23431 23434 23437 23440 23443 23446 23449 23451 23454 23457 23460 23462 23465 23468 23470 23473 23476 23479 23482 23485 23488 23491 23494 23497 23500 23503 23505 23508 23511 23514 23517 23519 23522 23525 23528 23531 23534 23537 23540 23543 23546 23549 23552 23555 23558 23561 23564 23567 23570 23573 23576 23579 23582 23585 23588 23591 23594 23597 23600 23603 23606 23608 23611 23614 23617 23620 23622 23625 23628 23631 23634 23637 23640 23643 23646 23649 23652 23654 23657 23660 23662 23665 23668 23671 23674 23677 23680 23683 23686 23689 23692 23695 23698 23700 23703 23706 23709 23712 23715 23718 23721 23724 23726 23729 23732 23735 23738 23741 23744 23747 23750 23753 23756 23758 23761 23763 23766 23769 23772 23774 23777 23780 23783 23785 23788 23790 23793 23795 23797 23800 23803 23806 23809 23812 23814 23817 23820 23823 23826 23829 23832 23835 23838 23841 23844 23847 23850 23853 23856 23859 23862 23865 23868 23871 23874 23877 23880 23883 23885 23888 23891 23893 23896 23899 23902 23904 23907 23909 23912 23915 23918 23921 23924 23927 23930 23933 23936 23939 23942 23945 23947 23950 23953 23956 23959 23962 23965 23968 23971 23974 23977 23980 23983 23986 23989 23992 23995 23998 24001 24004 24006 24009 24012 24015 24018 24021 24024 24027 24030 24033 24036 24039 24042 24045 24048 24051 24054 24057 24060 24063 24066 24069 24072 24075 24078 24081 24084 24087 24089 24092 24095 24098 24101 24104 24107 24110 24113 24116 24119 24122 24125 24128 24131 24134 24137 24140 24143 24145 24148 24151 24154 24156 24159 24162 24165 24167 24169 24172 24175 24178 24181 24184 24186 24189 24192 24195 24198 24201 24204 24207 24209 24211 24214 24217 24220 24222 24225 24227 24230 24233 24236 24239 24242 24245 24247 24249 24252 24255 24257 24259 24262 24265 24268 24271 24274 24277 24280 24283 24286 24289 24291 24294 24297 24300 24303 24306 24309 24311 24314 24317 24320 24323 24326 24329 24332 24335 24338 24341 24344 24347 24350 24353 24356 24359 24362 24364 24367 24370 24373 24376 24378 24381 24384 24386 24389 24392 24395 24398 24401 24404 24407 24410 24413 24416 24419 24421 24424 24426 24429 24431 24434 24437 24440 24443 24446 24449 24452 24455 24458 24461 24464 24467 24470 24473 24476 24479 24482 24485 24488 24490 24493 24496 24498 24501 24504 24507 24509 24512 24515 24517 24520 24523 24526 24529 24531 24534 24537 24540 24543 24546 24549 24552 24554 24557 24560 24563 24566 24569 24572 24575 24578 24581 24584 24587 24590 24593 24596 24599 24602 24605 24608 24611 24614 24617 24620 24623 24626 24629 24632 24635 24638 24641 24643 24646 24649 24652 24655 24658 24661 24664 24667 24670 24673 24676 24679 24682 24685 24688 24691 24694 24697 24700 24703 24706 24709 24712 24715 24718 24721 24724 24727 24730 24733 24736 24739 24742 24745 24748 24751 24754 24756 24758 24760 24763 24766 24768 24771 24774 24777 24779 24782 24784 24787 24790 24793 24796 24799 24801 24804 24807 24810 24813 24816 24819 24822 24824 24827 24830 24833 24836 24839 24842 24845 24848 24851 24854 24857 24860 24863 24866 24868 24871 24874 24877 24879 24882 24884 24887 24890 24893 24896 24899 24902 24905 24908 24910 24913 24916 24919 24922 24925 24928 24931 24933 24936 24938 24941 24943 24946 24949 24952 24955 24958 24961 24964 24967 24969 24972 24975 24977 24979 24981 24984 24986 24989 24991 24994 24997 25000 25003 25006 25009 25012 25015 25018 25021 25024 25027 25030 25033 25036 25039 25042 25045 25048 25051 25054 25056 25059 25062 25064 25066 25069 25072 25075 25077 25080 25083 25086 25089 25092 25095 25098 25100 25103 25105 25108 25111 25114 25117 25119 25122 25125 25127 25130 25133 25136 25139 25142 25145 25148 25150 25153 25156 25158 25161 25164 25167 25169 25172 25175 25178 25181 25184 25187 25190 25193 25196 25198 25201 25204 25207 25210 25213 25216 25218 25221 25224 25226 25229 25232 25235 25238 25240 25243 25246 25249 25252 25255 25258 25260 25262 25264 25267 25270 25273 25275 25278 25280 25283 25285 25288 25291 25294 25297 25300 25303 25305 25308 25311 25314 25316 25319 25322 25325 25327 25330 25333 25336 25339 25342 25345 25348 25351 25354 25357 25360 25363 25365 25368 25371 25374 25376 25379 25382 25385 25388 25391 25393 25395 25398 25401 25403 25406 25408 25410 25412 25415 25418 25421 25423 25426 25429 25432 25435 25438 25440 25443 25446 25449 25452 25455 25458 25461 25464 25467 25470 25473 25476 25478 25481 25484 25487 25490 25493 25496 25498 25501 25504 25506 25509 25512 25514 25517 25520 25523 25526 25529 25531 25534 25537 25539 25542 25544 25547 25549 25552 25555 25558 25561 25564 25567 25569 25572 25575 25578 25581 25583 25586 25589 25592 25595 25598 25601 25604 25607 25610 25613 25615 25618 25621 25624 25627 25630 25632 25635 25638 25641 25644 25647 25650 25653 25656 25659 25662 25665 25668 25671 25674 25677 25679 25682 25685 25688 25691 25694 25696 25699 25701 25704 25707 25710 25713 25716 25718 25721 25724 25727 25730 25733 25735 25738 25741 25744 25747 25750 25752 25755 25758 25761 25764 25767 25770 25773 25776 25779 25782 25784 25787 25789 25792 25794 25797 25800 25802 25805 25808 25811 25814 25817 25820 25823 25826 25828 25831 25833 25836 25839 25842 25845 25848 25851 25854 25857 25860 25863 25865 25868 25871 25874 25877 25880 25883 25886 25889 25892 25895 25897 25900 25903 25906 25908 25911 25913 25915 25918 25921 25924 25926 25929 25932 25935 25937 25939 25942 25945 25948 25951 25954 25957 25960 25963 25966 25969 25971 25973 25976 25979 25982 25985 25988 25990 25993 25996 25999 26002 26005 26008 26011 26014 26017 26020 26022 26025 26027 26029 26031 26034 26037 26040 26043 26046 26049 26052 26055 26057 26060 26063 26066 26069 26072 26075 26078 26081 26084 26087 26090 26093 26096 26099 26102 26105 26108 26111 26114 26117 26120 26123 26126 26129 26132 26135 26138 26141 26144 26146 26149 26152 26155 26158 26160 26163 26166 26169 26172 26175 26178 26181 26184 26186 26189 26192 26195 26198 26201 26204 26207 26210 26212 26215 26218 26221 26224 26227 26230 26233 26236 26239 26242 26245 26248 26251 26254 26257 26260 26263 26266 26269 26272 26275 26278 26281 26284 26287 26290 26292 26295 26298 26301 26304 26307 26310 26312 26315 26317 26320 26323 26325 26328 26331 26334 26336 26339 26341 26344 26347 26350 26352 26355 26358 26361 26363 26366 26369 26372 26375 26378 26381 26383 26386 26389 26392 26395 26398 26401 26404 26407 26410 26413 26416 26419 26422 26425 26428 26431 26434 26437 26440 26443 26446 26449 26452 26455 26458 26461 26464 26466 26469 26471 26474 26477 26480 26483 26485 26488 26491 26494 26497 26500 26503 26506 26509 26512 26515 26518 26521 26524 26526 26529 26532 26534 26537 26540 26542 26545 26548 26551 26554 26557 26559 26562 26565 26568 26571 26574 26577 26580 26583 26585 26588 26590 26593 26596 26599 26602 26605 26607 26609 26612 26615 26617 26620 26623 26626 26628 26631 26634 26637 26640 26643 26646 26649 26651 26654 26657 26660 26663 26666 26669 26672 26675 26678 26681 26684 26687 26690 26693 26696 26699 26701 26704 26707 26710 26713 26716 26718 26721 26723 26726 26729 26732 26735 26738 26741 26744 26747 26750 26753 26756 26759 26761 26764 26766 26769 26772 26775 26778 26781 26784 26786 26788 26791 26794 26797 26800 26803 26806 26809 26812 26815 26818 26821 26824 26827 26830 26833 26836 26839 26842 26845 26848 26851 26853 26856 26859 26861 26864 26867 26870 26873 26876 26878 26881 26884 26887 26890 26893 26896 26898 26901 26904 26907 26910 26913 26916 26919 26922 26925 26928 26931 26934 26937 26940 26943 26946 26948 26951 26954 26956 26959 26962 26965 26968 26970 26973 26976 26979 26982 26985 26988 26991 26994 26997 27000 27003 27005 27008 27011 27014 27017 27020 27023 27026 27029 27032 27035 27038 27041 27044 27047 27050 27053 27056 27059 27062 27064 27067 27070 27073 27076 27079 27082 27085 27088 27091 27094 27097 27100 27102 27105 27108 27111 27114 27117 27120 27123 27126 27129 27132 27135 27138 27141 27143 27145 27148 27151 27154 27157 27160 27163 27165 27168 27171 27174 27177 27180 27183 27186 27189 27192 27195 27198 27201 27204 27207 27210 27213 27216 27219 27222 27225 27228 27231 27234 27237 27240 27243 27246 27249 27252 27255 27258 27261 27264 27267 27270 27272 27275 27278 27281 27284 27287 27290 27293 27296 27298 27301 27304 27307 27310 27313 27316 27319 27322 27325 27328 27331 27334 27336 27339 27342 27345 27348 27350 27353 27355 27358 27361 27364 27367 27370 27373 27376 27379 27381 27384 27387 27390 27393 27396 27399 27402 27405 27408 27411 27413 27416 27419 27422 27424 27427 27430 27432 27435 27438 27441 27444 27446 27449 27452 27454 27457 27460 27463 27466 27469 27472 27475 27478 27480 27483 27486 27489 27491 27494 27497 27500 27503 27506 27509 27512 27514 27517 27519 27522 27524 27527 27529 27531 27534 27537 27540 27542 27544 27546 27549 27552 27554 27557 27560 27563 27565 27568 27571 27574 27577 27579 27582 27585 27588 27591 27594 27597 27600 27603 27606 27609 27612 27615 27618 27621 27624 27627 27630 27633 27636 27639 27642 27645 27648 27651 27654 27657 27660 27663 27666 27669 27672 27675 27678 27681 27684 27687 27690 27693 27695 27698 27701 27704 27707 27710 27713 27716 27719 27721 27724 27727 27730 27733 27735 27738 27741 27743 27746 27749 27751 27754 27757 27760 27763 27765 27768 27771 27774 27777 27780 27782 27785 27788 27791 27794 27797 27800 27803 27806 27809 27812 27815 27818 27821 27823 27825 27828 27831 27834 27836 27839 27842 27845 27848 27851 27854 27857 27860 27863 27866 27869 27872 27875 27878 27880 27883 27886 27889 27892 27895 27898 27900 27903 27906 27908 27911 27914 27917 27920 27923 27926 27929 27932 27935 27938 27940 27943 27946 27949 27952 27955 27957 27960 27963 27966 27969 27972 27975 27978 27981 27984 27987 27989 27992 27995 27998 28001 28004 28007 28010 28013 28016 28019 28022 28025 28028 28031 28034 28036 28039 28042 28045 28048 28051 28054 28057 28060 28063 28066 28069 28072 28075 28078 28081 28084 28087 28090 28093 28096 28099 28102 28105 28107 28110 28112 28115 28118 28121 28123 28126 28129 28132 28135 28138 28141 28144 28147 28150 28152 28155 28158 28161 28163 28166 28169 28172 28175 28178 28181 28184 28187 28190 28193 28196 28199 28202 28205 28208 28211 28213 28216 28219 28222 28225 28228 28230 28233 28236 28239 28241 28244 28246 28249 28252 28255 28258 28261 28264 28266 28269 28272 28275 28278 28281 28284 28287 28290 28293 28296 28299 28302 28305 28308 28311 28314 28317 28320 28323 28326 28329 28332 28335 28338 28341 28344 28347 28349 28352 28355 28357 28360 28363 28366 28369 28372 28375 28378 28380 28383 28386 28389 28392 28394 28397 28400 28402 28405 28408 28411 28414 28417 28420 28422 28425 28428 28431 28433 28436 28439 28442 28444 28447 28450 28453 28456 28459 28461 28464 28467 28470 28473 28476 28478 28481 28484 28487 28490 28493 28496 28499 28502 28504 28507 28510 28512 28515 28518 28521 28524 28526 28529 28532 28535 28538 28540 28543 28546 28549 28552 28554 28557 28560 28563 28565 28568 28570 28573 28576 28579 28582 28585 28588 28591 28594 28597 28600 28602 28605 28608 28611 28614 28617 28620 28623 28625 28627 28630 28633 28636 28639 28642 28644 28647 28650 28653 28656 28659 28661 28664 28667 28670 28672 28675 28678 28680 28683 28686 28688 28691 28694 28697 28699 28702 28705 28708 28711 28714 28717 28719 28722 28725 28728 28731 28734 28736 28739 28742 28745 28748 28751 28753 28756 28759 28762 28765 28768 28771 28773 28776 28779 28782 28785 28787 28790 28793 28796 28799 28802 28804 28807 28810 28813 28816 28819 28822 28825 28828 28831 28834 28836 28839 28842 28845 28848 28851 28854 28857 28859 28862 28865 28868 28871 28873 28875 28878 28881 28883 28886 28889 28892 28895 28898 28901 28904 28906 28909 28912 28915 28918 28921 28924 28927 28929 28932 28934 28937 28940 28942 28945 28948 28951 28954 28956 28959 28961 28964 28967 28970 28973 28976 28979 28982 28985 28988 28991 28993 28996 28999 29002 29005 29008 29010 29013 29016 29019 29021 29024 29027 29030 29033 29035 29038 29041 29043 29046 29049 29052 29055 29058 29060 29063 29065 29068 29070 29072 29075 29078 29081 29084 29086 29088 29091 29094 29097 29100 29103 29106 29109 29112 29115 29118 29121 29124 29127 29129 29132 29135 29138 29141 29144 29147 29149 29151 29154 29157 29160 29163 29166 29169 29172 29175 29178 29181 29184 29187 29190 29192 29195 29198 29201 29204 29207 29210 29213 29216 29219 29222 29225 29228 29231 29234 29237 29240 29243 29246 29249 29252 29255 29258 29261 29264 29267 29270 29273 29276 29279 29282 29285 29288 29291 29293 29296 29299 29301 29304 29307 29310 29313 29316 29319 29322 29324 29327 29330 29333 29335 29338 29341 29343 29346 29349 29352 29354 29356 29359 29362 29365 29368 29370 29372 29375 29378 29381 29384 29387 29390 29393 29396 29399 29402 29405 29408 29411 29414 29416 29419 29422 29424 29427 29430 29433 29435 29438 29441 29444 29447 29449 29452 29455 29457 29460 29463 29466 29469 29472 29475 29478 29481 29484 29487 29490 29492 29495 29498 29501 29504 29507 29510 29513 29515 29518 29521 29524 29527 29530 29533 29536 29539 29542 29545 29548 29551 29554 29557 29560 29563 29566 29569 29571 29574 29577 29580 29583 29586 29589 29591 29594 29596 29599 29602 29605 29608 29611 29613 29616 29619 29621 29624 29627 29630 29632 29635 29638 29641 29643 29646 29649 29652 29655 29658 29661 29664 29667 29670 29673 29676 29679 29682 29685 29687 29690 29693 29696 29699 29701 29703 29706 29709 29712 29715 29718 29721 29724 29727 29730 29733 29736 29739 29742 29745 29748 29751 29754 29757 29760 29762 29765 29768 29771 29774 29777 29780 29783 29786 29788 29791 29793 29796 29799 29802 29805 29808 29811 29814 29816 29819 29821 29824 29827 29830 29833 29836 29838 29841 29844 29847 29850 29853 29856 29858 29861 29864 29867 29870 29873 29875 29877 29880 29883 29886 29888 29890 29892 29895 29898 29901 29904 29907 29909 29912 29915 29918 29921 29924 29926 29929 29932 29935 29938 29940 29943 29945 29947 29950 29952 29954 29957 29960 29963 29965 29968 29971 29974 29976 29979 29982 29985 29987 29990 29993 29996 29998 30001 30004 30007 30010 30013 30016 30019 30022 30024 30027 30030 30033 30035 30038 30041 30044 30047 30050 30053 30055 30058 30061 30064 30067 30070 30073 30075 30078 30081 30084 30087 30090 30093 30096 30099 30102 30105 30108 30111 30114 30117 30119 30122 30124 30127 30130 30133 30135 30138 30141 30143 30146 30148 30151 30153 30156 30159 30161 30164 30167 30170 30173 30176 30179 30181 30184 30187 30190 30193 30195 30198 30201 30204 30207 30210 30213 30215 30218 30221 30224 30227 30230 30233 30236 30239 30242 30245 30247 30250 30253 30256 30259 30262 30265 30268 30271 30274 30277 30280 30283 30286 30289 30292 30295 30298 30301 30304 30306 30308 30311 30314 30317 30319 30322 30325 30327 30330 30333 30335 30338 30341 30343 30346 30349 30351 30353 30356 30359 30362 30365 30367 30370 30373 30376 30379 30382 30385 30388 30391 30394 30397 30400 30402 30404 30407 30410 30413 30415 30418 30420 30423 30425 30428 30431 30434 30437 30440 30442 30445 30448 30450 30453 30455 30458 30461 30463 30465 30467 30470 30473 30476 30479 30481 30484 30487 30489 30492 30494 30497 30500 30502 30505 30508 30511 30514 30517 30520 30523 30526 30528 30531 30533 30535 30538 30541 30544 30547 30550 30552 30554 30557 30560 30563 30565 30567 30570 30573 30576 30579 30582 30585 30588 30591 30593 30596 30598 30601 30604 30607 30610 30613 30616 30619 30622 30625 30628 30631 30634 30637 30640 30643 30646 30649 30652 30655 30658 30661 30664 30667 30670 30673 30676 30679 30682 30685 30687 30690 30693 30696 30699 30702 30705 30708 30711 30714 30717 30720 30723 30726 30729 30732 30734 30737 30740 30742 30745 30748 30751 30754 30757 30759 30762 30765 30768 30771 30774 30777 30780 30783 30786 30789 30792 30795 30798 30800 30803 30806 30809 30812 30815 30818 30821 30824 30827 30829 30832 30835 30837 30840 30843 30846 30849 30851 30853 30855 30858 30861 30864 30867 30870 30872 30875 30878 30881 
</DataArray>
<DataArray type="UInt32" Name="types" format="ascii">
5 5 3 5 5 5 5 3 5 5 5 5 5 5 5 5 5 5 5 5 3 5 5 5 5 3 5 5 5 5 5 5 5 3 5 5 5 5 5 5 5 5 3 5 5 5 5 5 5 5 5 5 5 5 3 3 5 5 5 5 5 5 5 5 3 5 5 5 5 5 5 5 5 5 5 5 5 5 5 5 5 5 5 5 5 5 5 3 5 5 5 5 5 5 5 5 5 5 5 3 5 5 5 3 5 5 5 5 5 5 5 5 5 5 5 5 5 5 5 5 5 5 5 5 5 5 5 5 5 5 5 5 5 5 5 5 5 5 5 5 5 5 5 5 5 5 5 5 5 3 5 3 5 5 5 5 5 5 5 5 5 5 5 5 5 5 5 5 5 5 5 5 5 5 5 5 5 5 3 5 5 3 5 3 5 5 5 5 5 5 5 5 5 5 5 5 5 5 3 5 3 5 5 5 5 5 5 5 3 5 3 5 5 5 5 5 5 3 5 5 3 5 5 5 5 5 5 3 3 5 5 3 5 3 5 3 3 5 5 5 3 5 5 5 5 5 5 5 5 5 5 5 5 5 3 5 5 5 5 5 5 5 3 5 5 5 5 5 5 5 3 5 5 5 5 3 5 5 5 5 5 5 3 5 5 5 3 5 5 5 5 5 5 5 3 5 5 5 5 5 5 3 5 5 5 5 5 5 3 5 5 5 5 5 5 5 3 5 5 5 5 5 5 5 5 5 5 5 5 5 5 5 5 5 5 5 5 5 3 3 5 5 5 5 5 3 5 5 5 5 5 5 5 3 5 3 5 5 5 3 5 5 5 3 5 3 5 5 5 5 5 5 5 3 5 5 5 5 5 5 5 3 5 5 5 3 5 5 5 5 5 5 5 5 5 5 5 5 5 5 5 5 5 5 5 5 5 5 5 5 5 5 5 5 5 5 5 5 3 5 5 5 5 5 5 5 5 5 5 5 5 5 5 5 5 5 5 5 5 5 5 5 5 5 5 5 5 5 5 5 5 3 5 5 5 5 5 5 5 5 5 5 5 5 5 5 5 5 5 5 5 5 3 5 5 5 5 5 5 5 3 5 5 5 5 5 3 5 5 3 5 3 5 5 5 5 3 5 5 3 5 5 5 5 5 5 3 5 5 5 5 5 5 5 5 5 5 5 5 5 5 5 5 5 5 5 3 5 5 5 5 5 5 5 5 5 5 5 3 3 5 5 5 5 5 5 5 5 5 5 5 5 5 5 5 5 5 5 5 5 5 3 5 3 3 5 5 3 5 5 5 5 5 5 5 5 5 5 5 5 5 3 5 5 5 5 5 5 5 3 3 5 5 5 5 5 5 5 5 3 3 5 5 5 3 5 5 5 5 5 5 5 5 5 5 5 5 5 5 5 5 5 5 5 5 5 5 5 5 5 5 5 5 5 5 5 5 5 5 5 3 5 5 3 5 5 5 5 3 5 5 5 3 5 5 5 3 5 5 3 5 5 5 5 5 5 5 5 5 5 5 5 5 5 5 5 5 5 5 5 5 3 5 5 5 3 5 5 5 5 5 3 5 5 5 5 5 5 3 5 5 5 5 5 5 5 5 5 5 5 5 5 5 5 5 5 5 3 5 5 5 5 5 5 5 5 5 5 5 5 5 5 5 5 5 5 5 5 5 3 5 5 5 5 5 5 5 5 5 5 5 5 5 5 5 3 5 5 5 5 5 5 5 5 5 5 5 5 5 5 5 5 5 5 3 5 5 5 5 5 5 5 3 5 5 5 5 5 5 5 5 5 5 5 5 5 5 5 5 5 5 5 5 5 3 5 5 5 5 5 5 5 5 5 3 5 5 5 5 5 5 5 5 3 5 5 5 5 5 5 5 5 5 5 5 5 5 5 5 5 5 5 5 3 5 5 5 5 5 3 5 5 5 3 5 5 5 5 5 5 3 5 5 5 5 5 5 5 5 5 5 3 5 5 5 5 5 5 5 5 5 5 5 5 3 5 3 5 5 5 5 5 5 5 3 5 3 5 5 5 5 5 5 5 5 5 5 5 5 5 5 5 5 5 5 5 5 5 5 5 5 5 5 5 5 5 5 5 5 5 5 5 5 5 5 5 5 5 5 5 5 5 3 3 5 5 3 5 5 5 5 5 5 5 5 5 5 5 5 5 5 5 5 3 5 5 5 5 3 5 5 3 5 5 5 5 5 5 3 5 3 5 5 3 5 5 5 5 5 5 5 5 5 5 3 5 5 5 5 5 3 3 5 5 5 5 3 5 5 3 5 3 5 5 5 5 5 3 5 5 3 5 5 5 5 5 5 5 5 5 5 5 5 3 5 5 5 5 5 5 5 5 5 5 5 5 5 5 5 3 5 3 5 3 3 5 3 5 5 3 5 5 5 5 5 5 3 5 3 5 5 3 5 5 5 3 5 5 3 5 5 5 5 5 3 5 5 3 5 5 5 5 5 3 5 3 5 5 3 5 5 3 5 5 5 5 5 5 5 5 3 5 5 5 5 5 5 5 5 5 5 3 5 5 5 5 3 5 5 3 5 5 5 5 5 3 5 5 5 5 5 3 5 3 5 5 5 5 5 5 3 5 5 5 5 5 5 5 5 3 3 3 5 5 5 5 3 5 3 5 5 5 3 3 5 5 5 3 5 5 5 3 5 3 5 3 3 5 3 5 5 5 5 3 5 5 5 3 5 3 5 3 5 5 5 5 5 5 5 3 5 5 5 5 3 5 5 5 5 5 5 5 5 3 5 3 3 5 5 5 3 5 5 5 5 3 3 5 5 3 3 5 5 5 5 5 3 5 5 5 5 5 5 5 5 3 5 3 5 5 5 5 5 5 5 5 5 5 5 5 5 5 5 5 5 3 5 5 5 5 5 5 5 5 5 5 5 5 5 5 5 5 5 5 5 5 5 5 5 5 5 3 5 3 5 5 5 5 5 3 3 5 5 5 5 3 3 5 3 5 5 3 5 5 3 5 5 5 5 3 3 5 5 5 5 5 5 5 5 3 5 5 3 5 5 5 3 5 5 3 5 5 5 5 5 5 3 5 5 5 5 5 5 3 5 5 5 5 5 3 5 5 3 3 5 5 3 5 5 3 5 5 5 5 5 5 5 5 5 5 5 5 3 5 3 5 5 3 5 5 5 5 5 5 3 5 5 5 3 3 3 5 5 5 3 3 5 3 3 5 5 3 5 5 3 5 3 5 3 5 5 5 3 3 5 5 3 3 3 3 5 5 5 3 3 5 5 3 3 3 5 3 3 5 5 3 5 3 3 5 3 5 5 3 5 3 3 5 5 5 5 3 3 5 5 3 5 5 5 3 5 5 5 5 5 5 5 5 5 5 5 5 5 5 5 5 5 5 5 5 5 5 5 5 5 5 5 5 5 5 5 5 5 5 5 5 5 5 5 5 5 5 5 5 5 5 5 5 5 5 5 5 5 5 5 5 5 5 3 5 3 5 5 5 5 5 5 5 5 5 5 5 5 5 5 3 5 5 5 5 5 5 5 5 5 5 3 5 5 5 5 5 5 5 5 5 5 5 5 5 5 5 5 5 5 5 5 5 5 5 5 5 5 5 5 5 5 5 5 5 5 5 5 5 5 5 5 5 5 5 5 5 5 3 5 5 5 3 5 3 5 5 5 5 5 3 5 3 5 5 5 5 5 5 5 5 5 5 5 5 5 5 5 5 5 5 5 5 5 5 5 5 5 3 5 5 5 5 5 5 3 5 3 5 5 5 3 5 5 3 5 5 5 5 5 5 5 5 5 5 5 5 5 5 5 5 5 5 5 5 5 5 5 5 5 5 5 5 5 5 5 5 5 5 5 5 5 3 5 3 5 5 5 5 5 5 5 5 5 5 3 5 5 5 5 5 5 5 5 5 5 5 5 5 5 5 5 5 3 5 5 5 3 3 5 3 5 5 5 5 5 5 5 5 3 5 5 5 5 3 5 5 5 5 5 5 5 3 5 5 3 5 3 5 5 3 5 5 3 3 5 5 5 5 5 5 5 5 5 5 5 5 5 5 5 3 5 3 5 5 5 3 5 3 5 5 5 5 5 5 5 5 5 5 5 5 3 5 3 5 5 5 5 5 5 5 5 3 5 5 3 5 5 5 3 3 5 5 5 5 5 5 5 5 5 5 5 5 5 5 5 5 5 5 5 5 5 3 5 5 5 5 5 3 5 3 5 5 5 5 3 5 5 3 5 5 5 5 5 3 5 5 5 5 3 5 5 5 5 5 5 5 3 5 5 5 3 5 5 5 5 5 5 5 5 5 5 5 3 5 5 5 5 5 5 5 5 3 5 5 5 5 5 5 3 5 5 5 5 5 5 3 5 5 5 5 5 5 5 5 5 5 5 3 5 5 5 3 5 5 5 3 5 3 5 5 5 5 5 5 3 5 5 5 5 5 5 5 5 5 5 5 5 5 5 5 3 5 5 5 5 5 3 5 5 5 5 5 5 5 5 3 5 5 5 5 5 5 5 5 5 5 5 5 5 5 5 5 3 5 5 5 5 3 5 5 5 5 5 5 5 5 5 5 5 5 5 5 5 5 5 5 5 5 5 5 5 5 5 5 3 5 5 5 3 5 3 5 5 5 5 3 5 3 5 5 5 5 5 3 5 5 5 5 5 5 5 5 5 3 5 5 5 5 5 5 5 5 5 5 5 5 5 5 5 5 5 5 5 5 5 5 5 5 3 3 5 5 5 5 5 3 5 5 5 3 5 5 5 3 5 5 3 5 3 5 5 5 5 3 5 5 5 5 3 3 5 5 5 5 5 5 5 5 5 5 5 5 3 5 5 5 5 3 5 5 5 5 5 3 5 5 3 5 5 5 5 5 5 5 5 5 5 5 5 5 5 5 5 3 5 5 3 5 5 5 3 5 5 5 5 5 5 5 5 5 5 5 3 5 5 5 5 5 5 5 5 5 5 5 5 5 5 5 5 3 5 5 3 5 3 5 5 3 5 3 5 3 5 5 5 5 5 5 5 5 5 5 5 5 5 3 5 3 3 5 5 3 3 5 5 3 3 5 5 5 3 5 3 5 5 3 5 5 5 5 3 3 5 3 5 5 3 3 5 5 3 5 5 5 3 5 5 5 3 3 3 5 5 3 5 3 3 5 5 5 5 5 5 5 5 5 5 5 3 3 5 3 5 3 5 3 5 5 5 3 5 5 5 5 5 3 5 5 5 5 5 5 5 5 5 5 5 5 5 5 5 5 5 5 5 5 5 5 5 5 3 5 5 5 5 5 5 5 5 5 5 5 5 5 5 5 5 5 5 3 5 5 5 5 5 5 5 5 5 5 5 3 5 5 5 5 5 3 5 5 5 5 5 5 5 5 5 5 5 5 5 5 3 5 5 5 5 5 5 5 5 5 5 5 5 5 5 3 5 3 5 5 5 5 3 5 5 5 5 5 5 5 5 5 5 5 5 3 5 3 5 5 5 5 3 5 5 5 5 5 5 5 3 5 5 5 5 5 5 5 3 5 5 5 3 5 3 5 5 5 5 5 5 5 5 5 3 5 5 5 5 5 5 5 5 5 5 5 5 5 5 5 5 5 5 5 5 5 5 5 5 5 5 5 5 5 5 5 5 5 5 5 5 5 5 5 5 5 5 5 3 5 5 3 5 5 5 5 5 5 5 5 5 5 3 5 5 5 5 5 3 5 5 3 5 5 5 5 5 5 3 5 5 5 5 3 5 5 3 5 3 5 5 5 5 5 5 5 5 5 5 5 3 5 3 5 5 5 5 3 5 5 5 5 5 5 5 5 5 5 5 5 5 5 5 5 5 5 5 5 5 3 5 5 5 5 3 5 5 5 5 5 5 5 3 5 5 5 5 5 3 5 5 5 3 5 5 5 3 5 5 3 5 5 5 3 5 5 3 5 5 5 5 5 5 5 5 5 5 5 5 5 5 5 5 5 5 5 5 5 5 5 5 5 5 5 5 5 5 5 3 5 5 5 5 5 5 5 5 5 5 5 3 5 5 5 5 5 5 5 5 5 5 5 5 5 5 5 3 3 5 5 5 3 5 5 5 5 3 5 5 3 5 5 5 5 5 5 5 5 5 5 5 5 5 3 3 5 5 5 5 5 5 5 5 5 5 5 3 5 5 3 5 5 5 5 5 5 5 5 5 5 5 5 5 5 5 5 5 5 5 3 5 5 5 3 5 5 5 5 5 3 5 5 5 5 5 5 5 5 5 5 5 5 5 5 5 5 5 5 5 5 3 5 5 3 5 5 5 5 5 5 5 5 5 5 5 5 5 5 5 5 5 5 5 3 5 5 5 5 5 5 5 5 5 5 5 5 5 5 5 5 5 5 5 5 5 5 5 5 5 5 5 5 5 5 5 5 3 5 5 5 5 5 5 3 5 5 5 5 5 3 5 5 5 5 3 5 5 5 5 5 5 5 5 5 5 5 5 5 5 5 5 5 5 5 5 5 5 3 5 5 5 5 5 5 5 3 5 5 3 5 5 3 5 5 5 5 5 5 3 5 5 5 5 5 5 5 5 5 5 3 5 3 5 5 5 5 5 5 5 5 3 5 5 3 5 5 5 3 5 5 5 3 5 5 5 3 3 5 5 3 5 5 3 5 5 3 5 5 5 5 5 5 5 5 5 3 5 5 5 3 5 5 5 3 5 5 5 3 5 3 5 5 3 5 5 5 5 5 5 5 5 3 5 5 3 5 5 5 5 5 5 5 5 5 5 5 5 5 3 5 3 5 5 5 3 3 5 3 5 5 5 5 3 5 3 5 5 5 5 5 5 5 5 5 3 5 5 5 5 5 5 5 5 5 5 5 5 5 5 5 5 5 5 5 5 5 5 5 5 5 5 5 5 3 5 5 5 5 5 5 3 5 5 5 5 5 5 3 5 5 5 5 5 5 3 5 5 5 3 5 5 5 3 5 5 3 5 5 5 5 5 5 3 5 5 5 3 3 5 5 5 5 5 5 5 5 5 5 5 5 5 5 5 5 5 3 5 5 5 5 5 5 5 3 5 5 5 5 5 3 5 5 5 5 5 3 5 5 3 5 5 5 5 3 5 5 5 5 5 5 3 5 3 5 3 3 5 3 5 5 5 3 5 5 5 5 5 3 5 5 5 3 5 5 5 5 3 3 3 5 5 5 5 3 3 5 3 5 5 5 5 5 5 3 5 3 5 5 3 5 5 5 3 5 5 3 5 5 5 5 5 5 5 5 5 5 5 5 3 5 5 5 5 3 5 5 5 5 3 5 5 5 5 5 5 5 5 5 3 3 3 5 5 5 3 3 5 5 3 5 3 5 5 5 5 5 5 5 3 5 5 5 5 5 5 5 5 5 5 5 5 5 5 5 5 3 5 5 5 5 5 5 5 5 5 3 5 5 3 5 3 5 3 5 5 3 5 5 5 3 3 5 5 3 5 5 5 3 5 5 5 5 3 5 5 5 5 5 5 5 5 5 5 5 3 3 5 5 5 5 5 5 5 5 5 5 5 5 5 5 5 5 5 5 5 5 5 5 5 5 5 5 5 5 5 5 5 5 3 5 5 5 5 5 5 5 5 5 5 5 5 5 5 5 5 5 5 5 3 5 5 5 5 5 5 3 3 5 5 3 3 5 5 5 3 5 5 5 5 5 5 5 5 5 5 5 5 5 5 5 5 5 5 5 5 5 5 5 3 5 3 5 3 5 5 5 5 5 5 3 5 3 3 5 5 3 5 5 5 5 5 5 3 3 5 5 3 3 5 5 3 3 5 5 5 5 5 5 5 5 3 5 5 5 5 5 3 5 5 3 5 5 5 3 5 5 5 5 5 5 5 5 5 5 5 5 5 5 5 5 5 5 5 5 5 5 5 5 5 5 5 5 5 5 5 5 5 5 3 5 5 3 5 3 3 5 5 5 5 5 5 5 5 5 3 5 5 5 5 5 3 5 5 5 5 5 5 5 3 5 5 5 5 5 5 5 5 3 5 5 5 5 5 3 5 5 5 5 5 5 5 5 5 5 5 5 5 5 5 5 5 5 5 5 5 5 5 5 5 5 5 5 5 5 3 3 5 5 5 5 5 5 5 3 5 5 5 3 5 3 5 5 5 5 5 5 5 5 5 5 5 5 5 5 5 5 5 5 5 5 5 3 5 5 5 5 5 5 3 5 5 5 5 5 5 5 3 5 5 3 5 5 5 5 5 5 3 5 5 5 3 5 5 3 3 5 5 5 5 5 5 5 5 5 5 5 5 5 5 5 5 5 5 5 5 5 5 5 5 5 5 5 5 3 5 5 5 5 5 5 5 5 5 5 5 5 5 5 5 5 5 5 5 3 5 5 5 3 3 5 5 5 5 5 3 5 5 5 3 5 5 5 5 5 3 5 5 5 5 5 5 5 5 5 5 5 5 5 5 5 5 5 5 5 5 5 3 5 5 5 5 5 5 3 5 5 5 5 5 5 5 5 5 5 5 5 3 5 5 5 5 3 5 3 5 5 5 5 5 5 5 5 5 5 5 5 5 3 5 5 5 5 5 3 5 5 5 5 5 5 3 5 5 5 5 5 5 5 5 5 5 5 5 3 5 5 3 5 5 3 5 5 3 5 5 5 5 5 5 5 5 5 5 3 5 5 5 5 5 5 5 5 3 5 5 5 3 5 5 5 3 5 5 3 5 5 5 3 5 5 5 5 5 3 5 3 5 5 5 5 3 3 5 5 5 3 5 5 5 5 3 5 5 5 5 5 5 5 5 5 5 5 5 5 5 5 3 5 5 3 3 5 5 5 5 3 5 5 5 5 5 5 3 5 5 5 5 5 5 3 5 5 5 5 5 5 5 5 3 5 5 5 5 5 5 5 5 5 5 3 5 5 3 5 5 3 5 5 5 5 5 3 3 5 5 3 3 5 3 5 3 5 3 3 5 5 3 5 3 5 3 5 3 5 3 5 5 3 5 3 5 3 5 5 5 5 5 5 3 5 5 5 3 5 5 5 5 5 5 5 5 5 3 5 5 3 5 3 5 3 5 5 5 3 3 5 5 5 5 5 5 5 5 5 5 5 3 5 5 5 5 5 3 5 5 5 5 5 5 5 5 5 5 5 5 5 5 5 5 5 3 5 5 5 5 5 5 3 5 5 5 3 5 5 3 5 5 5 3 5 3 3 5 5 5 5 5 5 5 5 5 3 5 5 5 5 5 5 5 3 5 3 5 3 5 5 5 5 5 5 5 5 5 5 5 5 5 5 5 5 5 5 5 5 5 5 5 5 5 5 5 5 5 5 5 5 5 5 5 5 5 3 5 5 3 3 5 5 5 5 3 5 5 5 5 5 3 5 5 3 3 5 5 5 5 5 5 3 5 3 5 5 3 3 5 3 5 5 5 3 5 5 5 5 3 5 5 5 3 5 5 3 3 5 5 5 3 5 5 5 5 3 5 5 3 5 5 5 3 5 5 3 5 5 5 3 5 3 5 5 3 5 5 3 3 5 5 3 5 3 3 5 5 5 5 3 5 5 5 5 3 5 5 5 5 5 5 5 5 5 5 5 5 3 5 5 5 5 3 5 3 5 5 5 5 5 3 3 3 5 5 5 5 5 5 5 5 3 5 5 5 5 5 5 3 5 5 5 5 3 5 5 5 5 5 5 5 5 5 5 5 5 5 5 5 5 5 5 3 5 3 5 5 3 3 5 3 5 5 3 5 3 5 3 5 3 5 5 5 5 3 5 5 5 3 5 5 5 5 5 5 5 5 5 5 5 5 5 5 5 5 5 5 5 5 5 5 5 5 5 3 5 5 5 5 5 3 5 5 5 5 5 5 5 5 5 5 5 3 5 5 5 5 5 3 5 5 3 3 5 5 5 3 5 5 3 3 5 3 5 5 5 5 5 5 5 5 5 5 5 5 5 5 5 5 3 5 5 5 5 3 5 5 5 5 5 5 5 5 3 3 5 5 3 5 5 5 5 5 5 5 5 5 3 3 5 5 3 5 5 5 3 5 5 5 5 5 5 5 5 5 5 5 5 5 5 5 5 5 5 5 5 5 5 5 5 5 5 3 5 5 5 5 5 5 5 5 5 5 5 5 5 5 5 5 5 5 5 5 3 5 5 5 3 3 5 5 5 3 5 5 3 5 5 5 5 5 3 5 3 5 5 5 5 5 5 5 5 3 5 5 5 3 5 5 3 5 3 5 5 5 3 5 5 5 3 5 5 5 5 5 5 5 5 5 5 5 5 5 5 5 5 5 3 5 5 5 5 5 5 5 5 5 3 5 5 5 5 5 5 5 5 3 5 5 5 5 5 5 5 5 5 5 5 5 5 3 5 5 5 3 5 5 5 5 5 5 5 5 5 5 5 5 5 5 5 5 5 5 5 3 5 5 5 3 5 3 5 5 5 3 5 5 5 3 3 5 5 5 5 5 5 5 5 5 5 5 5 5 5 5 5 5 5 5 5 5 5 3 5 5 5 5 3 5 5 5 5 3 5 5 5 5 5 5 5 3 5 5 5 5 3 5 5 5 5 5 5 3 5 5 5 5 5 5 3 5 5 5 3 5 5 5 5 5 5 5 5 5 3 5 5 5 5 5 5 3 5 5 5 5 5 5 5 5 5 5 5 3 5 5 3 5 5 5 5 5 3 5 5 3 5 5 5 5 5 5 5 3 3 5 5 5 5 3 5 5 5 5 5 5 3 5 5 5 5 5 5 5 5 5 5 3 5 5 5 5 5 5 5 5 5 5 5 5 3 5 3 5 5 5 3 5 5 3 5 5 5 5 3 5 5 5 5 5 3 5 5 5 5 5 5 5 5 3 5 5 5 5 3 5 5 5 5 5 5 5 3 5 5 5 5 5 5 5 5 5 5 3 5 5 5 3 5 3 5 5 5 5 5 5 3 5 3 5 3 5 5 5 5 3 5 5 5 5 5 5 5 5 5 5 5 5 5 5 3 5 3 5 5 5 5 5 5 5 3 5 5 5 5 5 5 5 5 5 5 5 5 5 3 5 5 5 5 3 5 5 5 5 5 5 5 5 5 5 5 5 5 5 5 5 5 5 5 5 5 5 5 5 3 5 5 5 5 3 5 5 5 3 5 5 3 5 5 3 5 5 5 5 5 5 5 5 5 5 5 5 5 5 5 3 5 5 3 5 5 5 5 5 5 5 3 5 5 5 5 5 3 5 5 5 3 5 5 5 3 5 5 5 5 5 5 5 3 5 5 5 3 5 3 3 5 5 5 5 5 3 5 5 5 5 5 5 5 5 5 5 3 5 5 5 5 5 5 5 5 5 5 5 5 5 5 5 5 5 5 5 5 5 5 5 5 5 5 5 5 5 5 5 5 5 5 5 5 5 3 5 5 5 5 5 5 5 5 5 5 5 5 5 5 5 5 3 5 5 5 5 5 5 5 5 5 3 5 5 5 5 5 5 5 3 5 5 5 5 5 5 5 5 5 5 5 5 5 5 5 5 5 5 5 5 5 3 5 5 5 5 5 5 5 5 5 5 5 5 5 5 5 5 5 3 5 5 5 5 5 5 5 5 5 5 5 5 5 5 5 5 5 5 5 5 5 5 5 5 5 5 5 5 5 5 5 5 5 5 5 5 5 5 5 5 5 5 5 5 5 5 3 5 5 5 5 5 5 5 5 5 5 5 5 5 3 5 3 5 5 5 5 5 3 5 5 5 5 5 3 3 5 5 5 5 5 5 5 5 5 5 5 5 5 5 5 5 5 3 3 5 5 5 5 5 5 3 5 3 5 5 5 5 5 5 5 5 5 3 5 5 5 5 5 5 5 5 5 5 5 5 5 5 5 5 5 5 5 3 5 5 5 5 5 3 5 3 5 5 5 5 5 5 5 3 5 5 5 3 5 5 5 3 5 5 3 5 5 5 3 5 5 3 5 3 5 3 5 5 3 5 5 5 5 5 5 5 5 5 5 5 5 5 5 5 5 5 5 5 5 5 3 5 3 5 5 5 5 5 5 5 3 5 5 5 5 5 5 5 5 5 5 5 5 5 5 5 5 5 5 5 3 5 5 5 3 5 5 5 5 5 5 5 5 5 5 3 5 5 5 5 3 5 5 3 5 5 5 5 5 3 5 5 5 5 3 5 3 5 5 3 5 5 5 5 5 5 5 3 5 5 3 5 3 5 5 5 5 5 5 5 5 5 5 5 5 5 5 5 5 5 5 3 5 5 5 5 5 5 5 3 5 5 5 5 3 5 5 5 5 5 5 5 5 5 3 5 5 5 5 3 5 5 5 5 5 5 5 5 5 5 5 5 3 5 5 5 5 5 5 5 5 5 3 5 5 5 5 5 5 5 5 5 5 5 5 3 5 5 3 5 5 5 5 5 5 5 5 5 3 3 3 5 5 5 3 5 5 5 5 5 5 3 5 5 5 3 3 5 5 5 5 5 5 5 5 5 5 5 5 3 5 5 5 3 3 5 5 5 5 5 3 5 5 5 5 3 5 5 5 5 3 5 5 5 5 5 3 3 3 5 5 5 3 3 5 5 5 5 5 5 5 5 5 3 3 5 5 5 3 3 5 5 5 5 5 5 5 5 5 5 5 5 5 5 5 5 5 3 5 3 5 5 5 5 3 5 5 5 5 5 5 5 3 5 5 5 5 5 5 5 3 5 5 3 5 3 3 5 5 5 3 3 5 5 5 3 3 5 5 5 5 5 5 5 5 5 5 3 5 5 5 5 5 5 5 3 5 5 5 5 3 5 5 5 5 5 5 3 5 5 5 5 3 5 3 5 5 5 5 5 5 5 5 5 5 5 5 5 5 3 5 5 5 5 5 5 5 3 5 5 5 5 3 5 5 5 3 5 5 5 5 5 5 5 5 5 5 5 5 5 5 5 5 5 5 5 5 5 5 3 5 3 5 5 3 5 5 5 3 5 5 3 5 5 5 5 5 5 5 5 5 5 5 5 5 5 5 5 5 5 5 5 3 3 3 5 5 5 5 5 5 5 5 5 5 5 5 5 3 5 5 5 3 5 5 3 5 5 5 5 3 5 5 3 3 5 5 5 5 3 5 5 3 5 3 5 5 5 5 5 5 5 5 5 5 5 5 3 5 5 5 5 5 5 5 3 5 3 5 5 5 5 3 5 5 5 5 5 5 5 5 5 5 5 5 5 5 5 5 5 5 5 5 5 5 5 3 5 5 5 3 5 3 5 5 5 3 5 5 5 5 5 3 5 5 3 5 5 5 5 5 5 5 5 3 5 5 5 5 5 3 5 5 5 5 5 5 5 5 5 5 5 5 5 5 3 5 5 5 5 3 5 5 5 5 5 5 5 5 5 5 5 5 3 5 5 5 5 3 5 5 5 5 5 5 5 5 5 5 5 5 5 3 5 5 3 5 5 5 3 5 5 5 5 5 5 5 5 5 5 5 5 5 3 3 5 3 3 5 5 5 3 3 5 3 5 3 5 3 5 5 5 3 5 3 5 5 5 5 3 5 5 5 5 5 5 3 5 5 5 5 5 3 5 5 3 5 5 3 5 5 3 5 5 5 5 5 3 5 3 5 5 5 5 5 5 5 5 5 5 5 5 5 3 5 5 3 5 5 5 5 5 5 5 5 5 3 5 5 5 5 5 5 5 5 5 3 5 5 3 5 3 5 5 5 5 5 5 5 3 5 5 5 5 5 5 5 3 5 3 5 5 3 5 5 5 3 5 5 5 5 3 5 5 5 5 5 3 5 5 5 5 5 5 5 5 5 5 5 5 5 5 5 5 5 5 5 5 5 3 5 5 3 5 5 5 3 5 5 5 5 3 5 5 5 5 5 5 5 5 5 5 5 5 5 5 5 5 5 5 5 5 5 5 5 3 5 5 5 5 5 5 3 5 5 5 5 5 5 5 5 5 5 5 5 5 3 5 3 5 5 3 5 5 5 5 3 3 5 3 5 3 5 5 5 5 5 3 5 5 3 3 5 5 5 5 5 3 5 5 3 5 5 5 5 5 5 5 5 3 3 5 5 5 3 5 3 5 5 5 5 5 3 5 3 5 5 5 5 5 3 3 5 5 5 5 3 5 5 5 5 3 5 5 5 5 5 5 5 5 5 5 5 5 5 5 5 5 5 3 5 5 3 5 5 5 3 5 5 5 5 5 5 5 5 5 5 5 5 5 5 5 5 5 5 5 3 5 5 5 5 5 5 5 5 5 5 5 5 5 5 3 3 5 5 5 3 5 5 5 5 5 3 5 5 5 5 5 5 5 5 5 5 5 3 5 5 3 5 5 5 5 5 5 5 5 5 5 3 5 5 5 3 5 3 5 3 5 5 5 3 3 5 3 5 5 3 5 5 3 3 5 5 5 3 5 5 3 5 3 5 5 5 3 5 5 3 3 5 3 5 5 3 5 3 5 5 5 5 5 5 5 5 5 3 5 5 5 5 5 3 5 5 5 5 5 5 5 5 5 5 3 5 5 5 5 3 3 5 5 3 5 3 5 5 5 5 5 3 5 5 3 5 3 5 5 5 5 5 5 5 3 5 5 5 5 5 5 5 5 5 3 5 3 5 3 5 3 5 5 5 5 3 5 5 5 5 5 3 3 5 5 5 5 5 5 3 5 5 5 5 5 3 5 5 5 5 3 5 5 3 5 3 5 5 5 3 5 3 5 5 3 3 3 5 5 5 5 5 5 3 3 3 5 5 5 5 3 5 3 5 3 5 5 5 5 5 5 3 5 5 5 5 5 5 5 5 5 5 5 5 5 5 5 5 5 5 5 5 5 5 5 5 5 5 5 5 5 5 5 5 5 5 5 5 5 5 5 5 5 5 5 5 5 5 5 5 5 3 5 5 5 3 3 5 5 5 5 5 5 5 5 5 5 5 5 5 5 5 5 5 5 5 3 5 5 5 5 5 5 5 3 5 5 3 5 5 3 5 5 3 5 3 5 5 3 5 5 5 3 5 3 5 3 3 5 5 5 3 3 5 5 3 5 5 3 5 5 5 5 5 5 5 5 5 5 5 5 3 5 5 5 5 3 5 5 5 5 3 5 5 5 5 5 5 5 5 5 3 5 3 5 5 5 5 3 5 5 5 3 5 5 5 5 5 5 3 5 5 3 5 5 5 3 5 5 5 5 5 5 5 3 5 5 5 5 5 3 5 5 5 5 5 5 5 5 5 5 5 5 5 5 5 3 5 5 5 5 5 3 5 5 3 5 3 5 5 5 5 3 3 5 5 3 5 5 5 5 5 5 5 5 5 5 5 3 5 3 5 5 5 5 5 3 5 5 5 3 5 5 5 3 5 5 5 5 5 5 5 5 5 5 5 5 5 3 5 5 5 5 5 5 5 3 5 3 5 5 5 5 5 5 5 3 3 5 5 5 5 5 5 5 5 5 3 5 5 5 5 5 5 3 3 3 5 3 5 5 5 5 5 5 3 5 3 5 3 5 3 5 5 5 5 5 5 3 5 5 3 5 5 5 5 3 5 5 5 5 5 5 5 5 5 5 5 5 5 5 5 5 5 5 5 5 5 3 5 3 5 5 5 5 5 5 5 5 5 5 5 5 5 5 5 5 5 5 5 5 5 5 5 5 5 5 5 5 5 5 5 5 5 5 5 5 5 5 5 5 5 5 5 5 5 5 5 5 5 5 5 5 5 5 5 5 5 5 3 5 5 5 5 5 5 5 5 5 5 5 5 5 5 5 5 5 5 5 5 5 5 5 3 5 5 5 3 5 3 5 5 5 5 5 5 5 5 5 5 5 5 5 5 5 5 5 5 5 5 5 5 5 5 5 5 5 5 5 5 5 5 5 5 5 5 5 5 5 3 5 3 5 5 5 5 5 5 5 5 5 5 5 5 5 5 5 5 5 5 5 5 5 5 5 5 5 3 5 5 5 5 5 5 5 5 5 5 5 5 5 5 5 5 5 5 5 5 5 5 5 5 5 5 5 5 5 5 5 5 5 5 5 5 5 5 5 5 5 5 5 5 5 5 5 5 5 5 5 5 5 5 5 5 5 5 5 5 5 5 5 5 5 5 5 5 5 3 5 5 5 5 5 5 5 3 5 5 3 5 5 5 5 5 5 5 5 5 5 5 5 5 5 5 5 5 5 5 5 3 5 5 5 5 5 5 5 5 5 5 5 5 5 5 5 5 5 5 5 5 5 5 5 5 5 5 5 5 5 5 5 5 3 5 5 5 5 3 5 3 5 5 5 5 5 5 3 5 5 3 5 5 3 3 5 3 5 5 5 3 5 5 5 5 5 5 5 5 5 5 5 5 5 5 5 3 5 5 5 5 5 5 5 5 3 5 5 5 5 5 5 5 5 5 5 5 5 5 5 5 5 5 5 5 5 5 5 5 5 5 5 5 5 5 5 5 5 5 5 5 5 3 5 5 5 5 5 5 5 3 5 5 3 5 3 5 5 5 5 5 5 5 5 5 5 5 3 3 5 5 3 5 5 3 3 5 5 5 5 3 5 3 5 5 3 5 3 3 5 3 5 3 5 5 5 5 5 5 5 3 5 3 5 5 5 5 5 3 5 5 5 3 5 5 3 5 3 5 3 3 5 5 3 5 5 5 5 5 5 3 5 5 5 5 5 5 5 5 3 3 5 5 5 3 5 5 5 5 3 3 5 3 5 5 5 3 5 5 5 5 5 5 5 5 5 5 5 5 5 5 5 5 3 5 5 5 5 5 5 3 5 3 5 5 5 3 3 5 5 3 5 3 5 5 5 5 5 5 5 5 5 5 5 5 3 3 5 5 5 5 5 3 5 5 5 5 5 5 5 3 5 5 5 3 5 3 5 5 3 5 5 5 5 5 5 5 5 5 3 5 5 3 5 5 5 5 5 5 5 5 5 5 5 3 5 5 5 5 5 5 5 5 5 5 5 5 5 5 5 5 5 5 5 5 5 5 3 5 5 5 5 5 5 5 5 5 5 5 3 5 5 5 5 3 5 5 5 5 5 5 5 5 5 5 5 3 5 5 5 5 5 3 5 3 5 5 5 5 5 5 5 5 5 3 5 5 3 5 5 3 5 5 5 5 3 5 5 5 5 5 5 5 5 5 5 5 5 5 5 5 5 5 5 5 5 5 3 5 5 3 5 3 5 5 5 5 5 5 5 5 5 3 5 5 3 3 3 5 5 5 3 5 5 5 5 5 5 3 3 5 3 5 5 3 5 5 3 5 5 5 5 3 5 5 5 5 3 5 5 5 5 5 5 5 5 5 5 5 3 5 5 3 5 3 3 5 5 3 3 3 5 5 5 5 5 5 5 5 5 5 3 5 5 5 5 5 5 5 5 5 3 5 5 5 5 5 3 5 5 5 5 5 5 5 5 5 5 3 5 5 5 5 5 5 5 5 5 5 5 5 5 5 5 5 5 5 5 5 5 5 5 5 3 3 5 5 5 5 5 5 5 5 3 5 5 5 5 5 5 5 5 5 5 5 5 5 5 5 5 3 5 5 5 5 3 5 5 5 3 3 5 5 5 5 5 5 3 5 3 5 5 5 3 5 5 5 5 5 5 5 5 3 5 3 3 5 5 5 5 5 5 5 5 5 5 5 5 3 5 5 3 5 3 5 5 5 5 5 5 5 5 5 5 5 5 5 5 5 5 5 5 5 5 5 5 5 3 5 5 5 5 5 3 5 5 5 5 5 5 5 5 5 5 3 5 5 5 3 5 5 5 5 5 5 5 5 5 5 5 3 3 5 5 5 5 5 3 5 5 5 3 5 5 5 5 5 5 5 5 5 5 3 5 5 5 5 5 5 5 3 3 5 3 5 5 5 5 3 5 5 5 5 5 3 5 5 5 5 5 5 5 5 5 5 3 5 5 5 5 5 5 5 5 5 5 3 5 5 5 5 5 5 5 3 5 5 5 5 5 5 5 5 5 5 5 5 5 5 5 5 5 5 5 5 3 5 5 5 3 5 5 5 5 5 5 5 5 5 5 5 5 5 3 5 3 3 5 3 3 5 5 5 5 5 3 5 5 5 5 5 5 5 3 5 5 3 5 5 3 5 5 3 5 5 3 3 3 3 5 5 3 3 5 5 3 5 5 3 5 5 5 5 3 3 3 3 5 5 5 3 5 3 5 3 5 3 3 5 5 5 5 5 5 5 3 5 5 3 5 3 5 5 3 3 5 5 5 5 5 5 5 5 5 5 5 5 5 5 5 5 5 3 5 5 5 5 5 5 5 5 5 5 5 5 5 5 5 5 5 3 5 5 5 5 5 5 5 5 5 5 5 5 5 5 3 3 5 5 5 5 3 5 3 5 5 5 3 3 5 3 5 5 5 5 5 5 5 5 5 5 5 5 5 5 5 5 5 5 5 3 5 3 5 5 5 5 3 5 5 5 5 5 5 5 5 5 5 5 5 5 5 5 5 5 5 5 5 3 5 5 5 5 5 5 5 5 5 5 5 5 5 5 3 5 5 5 5 5 5 5 5 5 5 5 5 5 5 5 5 5 5 5 5 5 5 5 5 5 5 5 5 5 5 5 5 5 5 5 5 5 5 5 5 5 5 5 5 5 5 5 5 5 5 5 5 5 5 5 5 5 5 5 5 5 5 3 5 5 5 3 5 5 3 5 5 5 5 5 5 5 5 5 5 5 3 5 5 5 5 3 5 5 5 5 5 5 5 5 5 5 5 5 5 5 5 5 5 5 5 5 5 5 5 5 5 5 5 5 5 3 5 5 5 5 3 5 5 5 5 5 5 5 5 5 5 3 5 5 3 5 5 5 5 5 5 5 5 5 5 5 5 3 5 5 5 5 5 5 5 5 3 5 5 5 5 5 5 5 5 5 5 3 5 3 5 5 5 3 5 5 5 3 5 3 5 3 3 5 5 5 5 5 3 5 5 5 5 5 5 5 5 5 5 5 5 5 5 5 5 5 5 5 5 5 5 5 3 5 5 3 5 5 5 3 5 3 5 5 5 5 5 5 5 5 5 5 5 5 3 5 5 5 5 5 5 5 5 5 5 5 5 5 5 5 5 5 5 5 3 5 5 5 5 5 5 5 5 5 5 5 5 5 5 5 5 5 5 5 5 5 5 5 5 5 5 5 3 5 5 5 5 5 5 5 5 5 5 5 5 5 5 5 5 5 5 3 5 5 5 3 5 5 5 3 3 5 5 5 5 5 3 5 5 5 5 5 5 5 3 3 5 5 5 3 5 3 5 5 5 5 5 5 3 3 5 5 3 3 5 5 5 5 5 5 5 5 5 5 3 5 5 5 5 5 5 3 5 5 5 5 5 5 5 5 5 5 5 5 5 5 5 5 5 3 5 5 5 5 3 5 5 3 5 5 5 5 5 5 5 5 5 5 5 3 5 3 5 3 5 5 5 5 5 5 5 5 5 5 5 5 5 5 5 5 5 5 5 3 5 5 3 5 5 5 3 5 5 3 5 5 5 5 3 5 5 5 5 5 5 5 3 5 5 5 5 5 5 5 5 5 5 5 5 5 5 5 5 5 5 5 5 5 5 5 5 5 5 5 5 5 3 5 5 5 5 5 5 5 5 5 5 5 5 5 5 5 5 5 5 5 5 5 5 5 5 5 5 5 5 5 5 5 5 5 5 5 5 5 3 3 3 5 5 3 5 5 5 3 5 3 5 5 5 5 5 3 5 5 5 5 5 5 5 3 5 5 5 5 5 5 5 5 5 5 5 5 5 5 3 5 5 5 3 5 3 5 5 5 5 5 5 5 5 3 5 5 5 5 5 5 5 3 5 3 5 3 5 5 5 5 5 5 5 5 3 5 5 3 3 3 5 3 5 3 5 5 5 5 5 5 5 5 5 5 5 5 5 5 5 5 5 5 5 5 5 3 5 5 3 3 5 5 5 3 5 5 5 5 5 5 5 3 5 3 5 5 5 5 3 5 5 3 5 5 5 5 5 5 5 3 5 5 3 5 5 5 3 5 5 5 5 5 5 5 5 5 3 5 5 5 5 5 5 3 5 5 3 5 5 5 5 3 5 5 5 5 5 5 3 3 3 5 5 5 3 5 3 5 3 5 5 5 5 5 5 3 5 5 5 3 5 5 5 3 5 5 5 5 5 5 5 5 5 5 5 5 3 5 5 5 3 5 5 5 5 5 3 3 5 5 3 5 3 3 3 5 5 5 3 5 5 5 5 5 3 5 5 5 5 5 5 5 5 5 5 5 5 3 5 5 5 5 5 5 3 5 5 3 5 5 3 5 5 5 5 5 3 5 5 3 5 3 5 3 5 5 5 5 5 5 3 5 5 5 5 3 5 5 5 5 5 5 5 5 5 5 3 5 5 5 5 5 3 5 5 5 5 5 5 5 5 5 5 5 5 5 5 5 3 5 5 5 5 5 3 5 3 5 5 5 5 5 3 5 5 5 5 5 3 5 5 5 5 5 3 5 5 5 5 5 5 5 5 5 5 3 5 3 5 3 5 5 3 5 5 5 5 5 5 5 5 3 5 3 5 5 5 5 5 5 5 5 5 5 3 5 5 5 5 5 5 5 5 5 5 3 5 5 5 3 5 3 3 5 5 5 3 5 5 5 3 3 5 5 5 5 5 5 5 5 5 5 3 3 5 5 5 5 5 3 5 5 5 5 5 5 5 5 5 5 3 5 3 3 3 5 5 5 5 5 5 5 5 3 5 5 5 5 5 5 5 5 5 5 5 5 5 5 5 5 5 5 5 5 5 5 5 5 5 5 5 5 5 3 5 5 5 5 3 5 5 5 5 5 5 5 5 3 5 5 5 5 5 5 5 5 3 5 5 5 5 5 5 5 5 5 5 5 5 5 5 5 5 5 5 5 5 5 5 5 5 5 5 3 5 5 5 5 5 5 3 5 3 5 5 3 5 5 5 3 5 3 5 5 5 3 5 5 5 3 5 5 5 5 5 5 3 5 5 5 5 5 5 5 5 5 5 5 5 5 5 5 5 5 5 5 5 5 5 5 5 5 5 5 3 5 3 5 5 5 5 3 5 5 5 5 5 5 5 5 5 5 5 5 5 3 5 5 3 5 5 3 5 5 5 5 5 3 5 5 5 5 5 5 5 5 3 5 3 5 5 5 5 5 3 3 5 5 3 5 5 5 3 5 5 5 5 5 5 5 3 5 5 5 5 5 5 5 5 5 5 5 5 5 5 5 5 3 5 5 5 5 5 3 5 3 5 5 5 5 5 5 5 5 5 5 5 5 3 5 3 5 5 5 5 5 5 3 3 5 5 5 5 5 5 5 5 5 5 5 5 5 5 5 5 5 5 5 5 5 3 5 5 3 5 5 5 5 5 3 5 5 5 5 5 5 3 5 5 5 5 5 5 5 5 5 5 5 5 5 5 5 5 3 5 5 3 5 5 5 5 3 5 5 5 5 5 5 5 5 5 5 5 3 5 5 5 5 5 5 5 5 5 5 5 5 5 5 5 5 5 5 5 3 5 5 5 5 5 5 5 5 5 5 5 5 3 5 5 5 5 5 5 5 5 5 5 5 5 5 3 3 5 5 5 5 5 5 3 5 5 5 5 5 5 5 5 5 5 5 5 5 5 5 5 5 5 5 5 5 5 5 5 5 5 5 5 5 5 5 5 5 5 5 3 5 5 5 5 5 5 5 5 3 5 5 5 5 5 5 5 5 5 5 5 5 3 5 5 5 5 3 5 3 5 5 5 5 5 5 5 5 3 5 5 5 5 5 5 5 5 5 5 3 5 5 5 3 5 5 3 5 5 5 5 3 5 5 3 5 5 5 5 5 5 5 5 3 5 5 5 3 5 5 5 5 5 5 5 3 5 3 5 3 5 3 3 5 5 5 3 3 3 5 5 3 5 5 5 3 5 5 5 5 3 5 5 5 5 5 5 5 5 5 5 5 5 5 5 5 5 5 5 5 5 5 5 5 5 5 5 5 5 5 5 5 5 5 5 5 5 5 5 3 5 5 5 5 5 5 5 5 3 5 5 5 5 3 5 5 3 5 5 3 5 5 5 5 3 5 5 5 5 5 3 5 5 5 5 5 5 5 5 5 5 5 5 5 3 3 5 5 5 3 5 5 5 5 5 5 5 5 5 5 5 5 5 5 3 5 5 5 5 5 5 3 5 5 3 5 5 5 5 5 5 5 5 5 5 3 5 5 5 5 5 3 5 5 5 5 5 5 5 5 5 5 3 5 5 5 5 5 5 5 5 5 5 5 5 5 5 5 3 5 5 5 5 5 5 5 5 5 5 5 5 5 5 5 5 5 5 5 5 5 5 5 3 5 3 5 5 5 3 5 5 5 5 5 5 5 5 5 3 5 5 5 3 5 5 5 5 5 5 5 5 5 5 5 5 5 5 5 5 3 5 5 5 5 5 3 5 5 5 3 5 3 5 5 5 5 5 5 3 5 5 5 5 5 5 5 5 5 5 5 5 5 5 5 5 5 5 5 5 5 5 5 5 5 5 5 3 5 5 3 5 5 5 5 5 5 5 3 5 5 5 5 3 5 5 3 5 5 5 5 5 5 3 5 5 5 3 5 5 5 3 5 5 5 5 5 3 5 5 5 5 5 3 5 5 5 5 5 5 5 5 3 5 5 3 5 5 5 5 3 5 5 5 5 3 5 5 5 5 3 5 5 5 3 5 3 5 5 5 5 5 5 5 5 5 5 3 5 5 5 5 5 5 5 3 3 5 5 5 5 5 3 5 5 5 5 5 3 5 5 5 3 5 5 3 5 5 3 5 5 5 3 5 5 5 5 5 5 3 5 5 5 5 5 3 5 5 5 5 5 3 5 5 5 5 5 5 3 5 5 5 5 3 5 5 5 5 5 3 5 5 5 5 5 5 5 5 5 5 3 5 5 5 5 5 5 5 3 5 5 5 5 3 3 5 5 3 5 5 5 5 5 5 5 3 5 5 5 5 5 5 5 3 5 3 5 5 3 5 5 5 5 3 5 3 5 5 5 5 5 5 5 5 5 5 3 5 5 5 5 5 3 5 5 5 3 5 5 5 5 3 5 5 3 5 5 5 5 5 3 5 3 5 3 3 5 5 5 5 3 3 5 5 5 5 5 5 5 5 5 5 5 5 5 3 5 5 5 5 5 5 3 3 5 5 5 5 5 5 5 5 5 5 5 5 5 3 5 5 5 5 5 5 5 5 5 5 5 5 5 5 5 5 5 5 5 5 5 5 5 5 5 5 5 5 5 5 5 5 5 3 5 5 3 5 5 5 5 5 5 5 3 5 5 5 3 5 5 3 5 5 5 3 3 5 5 5 5 3 3 5 5 5 5 5 5 5 5 5 5 5 5 5 5 3 5 5 3 5 5 5 3 5 5 5 5 3 5 5 3 5 5 5 5 5 5 5 5 5 5 5 3 5 5 5 5 5 5 5 3 5 5 5 5 5 5 5 5 5 5 5 5 5 5 5 5 5 5 3 5 5 5 5 5 5 3 5 3 5 5 5 5 5 3 5 5 3 5 5 5 3 5 5 5 3 5 5 5 5 5 5 5 5 5 5 5 5 5 5 3 5 5 5 5 3 3 5 5 5 5 5 5 5 5 5 5 5 5 5 5 5 5 5 5 5 3 5 5 5 5 5 5 5 5 3 5 3 5 5 5 5 5 5 5 3 5 3 5 5 5 5 5 3 5 5 5 5 5 5 3 5 5 5 5 5 3 3 5 5 5 3 3 3 5 5 5 5 5 3 5 5 5 5 5 3 5 5 5 5 3 5 3 3 5 3 3 5 5 5 3 5 5 5 3 5 5 5 3 5 5 5 3 5 5 5 5 5 5 5 5 3 5 5 5 3 5 5 5 5 5 5 3 5 5 5 5 5 5 3 5 5 5 5 5 5 5 5 5 5 5 5 5 5 3 5 3 5 5 5 3 5 5 3 5 3 5 3 5 5 3 5 5 5 5 5 5 3 5 5 5 5 3 5 5 5 5 5 5 3 5 5 5 5 5 5 5 5 5 5 3 5 5 5 5 5 5 5 5 5 5 5 5 5 5 5 5 5 5 5 3 3 5 5 5 3 5 5 3 5 5 3 5 5 3 5 5 3 3 5 5 5 5 3 5 5 5 5 5 5 5 5 5 5 5 3 3 5 5 5 3 5 3 5 3 5 5 5 5 5 3 5 5 3 5 3 5 5 3 3 3 5 5 5 5 3 5 5 3 5 3 5 5 3 5 5 5 5 5 5 5 5 3 5 3 3 5 5 5 5 5 3 3 5 5 5 3 3 5 5 5 5 5 5 5 5 3 5 3 5 5 5 5 5 5 5 5 5 5 5 5 5 5 5 5 5 5 5 5 5 5 5 5 5 5 5 5 5 3 5 5 5 5 5 5 5 5 5 5 5 5 5 5 5 3 5 5 3 5 5 5 5 5 3 5 5 5 5 5 5 5 5 5 5 5 5 5 3 5 5 5 5 5 5 5 5 5 3 5 5 3 5 5 5 5 3 3 3 5 5 5 5 5 3 5 5 5 
</DataArray>
</Cells>
<PointData Scalars="" Vectors="displacement," Tensors="">
<DataArray type="Float64" Name="displacement" NumberOfComponents="3" format="ascii">
0.1049993705416724 -2.8992335626181247e-07 0 0.10499792117169583 5.8570490995323879e-07 0 0.10185680952171873 -9.8443319546308864e-08 0 0.10499792117169583 5.8570490995323879e-07 0 0.10185680952171873 -9.8443319546308864e-08 0 0.097147763254757616 -8.7968161461223534e-07 0 0.10499071053356764 1.516481779815991e-06 0 0.10113386404781681 0.00014051039225315603 0 0.10499401986875684 1.8354591821611112e-06 0 0.10241238552003709 0.00075403145395001197 0 0.10086939322674314 0.00089217251386903163 0 0.10499401986875684 1.8354591821611112e-06 0 0.10241238552003709 0.00075403145395001197 0 0.10499844719523796 1.3391481554002796e-07 0 0.10241238552003709 0.00075403145395001197 0 0.099743723911214568 0.00063545508045061117 0 0.10060171072706903 0.00086814129929344052 0 0.10241238552003709 0.00075403145395001197 0 0.10086939322674314 0.00089217251386903163 0 0.099743723911214568 0.00063545508045061117 0 0.10113386404781681 0.00014051039225315603 0 0.097152549413962938 -1.0004025068756798e-06 0 0.10086939322674314 0.00089217251386903163 0 0.09714159283685353 3.3541315820725062e-06 0 0.099743723911214568 0.00063545508045061117 0 0.09714159283685353 3.3541315820725062e-06 0 0.099743723911214568 0.00063545508045061117 0 0.097167472920712344 0.00056463906928762688 0 0.099743723911214568 0.00063545508045061117 0 0.097167472920712344 0.00056463906928762688 0 0.10060171072706903 0.00086814129929344052 0 0.098173974138979728 0.00047818266303447521 0 0.097167472920712344 0.00056463906928762688 0 0.10060171072706903 0.00086814129929344052 0 0.098173974138979728 0.00047818266303447521 0 0.097167472920712344 0.00056463906928762688 0 0.095193780582877183 0.00019419188851250586 0 0.097167472920712344 0.00056463906928762688 0 0.090882874318113066 7.0309610149658305e-07 0 0.095193780582877183 0.00019419188851250586 0 0.09714159283685353 3.3541315820725062e-06 0 0.097167472920712344 0.00056463906928762688 0 0.090882874318113066 7.0309610149658305e-07 0 0.099885474960556178 0.00041993202841889579 0 0.10133277079598588 -6.9851952721644312e-05 0 0.099780995321409743 -0.00040053410490281828 0 0.098173974138979728 0.00047818266303447521 0 0.099885474960556178 0.00041993202841889579 0 0.10060171072706903 0.00086814129929344052 0 0.098173974138979728 0.00047818266303447521 0 0.099885474960556178 0.00041993202841889579 0 0.09798856250973785 -0.00030913701126580574 0 0.099885474960556178 0.00041993202841889579 0 0.10060171072706903 0.00086814129929344052 0 0.10193555434261506 0.0010211272182791583 0 0.099885474960556178 0.00041993202841889579 0 0.10193555434261506 0.0010211272182791583 0 0.10133277079598588 -6.9851952721644312e-05 0 0.10377008422446503 0.00038919850906221951 0 0.10327010954116629 0.00010926642070486737 0 0.10060171072706903 0.00086814129929344052 0 0.10193555434261506 0.0010211272182791583 0 0.10303701425357106 0.00063445894708000368 0 0.10241238552003709 0.00075403145395001197 0 0.10060171072706903 0.00086814129929344052 0 0.10303701425357106 0.00063445894708000368 0 0.10241238552003709 0.00075403145395001197 0 0.10303701425357106 0.00063445894708000368 0 0.10499844719523796 1.3391481554002796e-07 0 0.10303701425357106 0.00063445894708000368 0 0.10499844719523796 1.3391481554002796e-07 0 0.10499556338261957 8.7611991555794113e-07 0 0.10377008422446503 0.00038919850906221951 0 0.10499772545666447 7.1834724786119115e-07 0 0.10380781231830545 0.00025074786769239287 0 0.10499924859286675 1.0710947274125755e-07 0 0.1045024680278058 0.00013606410038382921 0 0.10193555434261506 0.0010211272182791583 0 0.10303701425357106 0.00063445894708000368 0 0.10499556338261957 8.7611991555794113e-07 0 0.10499924859286675 1.0710947274125755e-07 0 0.1045024680278058 0.00013606410038382921 0 0.1049990446304476 2.6395099744577454e-07 0 0.1045024680278058 0.00013606410038382921 0 0.1049990446304476 2.6395099744577454e-07 0 0.10419925957286111 0.00023143118769785776 0 0.1049990446304476 2.6395099744577454e-07 0 0.10419925957286111 0.00023143118769785776 0 0.10474473052344707 0.00015578755308455231 0 0.10380781231830545 0.00025074786769239287 0 0.1045024680278058 0.00013606410038382921 0 0.10419925957286111 0.00023143118769785776 0 0.10499909521187951 2.0890214528057831e-07 0 0.10475474212779155 0.00017792070139283672 0 0.1045919629353959 0.00013783892834442232 0 0.10267145321424109 -0.00055642398042136216 0 0.10310246174431065 -0.00028112181238409392 0 0.10499909521187951 2.0890214528057831e-07 0 0.10474473052344707 0.00015578755308455231 0 0.10475474212779155 0.00017792070139283672 0 0.1049990446304476 2.6395099744577454e-07 0 0.10499909521187951 2.0890214528057831e-07 0 0.10474473052344707 0.00015578755308455231 0 0.10419925957286111 0.00023143118769785776 0 0.10474473052344707 0.00015578755308455231 0 0.10475474212779155 0.00017792070139283672 0 0.10419925957286111 0.00023143118769785776 0 0.10475474212779155 0.00017792070139283672 0 0.10394913252464597 -4.7367896665492218e-06 0 0.10110100266900016 -0.00045674067971177853 0 0.10345508240095158 -0.00033113172097406764 0 0.10241550360284102 -0.0011863700907077997 0 0.10110100266900016 -0.00045674067971177853 0 0.1045919629353959 0.00013783892834442232 0 0.10345508240095158 -0.00033113172097406764 0 0.1007384356686528 -0.0023671566370726685 0 0.10241550360284102 -0.0011863700907077997 0 0.10198002494100394 -0.0022571728113007648 0 0.10110100266900016 -0.00045674067971177853 0 0.1007384356686528 -0.0023671566370726685 0 0.10241550360284102 -0.0011863700907077997 0 0.10267145321424109 -0.00055642398042136216 0 0.10188795822014098 -0.0012087354698707611 0 0.10110100266900016 -0.00045674067971177853 0 0.1007384356686528 -0.0023671566370726685 0 0.099079620663206941 -0.0021866245074820779 0 0.099419343286292775 -0.0032207391483033043 0 0.098543971891170784 -0.0030734083396966368 0 0.099438140285542001 -0.0041166694013700161 0 0.1007384356686528 -0.0023671566370726685 0 0.099419343286292775 -0.0032207391483033043 0 0.099876760074088855 -0.0037526215846158347 0 0.1007384356686528 -0.0023671566370726685 0 0.099419343286292775 -0.0032207391483033043 0 0.099079620663206941 -0.0021866245074820779 0 0.1007384356686528 -0.0023671566370726685 0 0.10065371954176724 -0.0037032399400108501 0 0.099876760074088855 -0.0037526215846158347 0 0.1007384356686528 -0.0023671566370726685 0 0.10065371954176724 -0.0037032399400108501 0 0.10198002494100394 -0.0022571728113007648 0 0.10380781231830545 0.00025074786769239287 0 0.10300663154199945 0.00016149640417511369 0 0.10133277079598588 -6.9851952721644312e-05 0 0.10380781231830545 0.00025074786769239287 0 0.10419925957286111 0.00023143118769785776 0 0.10300663154199945 0.00016149640417511369 0 0.10300663154199945 0.00016149640417511369 0 0.10394913252464597 -4.7367896665492218e-06 0 0.10310593253719968 -0.00025493843726369906 0 0.10419925957286111 0.00023143118769785776 0 0.10300663154199945 0.00016149640417511369 0 0.10394913252464597 -4.7367896665492218e-06 0 0.099419343286292775 -0.0032207391483033043 0 0.099079620663206941 -0.0021866245074820779 0 0.098543971891170784 -0.0030734083396966368 0 0.10188795822014098 -0.0012087354698707611 0 0.10148297551269232 -0.0016418051811722936 0 0.10148297551269232 -0.0016418051811722936 0 0.10169401807083706 -0.0013680982250149115 0 0.10300663154199945 0.00016149640417511369 0 0.10170328229271201 -0.00049238276390862568 0 0.10133277079598588 -6.9851952721644312e-05 0 0.10300663154199945 0.00016149640417511369 0 0.10310593253719968 -0.00025493843726369906 0 0.10170328229271201 -0.00049238276390862568 0 0.10170328229271201 -0.00049238276390862568 0 0.10133277079598588 -6.9851952721644312e-05 0 0.10083846952593603 -0.00065695511292584812 0 0.10083846952593603 -0.00065695511292584812 0 0.10120417271687904 -0.00094928400284148551 0 0.1000131693072432 -0.0012102136718511554 0 0.10170328229271201 -0.00049238276390862568 0 0.10083846952593603 -0.00065695511292584812 0 0.10120417271687904 -0.00094928400284148551 0 0.098543971891170784 -0.0030734083396966368 0 0.099172928483125464 -0.0045869060534110308 0 0.099438140285542001 -0.0041166694013700161 0 0.1019877637657156 -0.00016437203962313041 0 0.10170328229271201 -0.00049238276390862568 0 0.10120417271687904 -0.00094928400284148551 0 0.1019877637657156 -0.00016437203962313041 0 0.10120417271687904 -0.00094928400284148551 0 0.10126537978137218 -0.0013843550601416804 0 0.10148297551269232 -0.0016418051811722936 0 0.10066892641732265 -0.0023657342328266264 0 0.10120417271687904 -0.00094928400284148551 0 0.10126537978137218 -0.0013843550601416804 0 0.10055456422986407 -0.0015687087351043997 0 0.10126537978137218 -0.0013843550601416804 0 0.10055456422986407 -0.0015687087351043997 0 0.10002102217675746 -0.0023399340498867324 0 0.10055456422986407 -0.0015687087351043997 0 0.10002102217675746 -0.0023399340498867324 0 0.1000131693072432 -0.0012102136718511554 0 0.10120417271687904 -0.00094928400284148551 0 0.10055456422986407 -0.0015687087351043997 0 0.1000131693072432 -0.0012102136718511554 0 0.10065371954176724 -0.0037032399400108501 0 0.099689185559758212 -0.0043211945699468931 0 0.099535917672280178 -0.0048330554143074349 0 0.10065371954176724 -0.0037032399400108501 0 0.099689185559758212 -0.0043211945699468931 0 0.099876760074088855 -0.0037526215846158347 0 0.099689185559758212 -0.0043211945699468931 0 0.099876760074088855 -0.0037526215846158347 0 0.099438140285542001 -0.0041166694013700161 0 0.099419343286292775 -0.0032207391483033043 0 0.099876760074088855 -0.0037526215846158347 0 0.099438140285542001 -0.0041166694013700161 0 0.099172928483125464 -0.0045869060534110308 0 0.09924584077957431 -0.0046913645168560718 0 0.099184330614169314 -0.0042229240751470391 0 0.099689185559758212 -0.0043211945699468931 0 0.099438140285542001 -0.0041166694013700161 0 0.09924584077957431 -0.0046913645168560718 0 0.099172928483125464 -0.0045869060534110308 0 0.099438140285542001 -0.0041166694013700161 0 0.09924584077957431 -0.0046913645168560718 0 0.099689185559758212 -0.0043211945699468931 0 0.09924584077957431 -0.0046913645168560718 0 0.099535917672280178 -0.0048330554143074349 0 0.09924584077957431 -0.0046913645168560718 0 0.099535917672280178 -0.0048330554143074349 0 0.098790814673115235 -0.0048484080734278378 0 0.098445683126922201 -0.0042645286918391676 0 0.098790814673115235 -0.0048484080734278378 0 0.097820040404476657 -0.0045286629607117403 0 0.09924584077957431 -0.0046913645168560718 0 0.098445683126922201 -0.0042645286918391676 0 0.098790814673115235 -0.0048484080734278378 0 0.09924584077957431 -0.0046913645168560718 0 0.098445683126922201 -0.0042645286918391676 0 0.099184330614169314 -0.0042229240751470391 0 0.099184330614169314 -0.0042229240751470391 0 0.099673261065357358 -0.0037907617062605411 0 0.098983548611337527 -0.0029099533779209713 0 0.099184330614169314 -0.0042229240751470391 0 0.097773325599295566 -0.0027745442908064973 0 0.098983548611337527 -0.0029099533779209713 0 0.098445683126922201 -0.0042645286918391676 0 0.099184330614169314 -0.0042229240751470391 0 0.097773325599295566 -0.0027745442908064973 0 0.098445683126922201 -0.0042645286918391676 0 0.097773325599295566 -0.0027745442908064973 0 0.097171599718080787 -0.0035436094546380443 0 0.10126537978137218 -0.0013843550601416804 0 0.10002102217675746 -0.0023399340498867324 0 0.10027805649486375 -0.0028552202511150627 0 0.099172928483125464 -0.0045869060534110308 0 0.099184330614169314 -0.0042229240751470391 0 0.099673261065357358 -0.0037907617062605411 0 0.10066892641732265 -0.0023657342328266264 0 0.10025900153009654 -0.0026754503238081051 0 0.10027805649486375 -0.0028552202511150627 0 0.099792595635315812 -0.0029425762382614216 0 0.099725396868400956 -0.0027075011861343069 0 0.099792595635315812 -0.0029425762382614216 0 0.098864305712582243 -0.0031602170720432632 0 0.099434712680143394 -0.0031669104580779885 0 0.10002102217675746 -0.0023399340498867324 0 0.099792595635315812 -0.0029425762382614216 0 0.098864305712582243 -0.0031602170720432632 0 0.10002102217675746 -0.0023399340498867324 0 0.10027805649486375 -0.0028552202511150627 0 0.099792595635315812 -0.0029425762382614216 0 0.098864305712582243 -0.0031602170720432632 0 0.098556834617455458 -0.0021320725393806058 0 0.096967232727880048 -0.00323341728689537 0 0.10002102217675746 -0.0023399340498867324 0 0.098864305712582243 -0.0031602170720432632 0 0.098556834617455458 -0.0021320725393806058 0 0.098556834617455458 -0.0021320725393806058 0 0.096967232727880048 -0.00323341728689537 0 0.096023374410985129 -0.0023852917424629964 0 0.098864305712582243 -0.0031602170720432632 0 0.096967232727880048 -0.00323341728689537 0 0.097445227188861852 -0.0039067460860671031 0 0.096967232727880048 -0.00323341728689537 0 0.095376387557201403 -0.0040391862142241611 0 0.097445227188861852 -0.0039067460860671031 0 0.095376387557201403 -0.0040391862142241611 0 0.093153284347641252 -0.0035958694789275727 0 0.095012944718117831 -0.0032245437010353156 0 0.096967232727880048 -0.00323341728689537 0 0.095376387557201403 -0.0040391862142241611 0 0.095012944718117831 -0.0032245437010353156 0 0.082183926340654287 0.00030912363171822039 0 0.078642554287519456 -0.0016513193028502384 0 0.082453617177857499 -3.5098471729823411e-05 0 0.084615475784180105 -2.9378968738332503e-06 0 0.078350197353539819 6.7103472399472413e-07 0 0.082453617177857499 -3.5098471729823411e-05 0 0.078665346336694905 -0.00014432212327603291 0 0.078350197353539819 6.7103472399472413e-07 0 0.095376387557201403 -0.0040391862142241611 0 0.093153284347641252 -0.0035958694789275727 0 0.0938364048136371 -0.0048843194224488067 0 0.082183926340654287 0.00030912363171822039 0 0.083397512678495156 0.0013718156474129377 0 0.093153284347641252 -0.0035958694789275727 0 0.095012944718117831 -0.0032245437010353156 0 0.093702706584121151 -0.0023867687995614466 0 0.082453617177857499 -3.5098471729823411e-05 0 0.084615475784180105 -2.9378968738332503e-06 0 0.089856972174237271 -0.00051893912096028698 0 0.093153284347641252 -0.0035958694789275727 0 0.093702706584121151 -0.0023867687995614466 0 0.089856972174237271 -0.00051893912096028698 0 0.096967232727880048 -0.00323341728689537 0 0.095012944718117831 -0.0032245437010353156 0 0.096023374410985129 -0.0023852917424629964 0 0.095012944718117831 -0.0032245437010353156 0 0.093702706584121151 -0.0023867687995614466 0 0.096023374410985129 -0.0023852917424629964 0 0.096023374410985129 -0.0023852917424629964 0 0.09522554494857817 -0.00080243229044986224 0 0.097465152864083179 -0.0013196930782092087 0 0.093702706584121151 -0.0023867687995614466 0 0.09522554494857817 -0.00080243229044986224 0 0.089856972174237271 -0.00051893912096028698 0 0.093702706584121151 -0.0023867687995614466 0 0.096023374410985129 -0.0023852917424629964 0 0.09522554494857817 -0.00080243229044986224 0 0.09522554494857817 -0.00080243229044986224 0 0.089856972174237271 -0.00051893912096028698 0 0.092640879861526665 -0.00019996736451439477 0 0.084615475784180105 -2.9378968738332503e-06 0 0.089856972174237271 -0.00051893912096028698 0 0.090882874318113066 7.0309610149658305e-07 0 0.089856972174237271 -0.00051893912096028698 0 0.092640879861526665 -0.00019996736451439477 0 0.090882874318113066 7.0309610149658305e-07 0 0.092640879861526665 -0.00019996736451439477 0 0.090882874318113066 7.0309610149658305e-07 0 0.095193780582877183 0.00019419188851250586 0 0.098173974138979728 0.00047818266303447521 0 0.095193780582877183 0.00019419188851250586 0 0.09798856250973785 -0.00030913701126580574 0 0.09522554494857817 -0.00080243229044986224 0 0.095193780582877183 0.00019419188851250586 0 0.09798856250973785 -0.00030913701126580574 0 0.09522554494857817 -0.00080243229044986224 0 0.092640879861526665 -0.00019996736451439477 0 0.095193780582877183 0.00019419188851250586 0 0.099885474960556178 0.00041993202841889579 0 0.09798856250973785 -0.00030913701126580574 0 0.099780995321409743 -0.00040053410490281828 0 0.09798856250973785 -0.00030913701126580574 0 0.09886360140751034 -0.0010585578577438574 0 0.097465152864083179 -0.0013196930782092087 0 0.09798856250973785 -0.00030913701126580574 0 0.099780995321409743 -0.00040053410490281828 0 0.09886360140751034 -0.0010585578577438574 0 0.10133277079598588 -6.9851952721644312e-05 0 0.10083846952593603 -0.00065695511292584812 0 0.099780995321409743 -0.00040053410490281828 0 0.10083846952593603 -0.00065695511292584812 0 0.099780995321409743 -0.00040053410490281828 0 0.1000131693072432 -0.0012102136718511554 0 0.099780995321409743 -0.00040053410490281828 0 0.09886360140751034 -0.0010585578577438574 0 0.1000131693072432 -0.0012102136718511554 0 0.10002102217675746 -0.0023399340498867324 0 0.098556834617455458 -0.0021320725393806058 0 0.1000131693072432 -0.0012102136718511554 0 0.098556834617455458 -0.0021320725393806058 0 0.09886360140751034 -0.0010585578577438574 0 0.1000131693072432 -0.0012102136718511554 0 0.098556834617455458 -0.0021320725393806058 0 0.09886360140751034 -0.0010585578577438574 0 0.097465152864083179 -0.0013196930782092087 0 0.098556834617455458 -0.0021320725393806058 0 0.096023374410985129 -0.0023852917424629964 0 0.097465152864083179 -0.0013196930782092087 0 0.09522554494857817 -0.00080243229044986224 0 0.09798856250973785 -0.00030913701126580574 0 0.097465152864083179 -0.0013196930782092087 0 0.10465336791633788 0.00010911115362893393 0 0.10467450398594244 3.6229899577049877e-05 0 0.10464395393126613 8.7460722474578081e-05 0 0.10465336791633788 0.00010911115362893393 0 0.10473453993518732 -1.5987106922839019e-05 0 0.10467450398594244 3.6229899577049877e-05 0 0.10465336791633788 0.00010911115362893393 0 0.10464395393126613 8.7460722474578081e-05 0 0.10457068368675518 0.00018554256564959194 0 0.10465336791633788 0.00010911115362893393 0 0.10473453993518732 -1.5987106922839019e-05 0 0.10482038823413961 -2.6187761475231759e-05 0 0.10473453993518732 -1.5987106922839019e-05 0 0.10482038823413961 -2.6187761475231759e-05 0 0.10483644506296869 -0.00016821673982880906 0 0.10482038823413961 -2.6187761475231759e-05 0 0.10477669908301672 -6.5945443309354482e-05 0 0.10458240923005699 0.00014572032150890498 0 0.10465336791633788 0.00010911115362893393 0 0.10482038823413961 -2.6187761475231759e-05 0 0.10458240923005699 0.00014572032150890498 0 0.10465336791633788 0.00010911115362893393 0 0.10458240923005699 0.00014572032150890498 0 0.10457068368675518 0.00018554256564959194 0 0.10477669908301672 -6.5945443309354482e-05 0 0.10499999684724397 4.6938361798067772e-08 0 0.10499890872642056 -6.4817426606118228e-07 0 0.10477669908301672 -6.5945443309354482e-05 0 0.10499999684724397 4.6938361798067772e-08 0 0.1049413103276343 -7.736806559180668e-05 0 0.10482038823413961 -2.6187761475231759e-05 0 0.10477669908301672 -6.5945443309354482e-05 0 0.1049413103276343 -7.736806559180668e-05 0 0.10482038823413961 -2.6187761475231759e-05 0 0.1049413103276343 -7.736806559180668e-05 0 0.10492485184702864 -0.00017894377221952903 0 0.1049413103276343 -7.736806559180668e-05 0 0.1049999077217835 -1.182439666251158e-07 0 0.10492485184702864 -0.00017894377221952903 0 0.10499999684724397 4.6938361798067772e-08 0 0.1049413103276343 -7.736806559180668e-05 0 0.1049999077217835 -1.182439666251158e-07 0 0.1049999077217835 -1.182439666251158e-07 0 0.10492485184702864 -0.00017894377221952903 0 0.10491540278243512 -0.00025149964674477121 0 0.10492485184702864 -0.00017894377221952903 0 0.10483644506296869 -0.00016821673982880906 0 0.1048015272769082 -0.00051854204777997874 0 0.10482038823413961 -2.6187761475231759e-05 0 0.10492485184702864 -0.00017894377221952903 0 0.10483644506296869 -0.00016821673982880906 0 0.10473453993518732 -1.5987106922839019e-05 0 0.10483644506296869 -0.00016821673982880906 0 0.10479305820976625 -7.0908709935222974e-05 0 0.10483644506296869 -0.00016821673982880906 0 0.1048015272769082 -0.00051854204777997874 0 0.10484228269602551 -0.00013143624838871261 0 0.1016943516668313 -0.0030524816223725126 0 0.1007580682430063 -0.0036958870596222261 0 0.1048015272769082 -0.00051854204777997874 0 0.10455188680916797 -0.00078837911868853586 0 0.1046687368342239 -0.00064640552665881006 0 0.10192594370953256 -0.0016267937452863412 0 0.10115419886192931 -0.0021338053341892239 0 0.1048015272769082 -0.00051854204777997874 0 0.10455188680916797 -0.00078837911868853586 0 0.10491540278243512 -0.00025149964674477121 0 0.10492485184702864 -0.00017894377221952903 0 0.1048015272769082 -0.00051854204777997874 0 0.10491540278243512 -0.00025149964674477121 0 0.1049999077217835 -1.182439666251158e-07 0 0.10491540278243512 -0.00025149964674477121 0 0.10500006949777711 -1.352067299608882e-07 0 0.10491540278243512 -0.00025149964674477121 0 0.10500006949777711 -1.352067299608882e-07 0 0.10472621295729817 -0.00010698825279445537 0 0.10500006949777711 -1.352067299608882e-07 0 0.10499813660281512 2.5419613416498941e-07 0 0.10472621295729817 -0.00010698825279445537 0 0.10455188680916797 -0.00078837911868853586 0 0.10491540278243512 -0.00025149964674477121 0 0.10472621295729817 -0.00010698825279445537 0 0.10455188680916797 -0.00078837911868853586 0 0.10396323540066796 -0.00044515604054307068 0 0.10472621295729817 -0.00010698825279445537 0 0.10396323540066796 -0.00044515604054307068 0 0.10472621295729817 -0.00010698825279445537 0 0.10438371475841561 -7.2176918850266918e-05 0 0.10499813660281512 2.5419613416498941e-07 0 0.10472621295729817 -0.00010698825279445537 0 0.10438371475841561 -7.2176918850266918e-05 0 0.10499813660281512 2.5419613416498941e-07 0 0.1045919629353959 0.00013783892834442232 0 0.10438371475841561 -7.2176918850266918e-05 0 0.10499909521187951 2.0890214528057831e-07 0 0.10499813660281512 2.5419613416498941e-07 0 0.1045919629353959 0.00013783892834442232 0 0.1045919629353959 0.00013783892834442232 0 0.10438371475841561 -7.2176918850266918e-05 0 0.10345508240095158 -0.00033113172097406764 0 0.10396323540066796 -0.00044515604054307068 0 0.10345508240095158 -0.00033113172097406764 0 0.10241550360284102 -0.0011863700907077997 0 0.10396323540066796 -0.00044515604054307068 0 0.10438371475841561 -7.2176918850266918e-05 0 0.10345508240095158 -0.00033113172097406764 0 0.10241550360284102 -0.0011863700907077997 0 0.10320518125634148 -0.001375860165460838 0 0.10198002494100394 -0.0022571728113007648 0 0.10396323540066796 -0.00044515604054307068 0 0.10241550360284102 -0.0011863700907077997 0 0.10320518125634148 -0.001375860165460838 0 0.10455188680916797 -0.00078837911868853586 0 0.10396323540066796 -0.00044515604054307068 0 0.10320518125634148 -0.001375860165460838 0 0.10455188680916797 -0.00078837911868853586 0 0.10320518125634148 -0.001375860165460838 0 0.10264583513610719 -0.0028761271348525103 0 0.10455188680916797 -0.00078837911868853586 0 0.10264583513610719 -0.0028761271348525103 0 0.10444514155666437 -0.0034064424531405537 0 0.10065371954176724 -0.0037032399400108501 0 0.10264583513610719 -0.0028761271348525103 0 0.10198002494100394 -0.0022571728113007648 0 0.10320518125634148 -0.001375860165460838 0 0.10264583513610719 -0.0028761271348525103 0 0.10198002494100394 -0.0022571728113007648 0 0.10065371954176724 -0.0037032399400108501 0 0.099535917672280178 -0.0048330554143074349 0 0.10080616705992948 -0.0046792675883376867 0 0.10065371954176724 -0.0037032399400108501 0 0.10264583513610719 -0.0028761271348525103 0 0.10080616705992948 -0.0046792675883376867 0 0.10264583513610719 -0.0028761271348525103 0 0.10080616705992948 -0.0046792675883376867 0 0.10306509303399512 -0.0050185327412858582 0 0.10264583513610719 -0.0028761271348525103 0 0.10306509303399512 -0.0050185327412858582 0 0.10444514155666437 -0.0034064424531405537 0 0.10080616705992948 -0.0046792675883376867 0 0.10306509303399512 -0.0050185327412858582 0 0.10169961616877744 -0.0069124251489433132 0 0.098503041505648647 -0.0019196161086941792 0 0.098119767029318419 -0.0017294343477509918 0 0.10306509303399512 -0.0050185327412858582 0 0.10169961616877744 -0.0069124251489433132 0 0.1048333324025956 -0.0065159551417916734 0 0.10080616705992948 -0.0046792675883376867 0 0.099332244149366505 -0.0053330341302989474 0 0.098626322595377097 -0.0053382430873814297 0 0.098503041505648647 -0.0019196161086941792 0 0.098464441234071207 -0.0020050704365148771 0 0.099535917672280178 -0.0048330554143074349 0 0.10080616705992948 -0.0046792675883376867 0 0.098626322595377097 -0.0053382430873814297 0 0.09892575694884137 -0.0028467100766284312 0 0.098503041505648647 -0.0019196161086941792 0 0.099535917672280178 -0.0048330554143074349 0 0.098790814673115235 -0.0048484080734278378 0 0.098626322595377097 -0.0053382430873814297 0 0.098790814673115235 -0.0048484080734278378 0 0.098626322595377097 -0.0053382430873814297 0 0.097820040404476657 -0.0045286629607117403 0 0.096814843626538624 -0.0057352390191727437 0 0.097436014682763028 -0.0048537591499960529 0 0.096258988250538399 -0.0039719389415085659 0 0.098626322595377097 -0.0053382430873814297 0 0.097436014682763028 -0.0048537591499960529 0 0.097820040404476657 -0.0045286629607117403 0 0.096814843626538624 -0.0057352390191727437 0 0.098626322595377097 -0.0053382430873814297 0 0.097436014682763028 -0.0048537591499960529 0 0.096258988250538399 -0.0039719389415085659 0 0.097820040404476657 -0.0045286629607117403 0 0.097171599718080787 -0.0035436094546380443 0 0.097436014682763028 -0.0048537591499960529 0 0.096258988250538399 -0.0039719389415085659 0 0.097820040404476657 -0.0045286629607117403 0 0.098445683126922201 -0.0042645286918391676 0 0.097820040404476657 -0.0045286629607117403 0 0.097171599718080787 -0.0035436094546380443 0 0.096258988250538399 -0.0039719389415085659 0 0.097171599718080787 -0.0035436094546380443 0 0.095904697329734778 -0.0024476828125592942 0 0.097773325599295566 -0.0027745442908064973 0 0.097171599718080787 -0.0035436094546380443 0 0.095904697329734778 -0.0024476828125592942 0 0.096258988250538399 -0.0039719389415085659 0 0.095904697329734778 -0.0024476828125592942 0 0.093657480824849218 -0.0028034090487452038 0 0.096814843626538624 -0.0057352390191727437 0 0.096258988250538399 -0.0039719389415085659 0 0.093657480824849218 -0.0028034090487452038 0 0.092490654922949181 0.0051548624735005752 0 0.092740006272817643 0.0042472381281839968 0 0.092980208852165097 0.0047709322736645583 0 0.092490654922949181 0.0051548624735005752 0 0.092980208852165097 0.0047709322736645583 0 0.093287041606629539 0.0052267256011490426 0 0.098503041505648647 -0.0019196161086941792 0 0.095097678528428944 0.00097902045329655821 0 0.092980208852165097 0.0047709322736645583 0 0.093418751194645946 0.004428433791099735 0 0.093287041606629539 0.0052267256011490426 0 0.096217276986531278 0.00054284349019743862 0 0.098119767029318419 -0.0017294343477509918 0 0.092740006272817643 0.0042472381281839968 0 0.092980208852165097 0.0047709322736645583 0 0.093418751194645946 0.004428433791099735 0 0.092740006272817643 0.0042472381281839968 0 0.093418751194645946 0.004428433791099735 0 0.09320542964786574 0.0037897557230183632 0 0.095417184526900956 -0.0018362300104251346 0 0.095283921546252051 -0.001737178370560427 0 0.095249172597942536 -0.0019228661557299494 0 0.095283921546252051 -0.001737178370560427 0 0.095249172597942536 -0.0019228661557299494 0 0.095171112076078895 -0.0017503966942137483 0 0.095417184526900956 -0.0018362300104251346 0 0.095249172597942536 -0.0019228661557299494 0 0.095459536085744784 -0.0020899797445621433 0 0.095249172597942536 -0.0019228661557299494 0 0.095459536085744784 -0.0020899797445621433 0 0.095216008898897891 -0.002114852307894587 0 0.10467491103438746 -0.00080815278887868928 0 0.10476095740747331 -0.00070706139227977587 0 0.10481116034039963 -0.00079059121908886239 0 0.098119767029318419 -0.0017294343477509918 0 0.099008373534192853 -0.0032097213646058121 0 0.10306509303399512 -0.0050185327412858582 0 0.1048333324025956 -0.0065159551417916734 0 0.10444514155666437 -0.0034064424531405537 0 0.098119767029318419 -0.0017294343477509918 0 0.10115419886192931 -0.0021338053341892239 0 0.10467491103438746 -0.00080815278887868928 0 0.1046687368342239 -0.00064640552665881006 0 0.10476095740747331 -0.00070706139227977587 0 0.10476095740747331 -0.00070706139227977587 0 0.10485601048431344 -0.00067647976867542692 0 0.10481116034039963 -0.00079059121908886239 0 0.1048015272769082 -0.00051854204777997874 0 0.1046687368342239 -0.00064640552665881006 0 0.10476095740747331 -0.00070706139227977587 0 0.1048015272769082 -0.00051854204777997874 0 0.10476095740747331 -0.00070706139227977587 0 0.10485601048431344 -0.00067647976867542692 0 0.10483644506296869 -0.00016821673982880906 0 0.10484228269602551 -0.00013143624838871261 0 0.10479305820976625 -7.0908709935222974e-05 0 0.10484228269602551 -0.00013143624838871261 0 0.10479305820976625 -7.0908709935222974e-05 0 0.10475809736993129 1.2986178260510605e-05 0 0.1007580682430063 -0.0036958870596222261 0 0.097138130124080721 -0.0057111064057981534 0 0.10473453993518732 -1.5987106922839019e-05 0 0.10479305820976625 -7.0908709935222974e-05 0 0.10475809736993129 1.2986178260510605e-05 0 0.10485601048431344 -0.00067647976867542692 0 0.1049104692262542 -0.00078511852646643155 0 0.10481116034039963 -0.00079059121908886239 0 0.097138130124080721 -0.0057111064057981534 0 0.099008373534192853 -0.0032097213646058121 0 0.094974705021291017 -0.0021482005767731577 0 0.095216008898897891 -0.002114852307894587 0 0.095039709787370252 -0.0019287000188833807 0 0.095249172597942536 -0.0019228661557299494 0 0.095216008898897891 -0.002114852307894587 0 0.095039709787370252 -0.0019287000188833807 0 0.095249172597942536 -0.0019228661557299494 0 0.095171112076078895 -0.0017503966942137483 0 0.095039709787370252 -0.0019287000188833807 0 0.095039709787370252 -0.0019287000188833807 0 0.094777770476568407 -0.0019515853963916361 0 0.094914371242966936 -0.0017075676651895752 0 0.095171112076078895 -0.0017503966942137483 0 0.095039709787370252 -0.0019287000188833807 0 0.094914371242966936 -0.0017075676651895752 0 0.094974705021291017 -0.0021482005767731577 0 0.095039709787370252 -0.0019287000188833807 0 0.094777770476568407 -0.0019515853963916361 0 0.097138130124080721 -0.0057111064057981534 0 0.090419515587124716 -0.011548890309033439 0 0.090419515587124716 -0.011548890309033439 0 0.088466196445043693 -0.012703190604245932 0 0.080940637219625744 -0.024935735371950853 0 0.080729507108513759 -0.024738910914382004 0 0.081079632478768829 -0.024757597189632597 0 0.079735603642806199 -0.024615639869463374 0 0.080729507108513759 -0.024738910914382004 0 0.08223119143986321 -0.023998403886819175 0 0.090419515587124716 -0.011548890309033439 0 0.089242102790085195 -0.014886862320385991 0 0.079735603642806199 -0.024615639869463374 0 0.08223119143986321 -0.023998403886819175 0 0.081768941807300127 -0.018803722073833282 0 0.090419515587124716 -0.011548890309033439 0 0.093556635101365818 -0.0086410856805283001 0 0.08223119143986321 -0.023998403886819175 0 0.081768941807300127 -0.018803722073833282 0 0.087146680150185021 -0.017866184054488518 0 0.093556635101365818 -0.0086410856805283001 0 0.092020176790915231 -0.0092205416892124793 0 0.097138130124080721 -0.0057111064057981534 0 0.093556635101365818 -0.0086410856805283001 0 0.10475809736993129 1.2986178260510605e-05 0 0.10466263006112005 3.8156112569715145e-05 0 0.10467450398594244 3.6229899577049877e-05 0 0.09368601803387229 -0.0079123537452462367 0 0.093135822073754732 -0.0073192768377488603 0 0.092783146701970673 -0.0079886436881843985 0 0.10473453993518732 -1.5987106922839019e-05 0 0.10475809736993129 1.2986178260510605e-05 0 0.10467450398594244 3.6229899577049877e-05 0 0.093556635101365818 -0.0086410856805283001 0 0.095988604801683863 -0.006017900085706733 0 0.10466263006112005 3.8156112569715145e-05 0 0.10467450398594244 3.6229899577049877e-05 0 0.10464395393126613 8.7460722474578081e-05 0 0.083158797674500462 -0.018185834356116835 0 0.088441232781707957 -0.010981796408243311 0 0.087146680150185021 -0.017866184054488518 0 0.079594878192115429 -0.022892171973598278 0 0.079745087043239932 -0.023703607051853509 0 0.07881840525941973 -0.022999338649406193 0 0.079594878192115429 -0.022892171973598278 0 0.080535310822413247 -0.022483788597955131 0 0.079457180219756812 -0.022035635227377077 0 0.079594878192115429 -0.022892171973598278 0 0.080535310822413247 -0.022483788597955131 0 0.080632616000261892 -0.023565175357253883 0 0.080535310822413247 -0.022483788597955131 0 0.080632616000261892 -0.023565175357253883 0 0.08152742511487085 -0.02300246745160392 0 0.080632616000261892 -0.023565175357253883 0 0.079745087043239932 -0.023703607051853509 0 0.080536860748736089 -0.02436276848285274 0 0.079594878192115429 -0.022892171973598278 0 0.080632616000261892 -0.023565175357253883 0 0.079745087043239932 -0.023703607051853509 0 0.079745087043239932 -0.023703607051853509 0 0.080536860748736089 -0.02436276848285274 0 0.079881594485230994 -0.024310986080656054 0 0.080729507108513759 -0.024738910914382004 0 0.080536860748736089 -0.02436276848285274 0 0.079881594485230994 -0.024310986080656054 0 0.080729507108513759 -0.024738910914382004 0 0.080536860748736089 -0.02436276848285274 0 0.081079632478768829 -0.024757597189632597 0 0.080536860748736089 -0.02436276848285274 0 0.081671765891404249 -0.024260881084021559 0 0.081079632478768829 -0.024757597189632597 0 0.080632616000261892 -0.023565175357253883 0 0.080536860748736089 -0.02436276848285274 0 0.081671765891404249 -0.024260881084021559 0 0.087471633097729082 -0.012205586769541022 0 0.088466196445043693 -0.012703190604245932 0 0.095171112076078895 -0.0017503966942137483 0 0.094914371242966936 -0.0017075676651895752 0 0.095129915113726315 -0.001609674698711932 0 0.095110636215875788 -0.0014932041057304187 0 0.094914371242966936 -0.0017075676651895752 0 0.095129915113726315 -0.001609674698711932 0 0.095171112076078895 -0.0017503966942137483 0 0.095129915113726315 -0.001609674698711932 0 0.095231560843903565 -0.0016278858653386089 0 0.095129915113726315 -0.001609674698711932 0 0.09521104683700482 -0.0015093089910577704 0 0.095231560843903565 -0.0016278858653386089 0 0.095110636215875788 -0.0014932041057304187 0 0.095230009178499206 -0.001457830047400019 0 0.09521104683700482 -0.0015093089910577704 0 0.095110636215875788 -0.0014932041057304187 0 0.095129915113726315 -0.001609674698711932 0 0.09521104683700482 -0.0015093089910577704 0 0.095110636215875788 -0.0014932041057304187 0 0.095440624855143735 -0.0015167888754786256 0 0.095230009178499206 -0.001457830047400019 0 0.087471633097729082 -0.012205586769541022 0 0.086015188739164 -0.01119488007741927 0 0.095440624855143735 -0.0015167888754786256 0 0.095151461343091659 -0.0015524335014340379 0 0.095230009178499206 -0.001457830047400019 0 0.080632616000261892 -0.023565175357253883 0 0.081671765891404249 -0.024260881084021559 0 0.08152742511487085 -0.02300246745160392 0 0.081671765891404249 -0.024260881084021559 0 0.08152742511487085 -0.02300246745160392 0 0.082716594556296347 -0.023230685179321118 0 0.08152742511487085 -0.02300246745160392 0 0.082429033099968962 -0.022340675178527936 0 0.081593962259846678 -0.02184914809357193 0 0.080535310822413247 -0.022483788597955131 0 0.08152742511487085 -0.02300246745160392 0 0.081593962259846678 -0.02184914809357193 0 0.082716594556296347 -0.023230685179321118 0 0.084058250329349118 -0.021676159539274178 0 0.082429033099968962 -0.022340675178527936 0 0.08152742511487085 -0.02300246745160392 0 0.082716594556296347 -0.023230685179321118 0 0.082429033099968962 -0.022340675178527936 0 0.086015188739164 -0.01119488007741927 0 0.082528298447607812 -0.010082028904968426 0 0.094772406812161536 -0.0019720953701227169 0 0.093451302708158143 0.00012380960502670518 0 0.094143427821008763 0.0015172502154227564 0 0.095440624855143735 -0.0015167888754786256 0 0.094772406812161536 -0.0019720953701227169 0 0.095383004842724398 -0.0032346491330865657 0 0.094772406812161536 -0.0019720953701227169 0 0.095146560724780727 -0.0014144847008940851 0 0.095151461343091659 -0.0015524335014340379 0 0.095440624855143735 -0.0015167888754786256 0 0.094772406812161536 -0.0019720953701227169 0 0.095151461343091659 -0.0015524335014340379 0 0.095138731332844145 -0.00087957278784575729 0 0.095163381254910015 -0.00019358210544865987 0 0.094772406812161536 -0.0019720953701227169 0 0.092981742701349138 -0.001996558332856268 0 0.093451302708158143 0.00012380960502670518 0 0.093451302708158143 0.00012380960502670518 0 0.091412788943146417 0.00022063515189968644 0 0.091719125923366382 -0.0014665517385999455 0 0.092981742701349138 -0.001996558332856268 0 0.093451302708158143 0.00012380960502670518 0 0.091719125923366382 -0.0014665517385999455 0 0.092981742701349138 -0.001996558332856268 0 0.091719125923366382 -0.0014665517385999455 0 0.091537790226976057 -0.0028778153762176444 0 0.093451302708158143 0.00012380960502670518 0 0.094143427821008763 0.0015172502154227564 0 0.092909875750883594 0.0029176735051951101 0 0.093451302708158143 0.00012380960502670518 0 0.09161684462594881 0.0014987414301960013 0 0.092057157041803173 0.0013415654203975968 0 0.093761172391395697 0.00092238264224537517 0 0.093824016170983932 0.0015103773245511982 0 0.093451302708158143 0.00012380960502670518 0 0.092057157041803173 0.0013415654203975968 0 0.091412788943146417 0.00022063515189968644 0 0.095146560724780727 -0.0014144847008940851 0 0.095151461343091659 -0.0015524335014340379 0 0.095230009178499206 -0.001457830047400019 0 0.095146560724780727 -0.0014144847008940851 0 0.095230009178499206 -0.001457830047400019 0 0.09521104683700482 -0.0015093089910577704 0 0.095163381254910015 -0.00019358210544865987 0 0.095429041469967599 0.00055642640686651428 0 0.095146560724780727 -0.0014144847008940851 0 0.09521104683700482 -0.0015093089910577704 0 0.095334138956901626 -0.0015835879614916912 0 0.095417184526900956 -0.0018362300104251346 0 0.095283921546252051 -0.001737178370560427 0 0.095334138956901626 -0.0015835879614916912 0 0.09521104683700482 -0.0015093089910577704 0 0.095231560843903565 -0.0016278858653386089 0 0.095334138956901626 -0.0015835879614916912 0 0.095283921546252051 -0.001737178370560427 0 0.095231560843903565 -0.0016278858653386089 0 0.095334138956901626 -0.0015835879614916912 0 0.095283921546252051 -0.001737178370560427 0 0.095171112076078895 -0.0017503966942137483 0 0.095231560843903565 -0.0016278858653386089 0 0.093418751194645946 0.004428433791099735 0 0.09320542964786574 0.0037897557230183632 0 0.093692866022680385 0.0034239678653419595 0 0.09320542964786574 0.0037897557230183632 0 0.093692866022680385 0.0034239678653419595 0 0.092909875750883594 0.0029176735051951101 0 0.096217276986531278 0.00054284349019743862 0 0.095429041469967599 0.00055642640686651428 0 0.092740006272817643 0.0042472381281839968 0 0.09320542964786574 0.0037897557230183632 0 0.092909875750883594 0.0029176735051951101 0 0.094143427821008763 0.0015172502154227564 0 0.093692866022680385 0.0034239678653419595 0 0.092909875750883594 0.0029176735051951101 0 0.09161684462594881 0.0014987414301960013 0 0.093789077598460446 -0.00038922566739785848 0 0.091775351331889354 0.0028849135874733419 0 0.09161684462594881 0.0014987414301960013 0 0.091775351331889354 0.0028849135874733419 0 0.092057157041803173 0.0013415654203975968 0 0.095904697329734778 -0.0024476828125592942 0 0.093657480824849218 -0.0028034090487452038 0 0.093789077598460446 -0.00038922566739785848 0 0.093657480824849218 -0.0028034090487452038 0 0.09161684462594881 0.0014987414301960013 0 0.093789077598460446 -0.00038922566739785848 0 0.095097678528428944 0.00097902045329655821 0 0.093824016170983932 0.0015103773245511982 0 0.097773325599295566 -0.0027745442908064973 0 0.095904697329734778 -0.0024476828125592942 0 0.096268593504169608 -0.0008814748218976266 0 0.095904697329734778 -0.0024476828125592942 0 0.093789077598460446 -0.00038922566739785848 0 0.096268593504169608 -0.0008814748218976266 0 0.093789077598460446 -0.00038922566739785848 0 0.096268593504169608 -0.0008814748218976266 0 0.091775351331889354 0.0028849135874733419 0 0.096268593504169608 -0.0008814748218976266 0 0.091775351331889354 0.0028849135874733419 0 0.09750655815309936 0.0011928671245165742 0 0.091775351331889354 0.0028849135874733419 0 0.091412788943146417 0.00022063515189968644 0 0.085933974151369594 -0.00081774807604088266 0 0.091775351331889354 0.0028849135874733419 0 0.085933974151369594 -0.00081774807604088266 0 0.081617372554997153 0.0064782688237923136 0 0.088482839168933181 0.002487253362767762 0 0.086943940998480643 0.0023036174283499189 0 0.091775351331889354 0.0028849135874733419 0 0.092057157041803173 0.0013415654203975968 0 0.091412788943146417 0.00022063515189968644 0 0.091412788943146417 0.00022063515189968644 0 0.089744242659973522 -0.001744387578246861 0 0.085933974151369594 -0.00081774807604088266 0 0.091412788943146417 0.00022063515189968644 0 0.091719125923366382 -0.0014665517385999455 0 0.089744242659973522 -0.001744387578246861 0 0.091719125923366382 -0.0014665517385999455 0 0.089744242659973522 -0.001744387578246861 0 0.090268944633947523 -0.0029137601426889701 0 0.089744242659973522 -0.001744387578246861 0 0.085933974151369594 -0.00081774807604088266 0 0.088862433504135446 -0.0032002334317301974 0 0.085933974151369594 -0.00081774807604088266 0 0.088069482130330945 -0.0048910944315771103 0 0.088862433504135446 -0.0032002334317301974 0 0.085933974151369594 -0.00081774807604088266 0 0.087065302723843857 -0.010324557767774014 0 0.082682919354381351 -0.0053372006959854414 0 0.07919719858921441 -0.0053017885533108988 0 0.077374252748189556 -0.0075925645243042949 0 0.088069482130330945 -0.0048910944315771103 0 0.089039038794489836 -0.0044901520566759546 0 0.088862433504135446 -0.0032002334317301974 0 0.087065302723843857 -0.010324557767774014 0 0.083890258926923048 -0.010782782573254863 0 0.082682919354381351 -0.0053372006959854414 0 0.089744242659973522 -0.001744387578246861 0 0.088862433504135446 -0.0032002334317301974 0 0.090268944633947523 -0.0029137601426889701 0 0.088862433504135446 -0.0032002334317301974 0 0.090268944633947523 -0.0029137601426889701 0 0.089746444095204159 -0.0039339458753624799 0 0.091719125923366382 -0.0014665517385999455 0 0.090268944633947523 -0.0029137601426889701 0 0.091537790226976057 -0.0028778153762176444 0 0.090268944633947523 -0.0029137601426889701 0 0.091537790226976057 -0.0028778153762176444 0 0.090978293479806793 -0.0041326141397896154 0 0.091537790226976057 -0.0028778153762176444 0 0.090978293479806793 -0.0041326141397896154 0 0.092281087472178128 -0.003513514331130123 0 0.090268944633947523 -0.0029137601426889701 0 0.090978293479806793 -0.0041326141397896154 0 0.089746444095204159 -0.0039339458753624799 0 0.089039038794489836 -0.0044901520566759546 0 0.088862433504135446 -0.0032002334317301974 0 0.089746444095204159 -0.0039339458753624799 0 0.090978293479806793 -0.0041326141397896154 0 0.089746444095204159 -0.0039339458753624799 0 0.090075916915604945 -0.0047470497624441952 0 0.089039038794489836 -0.0044901520566759546 0 0.089746444095204159 -0.0039339458753624799 0 0.090075916915604945 -0.0047470497624441952 0 0.089039038794489836 -0.0044901520566759546 0 0.090075916915604945 -0.0047470497624441952 0 0.089511125329327715 -0.0058268632811602538 0 0.089511125329327715 -0.0058268632811602538 0 0.090422314576669091 -0.0068575505473598575 0 0.088985226103618281 -0.008487465436897745 0 0.090075916915604945 -0.0047470497624441952 0 0.089511125329327715 -0.0058268632811602538 0 0.090657431922513534 -0.0053942540957073858 0 0.090657431922513534 -0.0053942540957073858 0 0.091633298341960129 -0.0063173011095055973 0 0.092082516021119526 -0.0047304371264888633 0 0.090978293479806793 -0.0041326141397896154 0 0.090075916915604945 -0.0047470497624441952 0 0.090657431922513534 -0.0053942540957073858 0 0.090978293479806793 -0.0041326141397896154 0 0.090657431922513534 -0.0053942540957073858 0 0.092082516021119526 -0.0047304371264888633 0 0.090657431922513534 -0.0053942540957073858 0 0.090422314576669091 -0.0068575505473598575 0 0.091633298341960129 -0.0063173011095055973 0 0.090422314576669091 -0.0068575505473598575 0 0.091130727136154013 -0.0077447006320086236 0 0.091633298341960129 -0.0063173011095055973 0 0.089511125329327715 -0.0058268632811602538 0 0.090657431922513534 -0.0053942540957073858 0 0.090422314576669091 -0.0068575505473598575 0 0.086789531836791695 -0.012151428784137311 0 0.089046919128142929 -0.019272194905936225 0 0.081076816955143294 -0.015273216070038287 0 0.077374252748189556 -0.0075925645243042949 0 0.068226152685203781 -0.0047329449350349056 0 0.071757904607536657 -0.0053484009170350925 0 0.066514145894264756 -0.0060951481837634011 0 0.086789531836791695 -0.012151428784137311 0 0.083890258926923048 -0.010782782573254863 0 0.080600494070401527 -0.015895368239955462 0 0.088069482130330945 -0.0048910944315771103 0 0.089511125329327715 -0.0058268632811602538 0 0.088985226103618281 -0.008487465436897745 0 0.087065302723843857 -0.010324557767774014 0 0.086789531836791695 -0.012151428784137311 0 0.089046919128142929 -0.019272194905936225 0 0.088069482130330945 -0.0048910944315771103 0 0.089039038794489836 -0.0044901520566759546 0 0.089511125329327715 -0.0058268632811602538 0 0.087065302723843857 -0.010324557767774014 0 0.086789531836791695 -0.012151428784137311 0 0.083890258926923048 -0.010782782573254863 0 0.068226152685203781 -0.0047329449350349056 0 0.066514145894264756 -0.0060951481837634011 0 0.049742034999129964 0.0013451280403184568 0 0.049373265993102516 0.001553036709829094 0 0.049397090549200301 0.0011714413121710163 0 0.049742034999129964 0.0013451280403184568 0 0.049619917426387654 0.0011456520874727791 0 0.049397090549200301 0.0011714413121710163 0 0.049742034999129964 0.0013451280403184568 0 0.049619917426387654 0.0011456520874727791 0 0.0497664824169562 0.0010515596656139785 0 0.049619917426387654 0.0011456520874727791 0 0.049558177673770035 0.0010241299966928399 0 0.0497664824169562 0.0010515596656139785 0 0.049619917426387654 0.0011456520874727791 0 0.049397090549200301 0.0011714413121710163 0 0.049558177673770035 0.0010241299966928399 0 0.052106029090355631 5.9791169212006614e-05 0 0.051987579679945863 0.00017475441444826569 0 0.052012180410481154 0.00018010125985115478 0 0.052106029090355631 5.9791169212006614e-05 0 0.051978021075291647 0.00013049002368501023 0 0.051987579679945863 0.00017475441444826569 0 0.068226152685203781 -0.0047329449350349056 0 0.059191445334155109 0.00030130463279210286 0 0.088985226103618281 -0.008487465436897745 0 0.091130727136154013 -0.0077447006320086236 0 0.092097215558874929 -0.010085339873188739 0 0.068226152685203781 -0.0047329449350349056 0 0.069027445882059862 -0.0025912441537017518 0 0.090422314576669091 -0.0068575505473598575 0 0.088985226103618281 -0.008487465436897745 0 0.091130727136154013 -0.0077447006320086236 0 0.091130727136154013 -0.0077447006320086236 0 0.092320809356626524 -0.0074557099998569043 0 0.091633298341960129 -0.0063173011095055973 0 0.091130727136154013 -0.0077447006320086236 0 0.092320809356626524 -0.0074557099998569043 0 0.092097215558874929 -0.010085339873188739 0 0.073930298464347746 -0.0097721832415592017 0 0.069027445882059862 -0.0025912441537017518 0 0.054853243818077137 -0.0040393746574825234 0 0.056054073051800844 -0.0016968905342381762 0 0.054608227791192093 -0.0024169390671369647 0 0.092320809356626524 -0.0074557099998569043 0 0.093738372104371692 -0.0070972128792025826 0 0.092097215558874929 -0.010085339873188739 0 0.056054073051800844 -0.0016968905342381762 0 0.054116679870580449 -0.0016296675809447398 0 0.054608227791192093 -0.0024169390671369647 0 0.069027445882059862 -0.0025912441537017518 0 0.059448688152869092 0.00048154296661951387 0 0.052005108863695561 0.00021841660829177438 0 0.052015784013316899 0.00019756236195511093 0 0.052082011397431779 0.00023722512000821805 0 0.069027445882059862 -0.0025912441537017518 0 0.068472563843105835 -0.0028408485141114834 0 0.052015784013316899 0.00019756236195511093 0 0.051987579679945863 0.00017475441444826569 0 0.051988266854749991 0.00017254162442940308 0 0.052005108863695561 0.00021841660829177438 0 0.052015784013316899 0.00019756236195511093 0 0.051987579679945863 0.00017475441444826569 0 0.054020527938515084 -0.00077506990656648754 0 0.053224278395797582 -0.001575277717887904 0 0.052336365254485616 -7.2798586510661222e-05 0 0.056054073051800844 -0.0016968905342381762 0 0.054020527938515084 -0.00077506990656648754 0 0.054116679870580449 -0.0016296675809447398 0 0.054116679870580449 -0.0016296675809447398 0 0.053224278395797582 -0.001575277717887904 0 0.054608227791192093 -0.0024169390671369647 0 0.054020527938515084 -0.00077506990656648754 0 0.054116679870580449 -0.0016296675809447398 0 0.053224278395797582 -0.001575277717887904 0 0.085316347567924777 -0.019706760457469746 0 0.084258680431855401 -0.017790388246355548 0 0.084263678859860247 -0.019107111861330992 0 0.073930298464347746 -0.0097721832415592017 0 0.07100287314772849 -0.0084012466860456173 0 0.084258680431855401 -0.017790388246355548 0 0.084263678859860247 -0.019107111861330992 0 0.083764229699669734 -0.018494668474950789 0 0.054853243818077137 -0.0040393746574825234 0 0.053224278395797582 -0.001575277717887904 0 0.054608227791192093 -0.0024169390671369647 0 0.085316347567924777 -0.019706760457469746 0 0.084263678859860247 -0.019107111861330992 0 0.084508480301658181 -0.019736691413560062 0 0.084263678859860247 -0.019107111861330992 0 0.083855289244344738 -0.019863666781996914 0 0.084508480301658181 -0.019736691413560062 0 0.083855289244344738 -0.019863666781996914 0 0.084209647853937059 -0.020363223996382528 0 0.083422360561325279 -0.020825136089843144 0 0.085316347567924777 -0.019706760457469746 0 0.084209647853937059 -0.020363223996382528 0 0.084058250329349118 -0.021676159539274178 0 0.093829043205777909 -0.0071005900154366402 0 0.093570501705761477 -0.0048452377744826296 0 0.095383004842724398 -0.0032346491330865657 0 0.073930298464347746 -0.0097721832415592017 0 0.082528298447607812 -0.010082028904968426 0 0.083855289244344738 -0.019863666781996914 0 0.084508480301658181 -0.019736691413560062 0 0.084209647853937059 -0.020363223996382528 0 0.084209647853937059 -0.020363223996382528 0 0.084058250329349118 -0.021676159539274178 0 0.083422360561325279 -0.020825136089843144 0 0.085316347567924777 -0.019706760457469746 0 0.084508480301658181 -0.019736691413560062 0 0.084209647853937059 -0.020363223996382528 0 0.073930298464347746 -0.0097721832415592017 0 0.074836262088334188 -0.010196935992297112 0 0.092320809356626524 -0.0074557099998569043 0 0.093738372104371692 -0.0070972128792025826 0 0.093024640442507245 -0.005964491068573362 0 0.093829043205777909 -0.0071005900154366402 0 0.093024640442507245 -0.005964491068573362 0 0.093570501705761477 -0.0048452377744826296 0 0.092320809356626524 -0.0074557099998569043 0 0.093024640442507245 -0.005964491068573362 0 0.091633298341960129 -0.0063173011095055973 0 0.093024640442507245 -0.005964491068573362 0 0.091633298341960129 -0.0063173011095055973 0 0.092082516021119526 -0.0047304371264888633 0 0.093024640442507245 -0.005964491068573362 0 0.092082516021119526 -0.0047304371264888633 0 0.093570501705761477 -0.0048452377744826296 0 0.092082516021119526 -0.0047304371264888633 0 0.093570501705761477 -0.0048452377744826296 0 0.093512115355035175 -0.0033337978918432016 0 0.090978293479806793 -0.0041326141397896154 0 0.092082516021119526 -0.0047304371264888633 0 0.092281087472178128 -0.003513514331130123 0 0.092082516021119526 -0.0047304371264888633 0 0.093512115355035175 -0.0033337978918432016 0 0.092281087472178128 -0.003513514331130123 0 0.092981742701349138 -0.001996558332856268 0 0.091537790226976057 -0.0028778153762176444 0 0.092281087472178128 -0.003513514331130123 0 0.094772406812161536 -0.0019720953701227169 0 0.092981742701349138 -0.001996558332856268 0 0.093512115355035175 -0.0033337978918432016 0 0.092981742701349138 -0.001996558332856268 0 0.093512115355035175 -0.0033337978918432016 0 0.092281087472178128 -0.003513514331130123 0 0.094772406812161536 -0.0019720953701227169 0 0.093512115355035175 -0.0033337978918432016 0 0.095383004842724398 -0.0032346491330865657 0 0.093570501705761477 -0.0048452377744826296 0 0.093512115355035175 -0.0033337978918432016 0 0.095383004842724398 -0.0032346491330865657 0 0.084058250329349118 -0.021676159539274178 0 0.082697432653177153 -0.021462371158983602 0 0.082429033099968962 -0.022340675178527936 0 0.084058250329349118 -0.021676159539274178 0 0.082697432653177153 -0.021462371158983602 0 0.083422360561325279 -0.020825136089843144 0 0.082697432653177153 -0.021462371158983602 0 0.081593962259846678 -0.02184914809357193 0 0.082249649319162108 -0.020518027416049689 0 0.082697432653177153 -0.021462371158983602 0 0.082429033099968962 -0.022340675178527936 0 0.081593962259846678 -0.02184914809357193 0 0.082249649319162108 -0.020518027416049689 0 0.081227277053915761 -0.019877363056782789 0 0.080513478790091617 -0.02114632581272851 0 0.081593962259846678 -0.02184914809357193 0 0.082249649319162108 -0.020518027416049689 0 0.080513478790091617 -0.02114632581272851 0 0.082249649319162108 -0.020518027416049689 0 0.083085588474227229 -0.019933612845957415 0 0.082364270745872423 -0.019128653656024418 0 0.082249649319162108 -0.020518027416049689 0 0.083085588474227229 -0.019933612845957415 0 0.083422360561325279 -0.020825136089843144 0 0.082697432653177153 -0.021462371158983602 0 0.082249649319162108 -0.020518027416049689 0 0.083422360561325279 -0.020825136089843144 0 0.083855289244344738 -0.019863666781996914 0 0.083085588474227229 -0.019933612845957415 0 0.083422360561325279 -0.020825136089843144 0 0.084263678859860247 -0.019107111861330992 0 0.083855289244344738 -0.019863666781996914 0 0.083542446553847766 -0.019198255998052038 0 0.083855289244344738 -0.019863666781996914 0 0.083085588474227229 -0.019933612845957415 0 0.083542446553847766 -0.019198255998052038 0 0.083085588474227229 -0.019933612845957415 0 0.083542446553847766 -0.019198255998052038 0 0.082364270745872423 -0.019128653656024418 0 0.083184762868354994 -0.018519194569143731 0 0.082668934669161767 -0.017963712611216064 0 0.082364270745872423 -0.019128653656024418 0 0.083542446553847766 -0.019198255998052038 0 0.083184762868354994 -0.018519194569143731 0 0.082364270745872423 -0.019128653656024418 0 0.084263678859860247 -0.019107111861330992 0 0.083542446553847766 -0.019198255998052038 0 0.083764229699669734 -0.018494668474950789 0 0.083542446553847766 -0.019198255998052038 0 0.083184762868354994 -0.018519194569143731 0 0.083764229699669734 -0.018494668474950789 0 0.083184762868354994 -0.018519194569143731 0 0.083764229699669734 -0.018494668474950789 0 0.083400093878568837 -0.017984409350006812 0 0.084258680431855401 -0.017790388246355548 0 0.083083744346387836 -0.01713586469408945 0 0.083229088065420939 -0.015477979745653422 0 0.07100287314772849 -0.0084012466860456173 0 0.069606786502568907 -0.0068632038567272673 0 0.084258680431855401 -0.017790388246355548 0 0.083400093878568837 -0.017984409350006812 0 0.083083744346387836 -0.01713586469408945 0 0.084258680431855401 -0.017790388246355548 0 0.083764229699669734 -0.018494668474950789 0 0.083400093878568837 -0.017984409350006812 0 0.083400093878568837 -0.017984409350006812 0 0.082668934669161767 -0.017963712611216064 0 0.083083744346387836 -0.01713586469408945 0 0.082668934669161767 -0.017963712611216064 0 0.083083744346387836 -0.01713586469408945 0 0.082187933990115022 -0.01734317006375153 0 0.083184762868354994 -0.018519194569143731 0 0.083400093878568837 -0.017984409350006812 0 0.082668934669161767 -0.017963712611216064 0 0.081269485364047989 -0.017294287783332328 0 0.082187933990115022 -0.01734317006375153 0 0.082051616492299043 -0.016276930563879362 0 0.083083744346387836 -0.01713586469408945 0 0.082187933990115022 -0.01734317006375153 0 0.082051616492299043 -0.016276930563879362 0 0.082668934669161767 -0.017963712611216064 0 0.082187933990115022 -0.01734317006375153 0 0.081852429451126141 -0.018092084169901195 0 0.081269485364047989 -0.017294287783332328 0 0.081852429451126141 -0.018092084169901195 0 0.081009665975709619 -0.018731174040412486 0 0.081269485364047989 -0.017294287783332328 0 0.082187933990115022 -0.01734317006375153 0 0.081852429451126141 -0.018092084169901195 0 0.081852429451126141 -0.018092084169901195 0 0.082364270745872423 -0.019128653656024418 0 0.081009665975709619 -0.018731174040412486 0 0.082668934669161767 -0.017963712611216064 0 0.081852429451126141 -0.018092084169901195 0 0.082364270745872423 -0.019128653656024418 0 0.082249649319162108 -0.020518027416049689 0 0.082364270745872423 -0.019128653656024418 0 0.081227277053915761 -0.019877363056782789 0 0.082364270745872423 -0.019128653656024418 0 0.081227277053915761 -0.019877363056782789 0 0.081009665975709619 -0.018731174040412486 0 0.079786658599243526 -0.019766055994271271 0 0.081009665975709619 -0.018731174040412486 0 0.080053554679371197 -0.017751504727185771 0 0.081227277053915761 -0.019877363056782789 0 0.079786658599243526 -0.019766055994271271 0 0.081009665975709619 -0.018731174040412486 0 0.081269485364047989 -0.017294287783332328 0 0.081009665975709619 -0.018731174040412486 0 0.080053554679371197 -0.017751504727185771 0 0.081269485364047989 -0.017294287783332328 0 0.080053554679371197 -0.017751504727185771 0 0.080459578528322806 -0.015879464739324396 0 0.078511181724699147 -0.018393986609952916 0 0.078002246719668628 -0.015826024032838542 0 0.07657296160293417 -0.018076729168719351 0 0.080053554679371197 -0.017751504727185771 0 0.078511181724699147 -0.018393986609952916 0 0.078002246719668628 -0.015826024032838542 0 0.079786658599243526 -0.019766055994271271 0 0.078511181724699147 -0.018393986609952916 0 0.077918538865576245 -0.020045898488850942 0 0.079786658599243526 -0.019766055994271271 0 0.080053554679371197 -0.017751504727185771 0 0.078511181724699147 -0.018393986609952916 0 0.079786658599243526 -0.019766055994271271 0 0.078907399685592725 -0.021081896527354056 0 0.077918538865576245 -0.020045898488850942 0 0.081227277053915761 -0.019877363056782789 0 0.079786658599243526 -0.019766055994271271 0 0.080513478790091617 -0.02114632581272851 0 0.079786658599243526 -0.019766055994271271 0 0.078907399685592725 -0.021081896527354056 0 0.080513478790091617 -0.02114632581272851 0 0.080535310822413247 -0.022483788597955131 0 0.080513478790091617 -0.02114632581272851 0 0.079457180219756812 -0.022035635227377077 0 0.080535310822413247 -0.022483788597955131 0 0.081593962259846678 -0.02184914809357193 0 0.080513478790091617 -0.02114632581272851 0 0.078907399685592725 -0.021081896527354056 0 0.080513478790091617 -0.02114632581272851 0 0.079457180219756812 -0.022035635227377077 0 0.078907399685592725 -0.021081896527354056 0 0.079457180219756812 -0.022035635227377077 0 0.078408867214082467 -0.022230810380611907 0 0.079594878192115429 -0.022892171973598278 0 0.079457180219756812 -0.022035635227377077 0 0.078408867214082467 -0.022230810380611907 0 0.061509295690257239 -0.00069097549032669486 0 0.06177061313376174 7.3012585520309549e-05 0 0.061925042620268232 1.6698260556281095e-05 0 0.061509295690257239 -0.00069097549032669486 0 0.061925042620268232 1.6698260556281095e-05 0 0.063627019027532497 -0.00045995475338361363 0 0.064718391077185466 -0.00095866614483067398 0 0.073776130544394011 -8.875642272840007e-05 0 0.061509295690257239 -0.00069097549032669486 0 0.062201445420717101 0.00077119092308648393 0 0.06177061313376174 7.3012585520309549e-05 0 0.061509295690257239 -0.00069097549032669486 0 0.062201445420717101 0.00077119092308648393 0 0.063169330452779365 0.0026893368664698616 0 0.062201445420717101 0.00077119092308648393 0 0.06177061313376174 7.3012585520309549e-05 0 0.061790018868093856 -8.483159447150791e-05 0 0.062201445420717101 0.00077119092308648393 0 0.061790018868093856 -8.483159447150791e-05 0 0.062598383757471746 5.1449910882597215e-05 0 0.061790018868093856 -8.483159447150791e-05 0 0.061951078372092828 -0.00068174251670626343 0 0.062598383757471746 5.1449910882597215e-05 0 0.061790018868093856 -8.483159447150791e-05 0 0.061951078372092828 -0.00068174251670626343 0 0.061515404516977686 -0.0002947095150752981 0 0.061925042620268232 1.6698260556281095e-05 0 0.061956427714229274 0.00013151501986230295 0 0.061515404516977686 -0.0002947095150752981 0 0.061925042620268232 1.6698260556281095e-05 0 0.061956427714229274 0.00013151501986230295 0 0.063405362477679389 7.4125083832316915e-05 0 0.061790018868093856 -8.483159447150791e-05 0 0.061925042620268232 1.6698260556281095e-05 0 0.061515404516977686 -0.0002947095150752981 0 0.06177061313376174 7.3012585520309549e-05 0 0.061790018868093856 -8.483159447150791e-05 0 0.061925042620268232 1.6698260556281095e-05 0 0.061956427714229274 0.00013151501986230295 0 0.063405362477679389 7.4125083832316915e-05 0 0.062275514526596833 0.00042333203061862754 0 0.063405362477679389 7.4125083832316915e-05 0 0.065391302538569951 5.0534360139158053e-05 0 0.062275514526596833 0.00042333203061862754 0 0.061925042620268232 1.6698260556281095e-05 0 0.063405362477679389 7.4125083832316915e-05 0 0.063627019027532497 -0.00045995475338361363 0 0.063405362477679389 7.4125083832316915e-05 0 0.065391302538569951 5.0534360139158053e-05 0 0.065400173341630563 -0.00043802632654777298 0 0.067209215159570457 4.7575641379576964e-07 0 0.065391302538569951 5.0534360139158053e-05 0 0.062275514526596833 0.00042333203061862754 0 0.067209215159570457 4.7575641379576964e-07 0 0.065391302538569951 5.0534360139158053e-05 0 0.069344786206953307 -0.00033941872511073575 0 0.067209215159570457 4.7575641379576964e-07 0 0.069344786206953307 -0.00033941872511073575 0 0.072779709116330166 -1.977793289359344e-06 0 0.069344786206953307 -0.00033941872511073575 0 0.066893951767966503 -0.0022965956888163141 0 0.068114140646061708 -0.0048126471934488773 0 0.065391302538569951 5.0534360139158053e-05 0 0.069344786206953307 -0.00033941872511073575 0 0.065400173341630563 -0.00043802632654777298 0 0.069344786206953307 -0.00033941872511073575 0 0.065400173341630563 -0.00043802632654777298 0 0.066893951767966503 -0.0022965956888163141 0 0.064718391077185466 -0.00095866614483067398 0 0.065371395451971792 -0.0012893830286730176 0 0.061509295690257239 -0.00069097549032669486 0 0.066893951767966503 -0.0022965956888163141 0 0.063627019027532497 -0.00045995475338361363 0 0.065400173341630563 -0.00043802632654777298 0 0.066893951767966503 -0.0022965956888163141 0 0.063627019027532497 -0.00045995475338361363 0 0.063405362477679389 7.4125083832316915e-05 0 0.065400173341630563 -0.00043802632654777298 0 0.063627019027532497 -0.00045995475338361363 0 0.066893951767966503 -0.0022965956888163141 0 0.06381752422046337 -0.0040476160674813369 0 0.065849771286742992 -0.0046377450839921877 0 0.061936542396891191 -0.0028138447187688043 0 0.066893951767966503 -0.0022965956888163141 0 0.06381752422046337 -0.0040476160674813369 0 0.065849771286742992 -0.0046377450839921877 0 0.066461757278384007 -0.0058149369663454426 0 0.064056450635167336 -0.0059734835496135221 0 0.06381752422046337 -0.0040476160674813369 0 0.065849771286742992 -0.0046377450839921877 0 0.064056450635167336 -0.0059734835496135221 0 0.075847061588866838 -0.00028485851886012986 0 0.076559906726338806 -0.00094444305607335537 0 0.069344786206953307 -0.00033941872511073575 0 0.072779709116330166 -1.977793289359344e-06 0 0.074275866022059753 4.6433607736292505e-05 0 0.072779709116330166 -1.977793289359344e-06 0 0.074275866022059753 4.6433607736292505e-05 0 0.078345085332955616 8.4369127333197568e-07 0 0.066893951767966503 -0.0022965956888163141 0 0.065849771286742992 -0.0046377450839921877 0 0.068114140646061708 -0.0048126471934488773 0 0.065849771286742992 -0.0046377450839921877 0 0.068114140646061708 -0.0048126471934488773 0 0.066461757278384007 -0.0058149369663454426 0 0.068114140646061708 -0.0048126471934488773 0 0.066461757278384007 -0.0058149369663454426 0 0.067869865381249894 -0.007791368862447824 0 0.076559906726338806 -0.00094444305607335537 0 0.078642554287519456 -0.0016513193028502384 0 0.066461757278384007 -0.0058149369663454426 0 0.067869865381249894 -0.007791368862447824 0 0.064056450635167336 -0.0059734835496135221 0 0.074275866022059753 4.6433607736292505e-05 0 0.077359840010559802 -4.7938938439997953e-05 0 0.078345085332955616 8.4369127333197568e-07 0 0.078642554287519456 -0.0016513193028502384 0 0.078346351292356009 -1.1445186417864016e-05 0 0.095376387557201403 -0.0040391862142241611 0 0.0938364048136371 -0.0048843194224488067 0 0.096144473602585045 -0.0050688690397545106 0 0.078642554287519456 -0.0016513193028502384 0 0.079584641646956805 -0.0031100892288212648 0 0.095376387557201403 -0.0040391862142241611 0 0.096144473602585045 -0.0050688690397545106 0 0.097445227188861852 -0.0039067460860671031 0 0.097445227188861852 -0.0039067460860671031 0 0.097689374827135328 -0.0042657750791678765 0 0.098690978341399019 -0.0037802335058458318 0 0.096144473602585045 -0.0050688690397545106 0 0.097445227188861852 -0.0039067460860671031 0 0.097689374827135328 -0.0042657750791678765 0 0.096144473602585045 -0.0050688690397545106 0 0.097689374827135328 -0.0042657750791678765 0 0.098340037752381482 -0.0043354884742193367 0 0.079584641646956805 -0.0031100892288212648 0 0.07822124377540389 -0.002558645040912379 0 0.06381752422046337 -0.0040476160674813369 0 0.064056450635167336 -0.0059734835496135221 0 0.060687420154001227 -0.0042546675810077057 0 0.061936542396891191 -0.0028138447187688043 0 0.06381752422046337 -0.0040476160674813369 0 0.060687420154001227 -0.0042546675810077057 0 0.07822124377540389 -0.002558645040912379 0 0.073776130544394011 -8.875642272840007e-05 0 0.098340037752381482 -0.0043354884742193367 0 0.098690978341399019 -0.0037802335058458318 0 0.099480794254999089 -0.0031868920854386073 0 0.061936542396891191 -0.0028138447187688043 0 0.060687420154001227 -0.0042546675810077057 0 0.057647832583831063 -0.0028709546942764677 0 0.098864305712582243 -0.0031602170720432632 0 0.098690978341399019 -0.0037802335058458318 0 0.099434712680143394 -0.0031669104580779885 0 0.098864305712582243 -0.0031602170720432632 0 0.097445227188861852 -0.0039067460860671031 0 0.098690978341399019 -0.0037802335058458318 0 0.097689374827135328 -0.0042657750791678765 0 0.098340037752381482 -0.0043354884742193367 0 0.098690978341399019 -0.0037802335058458318 0 0.099792595635315812 -0.0029425762382614216 0 0.099434712680143394 -0.0031669104580779885 0 0.099725396868400956 -0.0027075011861343069 0 0.10025900153009654 -0.0026754503238081051 0 0.10007471065076759 -0.0024257722949790369 0 0.10027805649486375 -0.0028552202511150627 0 0.099725396868400956 -0.0027075011861343069 0 0.099543683852390666 -0.0021078787313416844 0 0.099622546734135092 -0.0023570132203390194 0 0.099540450231385511 -0.0013396898907534456 0 0.099480794254999089 -0.0031868920854386073 0 0.099725396868400956 -0.0027075011861343069 0 0.099543683852390666 -0.0021078787313416844 0 0.099622546734135092 -0.0023570132203390194 0 0.099543683852390666 -0.0021078787313416844 0 0.099622546734135092 -0.0023570132203390194 0 0.099540450231385511 -0.0013396898907534456 0 0.098690978341399019 -0.0037802335058458318 0 0.099434712680143394 -0.0031669104580779885 0 0.099480794254999089 -0.0031868920854386073 0 0.099434712680143394 -0.0031669104580779885 0 0.099725396868400956 -0.0027075011861343069 0 0.099480794254999089 -0.0031868920854386073 0 0.099725396868400956 -0.0027075011861343069 0 0.099622546734135092 -0.0023570132203390194 0 0.099480794254999089 -0.0031868920854386073 0 0.097773325599295566 -0.0027745442908064973 0 0.098983548611337527 -0.0029099533779209713 0 0.098336867814718107 -0.0014297634325906247 0 0.097773325599295566 -0.0027745442908064973 0 0.096268593504169608 -0.0008814748218976266 0 0.098336867814718107 -0.0014297634325906247 0 0.099673261065357358 -0.0037907617062605411 0 0.099543683852390666 -0.0021078787313416844 0 0.098983548611337527 -0.0029099533779209713 0 0.099543683852390666 -0.0021078787313416844 0 0.098983548611337527 -0.0029099533779209713 0 0.098336867814718107 -0.0014297634325906247 0 0.099543683852390666 -0.0021078787313416844 0 0.098838292413050727 -0.00098308996794954921 0 0.098336867814718107 -0.0014297634325906247 0 0.098838292413050727 -0.00098308996794954921 0 0.09750655815309936 0.0011928671245165742 0 0.099540450231385511 -0.0013396898907534456 0 0.099543683852390666 -0.0021078787313416844 0 0.098838292413050727 -0.00098308996794954921 0 0.099540450231385511 -0.0013396898907534456 0 0.096268593504169608 -0.0008814748218976266 0 0.098336867814718107 -0.0014297634325906247 0 0.09750655815309936 0.0011928671245165742 0 0.098838292413050727 -0.00098308996794954921 0 0.098336867814718107 -0.0014297634325906247 0 0.09750655815309936 0.0011928671245165742 0 0.085933974151369594 -0.00081774807604088266 0 0.081617372554997153 0.0064782688237923136 0 0.080228034504244913 -4.4823262437087716e-06 0 0.081617372554997153 0.0064782688237923136 0 0.075710364775806727 0.0029416152574612501 0 0.080228034504244913 -4.4823262437087716e-06 0 0.081617372554997153 0.0064782688237923136 0 0.075710364775806727 0.0029416152574612501 0 0.070515160196877522 0.0073884591878150049 0 0.086943940998480643 0.0023036174283499189 0 0.082537102703897719 0.0014916115494674525 0 0.075710364775806727 0.0029416152574612501 0 0.071903061534318954 0.00094498816843318159 0 0.068787055701054436 0.0031376355571193352 0 0.075710364775806727 0.0029416152574612501 0 0.070515160196877522 0.0073884591878150049 0 0.068787055701054436 0.0031376355571193352 0 0.071903061534318954 0.00094498816843318159 0 0.075611185988217949 -0.0020929405434221646 0 0.070250840455165178 -0.0013537410359140362 0 0.075611185988217949 -0.0020929405434221646 0 0.070250840455165178 -0.0013537410359140362 0 0.071544117760324336 -0.0048260831194518166 0 0.075710364775806727 0.0029416152574612501 0 0.071903061534318954 0.00094498816843318159 0 0.075611185988217949 -0.0020929405434221646 0 0.075710364775806727 0.0029416152574612501 0 0.075611185988217949 -0.0020929405434221646 0 0.080228034504244913 -4.4823262437087716e-06 0 0.075611185988217949 -0.0020929405434221646 0 0.080228034504244913 -4.4823262437087716e-06 0 0.082682919354381351 -0.0053372006959854414 0 0.085933974151369594 -0.00081774807604088266 0 0.080228034504244913 -4.4823262437087716e-06 0 0.082682919354381351 -0.0053372006959854414 0 0.063169330452779365 0.0026893368664698616 0 0.064288824328360042 -0.00027176914632500343 0 0.062598383757471746 5.1449910882597215e-05 0 0.062201445420717101 0.00077119092308648393 0 0.063169330452779365 0.0026893368664698616 0 0.062598383757471746 5.1449910882597215e-05 0 0.063169330452779365 0.0026893368664698616 0 0.06687197523942065 0.0007901558966337982 0 0.064288824328360042 -0.00027176914632500343 0 0.073776130544394011 -8.875642272840007e-05 0 0.070162979961421318 0.0015970931954253952 0 0.082537102703897719 0.0014916115494674525 0 0.073776130544394011 -8.875642272840007e-05 0 0.063169330452779365 0.0026893368664698616 0 0.068787055701054436 0.0031376355571193352 0 0.06687197523942065 0.0007901558966337982 0 0.070515160196877522 0.0073884591878150049 0 0.059433753456763792 0.0072404508859300531 0 0.068787055701054436 0.0031376355571193352 0 0.071903061534318954 0.00094498816843318159 0 0.068787055701054436 0.0031376355571193352 0 0.06687197523942065 0.0007901558966337982 0 0.06687197523942065 0.0007901558966337982 0 0.066893635827168993 -0.001870200234394853 0 0.064288824328360042 -0.00027176914632500343 0 0.071903061534318954 0.00094498816843318159 0 0.06687197523942065 0.0007901558966337982 0 0.070250840455165178 -0.0013537410359140362 0 0.06687197523942065 0.0007901558966337982 0 0.070250840455165178 -0.0013537410359140362 0 0.066893635827168993 -0.001870200234394853 0 0.070250840455165178 -0.0013537410359140362 0 0.066893635827168993 -0.001870200234394853 0 0.071544117760324336 -0.0048260831194518166 0 0.066893635827168993 -0.001870200234394853 0 0.064288824328360042 -0.00027176914632500343 0 0.06440513431655856 -0.0023276222629021672 0 0.064288824328360042 -0.00027176914632500343 0 0.062725653056646305 -0.0015419876757956092 0 0.06440513431655856 -0.0023276222629021672 0 0.064288824328360042 -0.00027176914632500343 0 0.062598383757471746 5.1449910882597215e-05 0 0.062725653056646305 -0.0015419876757956092 0 0.061951078372092828 -0.00068174251670626343 0 0.062598383757471746 5.1449910882597215e-05 0 0.062725653056646305 -0.0015419876757956092 0 0.062725653056646305 -0.0015419876757956092 0 0.062327875992859758 -0.0017390439976451661 0 0.061762043502661061 -0.0010061738180175972 0 0.062725653056646305 -0.0015419876757956092 0 0.062327875992859758 -0.0017390439976451661 0 0.063288296795924168 -0.0031760850459823559 0 0.062327875992859758 -0.0017390439976451661 0 0.063288296795924168 -0.0031760850459823559 0 0.062116371112011161 -0.0013953001262395999 0 0.062725653056646305 -0.0015419876757956092 0 0.063288296795924168 -0.0031760850459823559 0 0.06440513431655856 -0.0023276222629021672 0 0.066893635827168993 -0.001870200234394853 0 0.06440513431655856 -0.0023276222629021672 0 0.066386139441125008 -0.0045456682548523242 0 0.063288296795924168 -0.0031760850459823559 0 0.06440513431655856 -0.0023276222629021672 0 0.066386139441125008 -0.0045456682548523242 0 0.066893635827168993 -0.001870200234394853 0 0.066386139441125008 -0.0045456682548523242 0 0.071544117760324336 -0.0048260831194518166 0 0.066386139441125008 -0.0045456682548523242 0 0.071544117760324336 -0.0048260831194518166 0 0.070501525774789908 -0.0079410050181443793 0 0.066386139441125008 -0.0045456682548523242 0 0.066372194142820612 -0.0087083395098223378 0 0.070501525774789908 -0.0079410050181443793 0 0.063288296795924168 -0.0031760850459823559 0 0.06161814877513002 -0.0023461141601774827 0 0.062116371112011161 -0.0013953001262395999 0 0.063301094889295528 -0.0051024614923968724 0 0.063235553388076016 -0.0051285374127610162 0 0.063288296795924168 -0.0031760850459823559 0 0.066386139441125008 -0.0045456682548523242 0 0.066289500968609305 -0.0060906661033959695 0 0.063291375544854117 -0.0051557934604142316 0 0.063235553388076016 -0.0051285374127610162 0 0.063235553388076016 -0.0051285374127610162 0 0.06619968587565607 -0.0064474934629659636 0 0.062032314163136905 -0.0046684150873415554 0 0.062035253076211362 -0.0049067593850572163 0 0.06226705563266087 -0.0047818670095550256 0 0.06161814877513002 -0.0023461141601774827 0 0.061563135933855179 -0.00096932900241981533 0 0.062116371112011161 -0.0013953001262395999 0 0.063235553388076016 -0.0051285374127610162 0 0.060993827511825117 -0.0038894986319292372 0 0.061563135933855179 -0.00096932900241981533 0 0.062116371112011161 -0.0013953001262395999 0 0.061374649581946196 -0.00085253612194160426 0 0.062116371112011161 -0.0013953001262395999 0 0.061374649581946196 -0.00085253612194160426 0 0.061268780208084517 -0.00075875168210213465 0 0.062327875992859758 -0.0017390439976451661 0 0.062116371112011161 -0.0013953001262395999 0 0.061268780208084517 -0.00075875168210213465 0 0.075611185988217949 -0.0020929405434221646 0 0.082682919354381351 -0.0053372006959854414 0 0.077227265312840992 -0.0072623878184699935 0 0.083890258926923048 -0.010782782573254863 0 0.080987034638206126 -0.010268758220799291 0 0.082682919354381351 -0.0053372006959854414 0 0.080987034638206126 -0.010268758220799291 0 0.077227265312840992 -0.0072623878184699935 0 0.077910741721137725 -0.011445920136054034 0 0.080987034638206126 -0.010268758220799291 0 0.082682919354381351 -0.0053372006959854414 0 0.077227265312840992 -0.0072623878184699935 0 0.07400312300100495 -0.0087030077394389411 0 0.077227265312840992 -0.0072623878184699935 0 0.071544117760324336 -0.0048260831194518166 0 0.07400312300100495 -0.0087030077394389411 0 0.077227265312840992 -0.0072623878184699935 0 0.077910741721137725 -0.011445920136054034 0 0.075611185988217949 -0.0020929405434221646 0 0.077227265312840992 -0.0072623878184699935 0 0.071544117760324336 -0.0048260831194518166 0 0.07400312300100495 -0.0087030077394389411 0 0.070501525774789908 -0.0079410050181443793 0 0.073931912222458165 -0.01279249497344411 0 0.07400312300100495 -0.0087030077394389411 0 0.071544117760324336 -0.0048260831194518166 0 0.070501525774789908 -0.0079410050181443793 0 0.066372194142820612 -0.0087083395098223378 0 0.070501525774789908 -0.0079410050181443793 0 0.073931912222458165 -0.01279249497344411 0 0.06619968587565607 -0.0064474934629659636 0 0.066514145894264756 -0.0060951481837634011 0 0.06226705563266087 -0.0047818670095550256 0 0.062508169778776115 -0.0048965631167864516 0 0.062269518001662652 -0.005023906302065265 0 0.062035253076211362 -0.0049067593850572163 0 0.06226705563266087 -0.0047818670095550256 0 0.062269518001662652 -0.005023906302065265 0 0.07400312300100495 -0.0087030077394389411 0 0.073931912222458165 -0.01279249497344411 0 0.077910741721137725 -0.011445920136054034 0 0.073931912222458165 -0.01279249497344411 0 0.077910741721137725 -0.011445920136054034 0 0.080600494070401527 -0.015895368239955462 0 0.080987034638206126 -0.010268758220799291 0 0.077910741721137725 -0.011445920136054034 0 0.080600494070401527 -0.015895368239955462 0 0.083890258926923048 -0.010782782573254863 0 0.080987034638206126 -0.010268758220799291 0 0.080600494070401527 -0.015895368239955462 0 0.049373265993102516 0.001553036709829094 0 0.049070631855360203 0.0014225421843036411 0 0.049397090549200301 0.0011714413121710163 0 0.066514145894264756 -0.0060951481837634011 0 0.060742072134549442 -0.0050019419883520879 0 0.060742072134549442 -0.0050019419883520879 0 0.058584282742211488 -0.0034376343477280245 0 0.049070631855360203 0.0014225421843036411 0 0.048995708322379532 0.0011551688375314004 0 0.048707730242342658 0.0012669303562177778 0 0.048995708322379532 0.0011551688375314004 0 0.049397090549200301 0.0011714413121710163 0 0.04910414532305097 0.00089864299471113026 0 0.049070631855360203 0.0014225421843036411 0 0.048995708322379532 0.0011551688375314004 0 0.049397090549200301 0.0011714413121710163 0 0.048995708322379532 0.0011551688375314004 0 0.048659607896648568 0.00080725460087645372 0 0.04910414532305097 0.00089864299471113026 0 0.061374649581946196 -0.00085253612194160426 0 0.060471743899496451 -0.0014750346509632777 0 0.060610245130927637 -0.00074517964202195372 0 0.061374649581946196 -0.00085253612194160426 0 0.060610245130927637 -0.00074517964202195372 0 0.061268780208084517 -0.00075875168210213465 0 0.061563135933855179 -0.00096932900241981533 0 0.061374649581946196 -0.00085253612194160426 0 0.061684188420346765 -0.0011131666228800432 0 0.062035253076211362 -0.0049067593850572163 0 0.062269518001662652 -0.005023906302065265 0 0.062035987646898834 -0.0051482586878797316 0 0.060993827511825117 -0.0038894986319292372 0 0.058584282742211488 -0.0034376343477280245 0 0.058584282742211488 -0.0034376343477280245 0 0.055534161792171188 -0.0018938191851173855 0 0.048758173497524433 -0.0064477293699055872 0 0.052408454505901363 -0.0044535814298120894 0 0.048670597128835494 -0.0034756001004980813 0 0.048995708322379532 0.0011551688375314004 0 0.048707730242342658 0.0012669303562177778 0 0.048659607896648568 0.00080725460087645372 0 0.061374649581946196 -0.00085253612194160426 0 0.061684188420346765 -0.0011131666228800432 0 0.060471743899496451 -0.0014750346509632777 0 0.058584282742211488 -0.0034376343477280245 0 0.057024850756537376 -0.0033178245060846269 0 0.060471743899496451 -0.0014750346509632777 0 0.057458928627322908 -0.0005788738552797017 0 0.059489499116284893 -0.000314798498612234 0 0.060471743899496451 -0.0014750346509632777 0 0.059489499116284893 -0.000314798498612234 0 0.060610245130927637 -0.00074517964202195372 0 0.060471743899496451 -0.0014750346509632777 0 0.057458928627322908 -0.0005788738552797017 0 0.056018018248295325 -0.0017404376441125229 0 0.059489499116284893 -0.000314798498612234 0 0.06025503306750922 -0.00012247062405946866 0 0.058690506420523515 5.8421891587017494e-05 0 0.057458928627322908 -0.0005788738552797017 0 0.059489499116284893 -0.000314798498612234 0 0.058690506420523515 5.8421891587017494e-05 0 0.059489499116284893 -0.000314798498612234 0 0.060610245130927637 -0.00074517964202195372 0 0.061268780208084517 -0.00075875168210213465 0 0.061268780208084517 -0.00075875168210213465 0 0.061114643342065886 -0.00041272931650696015 0 0.06025503306750922 -0.00012247062405946866 0 0.061268780208084517 -0.00075875168210213465 0 0.061114643342065886 -0.00041272931650696015 0 0.061762043502661061 -0.0010061738180175972 0 0.059489499116284893 -0.000314798498612234 0 0.061268780208084517 -0.00075875168210213465 0 0.06025503306750922 -0.00012247062405946866 0 0.062327875992859758 -0.0017390439976451661 0 0.061268780208084517 -0.00075875168210213465 0 0.061762043502661061 -0.0010061738180175972 0 0.06025503306750922 -0.00012247062405946866 0 0.06018369598090615 0.00023265545036183044 0 0.058690506420523515 5.8421891587017494e-05 0 0.06025503306750922 -0.00012247062405946866 0 0.061069438669493326 7.3517345973129195e-05 0 0.06018369598090615 0.00023265545036183044 0 0.061114643342065886 -0.00041272931650696015 0 0.06025503306750922 -0.00012247062405946866 0 0.061069438669493326 7.3517345973129195e-05 0 0.061114643342065886 -0.00041272931650696015 0 0.061069438669493326 7.3517345973129195e-05 0 0.061515404516977686 -0.0002947095150752981 0 0.061956427714229274 0.00013151501986230295 0 0.061069438669493326 7.3517345973129195e-05 0 0.061515404516977686 -0.0002947095150752981 0 0.061951078372092828 -0.00068174251670626343 0 0.061515404516977686 -0.0002947095150752981 0 0.061762043502661061 -0.0010061738180175972 0 0.061951078372092828 -0.00068174251670626343 0 0.062725653056646305 -0.0015419876757956092 0 0.061762043502661061 -0.0010061738180175972 0 0.061114643342065886 -0.00041272931650696015 0 0.061515404516977686 -0.0002947095150752981 0 0.061762043502661061 -0.0010061738180175972 0 0.067209215159570457 4.7575641379576964e-07 0 0.062275514526596833 0.00042333203061862754 0 0.061645634779637498 1.2994577532941523e-06 0 0.061069438669493326 7.3517345973129195e-05 0 0.062275514526596833 0.00042333203061862754 0 0.06018369598090615 0.00023265545036183044 0 0.061956427714229274 0.00013151501986230295 0 0.061069438669493326 7.3517345973129195e-05 0 0.062275514526596833 0.00042333203061862754 0 0.062275514526596833 0.00042333203061862754 0 0.06018369598090615 0.00023265545036183044 0 0.058701045034651296 0.00023018886075697756 0 0.062275514526596833 0.00042333203061862754 0 0.061645634779637498 1.2994577532941523e-06 0 0.058701045034651296 0.00023018886075697756 0 0.056079222550117595 -1.3983646263752985e-07 0 0.058701045034651296 0.00023018886075697756 0 0.056403553005362483 -6.0371844310938196e-05 0 0.061645634779637498 1.2994577532941523e-06 0 0.056079222550117595 -1.3983646263752985e-07 0 0.058701045034651296 0.00023018886075697756 0 0.058701045034651296 0.00023018886075697756 0 0.058690506420523515 5.8421891587017494e-05 0 0.056403553005362483 -6.0371844310938196e-05 0 0.06018369598090615 0.00023265545036183044 0 0.058701045034651296 0.00023018886075697756 0 0.058690506420523515 5.8421891587017494e-05 0 0.057458928627322908 -0.0005788738552797017 0 0.058690506420523515 5.8421891587017494e-05 0 0.056403553005362483 -6.0371844310938196e-05 0 0.057458928627322908 -0.0005788738552797017 0 0.056403553005362483 -6.0371844310938196e-05 0 0.054329638855018937 -0.00086819527120813374 0 0.056079222550117595 -1.3983646263752985e-07 0 0.056403553005362483 -6.0371844310938196e-05 0 0.05051055629865301 1.0472594196555569e-06 0 0.056403553005362483 -6.0371844310938196e-05 0 0.05051055629865301 1.0472594196555569e-06 0 0.054329638855018937 -0.00086819527120813374 0 0.05051055629865301 1.0472594196555569e-06 0 0.054329638855018937 -0.00086819527120813374 0 0.050934643373187476 -0.00011428975567460137 0 0.054329638855018937 -0.00086819527120813374 0 0.050934643373187476 -0.00011428975567460137 0 0.050144018136627999 -0.00068131499781392776 0 0.05051055629865301 1.0472594196555569e-06 0 0.050934643373187476 -0.00011428975567460137 0 0.044956496581923563 -4.7230095173082743e-06 0 0.052408454505901363 -0.0044535814298120894 0 0.053464577191394955 -0.0019425441882196745 0 0.056018018248295325 -0.0017404376441125229 0 0.057024850756537376 -0.0033178245060846269 0 0.056918340857513045 -0.0029732142542921304 0 0.057458928627322908 -0.0005788738552797017 0 0.054329638855018937 -0.00086819527120813374 0 0.056018018248295325 -0.0017404376441125229 0 0.054329638855018937 -0.00086819527120813374 0 0.056018018248295325 -0.0017404376441125229 0 0.05567887816556373 -0.0012870786687837214 0 0.052610897540929166 -0.0006970387632542444 0 0.051957576013125867 -0.00045483031468409544 0 0.050934643373187476 -0.00011428975567460137 0 0.050144018136627999 -0.00068131499781392776 0 0.050105051217254511 -0.00029425472772584386 0 0.053464577191394955 -0.0019425441882196745 0 0.056018018248295325 -0.0017404376441125229 0 0.05567887816556373 -0.0012870786687837214 0 0.053464577191394955 -0.0019425441882196745 0 0.05567887816556373 -0.0012870786687837214 0 0.0516806878759868 -0.00076770874286368916 0 0.050144018136627999 -0.00068131499781392776 0 0.050105051217254511 -0.00029425472772584386 0 0.047986932003911631 0.00039356598921346235 0 0.051957576013125867 -0.00045483031468409544 0 0.050290567395532094 0.00047139855728705807 0 0.050105051217254511 -0.00029425472772584386 0 0.049284136964319811 0.00077670539283915393 0 0.047986932003911631 0.00039356598921346235 0 0.05567887816556373 -0.0012870786687837214 0 0.051165855746823349 0.0017300286849180385 0 0.0516806878759868 -0.00076770874286368916 0 0.050105051217254511 -0.00029425472772584386 0 0.049284136964319811 0.00077670539283915393 0 0.050622892749239361 -0.00098879256839629103 0 0.04610201819282353 0.00057148638121529204 0 0.045440076680223387 0.00028886968714613158 0 0.040950695586504562 0.0011796977300147101 0 0.042631365264216958 0.0023228617567334904 0 0.040272882333654919 0.00079610909341907687 0 0.040950695586504562 0.0011796977300147101 0 0.042631365264216958 0.0023228617567334904 0 0.042317057255792191 0.00083491071003611889 0 0.049284136964319811 0.00077670539283915393 0 0.047986932003911631 0.00039356598921346235 0 0.047357242505835256 0.00086277824150407588 0 0.04610201819282353 0.00057148638121529204 0 0.046594509369208337 0.00057601330643456544 0 0.042631365264216958 0.0023228617567334904 0 0.044206916916278934 0.00097386082160981307 0 0.047357242505835256 0.00086277824150407588 0 0.042631365264216958 0.0023228617567334904 0 0.042317057255792191 0.00083491071003611889 0 0.044206916916278934 0.00097386082160981307 0 0.044944266865775601 7.5345315467522488e-07 0 0.045440076680223387 0.00028886968714613158 0 0.044935764070380531 -2.1666365240323872e-06 0 0.040272882333654919 0.00079610909341907687 0 0.040019411226801992 0.0010197725597206673 0 0.050934643373187476 -0.00011428975567460137 0 0.044956496581923563 -4.7230095173082743e-06 0 0.050622892749239361 -0.00098879256839629103 0 0.050934643373187476 -0.00011428975567460137 0 0.050105051217254511 -0.00029425472772584386 0 0.050622892749239361 -0.00098879256839629103 0 0.040950695586504562 0.0011796977300147101 0 0.040272882333654919 0.00079610909341907687 0 0.040019411226801992 0.0010197725597206673 0 0.040950695586504562 0.0011796977300147101 0 0.040019411226801992 0.0010197725597206673 0 0.040592775623543395 0.00053178145690582106 0 0.044935764070380531 -2.1666365240323872e-06 0 0.040019411226801992 0.0010197725597206673 0 0.038681870842990358 4.9557455155552478e-06 0 0.040019411226801992 0.0010197725597206673 0 0.038681870842990358 4.9557455155552478e-06 0 0.038273213589209272 0.00021397533410462454 0 0.038681870842990358 4.9557455155552478e-06 0 0.038273213589209272 0.00021397533410462454 0 0.032426738357964349 -7.188656046212321e-06 0 0.039088522089543318 -0.0021794010614522015 0 0.038273213589209272 0.00021397533410462454 0 0.032426738357964349 -7.188656046212321e-06 0 0.039088522089543318 -0.0021794010614522015 0 0.038273213589209272 0.00021397533410462454 0 0.040615690523836526 -0.00076432991069825987 0 0.038273213589209272 0.00021397533410462454 0 0.040592775623543395 0.00053178145690582106 0 0.040615690523836526 -0.00076432991069825987 0 0.040019411226801992 0.0010197725597206673 0 0.038273213589209272 0.00021397533410462454 0 0.040592775623543395 0.00053178145690582106 0 0.040950695586504562 0.0011796977300147101 0 0.040592775623543395 0.00053178145690582106 0 0.042317057255792191 0.00083491071003611889 0 0.040592775623543395 0.00053178145690582106 0 0.042317057255792191 0.00083491071003611889 0 0.042331964159143906 -0.00042116972389605908 0 0.040592775623543395 0.00053178145690582106 0 0.042331964159143906 -0.00042116972389605908 0 0.040615690523836526 -0.00076432991069825987 0 0.044206916916278934 0.00097386082160981307 0 0.044101047955685119 0.00013091313679672182 0 0.045496328636071108 0.00044495347548131794 0 0.042317057255792191 0.00083491071003611889 0 0.044206916916278934 0.00097386082160981307 0 0.044101047955685119 0.00013091313679672182 0 0.042331964159143906 -0.00042116972389605908 0 0.044101047955685119 0.00013091313679672182 0 0.044369567035301087 -0.00071247433316056581 0 0.042317057255792191 0.00083491071003611889 0 0.042331964159143906 -0.00042116972389605908 0 0.044101047955685119 0.00013091313679672182 0 0.044101047955685119 0.00013091313679672182 0 0.044369567035301087 -0.00071247433316056581 0 0.04630822551098554 2.0032203621506453e-05 0 0.031972974225548761 0.0019239173078045022 0 0.036093863533046069 -0.0010718844940346777 0 0.040002036708311477 0.0018258145025050122 0 0.037960535608160005 -5.0948888638061445e-05 0 0.041263970615239468 0.00016505726279347345 0 0.044369567035301087 -0.00071247433316056581 0 0.042791663253513301 -0.0021807661798268732 0 0.045981023393578686 -0.001111174720600593 0 0.042331964159143906 -0.00042116972389605908 0 0.044369567035301087 -0.00071247433316056581 0 0.042791663253513301 -0.0021807661798268732 0 0.039088522089543318 -0.0021794010614522015 0 0.040615690523836526 -0.00076432991069825987 0 0.042791663253513301 -0.0021807661798268732 0 0.035051626361829041 -0.00016212301149237727 0 0.037960535608160005 -5.0948888638061445e-05 0 0.042331964159143906 -0.00042116972389605908 0 0.040615690523836526 -0.00076432991069825987 0 0.042791663253513301 -0.0021807661798268732 0 0.02883927826413861 -9.3982437310434131e-05 0 0.031972974225548761 0.0019239173078045022 0 0.030111640374105249 -0.00046832499686745859 0 0.031972974225548761 0.0019239173078045022 0 0.030111640374105249 -0.00046832499686745859 0 0.036093863533046069 -0.0010718844940346777 0 0.030111640374105249 -0.00046832499686745859 0 0.036093863533046069 -0.0010718844940346777 0 0.037656925619250388 -0.0060282488604552547 0 0.030135664319864371 -0.00017236777515867795 0 0.029500866828446663 -0.00018166497075707683 0 0.029769972142962037 -0.00083634997753228441 0 0.032353225324101106 -0.0019047639261977423 0 0.033827712521387235 -0.0029288675929092355 0 0.030111640374105249 -0.00046832499686745859 0 0.029500866828446663 -0.00018166497075707683 0 0.028526687339634829 0.00036570152325880745 0 0.030111640374105249 -0.00046832499686745859 0 0.030135664319864371 -0.00017236777515867795 0 0.029500866828446663 -0.00018166497075707683 0 0.028526687339634829 0.00036570152325880745 0 0.028400184744173048 -0.00022753655675533226 0 0.026823521806225627 0.00017920171733995112 0 0.029500866828446663 -0.00018166497075707683 0 0.028526687339634829 0.00036570152325880745 0 0.028400184744173048 -0.00022753655675533226 0 0.028526687339634829 0.00036570152325880745 0 0.027536162998805656 3.1784818556025958e-06 0 0.026823521806225627 0.00017920171733995112 0 0.02883927826413861 -9.3982437310434131e-05 0 0.028526687339634829 0.00036570152325880745 0 0.032408997088682855 -2.00707342621796e-06 0 0.035051626361829041 -0.00016212301149237727 0 0.032421475269898081 -7.2782011318680269e-07 0 0.028526687339634829 0.00036570152325880745 0 0.027536162998805656 3.1784818556025958e-06 0 0.032408997088682855 -2.00707342621796e-06 0 0.02883927826413861 -9.3982437310434131e-05 0 0.030111640374105249 -0.00046832499686745859 0 0.028526687339634829 0.00036570152325880745 0 0.04711277675762731 -0.0043700949067630567 0 0.045510205465815363 -0.0021714684306021678 0 0.048574245878364224 -0.001221328108108335 0 0.049200263459910111 -0.0043605491564101167 0 0.04711277675762731 -0.0043700949067630567 0 0.048574245878364224 -0.001221328108108335 0 0.049200263459910111 -0.0043605491564101167 0 0.048574245878364224 -0.001221328108108335 0 0.050911692284813084 -0.0028068691921221576 0 0.049200263459910111 -0.0043605491564101167 0 0.047843684749812834 -0.0062673505544211692 0 0.04711277675762731 -0.0043700949067630567 0 0.049200263459910111 -0.0043605491564101167 0 0.051178214373599609 -0.0053232652680284065 0 0.049484671887294739 -0.0066774729453509783 0 0.049200263459910111 -0.0043605491564101167 0 0.047843684749812834 -0.0062673505544211692 0 0.049484671887294739 -0.0066774729453509783 0 0.047843684749812834 -0.0062673505544211692 0 0.04711277675762731 -0.0043700949067630567 0 0.04584995173440802 -0.0063508794298593654 0 0.04711277675762731 -0.0043700949067630567 0 0.04584995173440802 -0.0063508794298593654 0 0.044000375515204561 -0.004943488202558086 0 0.04711277675762731 -0.0043700949067630567 0 0.044000375515204561 -0.004943488202558086 0 0.045510205465815363 -0.0021714684306021678 0 0.04584995173440802 -0.0063508794298593654 0 0.044000375515204561 -0.004943488202558086 0 0.043296549702532272 -0.0083773659358292469 0 0.037656925619250388 -0.0060282488604552547 0 0.044000375515204561 -0.004943488202558086 0 0.040685377452069016 -0.0026132677740138962 0 0.037656925619250388 -0.0060282488604552547 0 0.044000375515204561 -0.004943488202558086 0 0.043296549702532272 -0.0083773659358292469 0 0.036093863533046069 -0.0010718844940346777 0 0.040685377452069016 -0.0026132677740138962 0 0.040002036708311477 0.0018258145025050122 0 0.036093863533046069 -0.0010718844940346777 0 0.037656925619250388 -0.0060282488604552547 0 0.040685377452069016 -0.0026132677740138962 0 0.040685377452069016 -0.0026132677740138962 0 0.045510205465815363 -0.0021714684306021678 0 0.040002036708311477 0.0018258145025050122 0 0.044000375515204561 -0.004943488202558086 0 0.040685377452069016 -0.0026132677740138962 0 0.045510205465815363 -0.0021714684306021678 0 0.042961405438519527 0.00025590852187420011 0 0.041263970615239468 0.00016505726279347345 0 0.045510205465815363 -0.0021714684306021678 0 0.046596348520307161 3.593920272683192e-05 0 0.040002036708311477 0.0018258145025050122 0 0.046596348520307161 3.593920272683192e-05 0 0.045981023393578686 -0.001111174720600593 0 0.04630822551098554 2.0032203621506453e-05 0 0.044369567035301087 -0.00071247433316056581 0 0.045981023393578686 -0.001111174720600593 0 0.04630822551098554 2.0032203621506453e-05 0 0.044206916916278934 0.00097386082160981307 0 0.045496328636071108 0.00044495347548131794 0 0.047357242505835256 0.00086277824150407588 0 0.044101047955685119 0.00013091313679672182 0 0.04630822551098554 2.0032203621506453e-05 0 0.045496328636071108 0.00044495347548131794 0 0.04630822551098554 2.0032203621506453e-05 0 0.047178267622304058 0.00093359703778135821 0 0.047357242505835256 0.00086277824150407588 0 0.04630822551098554 2.0032203621506453e-05 0 0.045496328636071108 0.00044495347548131794 0 0.047357242505835256 0.00086277824150407588 0 0.047178267622304058 0.00093359703778135821 0 0.048242775132288918 0.00066298242778223358 0 0.048191834313916507 0.0010177968106058046 0 0.046596348520307161 3.593920272683192e-05 0 0.04630822551098554 2.0032203621506453e-05 0 0.047178267622304058 0.00093359703778135821 0 0.046596348520307161 3.593920272683192e-05 0 0.047178267622304058 0.00093359703778135821 0 0.048242775132288918 0.00066298242778223358 0 0.046596348520307161 3.593920272683192e-05 0 0.048242775132288918 0.00066298242778223358 0 0.048574245878364224 -0.001221328108108335 0 0.045510205465815363 -0.0021714684306021678 0 0.046596348520307161 3.593920272683192e-05 0 0.048574245878364224 -0.001221328108108335 0 0.048574245878364224 -0.001221328108108335 0 0.049463572841910344 0.00037391419978580561 0 0.050242815152312659 -0.000634411266009746 0 0.048242775132288918 0.00066298242778223358 0 0.048574245878364224 -0.001221328108108335 0 0.049463572841910344 0.00037391419978580561 0 0.048242775132288918 0.00066298242778223358 0 0.049463572841910344 0.00037391419978580561 0 0.049089560641509274 0.00077184428973659945 0 0.048242775132288918 0.00066298242778223358 0 0.04858490045920176 0.00084554219138228514 0 0.048191834313916507 0.0010177968106058046 0 0.048242775132288918 0.00066298242778223358 0 0.049089560641509274 0.00077184428973659945 0 0.04858490045920176 0.00084554219138228514 0 0.04858490045920176 0.00084554219138228514 0 0.048734365994212402 0.0005751874320324208 0 0.0488968564503253 0.00060556901517560386 0 0.049089560641509274 0.00077184428973659945 0 0.04858490045920176 0.00084554219138228514 0 0.0488968564503253 0.00060556901517560386 0 0.049089560641509274 0.00077184428973659945 0 0.0488968564503253 0.00060556901517560386 0 0.04949900159788579 0.00081466483893354426 0 0.047178267622304058 0.00093359703778135821 0 0.047986932003911631 0.00039356598921346235 0 0.047357242505835256 0.00086277824150407588 0 0.049376406172004644 0.0008845050521554044 0 0.050290567395532094 0.00047139855728705807 0 0.051165855746823349 0.0017300286849180385 0 0.048458768550391822 0.0011557672844020683 0 0.049427426960521638 0.001127750282449505 0 0.047178267622304058 0.00093359703778135821 0 0.051165855746823349 0.0017300286849180385 0 0.048458768550391822 0.0011557672844020683 0 0.048458768550391822 0.0011557672844020683 0 0.048713813206001641 0.00098930801797972377 0 0.049427426960521638 0.001127750282449505 0 0.047178267622304058 0.00093359703778135821 0 0.048458768550391822 0.0011557672844020683 0 0.048191834313916507 0.0010177968106058046 0 0.048458768550391822 0.0011557672844020683 0 0.048191834313916507 0.0010177968106058046 0 0.048713813206001641 0.00098930801797972377 0 0.04858490045920176 0.00084554219138228514 0 0.048191834313916507 0.0010177968106058046 0 0.048713813206001641 0.00098930801797972377 0 0.04858490045920176 0.00084554219138228514 0 0.048713813206001641 0.00098930801797972377 0 0.048734365994212402 0.0005751874320324208 0 0.048734365994212402 0.0005751874320324208 0 0.049754954442453481 0.0005984121741927287 0 0.048772989676966153 -0.00016463115418011468 0 0.048713813206001641 0.00098930801797972377 0 0.049427426960521638 0.001127750282449505 0 0.049754954442453481 0.0005984121741927287 0 0.048713813206001641 0.00098930801797972377 0 0.048734365994212402 0.0005751874320324208 0 0.049754954442453481 0.0005984121741927287 0 0.051165855746823349 0.0017300286849180385 0 0.049754954442453481 0.0005984121741927287 0 0.0516806878759868 -0.00076770874286368916 0 0.051165855746823349 0.0017300286849180385 0 0.049427426960521638 0.001127750282449505 0 0.049754954442453481 0.0005984121741927287 0 0.053464577191394955 -0.0019425441882196745 0 0.0516806878759868 -0.00076770874286368916 0 0.050679842318443802 -0.0020070576353228729 0 0.0516806878759868 -0.00076770874286368916 0 0.048772989676966153 -0.00016463115418011468 0 0.050679842318443802 -0.0020070576353228729 0 0.049754954442453481 0.0005984121741927287 0 0.0516806878759868 -0.00076770874286368916 0 0.048772989676966153 -0.00016463115418011468 0 0.054615073408477439 -0.0012958479556441193 0 0.055534161792171188 -0.0018938191851173855 0 0.048772989676966153 -0.00016463115418011468 0 0.048670597128835494 -0.0034756001004980813 0 0.050679842318443802 -0.0020070576353228729 0 0.048772989676966153 -0.00016463115418011468 0 0.048659607896648568 0.00080725460087645372 0 0.049021262456693505 0.0005048812861279333 0 0.052408454505901363 -0.0044535814298120894 0 0.048670597128835494 -0.0034756001004980813 0 0.050679842318443802 -0.0020070576353228729 0 0.052408454505901363 -0.0044535814298120894 0 0.053464577191394955 -0.0019425441882196745 0 0.050679842318443802 -0.0020070576353228729 0 0.0488968564503253 0.00060556901517560386 0 0.04927529374288693 0.00080325935032159819 0 0.04949900159788579 0.00081466483893354426 0 0.0488968564503253 0.00060556901517560386 0 0.049021262456693505 0.0005048812861279333 0 0.04927529374288693 0.00080325935032159819 0 0.048734365994212402 0.0005751874320324208 0 0.048772989676966153 -0.00016463115418011468 0 0.0488968564503253 0.00060556901517560386 0 0.048772989676966153 -0.00016463115418011468 0 0.0488968564503253 0.00060556901517560386 0 0.049021262456693505 0.0005048812861279333 0 0.049021262456693505 0.0005048812861279333 0 0.04910414532305097 0.00089864299471113026 0 0.04927529374288693 0.00080325935032159819 0 0.048659607896648568 0.00080725460087645372 0 0.049021262456693505 0.0005048812861279333 0 0.04910414532305097 0.00089864299471113026 0 0.049397090549200301 0.0011714413121710163 0 0.04910414532305097 0.00089864299471113026 0 0.04927529374288693 0.00080325935032159819 0 0.049397090549200301 0.0011714413121710163 0 0.04927529374288693 0.00080325935032159819 0 0.049558177673770035 0.0010241299966928399 0 0.04927529374288693 0.00080325935032159819 0 0.049558177673770035 0.0010241299966928399 0 0.049614963389273424 0.0009323268966953802 0 0.049558177673770035 0.0010241299966928399 0 0.049614963389273424 0.0009323268966953802 0 0.0497664824169562 0.0010515596656139785 0 0.049614963389273424 0.0009323268966953802 0 0.04949900159788579 0.00081466483893354426 0 0.049961443427937451 0.00093297892074620681 0 0.04927529374288693 0.00080325935032159819 0 0.049614963389273424 0.0009323268966953802 0 0.04949900159788579 0.00081466483893354426 0 0.051887406333016438 0.00013835659022630418 0 0.052012180410481154 0.00018010125985115478 0 0.051969837187962685 0.00017004116068700928 0 0.049614963389273424 0.0009323268966953802 0 0.049961443427937451 0.00093297892074620681 0 0.0497664824169562 0.0010515596656139785 0 0.055217229426164277 0.00084005727247087709 0 0.059191445334155109 0.00030130463279210286 0 0.051987579679945863 0.00017475441444826569 0 0.052012180410481154 0.00018010125985115478 0 0.051969837187962685 0.00017004116068700928 0 0.051987579679945863 0.00017475441444826569 0 0.051969837187962685 0.00017004116068700928 0 0.051988266854749991 0.00017254162442940308 0 0.052015784013316899 0.00019756236195511093 0 0.051988266854749991 0.00017254162442940308 0 0.05203273487814581 0.00015517948583689515 0 0.051961163620874939 0.00014913740028264089 0 0.05203273487814581 0.00015517948583689515 0 0.052003951573609764 0.00013709164293753477 0 0.051988266854749991 0.00017254162442940308 0 0.051961163620874939 0.00014913740028264089 0 0.05203273487814581 0.00015517948583689515 0 0.051969837187962685 0.00017004116068700928 0 0.051988266854749991 0.00017254162442940308 0 0.051961163620874939 0.00014913740028264089 0 0.052082011397431779 0.00023722512000821805 0 0.052197564086856128 7.167533998838599e-05 0 0.052336365254485616 -7.2798586510661222e-05 0 0.059448688152869092 0.00048154296661951387 0 0.057058532949562306 0.0011483220719126972 0 0.052082011397431779 0.00023722512000821805 0 0.052197564086856128 7.167533998838599e-05 0 0.052105052273498369 0.00013319516559724578 0 0.052082011397431779 0.00023722512000821805 0 0.05203273487814581 0.00015517948583689515 0 0.052105052273498369 0.00013319516559724578 0 0.052015784013316899 0.00019756236195511093 0 0.052082011397431779 0.00023722512000821805 0 0.05203273487814581 0.00015517948583689515 0 0.05203273487814581 0.00015517948583689515 0 0.052105052273498369 0.00013319516559724578 0 0.052110211994810585 0.00013171017685986456 0 0.05203273487814581 0.00015517948583689515 0 0.052110211994810585 0.00013171017685986456 0 0.052003951573609764 0.00013709164293753477 0 0.052197564086856128 7.167533998838599e-05 0 0.052110211994810585 0.00013171017685986456 0 0.052191676835795224 0.00014289855030989309 0 0.052197564086856128 7.167533998838599e-05 0 0.052105052273498369 0.00013319516559724578 0 0.052110211994810585 0.00013171017685986456 0 0.051997217635000939 0.00013789094231457944 0 0.052096412529224596 0.00018340308474550969 0 0.052050929652301264 8.1062170953290821e-05 0 0.052110211994810585 0.00013171017685986456 0 0.051997217635000939 0.00013789094231457944 0 0.052096412529224596 0.00018340308474550969 0 0.052110211994810585 0.00013171017685986456 0 0.052003951573609764 0.00013709164293753477 0 0.051997217635000939 0.00013789094231457944 0 0.052003951573609764 0.00013709164293753477 0 0.051997217635000939 0.00013789094231457944 0 0.051902849213223086 0.00012248708144642321 0 0.051887406333016438 0.00013835659022630418 0 0.051961163620874939 0.00014913740028264089 0 0.051902849213223086 0.00012248708144642321 0 0.051887406333016438 0.00013835659022630418 0 0.051969837187962685 0.00017004116068700928 0 0.051961163620874939 0.00014913740028264089 0 0.051961163620874939 0.00014913740028264089 0 0.052003951573609764 0.00013709164293753477 0 0.051902849213223086 0.00012248708144642321 0 0.051902849213223086 0.00012248708144642321 0 0.051887102141816716 6.5653751948691657e-05 0 0.051695079034597635 3.9460188933478995e-05 0 0.051887406333016438 0.00013835659022630418 0 0.051902849213223086 0.00012248708144642321 0 0.051695079034597635 3.9460188933478995e-05 0 0.051997217635000939 0.00013789094231457944 0 0.051887102141816716 6.5653751948691657e-05 0 0.052050929652301264 8.1062170953290821e-05 0 0.051997217635000939 0.00013789094231457944 0 0.051902849213223086 0.00012248708144642321 0 0.051887102141816716 6.5653751948691657e-05 0 0.051887102141816716 6.5653751948691657e-05 0 0.051923184519422627 -4.7702696691691403e-05 0 0.052050929652301264 8.1062170953290821e-05 0 0.051887102141816716 6.5653751948691657e-05 0 0.051923184519422627 -4.7702696691691403e-05 0 0.051721290928230142 -1.70453018085858e-05 0 0.051923184519422627 -4.7702696691691403e-05 0 0.051721290928230142 -1.70453018085858e-05 0 0.051739559165132849 -0.00017556578592685978 0 0.053564643466722968 0.00053699984106950422 0 0.053137854568635283 0.00027588538638351445 0 0.051721290928230142 -1.70453018085858e-05 0 0.051695079034597635 3.9460188933478995e-05 0 0.051276677846263066 -0.00020086524309051698 0 0.051887102141816716 6.5653751948691657e-05 0 0.051721290928230142 -1.70453018085858e-05 0 0.051695079034597635 3.9460188933478995e-05 0 0.050502436221348743 0.00066640661337647117 0 0.049860909789696345 0.000693871055933527 0 0.050194146643914771 0.0002291763288108637 0 0.050502436221348743 0.00066640661337647117 0 0.050194146643914771 0.0002291763288108637 0 0.051276677846263066 -0.00020086524309051698 0 0.049463572841910344 0.00037391419978580561 0 0.049089560641509274 0.00077184428973659945 0 0.049860909789696345 0.000693871055933527 0 0.049463572841910344 0.00037391419978580561 0 0.049860909789696345 0.000693871055933527 0 0.050194146643914771 0.0002291763288108637 0 0.04949900159788579 0.00081466483893354426 0 0.049961443427937451 0.00093297892074620681 0 0.049860909789696345 0.000693871055933527 0 0.049089560641509274 0.00077184428973659945 0 0.04949900159788579 0.00081466483893354426 0 0.049860909789696345 0.000693871055933527 0 0.049961443427937451 0.00093297892074620681 0 0.050502436221348743 0.00066640661337647117 0 0.049860909789696345 0.000693871055933527 0 0.055217229426164277 0.00084005727247087709 0 0.053564643466722968 0.00053699984106950422 0 0.078002246719668628 -0.015826024032838542 0 0.079462145834589409 -0.014275901839840687 0 0.077639879148414956 -0.012421943783072638 0 0.079462145834589409 -0.014275901839840687 0 0.079970803122948464 -0.012608804030857157 0 0.077639879148414956 -0.012421943783072638 0 0.078002246719668628 -0.015826024032838542 0 0.080459578528322806 -0.015879464739324396 0 0.079462145834589409 -0.014275901839840687 0 0.080053554679371197 -0.017751504727185771 0 0.078002246719668628 -0.015826024032838542 0 0.080459578528322806 -0.015879464739324396 0 0.080459578528322806 -0.015879464739324396 0 0.079462145834589409 -0.014275901839840687 0 0.081136543574414202 -0.014568595967086335 0 0.081829908137478161 -0.012816936435929415 0 0.081136543574414202 -0.014568595967086335 0 0.079970803122948464 -0.012608804030857157 0 0.079462145834589409 -0.014275901839840687 0 0.081136543574414202 -0.014568595967086335 0 0.079970803122948464 -0.012608804030857157 0 0.081829908137478161 -0.012816936435929415 0 0.081136543574414202 -0.014568595967086335 0 0.083229088065420939 -0.015477979745653422 0 0.069786794944224601 -0.0057065073657830883 0 0.069606786502568907 -0.0068632038567272673 0 0.052316308434500511 0.00014881127993935387 0 0.051994843693388935 0.00028221199548542129 0 0.052143729871419825 0.00014752876564403199 0 0.080459578528322806 -0.015879464739324396 0 0.081136543574414202 -0.014568595967086335 0 0.082051616492299043 -0.016276930563879362 0 0.081136543574414202 -0.014568595967086335 0 0.082051616492299043 -0.016276930563879362 0 0.083229088065420939 -0.015477979745653422 0 0.081269485364047989 -0.017294287783332328 0 0.080459578528322806 -0.015879464739324396 0 0.082051616492299043 -0.016276930563879362 0 0.053224278395797582 -0.001575277717887904 0 0.051994843693388935 0.00028221199548542129 0 0.052336365254485616 -7.2798586510661222e-05 0 0.083083744346387836 -0.01713586469408945 0 0.082051616492299043 -0.016276930563879362 0 0.083229088065420939 -0.015477979745653422 0 0.051994843693388935 0.00028221199548542129 0 0.052191676835795224 0.00014289855030989309 0 0.052096412529224596 0.00018340308474550969 0 0.052197564086856128 7.167533998838599e-05 0 0.052336365254485616 -7.2798586510661222e-05 0 0.052191676835795224 0.00014289855030989309 0 0.051994843693388935 0.00028221199548542129 0 0.052336365254485616 -7.2798586510661222e-05 0 0.052191676835795224 0.00014289855030989309 0 0.052110211994810585 0.00013171017685986456 0 0.052191676835795224 0.00014289855030989309 0 0.052096412529224596 0.00018340308474550969 0 0.052096412529224596 0.00018340308474550969 0 0.052143729871419825 0.00014752876564403199 0 0.052050929652301264 8.1062170953290821e-05 0 0.051994843693388935 0.00028221199548542129 0 0.052096412529224596 0.00018340308474550969 0 0.052143729871419825 0.00014752876564403199 0 0.052143729871419825 0.00014752876564403199 0 0.052050929652301264 8.1062170953290821e-05 0 0.052236786388308559 -2.7068849744472953e-05 0 0.052050929652301264 8.1062170953290821e-05 0 0.052081662146632818 -2.7465876890444699e-05 0 0.052236786388308559 -2.7068849744472953e-05 0 0.051923184519422627 -4.7702696691691403e-05 0 0.052050929652301264 8.1062170953290821e-05 0 0.052081662146632818 -2.7465876890444699e-05 0 0.052117260852378222 -0.00015950780834763422 0 0.052236786388308559 -2.7068849744472953e-05 0 0.052289140317466253 -0.00029809165673998878 0 0.051923184519422627 -4.7702696691691403e-05 0 0.052081662146632818 -2.7465876890444699e-05 0 0.052117260852378222 -0.00015950780834763422 0 0.051923184519422627 -4.7702696691691403e-05 0 0.052117260852378222 -0.00015950780834763422 0 0.05193103448262839 -0.0002831679298512513 0 0.052081662146632818 -2.7465876890444699e-05 0 0.052117260852378222 -0.00015950780834763422 0 0.052236786388308559 -2.7068849744472953e-05 0 0.072782001423238749 -0.0062151161503319194 0 0.066110163846271941 -0.0050009335570349285 0 0.052236786388308559 -2.7068849744472953e-05 0 0.052535083133250497 -6.8573865961696348e-05 0 0.052289140317466253 -0.00029809165673998878 0 0.052316308434500511 0.00014881127993935387 0 0.052236786388308559 -2.7068849744472953e-05 0 0.052535083133250497 -6.8573865961696348e-05 0 0.052316308434500511 0.00014881127993935387 0 0.052143729871419825 0.00014752876564403199 0 0.052236786388308559 -2.7068849744472953e-05 0 0.079970803122948464 -0.012608804030857157 0 0.080183449125587891 -0.010277401739755953 0 0.077639879148414956 -0.012421943783072638 0 0.081829908137478161 -0.012816936435929415 0 0.079970803122948464 -0.012608804030857157 0 0.080183449125587891 -0.010277401739755953 0 0.069786794944224601 -0.0057065073657830883 0 0.072782001423238749 -0.0062151161503319194 0 0.077187146600285333 -0.0082296589557450117 0 0.076687089390849617 -0.0081515375546772142 0 0.077508578652193086 -0.0075390953311047487 0 0.077187146600285333 -0.0082296589557450117 0 0.077248028847710551 -0.0083075057831337243 0 0.077508578652193086 -0.0075390953311047487 0 0.077187146600285333 -0.0082296589557450117 0 0.077394837829517241 -0.0083733615218932137 0 0.076687089390849617 -0.0081515375546772142 0 0.072829170123768508 -0.0062665796393799409 0 0.072782001423238749 -0.0062151161503319194 0 0.077394837829517241 -0.0083733615218932137 0 0.076687089390849617 -0.0081515375546772142 0 0.076046002550760675 -0.0088039368401315616 0 0.076687089390849617 -0.0081515375546772142 0 0.075259446042538411 -0.0074458953627678619 0 0.0758065076714661 -0.0060731219650169456 0 0.076687089390849617 -0.0081515375546772142 0 0.075259446042538411 -0.0074458953627678619 0 0.076046002550760675 -0.0088039368401315616 0 0.075259446042538411 -0.0074458953627678619 0 0.076046002550760675 -0.0088039368401315616 0 0.074215869836998682 -0.0082786335180016889 0 0.077394837829517241 -0.0083733615218932137 0 0.076046002550760675 -0.0088039368401315616 0 0.076041639704566857 -0.010727588969592611 0 0.076046002550760675 -0.0088039368401315616 0 0.076041639704566857 -0.010727588969592611 0 0.074215869836998682 -0.0082786335180016889 0 0.072782001423238749 -0.0062151161503319194 0 0.074176207140536202 -0.0095267915786098837 0 0.077135369492341066 -0.0023662453599888971 0 0.075308870297240635 -0.003741973607476066 0 0.07242550712168945 0.00042972596030169368 0 0.077135369492341066 -0.0023662453599888971 0 0.078941039542141198 -0.0010504506368936039 0 0.07242550712168945 0.00042972596030169368 0 0.077135369492341066 -0.0023662453599888971 0 0.075308870297240635 -0.003741973607476066 0 0.07718579181811204 -0.0043871423356033204 0 0.075308870297240635 -0.003741973607476066 0 0.0758065076714661 -0.0060731219650169456 0 0.073444804124352253 -0.0052434935017551905 0 0.075259446042538411 -0.0074458953627678619 0 0.0758065076714661 -0.0060731219650169456 0 0.073444804124352253 -0.0052434935017551905 0 0.076687089390849617 -0.0081515375546772142 0 0.0758065076714661 -0.0060731219650169456 0 0.07780909919754847 -0.0060695823544375301 0 0.075308870297240635 -0.003741973607476066 0 0.0758065076714661 -0.0060731219650169456 0 0.07718579181811204 -0.0043871423356033204 0 0.0758065076714661 -0.0060731219650169456 0 0.07718579181811204 -0.0043871423356033204 0 0.07780909919754847 -0.0060695823544375301 0 0.076687089390849617 -0.0081515375546772142 0 0.07780909919754847 -0.0060695823544375301 0 0.080558502109303917 -0.0051622489195943576 0 0.07718579181811204 -0.0043871423356033204 0 0.078691878376070931 -0.0047644406912674617 0 0.079232059082129352 -0.0034094566886665838 0 0.074516982174071003 -0.0040459911542019347 0 0.073645338416176709 -0.0027991134957158865 0 0.07718579181811204 -0.0043871423356033204 0 0.078691878376070931 -0.0047644406912674617 0 0.07780909919754847 -0.0060695823544375301 0 0.078691878376070931 -0.0047644406912674617 0 0.07780909919754847 -0.0060695823544375301 0 0.080558502109303917 -0.0051622489195943576 0 0.078691878376070931 -0.0047644406912674617 0 0.079232059082129352 -0.0034094566886665838 0 0.080558502109303917 -0.0051622489195943576 0 0.079232059082129352 -0.0034094566886665838 0 0.08051706351906282 -0.0034363102392558193 0 0.080558502109303917 -0.0051622489195943576 0 0.079232059082129352 -0.0034094566886665838 0 0.080578631750710214 -0.0022978078146896732 0 0.08051706351906282 -0.0034363102392558193 0 0.077135369492341066 -0.0023662453599888971 0 0.07718579181811204 -0.0043871423356033204 0 0.079232059082129352 -0.0034094566886665838 0 0.077135369492341066 -0.0023662453599888971 0 0.079232059082129352 -0.0034094566886665838 0 0.079180646392024184 -0.0021980421214170204 0 0.077135369492341066 -0.0023662453599888971 0 0.079180646392024184 -0.0021980421214170204 0 0.078941039542141198 -0.0010504506368936039 0 0.079180646392024184 -0.0021980421214170204 0 0.080578631750710214 -0.0022978078146896732 0 0.078941039542141198 -0.0010504506368936039 0 0.079232059082129352 -0.0034094566886665838 0 0.079180646392024184 -0.0021980421214170204 0 0.080578631750710214 -0.0022978078146896732 0 0.080578631750710214 -0.0022978078146896732 0 0.081687144972243594 -0.0028672827479753011 0 0.084260961632517756 -0.001767142380186123 0 0.080578631750710214 -0.0022978078146896732 0 0.084260961632517756 -0.001767142380186123 0 0.078941039542141198 -0.0010504506368936039 0 0.06534737086742172 -0.0027539497788229969 0 0.067472617747844327 -0.00082065348965367543 0 0.081687144972243594 -0.0028672827479753011 0 0.080558502109303917 -0.0051622489195943576 0 0.084260961632517756 -0.001767142380186123 0 0.073645338416176709 -0.0027991134957158865 0 0.06534737086742172 -0.0027539497788229969 0 0.081687144972243594 -0.0028672827479753011 0 0.08051706351906282 -0.0034363102392558193 0 0.080558502109303917 -0.0051622489195943576 0 0.080578631750710214 -0.0022978078146896732 0 0.081687144972243594 -0.0028672827479753011 0 0.08051706351906282 -0.0034363102392558193 0 0.077508578652193086 -0.0075390953311047487 0 0.077739863480385862 -0.0075875038908751425 0 0.077805392906702728 -0.0072547349235149872 0 0.077248028847710551 -0.0083075057831337243 0 0.077508578652193086 -0.0075390953311047487 0 0.077739863480385862 -0.0075875038908751425 0 0.052289140317466253 -0.00029809165673998878 0 0.052074576185769751 -0.00035582540847776798 0 0.051956628111608276 -0.00074783168357364259 0 0.052117260852378222 -0.00015950780834763422 0 0.052289140317466253 -0.00029809165673998878 0 0.052074576185769751 -0.00035582540847776798 0 0.052117260852378222 -0.00015950780834763422 0 0.052074576185769751 -0.00035582540847776798 0 0.05193103448262839 -0.0002831679298512513 0 0.066110163846271941 -0.0050009335570349285 0 0.06088765253844778 -0.0039821943052399042 0 0.077739863480385862 -0.0075875038908751425 0 0.077805392906702728 -0.0072547349235149872 0 0.077943473113592537 -0.0072628735024524394 0 0.06534737086742172 -0.0027539497788229969 0 0.06088765253844778 -0.0039821943052399042 0 0.055619259213734965 0.001740367353204583 0 0.055469383828714608 0.0012915936810823701 0 0.054447114204638374 0.0013562329532076475 0 0.055762394049166997 0.0025312149777199288 0 0.055619259213734965 0.001740367353204583 0 0.054447114204638374 0.0013562329532076475 0 0.055762394049166997 0.0025312149777199288 0 0.055619259213734965 0.001740367353204583 0 0.056275298286129621 0.0019976469096671117 0 0.056149283369830126 0.0015250870793705865 0 0.055619259213734965 0.001740367353204583 0 0.056275298286129621 0.0019976469096671117 0 0.056149283369830126 0.0015250870793705865 0 0.055619259213734965 0.001740367353204583 0 0.055469383828714608 0.0012915936810823701 0 0.055469383828714608 0.0012915936810823701 0 0.055973131942121106 0.00090422743638127363 0 0.055109069415326922 0.00063434595050664857 0 0.055973131942121106 0.00090422743638127363 0 0.055109069415326922 0.00063434595050664857 0 0.056000954320386993 0.00016844323505427541 0 0.056149283369830126 0.0015250870793705865 0 0.055469383828714608 0.0012915936810823701 0 0.055973131942121106 0.00090422743638127363 0 0.056149283369830126 0.0015250870793705865 0 0.055973131942121106 0.00090422743638127363 0 0.056677505242282503 0.001273672051734882 0 0.055973131942121106 0.00090422743638127363 0 0.056677505242282503 0.001273672051734882 0 0.05662971535399839 0.00062185838586734359 0 0.055973131942121106 0.00090422743638127363 0 0.05662971535399839 0.00062185838586734359 0 0.056000954320386993 0.00016844323505427541 0 0.05662971535399839 0.00062185838586734359 0 0.057305085669490968 0.0010638453837554479 0 0.057239459500117447 0.00037311296231958165 0 0.05662971535399839 0.00062185838586734359 0 0.057239459500117447 0.00037311296231958165 0 0.056774147854721742 -4.4620087978257027e-05 0 0.056677505242282503 0.001273672051734882 0 0.05662971535399839 0.00062185838586734359 0 0.057305085669490968 0.0010638453837554479 0 0.055762394049166997 0.0025312149777199288 0 0.056881379044929493 0.0020349196533848398 0 0.057805796253965799 0.0023444555050495561 0 0.056677505242282503 0.001273672051734882 0 0.057175462317027179 0.0016409683295161666 0 0.057305085669490968 0.0010638453837554479 0 0.055762394049166997 0.0025312149777199288 0 0.056275298286129621 0.0019976469096671117 0 0.056881379044929493 0.0020349196533848398 0 0.057175462317027179 0.0016409683295161666 0 0.056709754591284418 0.0017167060280940927 0 0.056881379044929493 0.0020349196533848398 0 0.056677505242282503 0.001273672051734882 0 0.057175462317027179 0.0016409683295161666 0 0.056709754591284418 0.0017167060280940927 0 0.056149283369830126 0.0015250870793705865 0 0.056709754591284418 0.0017167060280940927 0 0.056275298286129621 0.0019976469096671117 0 0.056149283369830126 0.0015250870793705865 0 0.056677505242282503 0.001273672051734882 0 0.056709754591284418 0.0017167060280940927 0 0.056709754591284418 0.0017167060280940927 0 0.056275298286129621 0.0019976469096671117 0 0.056881379044929493 0.0020349196533848398 0 0.057175462317027179 0.0016409683295161666 0 0.056881379044929493 0.0020349196533848398 0 0.057576541009564226 0.0019726040291148522 0 0.056881379044929493 0.0020349196533848398 0 0.057576541009564226 0.0019726040291148522 0 0.057805796253965799 0.0023444555050495561 0 0.057576541009564226 0.0019726040291148522 0 0.057803434278073586 0.0020445247591093178 0 0.057803134231789406 0.0018243761629987774 0 0.057576541009564226 0.0019726040291148522 0 0.057803434278073586 0.0020445247591093178 0 0.057805796253965799 0.0023444555050495561 0 0.057803134231789406 0.0018243761629987774 0 0.058028029828866727 0.0020739421619725734 0 0.058006751253708008 0.001493063783250858 0 0.057803434278073586 0.0020445247591093178 0 0.057805796253965799 0.0023444555050495561 0 0.058028029828866727 0.0020739421619725734 0 0.057803434278073586 0.0020445247591093178 0 0.057803134231789406 0.0018243761629987774 0 0.058028029828866727 0.0020739421619725734 0 0.057803134231789406 0.0018243761629987774 0 0.058006751253708008 0.001493063783250858 0 0.057619393731606697 0.0015247615184458571 0 0.058006751253708008 0.001493063783250858 0 0.057619393731606697 0.0015247615184458571 0 0.057788116948147859 0.0011573900166024563 0 0.057175462317027179 0.0016409683295161666 0 0.057619393731606697 0.0015247615184458571 0 0.057305085669490968 0.0010638453837554479 0 0.057576541009564226 0.0019726040291148522 0 0.057803134231789406 0.0018243761629987774 0 0.057619393731606697 0.0015247615184458571 0 0.057175462317027179 0.0016409683295161666 0 0.057576541009564226 0.0019726040291148522 0 0.057619393731606697 0.0015247615184458571 0 0.057305085669490968 0.0010638453837554479 0 0.057787700054398101 0.00063760888259067016 0 0.057788116948147859 0.0011573900166024563 0 0.057619393731606697 0.0015247615184458571 0 0.057305085669490968 0.0010638453837554479 0 0.057788116948147859 0.0011573900166024563 0 0.057305085669490968 0.0010638453837554479 0 0.057239459500117447 0.00037311296231958165 0 0.057787700054398101 0.00063760888259067016 0 0.057787700054398101 0.00063760888259067016 0 0.058183414888339072 0.0010018582352773772 0 0.058382056460749572 0.00061247777707329921 0 0.058006751253708008 0.001493063783250858 0 0.057788116948147859 0.0011573900166024563 0 0.058183414888339072 0.0010018582352773772 0 0.057787700054398101 0.00063760888259067016 0 0.057788116948147859 0.0011573900166024563 0 0.058183414888339072 0.0010018582352773772 0 0.058183414888339072 0.0010018582352773772 0 0.058382056460749572 0.00061247777707329921 0 0.058659984822035133 0.0010896281469645363 0 0.058006751253708008 0.001493063783250858 0 0.058183414888339072 0.0010018582352773772 0 0.058659984822035133 0.0010896281469645363 0 0.058382056460749572 0.00061247777707329921 0 0.058659984822035133 0.0010896281469645363 0 0.059360465158643419 0.00032557862829211878 0 0.058028029828866727 0.0020739421619725734 0 0.059743414934141245 0.00067267009023302092 0 0.060853515405476087 0.0019047084824798134 0 0.057805796253965799 0.0023444555050495561 0 0.058028029828866727 0.0020739421619725734 0 0.060853515405476087 0.0019047084824798134 0 0.067472617747844327 -0.00082065348965367543 0 0.066073765288779118 0.00018004826081169555 0 0.054488792820591977 6.2306058430098782e-05 0 0.05285613912569985 0.00057664275468040989 0 0.058028029828866727 0.0020739421619725734 0 0.058006751253708008 0.001493063783250858 0 0.058659984822035133 0.0010896281469645363 0 0.050242815152312659 -0.000634411266009746 0 0.054159365263079969 -0.00085835340423863081 0 0.05244156289134104 -0.0021212510043657198 0 0.052027411126404341 -0.0016900849698347916 0 0.053898343769675068 -0.0021735135767686322 0 0.050242815152312659 -0.000634411266009746 0 0.050688607446122254 -0.00036112615086712166 0 0.051093486123582658 -0.00073705127140802937 0 0.050242815152312659 -0.000634411266009746 0 0.05244156289134104 -0.0021212510043657198 0 0.050911692284813084 -0.0028068691921221576 0 0.048574245878364224 -0.001221328108108335 0 0.050242815152312659 -0.000634411266009746 0 0.050911692284813084 -0.0028068691921221576 0 0.049463572841910344 0.00037391419978580561 0 0.050242815152312659 -0.000634411266009746 0 0.050194146643914771 0.0002291763288108637 0 0.050242815152312659 -0.000634411266009746 0 0.050194146643914771 0.0002291763288108637 0 0.050688607446122254 -0.00036112615086712166 0 0.050194146643914771 0.0002291763288108637 0 0.050688607446122254 -0.00036112615086712166 0 0.051276677846263066 -0.00020086524309051698 0 0.050688607446122254 -0.00036112615086712166 0 0.051276677846263066 -0.00020086524309051698 0 0.051093486123582658 -0.00073705127140802937 0 0.051721290928230142 -1.70453018085858e-05 0 0.051276677846263066 -0.00020086524309051698 0 0.051739559165132849 -0.00017556578592685978 0 0.051276677846263066 -0.00020086524309051698 0 0.051739559165132849 -0.00017556578592685978 0 0.051631347831392164 -0.00040956250617221268 0 0.051276677846263066 -0.00020086524309051698 0 0.051631347831392164 -0.00040956250617221268 0 0.051093486123582658 -0.00073705127140802937 0 0.052074576185769751 -0.00035582540847776798 0 0.05193103448262839 -0.0002831679298512513 0 0.051956628111608276 -0.00074783168357364259 0 0.051923184519422627 -4.7702696691691403e-05 0 0.05193103448262839 -0.0002831679298512513 0 0.051739559165132849 -0.00017556578592685978 0 0.05193103448262839 -0.0002831679298512513 0 0.051739559165132849 -0.00017556578592685978 0 0.051631347831392164 -0.00040956250617221268 0 0.05193103448262839 -0.0002831679298512513 0 0.051631347831392164 -0.00040956250617221268 0 0.051956628111608276 -0.00074783168357364259 0 0.051631347831392164 -0.00040956250617221268 0 0.051956628111608276 -0.00074783168357364259 0 0.051093486123582658 -0.00073705127140802937 0 0.057734662950465102 -0.0012684992070799591 0 0.054159365263079969 -0.00085835340423863081 0 0.055839469661273219 -0.0029867066975891145 0 0.06088765253844778 -0.0039821943052399042 0 0.053898343769675068 -0.0021735135767686322 0 0.054159365263079969 -0.00085835340423863081 0 0.054086650531986739 -0.0026431246395512893 0 0.055839469661273219 -0.0029867066975891145 0 0.055839469661273219 -0.0029867066975891145 0 0.056763837536416215 -0.0038348195063817887 0 0.055502507618717972 -0.0040157654723579229 0 0.055839469661273219 -0.0029867066975891145 0 0.054560276432751957 -0.0038797969580576892 0 0.055502507618717972 -0.0040157654723579229 0 0.054086650531986739 -0.0026431246395512893 0 0.055839469661273219 -0.0029867066975891145 0 0.054560276432751957 -0.0038797969580576892 0 0.06534737086742172 -0.0027539497788229969 0 0.056293499188837678 -0.0021946771896366323 0 0.05771512059499477 -0.001281939362827284 0 0.055839469661273219 -0.0029867066975891145 0 0.056763837536416215 -0.0038348195063817887 0 0.059416388001611017 -0.00146658480309962 0 0.05771512059499477 -0.001281939362827284 0 0.056763837536416215 -0.0038348195063817887 0 0.06088765253844778 -0.0039821943052399042 0 0.05984734727200286 -0.0041995366385299956 0 0.054447114204638374 0.0013562329532076475 0 0.05430648466153342 0.00045200974834732396 0 0.055109069415326922 0.00063434595050664857 0 0.055469383828714608 0.0012915936810823701 0 0.054447114204638374 0.0013562329532076475 0 0.055109069415326922 0.00063434595050664857 0 0.054447114204638374 0.0013562329532076475 0 0.05430648466153342 0.00045200974834732396 0 0.053522505194729425 0.00053702188416854279 0 0.05430648466153342 0.00045200974834732396 0 0.053522505194729425 0.00053702188416854279 0 0.053073227054489219 0.00012877931458723924 0 0.054560276432751957 -0.0038797969580576892 0 0.054921945730292222 -0.0054315315217863397 0 0.053487749654800583 -0.0048415927875937207 0 0.054560276432751957 -0.0038797969580576892 0 0.055502507618717972 -0.0040157654723579229 0 0.054921945730292222 -0.0054315315217863397 0 0.056293499188837678 -0.0021946771896366323 0 0.050752251463994077 -0.0020178641074780203 0 0.056763837536416215 -0.0038348195063817887 0 0.055502507618717972 -0.0040157654723579229 0 0.054921945730292222 -0.0054315315217863397 0 0.050752251463994077 -0.0020178641074780203 0 0.047329204333347343 -0.0023149250959545583 0 0.054921945730292222 -0.0054315315217863397 0 0.053487749654800583 -0.0048415927875937207 0 0.054052184461448119 -0.0061695410131740094 0 0.053487749654800583 -0.0048415927875937207 0 0.051178214373599609 -0.0053232652680284065 0 0.054052184461448119 -0.0061695410131740094 0 0.050409231205732451 -0.0036476220932646344 0 0.047329204333347343 -0.0023149250959545583 0 0.053487749654800583 -0.0048415927875937207 0 0.052907203099246347 -0.0035389156515028878 0 0.051178214373599609 -0.0053232652680284065 0 0.054560276432751957 -0.0038797969580576892 0 0.053487749654800583 -0.0048415927875937207 0 0.052907203099246347 -0.0035389156515028878 0 0.054086650531986739 -0.0026431246395512893 0 0.054560276432751957 -0.0038797969580576892 0 0.052907203099246347 -0.0035389156515028878 0 0.052907203099246347 -0.0035389156515028878 0 0.05244156289134104 -0.0021212510043657198 0 0.050911692284813084 -0.0028068691921221576 0 0.054159365263079969 -0.00085835340423863081 0 0.054086650531986739 -0.0026431246395512893 0 0.05244156289134104 -0.0021212510043657198 0 0.054086650531986739 -0.0026431246395512893 0 0.052907203099246347 -0.0035389156515028878 0 0.05244156289134104 -0.0021212510043657198 0 0.052907203099246347 -0.0035389156515028878 0 0.050911692284813084 -0.0028068691921221576 0 0.051178214373599609 -0.0053232652680284065 0 0.049200263459910111 -0.0043605491564101167 0 0.050911692284813084 -0.0028068691921221576 0 0.051178214373599609 -0.0053232652680284065 0 0.051178214373599609 -0.0053232652680284065 0 0.051210671026530916 -0.0075407690689068101 0 0.054185694057934566 -0.0070750866214780552 0 0.051178214373599609 -0.0053232652680284065 0 0.051210671026530916 -0.0075407690689068101 0 0.049484671887294739 -0.0066774729453509783 0 0.037074142770121998 -0.00040959983559232295 0 0.032568224233580217 -0.0024443227452205928 0 0.051210671026530916 -0.0075407690689068101 0 0.051909636925059295 -0.0095439665550328488 0 0.049468499296924262 -0.0085900908681221695 0 0.032565987474278323 -0.00095758078866572287 0 0.031004344499694768 -0.001013166391585987 0 0.031492374124915581 -0.0014331367984784268 0 0.032565987474278323 -0.00095758078866572287 0 0.031794360169715839 -0.0017898210568995537 0 0.031492374124915581 -0.0014331367984784268 0 0.034002007756382589 0.0011226869539540764 0 0.033772228676583985 0.00019905771823009553 0 0.032759913986806631 -0.0002196489908610269 0 0.034002007756382589 0.0011226869539540764 0 0.033772228676583985 0.00019905771823009553 0 0.034645389480144242 0.00038834434181220966 0 0.037074142770121998 -0.00040959983559232295 0 0.02991113022536427 -0.00017192200448688441 0 0.037074142770121998 -0.00040959983559232295 0 0.036570177588251478 -3.7908282703307978e-05 0 0.034808562829817154 0.0010788055461904212 0 0.036110232792967531 0.0011271074203804666 0 0.036008202144059691 0.0024135252138882549 0 0.034002007756382589 0.0011226869539540764 0 0.034645389480144242 0.00038834434181220966 0 0.03579258183117582 0.0011561688540357204 0 0.034645389480144242 0.00038834434181220966 0 0.03579258183117582 0.0011561688540357204 0 0.036246088804793547 0.00016154800031265755 0 0.051210671026530916 -0.0075407690689068101 0 0.051909636925059295 -0.0095439665550328488 0 0.054185694057934566 -0.0070750866214780552 0 0.037074142770121998 -0.00040959983559232295 0 0.045375330482540444 -0.0019939432688600954 0 0.051178214373599609 -0.0053232652680284065 0 0.054185694057934566 -0.0070750866214780552 0 0.054755938292547303 -0.0064496670561232381 0 0.036110232792967531 0.0011271074203804666 0 0.036008202144059691 0.0024135252138882549 0 0.036301272617169901 0.002744830695315698 0 0.045375330482540444 -0.0019939432688600954 0 0.047329204333347343 -0.0023149250959545583 0 0.036110232792967531 0.0011271074203804666 0 0.036941012748505773 0.0019997845444090097 0 0.036301272617169901 0.002744830695315698 0 0.047329204333347343 -0.0023149250959545583 0 0.045410225115482664 0.00044992248747322558 0 0.036941012748505773 0.0019997845444090097 0 0.036301272617169901 0.002744830695315698 0 0.038591792764139654 0.0022202336188671145 0 0.05430648466153342 0.00045200974834732396 0 0.053073227054489219 0.00012877931458723924 0 0.054913233491195305 -0.00031493082515791297 0 0.036941012748505773 0.0019997845444090097 0 0.038591792764139654 0.0022202336188671145 0 0.037405226350957485 0.0011554748766977848 0 0.05430648466153342 0.00045200974834732396 0 0.055109069415326922 0.00063434595050664857 0 0.054913233491195305 -0.00031493082515791297 0 0.038591792764139654 0.0022202336188671145 0 0.038660104980155451 0.00093116034715256136 0 0.037405226350957485 0.0011554748766977848 0 0.03202250821792664 0.0027532066656119013 0 0.028974002712002497 0.0020109302779167705 0 0.022948050185780972 0.006029517155604131 0 0.02094785860464158 0.0053305666612183129 0 0.021862850901608954 0.0049221325624871047 0 0.038660104980155451 0.00093116034715256136 0 0.037405226350957485 0.0011554748766977848 0 0.036246088804793547 0.00016154800031265755 0 0.036570177588251478 -3.7908282703307978e-05 0 0.036692111910760966 8.5149058227590874e-05 0 0.03579258183117582 0.0011561688540357204 0 0.037405226350957485 0.0011554748766977848 0 0.036246088804793547 0.00016154800031265755 0 0.036110232792967531 0.0011271074203804666 0 0.036941012748505773 0.0019997845444090097 0 0.037405226350957485 0.0011554748766977848 0 0.02094785860464158 0.0053305666612183129 0 0.021862850901608954 0.0049221325624871047 0 0.021122792598274143 0.0044246751900563945 0 0.021862850901608954 0.0049221325624871047 0 0.021122792598274143 0.0044246751900563945 0 0.021794148820926684 0.0041727728209618887 0 0.02094785860464158 0.0053305666612183129 0 0.021122792598274143 0.0044246751900563945 0 0.020329037223489239 0.0043778363756375215 0 0.022948050185780972 0.006029517155604131 0 0.022594694930970535 0.0047727511054822978 0 0.023271882696577349 0.0053104355134639116 0 0.022948050185780972 0.006029517155604131 0 0.021862850901608954 0.0049221325624871047 0 0.022594694930970535 0.0047727511054822978 0 0.022594694930970535 0.0047727511054822978 0 0.022486718292653949 0.004119108812750542 0 0.021794148820926684 0.0041727728209618887 0 0.021862850901608954 0.0049221325624871047 0 0.022594694930970535 0.0047727511054822978 0 0.021794148820926684 0.0041727728209618887 0 0.022594694930970535 0.0047727511054822978 0 0.022486718292653949 0.004119108812750542 0 0.023317390122292954 0.0042288731426902036 0 0.022594694930970535 0.0047727511054822978 0 0.023271882696577349 0.0053104355134639116 0 0.023317390122292954 0.0042288731426902036 0 0.022155923660306623 0.003389413034207226 0 0.023317390122292954 0.0042288731426902036 0 0.022502610717956454 0.0024717387358227784 0 0.017240660788510328 0.0065340368075333674 0 0.011692391485592516 0.0073975532297919609 0 0.022486718292653949 0.004119108812750542 0 0.022155923660306623 0.003389413034207226 0 0.023317390122292954 0.0042288731426902036 0 0.022486718292653949 0.004119108812750542 0 0.022155923660306623 0.003389413034207226 0 0.021794148820926684 0.0041727728209618887 0 0.022155923660306623 0.003389413034207226 0 0.02097110182667767 0.0036342300735985908 0 0.020992509264422383 0.0024988341042645407 0 0.022155923660306623 0.003389413034207226 0 0.021794148820926684 0.0041727728209618887 0 0.02097110182667767 0.0036342300735985908 0 0.021122792598274143 0.0044246751900563945 0 0.021794148820926684 0.0041727728209618887 0 0.02097110182667767 0.0036342300735985908 0 0.021122792598274143 0.0044246751900563945 0 0.02097110182667767 0.0036342300735985908 0 0.020329037223489239 0.0043778363756375215 0 0.02097110182667767 0.0036342300735985908 0 0.019828292020080265 0.0033670397731244924 0 0.020992509264422383 0.0024988341042645407 0 0.02097110182667767 0.0036342300735985908 0 0.019828292020080265 0.0033670397731244924 0 0.020329037223489239 0.0043778363756375215 0 0.019828292020080265 0.0033670397731244924 0 0.019581670421704431 0.0040899527330147227 0 0.020329037223489239 0.0043778363756375215 0 0.019828292020080265 0.0033670397731244924 0 0.019094799052353093 0.0038857910659061573 0 0.018903323867953323 0.0027850263225071741 0 0.019094799052353093 0.0038857910659061573 0 0.018903323867953323 0.0027850263225071741 0 0.018127051107857679 0.0044420393078073595 0 0.019828292020080265 0.0033670397731244924 0 0.019094799052353093 0.0038857910659061573 0 0.019581670421704431 0.0040899527330147227 0 0.019094799052353093 0.0038857910659061573 0 0.019581670421704431 0.0040899527330147227 0 0.019078686774557402 0.0047240463634971881 0 0.028460534845290097 0.0015960215959816913 0 0.027683417676956524 0.0018263920931649812 0 0.027108960485216816 0.0011995179318421533 0 0.019094799052353093 0.0038857910659061573 0 0.019078686774557402 0.0047240463634971881 0 0.018127051107857679 0.0044420393078073595 0 0.026739977410878701 0.00094054088737887504 0 0.026695336731668406 0.00041562295228169554 0 0.033772228676583985 0.00019905771823009553 0 0.033392224517915015 -0.00071846284112997948 0 0.032746392279838873 -0.00022008198862439153 0 0.030373284725144129 -2.8896564668916611e-05 0 0.02991113022536427 -0.00017192200448688441 0 0.033392224517915015 -0.00071846284112997948 0 0.032746392279838873 -0.00022008198862439153 0 0.03252030745488424 -0.0004653534648951675 0 0.026739977410878701 0.00094054088737887504 0 0.028830444522834835 -0.00013057597330744136 0 0.02991113022536427 -0.00017192200448688441 0 0.028830444522834835 -0.00013057597330744136 0 0.033772228676583985 0.00019905771823009553 0 0.034645389480144242 0.00038834434181220966 0 0.033392224517915015 -0.00071846284112997948 0 0.028974002712002497 0.0020109302779167705 0 0.026739977410878701 0.00094054088737887504 0 0.019581670421704431 0.0040899527330147227 0 0.019078686774557402 0.0047240463634971881 0 0.020329037223489239 0.0043778363756375215 0 0.02094785860464158 0.0053305666612183129 0 0.019103239145188553 0.0047282896316276054 0 0.020329037223489239 0.0043778363756375215 0 0.026739977410878701 0.00094054088737887504 0 0.023932313031497225 0.0019664539103527437 0 0.034645389480144242 0.00038834434181220966 0 0.036246088804793547 0.00016154800031265755 0 0.033392224517915015 -0.00071846284112997948 0 0.020686474876620668 0.016877605466689719 0 0.019935802014461334 0.014328264328295372 0 0.023811422792948445 0.016139932530479933 0 0.020686474876620668 0.016877605466689719 0 0.021388761971905656 0.019120185935255253 0 0.023811422792948445 0.016139932530479933 0 0.058382056460749572 0.00061247777707329921 0 0.058560909828837916 6.9519006409847747e-05 0 0.057648558355404812 -0.00017889369319659502 0 0.058382056460749572 0.00061247777707329921 0 0.058560909828837916 6.9519006409847747e-05 0 0.059360465158643419 0.00032557862829211878 0 0.020686474876620668 0.016877605466689719 0 0.021388761971905656 0.019120185935255253 0 0.018461952798151677 0.018285178318720497 0 0.04102132645982591 0.0060175091991734129 0 0.038269920740389499 0.0055989222055112253 0 0.057239459500117447 0.00037311296231958165 0 0.057787700054398101 0.00063760888259067016 0 0.057654683140734915 -0.00044074145307672666 0 0.042688143567185678 0.0067637017051821605 0 0.038269920740389499 0.0055989222055112253 0 0.057787700054398101 0.00063760888259067016 0 0.058382056460749572 0.00061247777707329921 0 0.057654683140734915 -0.00044074145307672666 0 0.057239459500117447 0.00037311296231958165 0 0.057654683140734915 -0.00044074145307672666 0 0.056774147854721742 -4.4620087978257027e-05 0 0.038269920740389499 0.0055989222055112253 0 0.038891139737367776 0.0038908006135682381 0 0.018461952798151677 0.018285178318720497 0 0.015704863976554923 0.014872678753005087 0 0.019935802014461334 0.014328264328295372 0 0.020686474876620668 0.016877605466689719 0 0.018461952798151677 0.018285178318720497 0 0.019935802014461334 0.014328264328295372 0 0.026769564270170246 0.0071605769835317284 0 0.025888162641290371 0.0065992475831955881 0 0.025286228580066798 0.005365545570920535 0 0.038269920740389499 0.0055989222055112253 0 0.026387643388517689 0.0065344608117172765 0 0.025307752563542982 0.0067476002049188478 0 0.024265998235193785 0.0062323072018977289 0 0.025286228580066798 0.005365545570920535 0 0.026769564270170246 0.0071605769835317284 0 0.025333652014837723 0.0067576101073750375 0 0.025888162641290371 0.0065992475831955881 0 0.038891139737367776 0.0038908006135682381 0 0.038121686051170452 0.0040932261039852112 0 0.025307752563542982 0.0067476002049188478 0 0.025888162641290371 0.0065992475831955881 0 0.025286228580066798 0.005365545570920535 0 0.057654683140734915 -0.00044074145307672666 0 0.056670853572531078 -0.00076252633942769301 0 0.056774147854721742 -4.4620087978257027e-05 0 0.05662971535399839 0.00062185838586734359 0 0.056774147854721742 -4.4620087978257027e-05 0 0.056000954320386993 0.00016844323505427541 0 0.056670853572531078 -0.00076252633942769301 0 0.056774147854721742 -4.4620087978257027e-05 0 0.056000954320386993 0.00016844323505427541 0 0.054913233491195305 -0.00031493082515791297 0 0.056670853572531078 -0.00076252633942769301 0 0.056000954320386993 0.00016844323505427541 0 0.045410225115482664 0.00044992248747322558 0 0.038891139737367776 0.0038908006135682381 0 0.055109069415326922 0.00063434595050664857 0 0.054913233491195305 -0.00031493082515791297 0 0.056000954320386993 0.00016844323505427541 0 0.038591792764139654 0.0022202336188671145 0 0.038660104980155451 0.00093116034715256136 0 0.0408687827332204 0.0016034327760684408 0 0.03202250821792664 0.0027532066656119013 0 0.038891139737367776 0.0038908006135682381 0 0.022948050185780972 0.006029517155604131 0 0.025307752563542982 0.0067476002049188478 0 0.024265998235193785 0.0062323072018977289 0 0.022948050185780972 0.006029517155604131 0 0.024265998235193785 0.0062323072018977289 0 0.023271882696577349 0.0053104355134639116 0 0.023321712212339467 0.004056835314455819 0 0.023832104091295211 0.0036242164386358611 0 0.025286228580066798 0.005365545570920535 0 0.024265998235193785 0.0062323072018977289 0 0.023321712212339467 0.004056835314455819 0 0.025286228580066798 0.005365545570920535 0 0.024265998235193785 0.0062323072018977289 0 0.023271882696577349 0.0053104355134639116 0 0.023317390122292954 0.0042288731426902036 0 0.019033964147435984 0.0068972858650789984 0 0.017240660788510328 0.0065340368075333674 0 0.023321712212339467 0.004056835314455819 0 0.023832104091295211 0.0036242164386358611 0 0.02235998382325716 0.0018860779949237015 0 0.01891408798209309 0.007104547572985522 0 0.011692391485592516 0.0073975532297919609 0 0.012941236862778665 0.011459662082708919 0 0.016339765624910536 0.011003940670130292 0 0.013366262958589031 0.0083011872818335424 0 0.012941236862778665 0.011459662082708919 0 0.016339765624910536 0.011003940670130292 0 0.015704863976554923 0.014872678753005087 0 0.01891408798209309 0.007104547572985522 0 0.026387643388517689 0.0065344608117172765 0 0.016339765624910536 0.011003940670130292 0 0.015704863976554923 0.014872678753005087 0 0.019935802014461334 0.014328264328295372 0 0.016339765624910536 0.011003940670130292 0 0.020038031029848868 0.009649021951800698 0 0.019935802014461334 0.014328264328295372 0 0.0011294621174368512 0.021222499412389816 0 0.0080212924122295449 0.021381791870099136 0 0.020038031029848868 0.009649021951800698 0 0.019935802014461334 0.014328264328295372 0 0.024022999832341695 0.011893583644725696 0 -0.024394643654721 0.035669225148549505 0 -0.026215604237268635 0.03744840680467338 0 -0.025757305342962201 0.033267357704153878 0 -0.021362246015626994 0.035843749587124552 0 -0.02273393840108388 0.035843420046689542 0 -0.021763911081271237 0.034607065184253792 0 -0.02273393840108388 0.035843420046689542 0 -0.023373294750307999 0.034599916379527439 0 -0.021763911081271237 0.034607065184253792 0 -0.02273393840108388 0.035843420046689542 0 -0.02187178654686113 0.037143940094314487 0 -0.023970877035122923 0.037318194240959224 0 -0.021362246015626994 0.035843749587124552 0 -0.02273393840108388 0.035843420046689542 0 -0.02187178654686113 0.037143940094314487 0 -0.023228090081850443 0.039758425085408229 0 -0.02187178654686113 0.037143940094314487 0 -0.020130356857721611 0.039009363218160599 0 -0.023228090081850443 0.039758425085408229 0 -0.02187178654686113 0.037143940094314487 0 -0.023970877035122923 0.037318194240959224 0 0.0011294621174368512 0.021222499412389816 0 -0.0030504600042919436 0.019676411568996469 0 0.016339765624910536 0.011003940670130292 0 0.020038031029848868 0.009649021951800698 0 0.016049066328542642 0.0074081185904330783 0 -0.023228090081850443 0.039758425085408229 0 -0.023970877035122923 0.037318194240959224 0 -0.026215604237268635 0.03744840680467338 0 -0.023970877035122923 0.037318194240959224 0 -0.024394643654721 0.035669225148549505 0 -0.026215604237268635 0.03744840680467338 0 -0.02273393840108388 0.035843420046689542 0 -0.023970877035122923 0.037318194240959224 0 -0.024394643654721 0.035669225148549505 0 -0.02273393840108388 0.035843420046689542 0 -0.024394643654721 0.035669225148549505 0 -0.023373294750307999 0.034599916379527439 0 -0.026215604237268635 0.03744840680467338 0 -0.028859415859066033 0.035654008242207762 0 -0.025757305342962201 0.033267357704153878 0 0.016339765624910536 0.011003940670130292 0 0.016049066328542642 0.0074081185904330783 0 0.013366262958589031 0.0083011872818335424 0 0.012941236862778665 0.011459662082708919 0 0.013366262958589031 0.0083011872818335424 0 0.010184095532410118 0.0080444900597328953 0 0.013366262958589031 0.0083011872818335424 0 0.012059264128181004 0.0051723177875154522 0 0.010184095532410118 0.0080444900597328953 0 0.016049066328542642 0.0074081185904330783 0 0.013366262958589031 0.0083011872818335424 0 0.012059264128181004 0.0051723177875154522 0 -0.0030504600042919436 0.019676411568996469 0 -0.005504514996266233 0.016807140838046339 0 -0.028859415859066033 0.035654008242207762 0 -0.028972357303830042 0.032813934453946883 0 -0.025757305342962201 0.033267357704153878 0 -0.027452244852958989 0.023379568000710692 0 -0.027681064066932895 0.023028395653064127 0 -0.027253633461972362 0.023035942116981369 0 -0.027452244852958989 0.023379568000710692 0 -0.026872557918909242 0.023529747402591426 0 -0.027253633461972362 0.023035942116981369 0 -0.026872557918909242 0.023529747402591426 0 -0.026821118632399738 0.02315122039103314 0 -0.027253633461972362 0.023035942116981369 0 -0.025203813108905945 0.023022735932117216 0 -0.025340364795469753 0.026215653288469688 0 -0.024394643654721 0.035669225148549505 0 -0.025757305342962201 0.033267357704153878 0 -0.023373294750307999 0.034599916379527439 0 -0.025757305342962201 0.033267357704153878 0 -0.022182038946872765 0.033653554651930713 0 -0.023373294750307999 0.034599916379527439 0 -0.025340364795469753 0.026215653288469688 0 -0.02301540373916389 0.028240137132230645 0 -0.026872557918909242 0.023529747402591426 0 -0.026570722258225498 0.023330163838759636 0 -0.026203453759376272 0.023666644011606713 0 -0.026872557918909242 0.023529747402591426 0 -0.026821118632399738 0.02315122039103314 0 -0.026570722258225498 0.023330163838759636 0 -0.026821118632399738 0.02315122039103314 0 -0.026570722258225498 0.023330163838759636 0 -0.026443949239614132 0.022966359134395046 0 -0.022080883119674443 0.031841270464857546 0 -0.022343256032309428 0.033144604238843849 0 -0.024193771167447749 0.0289154709023971 0 -0.026570722258225498 0.023330163838759636 0 -0.026203453759376272 0.023666644011606713 0 -0.026443949239614132 0.022966359134395046 0 -0.02301540373916389 0.028240137132230645 0 -0.024771689622606036 0.025762824820673789 0 -0.022080883119674443 0.031841270464857546 0 -0.021189917378039599 0.030926078207429371 0 -0.024193771167447749 0.0289154709023971 0 -0.022080883119674443 0.031841270464857546 0 -0.02105107180527523 0.03255443903991221 0 -0.021189917378039599 0.030926078207429371 0 -0.022080883119674443 0.031841270464857546 0 -0.022343256032309428 0.033144604238843849 0 -0.022108185824330818 0.033186167282876017 0 -0.022080883119674443 0.031841270464857546 0 -0.022108185824330818 0.033186167282876017 0 -0.02105107180527523 0.03255443903991221 0 -0.022108185824330818 0.033186167282876017 0 -0.021014634090474899 0.03373194433411221 0 -0.02105107180527523 0.03255443903991221 0 -0.02301540373916389 0.028240137132230645 0 -0.023010481475734999 0.028245164552955671 0 -0.022182038946872765 0.033653554651930713 0 -0.023373294750307999 0.034599916379527439 0 -0.021763911081271237 0.034607065184253792 0 -0.02301540373916389 0.028240137132230645 0 -0.022820170122432287 0.028855871991426679 0 -0.02238433111708411 0.033144916715921791 0 -0.022108185824330818 0.033186167282876017 0 -0.021763911081271237 0.034607065184253792 0 -0.022108185824330818 0.033186167282876017 0 -0.021763911081271237 0.034607065184253792 0 -0.021014634090474899 0.03373194433411221 0 0.020417890150187037 0.0015160319328421496 0 0.019677697560240345 0.0010976978477294946 0 0.019983501375078698 0.0022728672763694712 0 0.020417890150187037 0.0015160319328421496 0 0.021272926746330478 0.0010217048882209111 0 0.020164964594494236 0.00071369908448596969 0 0.020417890150187037 0.0015160319328421496 0 0.019677697560240345 0.0010976978477294946 0 0.020164964594494236 0.00071369908448596969 0 0.019677697560240345 0.0010976978477294946 0 0.018948962704300288 0.0013545125959621702 0 0.019296724016993592 0.00021842152691518052 0 0.021776960891809877 0.0026210869556625173 0 0.022494790884210934 0.0028693657470171821 0 0.019677697560240345 0.0010976978477294946 0 0.018948962704300288 0.0013545125959621702 0 0.019085122143175471 0.002240185253938029 0 0.018948962704300288 0.0013545125959621702 0 0.019085122143175471 0.002240185253938029 0 0.01861086730959197 0.0022422614042269915 0 0.019677697560240345 0.0010976978477294946 0 0.018903323867953323 0.0027850263225071741 0 0.019983501375078698 0.0022728672763694712 0 0.019828292020080265 0.0033670397731244924 0 0.018903323867953323 0.0027850263225071741 0 0.019983501375078698 0.0022728672763694712 0 0.019828292020080265 0.0033670397731244924 0 0.019983501375078698 0.0022728672763694712 0 0.020992509264422383 0.0024988341042645407 0 0.020417890150187037 0.0015160319328421496 0 0.019983501375078698 0.0022728672763694712 0 0.020992509264422383 0.0024988341042645407 0 0.022155923660306623 0.003389413034207226 0 0.020992509264422383 0.0024988341042645407 0 0.022502610717956454 0.0024717387358227784 0 0.020992509264422383 0.0024988341042645407 0 0.022502610717956454 0.0024717387358227784 0 0.021272926746330478 0.0010217048882209111 0 0.011692391485592516 0.0073975532297919609 0 0.0037439630779131979 0.0094996808798783489 0 0.011692391485592516 0.0073975532297919609 0 0.0085665626368458241 0.0076739316420651998 0 -0.005504514996266233 0.016807140838046339 0 -0.004768271175961133 0.012673583052720695 0 0.0066387558546315631 0.009827232315748672 0 0.0061126024498521512 0.0085523528345739907 0 0.0052034043135377938 0.0080394267350110508 0 0.012059264128181004 0.0051723177875154522 0 0.010184095532410118 0.0080444900597328953 0 0.0091285916183926445 0.0054938980775405821 0 0.012059264128181004 0.0051723177875154522 0 0.0091285916183926445 0.0054938980775405821 0 0.0080731605787369588 0.0029453528101525839 0 0.020417890150187037 0.0015160319328421496 0 0.020992509264422383 0.0024988341042645407 0 0.021272926746330478 0.0010217048882209111 0 0.0037439630779131979 0.0094996808798783489 0 -0.004768271175961133 0.012673583052720695 0 0.0061126024498521512 0.0085523528345739907 0 0.0052034043135377938 0.0080394267350110508 0 0.0055883990377233912 0.0072764875336163888 0 -0.004768271175961133 0.012673583052720695 0 0.0018708255983676122 0.0088299663127767523 0 0.0052034043135377938 0.0080394267350110508 0 0.0055883990377233912 0.0072764875336163888 0 0.0037842256565283477 0.0062482999617886892 0 -0.0068876709136025394 0.014691763839397938 0 -0.0075773931943756163 0.012974739078959756 0 -0.010496969222663896 0.012623151649698176 0 -0.031339338269661336 0.034017072689781172 0 -0.030878385399702068 0.033762963367631703 0 -0.031742798995404768 0.032892081052586196 0 -0.004768271175961133 0.012673583052720695 0 -0.01316072871505328 0.016883387387378389 0 -0.014187669473852933 0.017482492697783805 0 -0.01316072871505328 0.016883387387378389 0 -0.028859415859066033 0.035654008242207762 0 -0.028972357303830042 0.032813934453946883 0 -0.030878385399702068 0.033762963367631703 0 -0.028859415859066033 0.035654008242207762 0 -0.031339338269661336 0.034017072689781172 0 -0.030878385399702068 0.033762963367631703 0 -0.028972357303830042 0.032813934453946883 0 -0.030878385399702068 0.033762963367631703 0 -0.031770455879994289 0.03290288410274507 0 -0.025203813108905945 0.023022735932117216 0 -0.015930322272963982 0.017541458898601692 0 -0.028972357303830042 0.032813934453946883 0 -0.031991208362985329 0.032326456718267914 0 -0.031770455879994289 0.03290288410274507 0 -0.027452244852958989 0.023379568000710692 0 -0.027973624870805031 0.023267935775965243 0 -0.027681064066932895 0.023028395653064127 0 -0.017044234068668368 0.016677769050953799 0 -0.017689085614343632 0.01657845940580004 0 -0.018155547357764236 0.013917461121390228 0 -0.015930322272963982 0.017541458898601692 0 -0.019562791174679475 0.016309985470027027 0 -0.0086669576357724046 0.011975074713106186 0 -0.0075773931943756163 0.012974739078959756 0 -0.010496969222663896 0.012623151649698176 0 -0.015930322272963982 0.017541458898601692 0 -0.014371869116007401 0.01652026917786734 0 -0.01303834033013119 0.014181536914489269 0 -0.014389771023814772 0.013974487996605119 0 -0.01238241090828786 0.01582076137359776 0 -0.014371869116007401 0.01652026917786734 0 -0.01316072871505328 0.016883387387378389 0 -0.015930322272963982 0.017541458898601692 0 -0.01316072871505328 0.016883387387378389 0 -0.027973624870805031 0.023267935775965243 0 -0.02790613688482034 0.022988042623762882 0 -0.027681064066932895 0.023028395653064127 0 -0.014371869116007401 0.01652026917786734 0 -0.013224247403433023 0.016088731582124909 0 -0.0086669576357724046 0.011975074713106186 0 -0.011674895237135913 0.011512562644031426 0 -0.010496969222663896 0.012623151649698176 0 -0.0087212323543601495 0.011980474404110129 0 -0.011674895237135913 0.011512562644031426 0 -0.012395718383354216 0.0085739796046429614 0 0.021272926746330478 0.0010217048882209111 0 0.020089135604487014 -0.00035396924358287591 0 0.020164964594494236 0.00071369908448596969 0 0.020089135604487014 -0.00035396924358287591 0 0.020164964594494236 0.00071369908448596969 0 0.019296724016993592 0.00021842152691518052 0 0.0085665626368458241 0.0076739316420651998 0 0.0018708255983676122 0.0088299663127767523 0 0.019677697560240345 0.0010976978477294946 0 0.020164964594494236 0.00071369908448596969 0 0.019296724016993592 0.00021842152691518052 0 0.018678877812016666 0.0015255354166248242 0 0.019296724016993592 0.00021842152691518052 0 0.018290407345590252 0.00054505415399154023 0 0.019296724016993592 0.00021842152691518052 0 0.018675406374028199 -0.0011322860668612448 0 0.018290407345590252 0.00054505415399154023 0 0.021145965876773015 0.001882485967479906 0 0.020893378959995237 0.0015859323815240586 0 0.020089135604487014 -0.00035396924358287591 0 0.019296724016993592 0.00021842152691518052 0 0.018675406374028199 -0.0011322860668612448 0 0.0018708255983676122 0.0088299663127767523 0 -0.0035520274386670156 0.0044643125833909621 0 -0.011674895237135913 0.011512562644031426 0 -0.010496969222663896 0.012623151649698176 0 -0.013909403798646825 0.010660888094899039 0 -0.0035520274386670156 0.0044643125833909621 0 0.0059554606024307365 0.00024144613847842616 0 -0.0032534972635652787 0.00055211666239827974 0 -0.0033291505010349764 0.00054669767183927916 0 -0.0036709736748205398 0.00012608648480661651 0 -0.0033291505010349764 0.00054669767183927916 0 -0.0037780718531316725 0.0003918043575006229 0 -0.003054895302921213 0.00076560839172297283 0 -0.0033291505010349764 0.00054669767183927916 0 -0.003054895302921213 0.00076560839172297283 0 -0.0036709736748205398 0.00012608648480661651 0 -0.003054895302921213 0.00076560839172297283 0 -0.0036709736748205398 0.00012608648480661651 0 -0.0022254967221756496 -0.00098708336616278123 0 0.018675406374028199 -0.0011322860668612448 0 0.017492684621670369 0.00055403780833545668 0 0.018290407345590252 0.00054505415399154023 0 0.017492684621670369 0.00055403780833545668 0 0.018290407345590252 0.00054505415399154023 0 0.017837797487546346 0.0010050586582649032 0 0.018290407345590252 0.00054505415399154023 0 0.018131994936038127 0.0015564984341619988 0 0.017837797487546346 0.0010050586582649032 0 0.021157308817408044 0.0014921050986636275 0 0.021463637625820493 0.0016852678661837283 0 0.018678877812016666 0.0015255354166248242 0 0.018290407345590252 0.00054505415399154023 0 0.01820421622183082 0.0016880089255313418 0 0.018131994936038127 0.0015564984341619988 0 0.017439850719866042 0.0013443462820029411 0 0.017606615838124652 0.0019550107248708579 0 0.018131994936038127 0.0015564984341619988 0 0.017439850719866042 0.0013443462820029411 0 0.017837797487546346 0.0010050586582649032 0 0.017492684621670369 0.00055403780833545668 0 0.017439850719866042 0.0013443462820029411 0 0.017837797487546346 0.0010050586582649032 0 0.0059554606024307365 0.00024144613847842616 0 0.012007940892255643 -0.00034351407642999217 0 0.017439850719866042 0.0013443462820029411 0 0.017041208705569539 0.0019029769964064606 0 0.016438051077604647 0.0020458260116354666 0 0.017492684621670369 0.00055403780833545668 0 0.017439850719866042 0.0013443462820029411 0 0.016438051077604647 0.0020458260116354666 0 -0.0036709736748205398 0.00012608648480661651 0 -0.0022254967221756496 -0.00098708336616278123 0 -0.001951114141519016 -0.0031902513201628557 0 0.017439850719866042 0.0013443462820029411 0 0.017041208705569539 0.0019029769964064606 0 0.017606615838124652 0.0019550107248708579 0 0.017041208705569539 0.0019029769964064606 0 0.017183393801994313 0.0023388395673418104 0 0.017606615838124652 0.0019550107248708579 0 0.017183393801994313 0.0023388395673418104 0 0.016377156485064309 0.0021563420399795682 0 0.017596081729319535 0.0034553324654434353 0 0.017041208705569539 0.0019029769964064606 0 0.017183393801994313 0.0023388395673418104 0 0.01646373058247658 0.0020361385013986113 0 0.017183393801994313 0.0023388395673418104 0 0.016377156485064309 0.0021563420399795682 0 0.01646373058247658 0.0020361385013986113 0 0.012624734805239764 -0.00035612163950636517 0 0.012007940892255643 -0.00034351407642999217 0 0.018678877812016666 0.0015255354166248242 0 0.01820421622183082 0.0016880089255313418 0 0.018106856085761291 0.0027909520674151327 0 0.021463637625820493 0.0016852678661837283 0 0.022510571024352045 0.0017172129006032023 0 0.021145965876773015 0.001882485967479906 0 0.022510571024352045 0.0017172129006032023 0 0.018131994936038127 0.0015564984341619988 0 0.018023246726311865 0.0025224431336149313 0 0.017606615838124652 0.0019550107248708579 0 0.017183393801994313 0.0023388395673418104 0 0.018023246726311865 0.0025224431336149313 0 0.017606615838124652 0.0019550107248708579 0 0.015475911784322623 -0.0021029376840715082 0 0.015311713976482663 -0.0020736733069918103 0 0.015517017179947485 -0.0019837963769567565 0 0.011330098946587571 -0.0012282089034199404 0 0.013701550167982574 -0.0021768605238535765 0 0.0015375869990062153 -0.0019461295173847039 0 0.0019193210852297886 -0.0010092424535323109 0 0.002557730808008498 -0.0014910095930759251 0 0.015475911784322623 -0.0021029376840715082 0 0.015562384090566695 -0.0020624725543384207 0 0.015517017179947485 -0.0019837963769567565 0 0.015475911784322623 -0.0021029376840715082 0 0.015562384090566695 -0.0020624725543384207 0 0.015643813967576411 -0.0021181519790878364 0 0.0015375869990062153 -0.0019461295173847039 0 0.0003085509821178837 -0.001730482950399302 0 0.0010923514339335294 -0.00084785777298602787 0 0.011330098946587571 -0.0012282089034199404 0 0.012492325802251888 -0.00047747872812930775 0 0.012492325802251888 -0.00047747872812930775 0 0.020161487036076637 -0.0019608576613769245 0 0.015562384090566695 -0.0020624725543384207 0 0.015643813967576411 -0.0021181519790878364 0 0.015542074851317861 -0.00197659536192165 0 -0.0017563785395440933 -0.0034491965803049637 0 -0.001951114141519016 -0.0031902513201628557 0 -0.0014372989825741538 -0.002070042011621382 0 0.012492325802251888 -0.00047747872812930775 0 0.012007940892255643 -0.00034351407642999217 0 0.012492325802251888 -0.00047747872812930775 0 0.0071228339578165989 -0.0028156447765430243 0 -0.0022254967221756496 -0.00098708336616278123 0 -0.001951114141519016 -0.0031902513201628557 0 -0.0014372989825741538 -0.002070042011621382 0 -0.0017563785395440933 -0.0034491965803049637 0 -0.0014372989825741538 -0.002070042011621382 0 -5.7375357234661898e-06 -0.0017904746337328297 0 -0.0022254967221756496 -0.00098708336616278123 0 -0.0014372989825741538 -0.002070042011621382 0 -0.00068412295522570052 -0.00044472220101666299 0 -0.0014372989825741538 -0.002070042011621382 0 -5.7375357234661898e-06 -0.0017904746337328297 0 -0.00068412295522570052 -0.00044472220101666299 0 0.0015375869990062153 -0.0019461295173847039 0 0.0010923514339335294 -0.00084785777298602787 0 0.0019193210852297886 -0.0010092424535323109 0 0.0071228339578165989 -0.0028156447765430243 0 0.0061410017823214091 -0.0029568228982320521 0 0.0010923514339335294 -0.00084785777298602787 0 0.0019193210852297886 -0.0010092424535323109 0 0.0016969830444123078 -0.00010396888438210519 0 0.0019193210852297886 -0.0010092424535323109 0 0.0016969830444123078 -0.00010396888438210519 0 0.0026908937773937056 -0.00056650215896695687 0 0.0016969830444123078 -0.00010396888438210519 0 -0.00068412295522570052 -0.00044472220101666299 0 0.00092936574182196402 0.0016521171586458673 0 0.0016969830444123078 -0.00010396888438210519 0 0.00092936574182196402 0.0016521171586458673 0 0.0028927353751131003 0.00045556498000517021 0 -5.7375357234661898e-06 -0.0017904746337328297 0 0.0016969830444123078 -0.00010396888438210519 0 -0.00068412295522570052 -0.00044472220101666299 0 -0.003054895302921213 0.00076560839172297283 0 -0.00068412295522570052 -0.00044472220101666299 0 0.00092936574182196402 0.0016521171586458673 0 -0.003054895302921213 0.00076560839172297283 0 -0.0022254967221756496 -0.00098708336616278123 0 -0.00068412295522570052 -0.00044472220101666299 0 -0.0037780718531316725 0.0003918043575006229 0 -0.003054895302921213 0.00076560839172297283 0 -0.0051308518536013611 0.00091025329601695279 0 -0.0027140918745566342 0.00065933476093229084 0 -0.0023301676927023366 0.00070560096051578488 0 -0.0037780718531316725 0.0003918043575006229 0 -0.0051308518536013611 0.00091025329601695279 0 -0.0044508901944369395 -3.283143834827351e-05 0 -0.0023301676927023366 0.00070560096051578488 0 -0.0019223054739802344 0.00056146893631728746 0 -0.0051308518536013611 0.00091025329601695279 0 -0.0064495733612443835 0.00023879766082289937 0 -0.0055720638463759983 -6.5945099610429097e-05 0 0.00092936574182196402 0.0016521171586458673 0 0.0033451488866650752 0.0012058051226198705 0 0.0028927353751131003 0.00045556498000517021 0 0.0033451488866650752 0.0012058051226198705 0 0.003772757050397371 0.00073792780583650526 0 0.0028927353751131003 0.00045556498000517021 0 0.0033451488866650752 0.0012058051226198705 0 0.003772757050397371 0.00073792780583650526 0 0.0034054597818857051 -0.0001171591162642297 0 0.003772757050397371 0.00073792780583650526 0 0.0043360602268080837 0.00031692680091667904 0 0.0035143925613466296 -5.9295371562098154e-05 0 0.003772757050397371 0.00073792780583650526 0 0.0035143925613466296 -5.9295371562098154e-05 0 0.0028927353751131003 0.00045556498000517021 0 0.0035143925613466296 -5.9295371562098154e-05 0 0.0028927353751131003 0.00045556498000517021 0 0.0026908937773937056 -0.00056650215896695687 0 0.0016969830444123078 -0.00010396888438210519 0 0.0028927353751131003 0.00045556498000517021 0 0.0026908937773937056 -0.00056650215896695687 0 0.0031971376840994594 2.6017132592455891e-06 0 0.0036935269331660222 0.00070757864320076733 0 0.00079200689903526262 0.0003553331586783581 0 0.0036935269331660222 0.00070757864320076733 0 0.0034054597818857051 -0.0001171591162642297 0 0.00079200689903526262 0.0003553331586783581 0 0.003772757050397371 0.00073792780583650526 0 0.0036935269331660222 0.00070757864320076733 0 0.0034054597818857051 -0.0001171591162642297 0 0.003772757050397371 0.00073792780583650526 0 0.0043360602268080837 0.00031692680091667904 0 0.0036935269331660222 0.00070757864320076733 0 0.0043360602268080837 0.00031692680091667904 0 0.0036935269331660222 0.00070757864320076733 0 0.0051138574458005686 0.00043454780600170404 0 0.0031971376840994594 2.6017132592455891e-06 0 0.0051138574458005686 0.00043454780600170404 0 0.0069425604188810544 8.7420343901543717e-05 0 0.0031971376840994594 2.6017132592455891e-06 0 0.0036935269331660222 0.00070757864320076733 0 0.0051138574458005686 0.00043454780600170404 0 0.0031971376840994594 2.6017132592455891e-06 0 0.0092334456857743503 1.2307407984838946e-06 0 0.0069425604188810544 8.7420343901543717e-05 0 0.0092334456857743503 1.2307407984838946e-06 0 0.0069425604188810544 8.7420343901543717e-05 0 0.0085333699667591977 0.00020380756352202421 0 0.011501466575603818 -0.0031844310253498734 0 0.012248517588076884 -0.0032658394401120531 0 0.0069425604188810544 8.7420343901543717e-05 0 0.0085074012605292348 0.00020429571666959 0 0.0085333699667591977 0.00020380756352202421 0 0.0051138574458005686 0.00043454780600170404 0 0.0069425604188810544 8.7420343901543717e-05 0 0.0048463247580782295 -0.00037075268992281497 0 0.0043360602268080837 0.00031692680091667904 0 0.0051138574458005686 0.00043454780600170404 0 0.0048463247580782295 -0.00037075268992281497 0 0.0048463247580782295 -0.00037075268992281497 0 0.0048695291136820716 -0.0016310844100446299 0 0.0043864775439819781 -0.0012014443388806331 0 0.0069425604188810544 8.7420343901543717e-05 0 0.0048463247580782295 -0.00037075268992281497 0 0.0048695291136820716 -0.0016310844100446299 0 0.0085074012605292348 0.00020429571666959 0 0.0085009803736186395 9.3027658901578419e-06 0 0.0085333699667591977 0.00020380756352202421 0 0.0085074012605292348 0.00020429571666959 0 0.0085009803736186395 9.3027658901578419e-06 0 0.0081254392253870527 -0.00013641934493971601 0 0.0085009803736186395 9.3027658901578419e-06 0 0.0089031412612515411 -0.00017920728926679451 0 0.0080174710514430546 -0.00059464511548981312 0 0.0089031412612515411 -0.00017920728926679451 0 0.0085333699667591977 0.00020380756352202421 0 0.010362416929284348 0.00010266952732465322 0 0.0085009803736186395 9.3027658901578419e-06 0 0.0089031412612515411 -0.00017920728926679451 0 0.0085333699667591977 0.00020380756352202421 0 0.0089031412612515411 -0.00017920728926679451 0 0.010362416929284348 0.00010266952732465322 0 0.0095810218037177142 -0.0011902635332195553 0 0.0092334456857743503 1.2307407984838946e-06 0 0.010362416929284348 0.00010266952732465322 0 0.015265172242309428 -4.15293674932868e-06 0 0.0092334456857743503 1.2307407984838946e-06 0 0.0085333699667591977 0.00020380756352202421 0 0.010362416929284348 0.00010266952732465322 0 0.0032761676887117911 -0.0011921769284175343 0 0.0026908937773937056 -0.00056650215896695687 0 0.002557730808008498 -0.0014910095930759251 0 0.0019193210852297886 -0.0010092424535323109 0 0.0026908937773937056 -0.00056650215896695687 0 0.002557730808008498 -0.0014910095930759251 0 0.0035143925613466296 -5.9295371562098154e-05 0 0.0032761676887117911 -0.0011921769284175343 0 0.0026908937773937056 -0.00056650215896695687 0 0.0035143925613466296 -5.9295371562098154e-05 0 0.0032761676887117911 -0.0011921769284175343 0 0.0040116579423576885 -0.00068071865115577001 0 0.0043360602268080837 0.00031692680091667904 0 0.0035143925613466296 -5.9295371562098154e-05 0 0.0040116579423576885 -0.00068071865115577001 0 0.0043360602268080837 0.00031692680091667904 0 0.0048463247580782295 -0.00037075268992281497 0 0.0040116579423576885 -0.00068071865115577001 0 0.0048463247580782295 -0.00037075268992281497 0 0.0040116579423576885 -0.00068071865115577001 0 0.0043864775439819781 -0.0012014443388806331 0 0.0040116579423576885 -0.00068071865115577001 0 0.0043864775439819781 -0.0012014443388806331 0 0.0038442045499014277 -0.0013573723999874949 0 0.0032761676887117911 -0.0011921769284175343 0 0.0040116579423576885 -0.00068071865115577001 0 0.0038442045499014277 -0.0013573723999874949 0 0.0032761676887117911 -0.0011921769284175343 0 0.0033761065042204629 -0.0016272795753342255 0 0.0038442045499014277 -0.0013573723999874949 0 0.0033761065042204629 -0.0016272795753342255 0 0.0038442045499014277 -0.0013573723999874949 0 0.0044958124971324984 -0.0018105642591209632 0 0.0044958124971324984 -0.0018105642591209632 0 0.0039901843442024486 -0.0022605790637386905 0 0.0031524948611339658 -0.0022879210882306594 0 0.0094615763364152995 -0.0032473323915292178 0 0.013701550167982574 -0.0021768605238535765 0 0.0033761065042204629 -0.0016272795753342255 0 0.0044958124971324984 -0.0018105642591209632 0 0.0028260805368171592 -0.0023433313015108126 0 0.012248517588076884 -0.0032658394401120531 0 0.015406340475108166 -0.0028022175655819533 0 0.0048695291136820716 -0.0016310844100446299 0 0.0044958124971324984 -0.0018105642591209632 0 0.0039901843442024486 -0.0022605790637386905 0 0.0048695291136820716 -0.0016310844100446299 0 0.0043864775439819781 -0.0012014443388806331 0 0.0044958124971324984 -0.0018105642591209632 0 0.0043864775439819781 -0.0012014443388806331 0 0.0038442045499014277 -0.0013573723999874949 0 0.0044958124971324984 -0.0018105642591209632 0 0.0085009803736186395 9.3027658901578419e-06 0 0.0081254392253870527 -0.00013641934493971601 0 0.0080174710514430546 -0.00059464511548981312 0 0.0085074012605292348 0.00020429571666959 0 0.0081254392253870527 -0.00013641934493971601 0 0.0077830465365861237 -0.00018824589491011387 0 0.014996573674364459 -0.0028418050104419218 0 0.015406340475108166 -0.0028022175655819533 0 0.017499235061768328 -0.0015671705030712172 0 0.017903763559544112 -0.0018794585676397311 0 0.0081254392253870527 -0.00013641934493971601 0 0.0078503759201478378 -0.00025948273817866772 0 0.0080174710514430546 -0.00059464511548981312 0 0.0081254392253870527 -0.00013641934493971601 0 0.0078503759201478378 -0.00025948273817866772 0 0.0077317290144433611 -0.00025680559251226091 0 0.0078503759201478378 -0.00025948273817866772 0 0.0075107972115128555 -0.00045250281762720251 0 0.0081366252183042078 -0.00060633743973281925 0 0.0078503759201478378 -0.00025948273817866772 0 0.0077317290144433611 -0.00025680559251226091 0 0.0075107972115128555 -0.00045250281762720251 0 0.015406340475108166 -0.0028022175655819533 0 0.017456948275707526 -0.0022395862820443753 0 0.015406340475108166 -0.0028022175655819533 0 0.016297293614557781 -0.0023500357717874507 0 0.01743928911282264 -0.0018850987517337397 0 0.017259566689403386 -0.0020408864058964428 0 0.017056485212949828 -0.0019901249604427321 0 0.017456948275707526 -0.0022395862820443753 0 0.016297293614557781 -0.0023500357717874507 0 0.0015375869990062153 -0.0019461295173847039 0 0.0028260805368171592 -0.0023433313015108126 0 0.002557730808008498 -0.0014910095930759251 0 0.0039901843442024486 -0.0022605790637386905 0 0.0035094448032461185 -0.0023832733372010423 0 0.0031524948611339658 -0.0022879210882306594 0 0.016297293614557781 -0.0023500357717874507 0 0.013701550167982574 -0.0021768605238535765 0 0.0033761065042204629 -0.0016272795753342255 0 0.0028260805368171592 -0.0023433313015108126 0 0.002557730808008498 -0.0014910095930759251 0 0.0032761676887117911 -0.0011921769284175343 0 0.0033761065042204629 -0.0016272795753342255 0 0.002557730808008498 -0.0014910095930759251 0 0.016297293614557781 -0.0023500357717874507 0 0.019677486620365371 -0.00193927895537879 0 0.028488633510584817 -0.0057716858126503042 0 0.028896582779488342 -0.0058689789882253058 0 0.030294686579026696 -0.0042200382949642264 0 0.02940595408528577 -0.0057956931959928428 0 0.030949231712314437 -0.0042685665505018617 0 0.029063467041407373 -0.0047365105636811506 0 0.028896582779488342 -0.0058689789882253058 0 0.030294686579026696 -0.0042200382949642264 0 0.03183467873244826 -0.0050162852741111969 0 0.01432336888226971 -0.002860725139334378 0 0.015254440756342342 -0.0030778167916916286 0 0.019246861839322279 -0.0014105912095414477 0 0.017456948275707526 -0.0022395862820443753 0 0.024792909198156153 -0.00095410676680324864 0 0.017456948275707526 -0.0022395862820443753 0 0.017903763559544112 -0.0018794585676397311 0 0.02940595408528577 -0.0057956931959928428 0 0.028535180664889651 -0.0056035973342046944 0 0.029063467041407373 -0.0047365105636811506 0 0.029290001817345139 -0.0036946243406008844 0 0.026723831307360679 -0.0038997629297352508 0 0.029041366521021125 -0.002077776648725362 0 0.029063467041407373 -0.0047365105636811506 0 0.029290001817345139 -0.0036946243406008844 0 0.026723831307360679 -0.0038997629297352508 0 0.029290001817345139 -0.0036946243406008844 0 0.030262152574648531 -0.0031695269256655427 0 0.029041366521021125 -0.002077776648725362 0 0.030949231712314437 -0.0042685665505018617 0 0.029290001817345139 -0.0036946243406008844 0 0.030262152574648531 -0.0031695269256655427 0 0.030949231712314437 -0.0042685665505018617 0 0.029063467041407373 -0.0047365105636811506 0 0.029290001817345139 -0.0036946243406008844 0 0.030262152574648531 -0.0031695269256655427 0 0.030867112458497405 -0.0023621225259078263 0 0.031048545298119453 -0.0031862634626779601 0 0.030949231712314437 -0.0042685665505018617 0 0.030262152574648531 -0.0031695269256655427 0 0.031048545298119453 -0.0031862634626779601 0 0.015271864975855032 -1.8022193812563253e-06 0 0.01542027417715623 -0.00073230279927765892 0 0.010362416929284348 0.00010266952732465322 0 0.015265172242309428 -4.15293674932868e-06 0 0.0095810218037177142 -0.0011902635332195553 0 0.015279314324722066 -9.4459723959302594e-07 0 0.017427640163779394 -0.00091843358516397724 0 0.017615031433741803 0.00031333633480557795 0 0.017903763559544112 -0.0018794585676397311 0 0.01542027417715623 -0.00073230279927765892 0 0.0089031412612515411 -0.00017920728926679451 0 0.0080174710514430546 -0.00059464511548981312 0 0.0095810218037177142 -0.0011902635332195553 0 0.028535180664889651 -0.0056035973342046944 0 0.029063467041407373 -0.0047365105636811506 0 0.026723831307360679 -0.0038997629297352508 0 0.018612097333317212 -0.0012082724318414593 0 0.017427640163779394 -0.00091843358516397724 0 0.017615031433741803 0.00031333633480557795 0 0.017903763559544112 -0.0018794585676397311 0 0.021142891463797699 -0.0015236914219009115 0 0.015279314324722066 -9.4459723959302594e-07 0 0.017615031433741803 0.00031333633480557795 0 0.018961499282847797 9.4058886951697058e-07 0 0.017615031433741803 0.00031333633480557795 0 0.018961499282847797 9.4058886951697058e-07 0 0.022646563706481014 -9.395684099602526e-07 0 0.021142891463797699 -0.0015236914219009115 0 0.022648368793369907 -1.8656652665593509e-06 0 0.026723831307360679 -0.0038997629297352508 0 0.02265985877470791 -5.5758008126459745e-06 0 0.027128582779650991 -0.0012022022239793475 0 0.026723831307360679 -0.0038997629297352508 0 0.027128582779650991 -0.0012022022239793475 0 0.029041366521021125 -0.002077776648725362 0 0.027128582779650991 -0.0012022022239793475 0 0.028400184744173048 -0.00022753655675533226 0 0.029041366521021125 -0.002077776648725362 0 0.027128582779650991 -0.0012022022239793475 0 0.028400184744173048 -0.00022753655675533226 0 0.026823521806225627 0.00017920171733995112 0 0.027536162998805656 3.1784818556025958e-06 0 0.02265985877470791 -5.5758008126459745e-06 0 0.026823521806225627 0.00017920171733995112 0 0.02265985877470791 -5.5758008126459745e-06 0 0.027128582779650991 -0.0012022022239793475 0 0.026823521806225627 0.00017920171733995112 0 0.030591069638850752 -0.0023936335455947096 0 0.029997364700793776 -0.0023549969349693574 0 0.030361615347780268 -0.0018285033463896791 0 0.029041366521021125 -0.002077776648725362 0 0.029769972142962037 -0.00083634997753228441 0 0.030262152574648531 -0.0031695269256655427 0 0.030867112458497405 -0.0023621225259078263 0 0.029041366521021125 -0.002077776648725362 0 0.028400184744173048 -0.00022753655675533226 0 0.029041366521021125 -0.002077776648725362 0 0.029769972142962037 -0.00083634997753228441 0 0.029500866828446663 -0.00018166497075707683 0 0.028400184744173048 -0.00022753655675533226 0 0.029769972142962037 -0.00083634997753228441 0 0.030135664319864371 -0.00017236777515867795 0 0.029769972142962037 -0.00083634997753228441 0 0.030636026736094748 -0.0010969802648933891 0 0.030361615347780268 -0.0018285033463896791 0 0.029769972142962037 -0.00083634997753228441 0 0.030636026736094748 -0.0010969802648933891 0 0.033827712521387235 -0.0029288675929092355 0 0.035584957375220473 -0.0041713368698483482 0 0.030135664319864371 -0.00017236777515867795 0 0.030636026736094748 -0.0010969802648933891 0 0.031424943213352013 -0.00089844626996182341 0 0.030636026736094748 -0.0010969802648933891 0 0.031403713600935738 -0.001379270928690218 0 0.031424943213352013 -0.00089844626996182341 0 0.030867112458497405 -0.0023621225259078263 0 0.032373593126614877 -0.0023284737061566975 0 0.032071229461203547 -0.0029433107216500585 0 0.030867112458497405 -0.0023621225259078263 0 0.031048545298119453 -0.0031862634626779601 0 0.032071229461203547 -0.0029433107216500585 0 0.030361615347780268 -0.0018285033463896791 0 0.030636026736094748 -0.0010969802648933891 0 0.031065745007153957 -0.0016573425755417677 0 0.030591069638850752 -0.0023936335455947096 0 0.031392536219868705 -0.0025518370145883617 0 0.030361615347780268 -0.0018285033463896791 0 0.031065745007153957 -0.0016573425755417677 0 0.031436058395844547 -0.0017573673994151968 0 0.030636026736094748 -0.0010969802648933891 0 0.031065745007153957 -0.0016573425755417677 0 0.031403713600935738 -0.001379270928690218 0 0.031392536219868705 -0.0025518370145883617 0 0.033500188293097907 -0.0030696283264766695 0 0.035584957375220473 -0.0041713368698483482 0 0.033500188293097907 -0.0030696283264766695 0 0.032373593126614877 -0.0023284737061566975 0 0.033936328815862719 -0.0027923535259054555 0 0.032947056333022202 -0.0032447267749871572 0 0.031479702101584441 -0.0017876556913734595 0 0.031403713600935738 -0.001379270928690218 0 0.032623639311646038 -0.0017498183255690253 0 0.031392536219868705 -0.0025518370145883617 0 0.028995605251110047 -0.0019909403393778796 0 0.031403713600935738 -0.001379270928690218 0 0.031424943213352013 -0.00089844626996182341 0 0.032623639311646038 -0.0017498183255690253 0 0.031065745007153957 -0.0016573425755417677 0 0.031479702101584441 -0.0017876556913734595 0 0.031403713600935738 -0.001379270928690218 0 0.031360692207549522 -0.0025230217416628655 0 0.031392536219868705 -0.0025518370145883617 0 0.04584995173440802 -0.0063508794298593654 0 0.043296549702532272 -0.0083773659358292469 0 0.046638648565793084 -0.008011683986810918 0 0.043296549702532272 -0.0083773659358292469 0 0.046638648565793084 -0.008011683986810918 0 0.046890910749054167 -0.010063855977856357 0 0.047843684749812834 -0.0062673505544211692 0 0.04584995173440802 -0.0063508794298593654 0 0.046638648565793084 -0.008011683986810918 0 0.047843684749812834 -0.0062673505544211692 0 0.046638648565793084 -0.008011683986810918 0 0.048216279059646254 -0.0079045335155207459 0 0.046638648565793084 -0.008011683986810918 0 0.048216279059646254 -0.0079045335155207459 0 0.047417164311437235 -0.0090321809287219421 0 0.047843684749812834 -0.0062673505544211692 0 0.049484671887294739 -0.0066774729453509783 0 0.048216279059646254 -0.0079045335155207459 0 0.048216279059646254 -0.0079045335155207459 0 0.049468499296924262 -0.0085900908681221695 0 0.048296640107323409 -0.0089862516018013264 0 0.048216279059646254 -0.0079045335155207459 0 0.048296640107323409 -0.0089862516018013264 0 0.047417164311437235 -0.0090321809287219421 0 0.049484671887294739 -0.0066774729453509783 0 0.048216279059646254 -0.0079045335155207459 0 0.049468499296924262 -0.0085900908681221695 0 0.051210671026530916 -0.0075407690689068101 0 0.049484671887294739 -0.0066774729453509783 0 0.049468499296924262 -0.0085900908681221695 0 0.051909636925059295 -0.0095439665550328488 0 0.049468499296924262 -0.0085900908681221695 0 0.048637786558118179 -0.0097422745334602 0 0.049468499296924262 -0.0085900908681221695 0 0.048637786558118179 -0.0097422745334602 0 0.048296640107323409 -0.0089862516018013264 0 0.032568224233580217 -0.0024443227452205928 0 0.032809952342954384 -0.0030009054866195935 0 0.048637786558118179 -0.0097422745334602 0 0.048296640107323409 -0.0089862516018013264 0 0.047851269600066068 -0.0097955626319420255 0 0.032568224233580217 -0.0024443227452205928 0 0.029686997352132736 -0.0011782208556726887 0 0.031086713274807019 -0.0019791857395261166 0 0.030002021838651787 -0.0020153411569597615 0 0.030715132903289963 -0.0034836126275271965 0 0.031086713274807019 -0.0019791857395261166 0 0.031275913918532378 -0.0038900398579497734 0 0.030715132903289963 -0.0034836126275271965 0 0.032809952342954384 -0.0030009054866195935 0 0.030475509042582071 -0.0016822008415612972 0 0.031004344499694768 -0.001013166391585987 0 0.031492374124915581 -0.0014331367984784268 0 0.031071367241974849 -0.0016936386638038319 0 0.031469177323362525 -0.0024164416594264024 0 0.03110540214737215 -0.0024178363690571989 0 0.03114495593428707 -0.0023864152536110846 0 0.031469177323362525 -0.0024164416594264024 0 0.031102779560853493 -0.0022961757757834654 0 0.03114495593428707 -0.0023864152536110846 0 0.046638648565793084 -0.008011683986810918 0 0.047417164311437235 -0.0090321809287219421 0 0.046890910749054167 -0.010063855977856357 0 0.048296640107323409 -0.0089862516018013264 0 0.047417164311437235 -0.0090321809287219421 0 0.047851269600066068 -0.0097955626319420255 0 0.047417164311437235 -0.0090321809287219421 0 0.046890910749054167 -0.010063855977856357 0 0.047891361417477359 -0.010013511247331313 0 0.033386832380534234 -0.0037220456045110976 0 0.032809952342954384 -0.0030009054866195935 0 0.03110540214737215 -0.0024178363690571989 0 0.031102804456690239 -0.0022856284251391405 0 0.03114495593428707 -0.0023864152536110846 0 0.03110540214737215 -0.0024178363690571989 0 0.031102804456690239 -0.0022856284251391405 0 0.030905502866897014 -0.0022652470296711455 0 0.03166162513761233 -0.0027441599241531749 0 0.032235671329592611 -0.0027237752090803124 0 0.032561098262113806 -0.003395435655379744 0 0.033500188293097907 -0.0030696283264766695 0 0.030475509042582071 -0.0016822008415612972 0 0.033500188293097907 -0.0030696283264766695 0 0.032809952342954384 -0.0030009054866195935 0 0.028995605251110047 -0.0019909403393778796 0 0.029038834938347646 -0.002033709508057683 0 0.033936328815862719 -0.0027923535259054555 0 0.033623556508970892 -0.0034897574620138712 0 0.032947056333022202 -0.0032447267749871572 0 0.033936328815862719 -0.0027923535259054555 0 0.034364933438301798 -0.0037175993258080444 0 0.033623556508970892 -0.0034897574620138712 0 0.027458966227640189 -0.00087673329088311619 0 0.02751960679830058 -0.001008542454309649 0 0.027590890322495561 -0.00091289413788458985 0 0.028995605251110047 -0.0019909403393778796 0 0.026088588452975764 -0.00068421816052235279 0 0.028995605251110047 -0.0019909403393778796 0 0.029546871640286479 -0.0012695112669249059 0 0.025930360994266217 1.0925188209167257e-05 0 0.02621443339208681 -0.00060630517720217634 0 0.023482347969299953 -0.0014020096761486567 0 0.026088588452975764 -0.00068421816052235279 0 0.024932029876410203 -6.8377072439362722e-05 0 0.026088588452975764 -0.00068421816052235279 0 0.024430115045014508 -0.0010901796867918514 0 0.034364933438301798 -0.0037175993258080444 0 0.033623556508970892 -0.0034897574620138712 0 0.033238901673011342 -0.0042133492626890527 0 0.033623556508970892 -0.0034897574620138712 0 0.033238901673011342 -0.0042133492626890527 0 0.032947056333022202 -0.0032447267749871572 0 0.02991113022536427 -0.00017192200448688441 0 0.029086902823464444 -0.0003253664364904627 0 0.027415041273798891 0.00013056934846270829 0 0.027762886372558047 2.6867465646070102e-05 0 0.026713169554712951 -0.0011117862610889977 0 0.028860421673445026 -0.0014396921758945119 0 0.029263344757249718 -0.0012750510238969937 0 0.029066899006771861 -0.0012156647921848897 0 0.029086902823464444 -0.0003253664364904627 0 0.028830444522834835 -0.00013057597330744136 0 0.031794360169715839 -0.0017898210568995537 0 0.031492374124915581 -0.0014331367984784268 0 0.031528220904512835 -0.0018996924248349317 0 0.029086902823464444 -0.0003253664364904627 0 0.029686997352132736 -0.0011782208556726887 0 0.031492374124915581 -0.0014331367984784268 0 0.031528220904512835 -0.0018996924248349317 0 0.031071367241974849 -0.0016936386638038319 0 0.029086902823464444 -0.0003253664364904627 0 0.028024597115635621 -0.00044012174561793466 0 0.029043255708532376 0.00082842776213333253 0 0.028028438570592926 0.00052040277098406695 0 0.027948438072612346 0.0013237070401474938 0 0.02751960679830058 -0.001008542454309649 0 0.027614896605176471 -0.00096166013726694892 0 0.027590890322495561 -0.00091289413788458985 0 0.031102804456690239 -0.0022856284251391405 0 0.030880118734085707 -0.0022118520318201631 0 0.030905502866897014 -0.0022652470296711455 0 0.028024597115635621 -0.00044012174561793466 0 0.029686997352132736 -0.0011782208556726887 0 0.028024597115635621 -0.00044012174561793466 0 0.029546871640286479 -0.0012695112669249059 0 0.02840042754850549 -0.0020698151511890596 0 0.028333353335434318 -0.0013879697909161461 0 0.028106350355969378 -0.0014642393746649393 0 0.030562639269207815 -0.00073206230005177023 0 0.029753832892053994 -0.0010042093332314336 0 0.02910902858311611 0.00032172988426001616 0 0.029546871640286479 -0.0012695112669249059 0 0.030475509042582071 -0.0016822008415612972 0 0.029686997352132736 -0.0011782208556726887 0 0.030475509042582071 -0.0016822008415612972 0 0.029686997352132736 -0.0011782208556726887 0 0.029546871640286479 -0.0012695112669249059 0 0.026088588452975764 -0.00068421816052235279 0 0.028024597115635621 -0.00044012174561793466 0 0.025910148368111587 -0.00078153565044455312 0 0.02721014210551435 -0.00013932424007036728 0 0.027295308135866655 -0.00099875544303544973 0 0.025910148368111587 -0.00078153565044455312 0 0.026160956425090125 -0.0013265620161488402 0 0.027295308135866655 -0.00099875544303544973 0 0.023737412139956292 -0.00019401694091753842 0 0.024078326973634438 -9.5252785367196246e-05 0 0.023841261999298015 -0.0004208087787517727 0 0.024932029876410203 -6.8377072439362722e-05 0 0.026126692053728359 0.00031377228208315483 0 0.028024597115635621 -0.00044012174561793466 0 0.026126692053728359 0.00031377228208315483 0 0.027415041273798891 0.00013056934846270829 0 0.026276000336819514 -0.00021490313858886154 0 0.026713169554712951 -0.0011117862610889977 0 0.027612282963532082 0.00039855681296681214 0 0.027469552319307113 0.0018101636234337823 0 0.02699031573831125 0.0016726141566274469 0 0.028024597115635621 -0.00044012174561793466 0 0.026695336731668406 0.00041562295228169554 0 0.026126692053728359 0.00031377228208315483 0 0.026695336731668406 0.00041562295228169554 0 0.028830444522834835 -0.00013057597330744136 0 0.026695336731668406 0.00041562295228169554 0 0.017183393801994313 0.0023388395673418104 0 0.018023246726311865 0.0025224431336149313 0 0.017596081729319535 0.0034553324654434353 0 0.022510571024352045 0.0017172129006032023 0 0.023728068024626903 0.00051658819411671219 0 0.022494790884210934 0.0028693657470171821 0 0.026695336731668406 0.00041562295228169554 0 0.019085122143175471 0.002240185253938029 0 0.018549382142565941 0.003183850573607129 0 0.018627301147457014 0.0032057403657912665 0 0.024361086790029695 0.0016692751397626203 0 0.02455485588659264 -0.00017548464440531421 0 0.024957139287699267 0.00038671884072514123 0 0.022510571024352045 0.0017172129006032023 0 0.026126692053728359 0.00031377228208315483 0 0.019085122143175471 0.002240185253938029 0 0.01861086730959197 0.0022422614042269915 0 0.018549382142565941 0.003183850573607129 0 0.026126692053728359 0.00031377228208315483 0 0.023728068024626903 0.00051658819411671219 0 0.024932029876410203 -6.8377072439362722e-05 0 0.023728068024626903 0.00051658819411671219 0 0.019903964533248057 0.00042052133847927513 0 0.020136655579256025 -8.8054193809705109e-05 0 0.018279704451013668 -5.0070826392701177e-05 0 0.012492325802251888 -0.00047747872812930775 0 0.023728068024626903 0.00051658819411671219 0 0.018003294024677423 -0.0023890237827298394 0 0.020136655579256025 -8.8054193809705109e-05 0 0.018279704451013668 -5.0070826392701177e-05 0 0.025930360994266217 1.0925188209167257e-05 0 0.023482347969299953 -0.0014020096761486567 0 0.023322576693891831 -0.0010687926992989461 0 0.024932029876410203 -6.8377072439362722e-05 0 0.022059743511330158 -0.001082260318727269 0 0.018003294024677423 -0.0023890237827298394 0 0.018279704451013668 -5.0070826392701177e-05 0 0.016661837929347716 -0.00052111877162936164 0 0.024430115045014508 -0.0010901796867918514 0 0.020161487036076637 -0.0019608576613769245 0 0.022059743511330158 -0.001082260318727269 0 0.020161487036076637 -0.0019608576613769245 0 0.023482347969299953 -0.0014020096761486567 0 0.023322576693891831 -0.0010687926992989461 0 0.020750530732452303 -0.0022062492208358153 0 0.032058486284247352 -0.0047799662492430464 0 0.031615440777811428 -0.0042250979465752328 0 0.032242957142607713 -0.0041139217286691255 0 0.033238901673011342 -0.0042133492626890527 0 0.032058486284247352 -0.0047799662492430464 0 0.032242957142607713 -0.0041139217286691255 0 0.015562384090566695 -0.0020624725543384207 0 0.015542074851317861 -0.00197659536192165 0 0.015517017179947485 -0.0019837963769567565 0 0.013701550167982574 -0.0021768605238535765 0 0.019677486620365371 -0.00193927895537879 0 0.020161487036076637 -0.0019608576613769245 0 0.019677486620365371 -0.00193927895537879 0 0.030294686579026696 -0.0042200382949642264 0 0.03183467873244826 -0.0050162852741111969 0 0.031615440777811428 -0.0042250979465752328 0 0.032123113746951842 -0.0049304136448532149 0 0.03183467873244826 -0.0050162852741111969 0 0.031615440777811428 -0.0042250979465752328 0 0.020161487036076637 -0.0019608576613769245 0 0.020917186504376312 -0.0026102243488160298 0 0.031615440777811428 -0.0042250979465752328 0 0.031802152729870657 -0.0037209468182021325 0 0.032242957142607713 -0.0041139217286691255 0 0.030294686579026696 -0.0042200382949642264 0 0.031802152729870657 -0.0037209468182021325 0 0.032071229461203547 -0.0029433107216500585 0 0.030949231712314437 -0.0042685665505018617 0 0.031048545298119453 -0.0031862634626779601 0 0.032071229461203547 -0.0029433107216500585 0 0.024792909198156153 -0.00095410676680324864 0 0.026869700284021265 -0.00062863737047330051 0 0.030294686579026696 -0.0042200382949642264 0 0.031615440777811428 -0.0042250979465752328 0 0.031802152729870657 -0.0037209468182021325 0 0.032373593126614877 -0.0023284737061566975 0 0.032071229461203547 -0.0029433107216500585 0 0.032947056333022202 -0.0032447267749871572 0 0.031802152729870657 -0.0037209468182021325 0 0.032071229461203547 -0.0029433107216500585 0 0.032461397990588267 -0.0036412841701000875 0 0.032071229461203547 -0.0029433107216500585 0 0.032947056333022202 -0.0032447267749871572 0 0.032461397990588267 -0.0036412841701000875 0 0.033238901673011342 -0.0042133492626890527 0 0.032947056333022202 -0.0032447267749871572 0 0.032461397990588267 -0.0036412841701000875 0 0.033238901673011342 -0.0042133492626890527 0 0.032242957142607713 -0.0041139217286691255 0 0.032461397990588267 -0.0036412841701000875 0 0.031802152729870657 -0.0037209468182021325 0 0.032242957142607713 -0.0041139217286691255 0 0.032461397990588267 -0.0036412841701000875 0 0.026579285854017917 0.0047894997307143822 0 0.028402554732854472 0.0057791239012228122 0 0.027952818357439142 0.0045025259231225405 0 0.026579285854017917 0.0047894997307143822 0 0.027952818357439142 0.0045025259231225405 0 0.027001485741225295 0.0035178289794662592 0 0.026579285854017917 0.0047894997307143822 0 0.027001485741225295 0.0035178289794662592 0 0.025674674257980763 0.0032928519854681418 0 0.026579285854017917 0.0047894997307143822 0 0.024797480361532974 0.0040911115341550593 0 0.025010126401910759 0.0052050789861278323 0 0.026579285854017917 0.0047894997307143822 0 0.024797480361532974 0.0040911115341550593 0 0.025674674257980763 0.0032928519854681418 0 0.024797480361532974 0.0040911115341550593 0 0.025674674257980763 0.0032928519854681418 0 0.024390332138249173 0.0031448716471117895 0 0.024797480361532974 0.0040911115341550593 0 0.025010126401910759 0.0052050789861278323 0 0.023939482994296359 0.0048196732015908092 0 0.026579285854017917 0.0047894997307143822 0 0.025010126401910759 0.0052050789861278323 0 0.025706886694237267 0.006052880439026514 0 0.025706886694237267 0.006052880439026514 0 0.02416757501970751 0.0061528411082766065 0 0.025538516756821596 0.0070019614743578387 0 0.025010126401910759 0.0052050789861278323 0 0.025706886694237267 0.006052880439026514 0 0.02416757501970751 0.0061528411082766065 0 0.025706886694237267 0.006052880439026514 0 0.026891395946062359 0.0062893924180417796 0 0.025538516756821596 0.0070019614743578387 0 0.026579285854017917 0.0047894997307143822 0 0.026891395946062359 0.0062893924180417796 0 0.028402554732854472 0.0057791239012228122 0 0.026579285854017917 0.0047894997307143822 0 0.025706886694237267 0.006052880439026514 0 0.026891395946062359 0.0062893924180417796 0 0.026891395946062359 0.0062893924180417796 0 0.028402554732854472 0.0057791239012228122 0 0.028693359320420598 0.0071322400704286002 0 0.028402554732854472 0.0057791239012228122 0 0.029977013791504876 0.006804627873342105 0 0.028693359320420598 0.0071322400704286002 0 0.028402554732854472 0.0057791239012228122 0 0.029977013791504876 0.006804627873342105 0 0.029919361424789102 0.0056893871284878893 0 0.029977013791504876 0.006804627873342105 0 0.031400006608121929 0.007367433049758022 0 0.03112327988904761 0.0064349485039624519 0 0.029919361424789102 0.0056893871284878893 0 0.031108548184501612 0.0053456621507026415 0 0.03112327988904761 0.0064349485039624519 0 0.029977013791504876 0.006804627873342105 0 0.029919361424789102 0.0056893871284878893 0 0.03112327988904761 0.0064349485039624519 0 0.029919361424789102 0.0056893871284878893 0 0.031108548184501612 0.0053456621507026415 0 0.029299904910837931 0.0045710465858779872 0 0.031108548184501612 0.0053456621507026415 0 0.029299904910837931 0.0045710465858779872 0 0.030499444337775069 0.0037031192886234211 0 0.031108548184501612 0.0053456621507026415 0 0.030499444337775069 0.0037031192886234211 0 0.032202408840001896 0.0038167403932782705 0 0.027952818357439142 0.0045025259231225405 0 0.029299904910837931 0.0045710465858779872 0 0.028583408434157246 0.002722245428342142 0 0.028402554732854472 0.0057791239012228122 0 0.027952818357439142 0.0045025259231225405 0 0.029299904910837931 0.0045710465858779872 0 0.028402554732854472 0.0057791239012228122 0 0.029919361424789102 0.0056893871284878893 0 0.029299904910837931 0.0045710465858779872 0 0.027952818357439142 0.0045025259231225405 0 0.028583408434157246 0.002722245428342142 0 0.027001485741225295 0.0035178289794662592 0 0.029299904910837931 0.0045710465858779872 0 0.028583408434157246 0.002722245428342142 0 0.030499444337775069 0.0037031192886234211 0 0.028583408434157246 0.002722245428342142 0 0.030499444337775069 0.0037031192886234211 0 0.030692789891090769 0.0019207846537828332 0 0.030499444337775069 0.0037031192886234211 0 0.030692789891090769 0.0019207846537828332 0 0.032202408840001896 0.0038167403932782705 0 0.030692789891090769 0.0019207846537828332 0 0.028964250944204909 0.00067236682261413152 0 0.031033437189335555 -0.00055337702711603899 0 0.028583408434157246 0.002722245428342142 0 0.028964250944204909 0.00067236682261413152 0 0.026954923926647979 0.00076241810786551898 0 0.028583408434157246 0.002722245428342142 0 0.030692789891090769 0.0019207846537828332 0 0.028964250944204909 0.00067236682261413152 0 0.026954923926647979 0.00076241810786551898 0 0.02633416805158208 0.0022686221320603948 0 0.025163490100965899 0.001379957846210872 0 0.028583408434157246 0.002722245428342142 0 0.026954923926647979 0.00076241810786551898 0 0.02633416805158208 0.0022686221320603948 0 0.028583408434157246 0.002722245428342142 0 0.02633416805158208 0.0022686221320603948 0 0.027001485741225295 0.0035178289794662592 0 0.02633416805158208 0.0022686221320603948 0 0.027001485741225295 0.0035178289794662592 0 0.025674674257980763 0.0032928519854681418 0 0.025674674257980763 0.0032928519854681418 0 0.025105994538795251 0.0024435892888668084 0 0.024390332138249173 0.0031448716471117895 0 0.02633416805158208 0.0022686221320603948 0 0.025105994538795251 0.0024435892888668084 0 0.025163490100965899 0.001379957846210872 0 0.02633416805158208 0.0022686221320603948 0 0.025674674257980763 0.0032928519854681418 0 0.025105994538795251 0.0024435892888668084 0 0.025105994538795251 0.0024435892888668084 0 0.024390332138249173 0.0031448716471117895 0 0.024009106306859897 0.0021258566937457238 0 0.025105994538795251 0.0024435892888668084 0 0.025163490100965899 0.001379957846210872 0 0.024009106306859897 0.0021258566937457238 0 0.026954923926647979 0.00076241810786551898 0 0.025163490100965899 0.001379957846210872 0 0.02514661451142354 -0.00028669881995028036 0 0.025163490100965899 0.001379957846210872 0 0.023836691834712983 0.0012172832836334498 0 0.02514661451142354 -0.00028669881995028036 0 0.023836691834712983 0.0012172832836334498 0 0.022740907709580167 0.00081464025984310617 0 0.02514661451142354 -0.00028669881995028036 0 0.042307220255023141 -0.002955015083086853 0 0.041266389069547389 -0.0020271999490665688 0 0.045812586024209692 -0.0033532048937928408 0 0.023836691834712983 0.0012172832836334498 0 0.023060184127837655 0.0018893438270944733 0 0.024009106306859897 0.0021258566937457238 0 0.025163490100965899 0.001379957846210872 0 0.023836691834712983 0.0012172832836334498 0 0.024009106306859897 0.0021258566937457238 0 0.023836691834712983 0.0012172832836334498 0 0.023060184127837655 0.0018893438270944733 0 0.02296536783711476 0.0013958511547281893 0 0.023836691834712983 0.0012172832836334498 0 0.02296536783711476 0.0013958511547281893 0 0.022740907709580167 0.00081464025984310617 0 0.042307220255023141 -0.002955015083086853 0 0.041266389069547389 -0.0020271999490665688 0 0.03123627695820454 -0.0045971182853706237 0 0.022252602062325488 0.0016553880539838535 0 0.021652386093009568 0.0021305682271015019 0 0.02061584784704059 0.0019181928236994389 0 0.031264769900229313 -0.00084959125508191546 0 0.026379132575392823 0.00078510317149131724 0 0.022740907709580167 0.00081464025984310617 0 0.022252602062325488 0.0016553880539838535 0 0.02061584784704059 0.0019181928236994389 0 0.038061968427509738 -0.0031632599865197984 0 0.035641523795524023 -0.0031235100326515598 0 0.02296536783711476 0.0013958511547281893 0 0.022740907709580167 0.00081464025984310617 0 0.022252602062325488 0.0016553880539838535 0 0.023060184127837655 0.0018893438270944733 0 0.02296536783711476 0.0013958511547281893 0 0.022252602062325488 0.0016553880539838535 0 0.023060184127837655 0.0018893438270944733 0 0.022252602062325488 0.0016553880539838535 0 0.02225458542727958 0.0024023215887882875 0 0.023060184127837655 0.0018893438270944733 0 0.02225458542727958 0.0024023215887882875 0 0.023135603841255556 0.0028297418985734064 0 0.02225458542727958 0.0024023215887882875 0 0.021652386093009568 0.0021305682271015019 0 0.021305468145915229 0.0027670061207466486 0 0.022252602062325488 0.0016553880539838535 0 0.02225458542727958 0.0024023215887882875 0 0.021652386093009568 0.0021305682271015019 0 0.022206536686571299 0.0031148753782239322 0 0.021305468145915229 0.0027670061207466486 0 0.021597253630877639 0.0036016414570620133 0 0.02225458542727958 0.0024023215887882875 0 0.022206536686571299 0.0031148753782239322 0 0.021305468145915229 0.0027670061207466486 0 0.02225458542727958 0.0024023215887882875 0 0.022206536686571299 0.0031148753782239322 0 0.023135603841255556 0.0028297418985734064 0 0.022206536686571299 0.0031148753782239322 0 0.023135603841255556 0.0028297418985734064 0 0.022616986769948128 0.0040823319359950894 0 0.023135603841255556 0.0028297418985734064 0 0.024390332138249173 0.0031448716471117895 0 0.024009106306859897 0.0021258566937457238 0 0.023135603841255556 0.0028297418985734064 0 0.024390332138249173 0.0031448716471117895 0 0.023714222372701082 0.003810367922196405 0 0.023060184127837655 0.0018893438270944733 0 0.023135603841255556 0.0028297418985734064 0 0.024009106306859897 0.0021258566937457238 0 0.020639184853267788 -0.0041502553462568577 0 0.029671535832630741 0.00066239976698586245 0 0.019330119283532596 0.0025359553103264289 0 0.032901407322066013 -0.0027949563480264821 0 0.035641523795524023 -0.0031235100326515598 0 0.020639184853267788 -0.0041502553462568577 0 0.029671535832630741 0.00066239976698586245 0 0.03123627695820454 -0.0045971182853706237 0 0.041266389069547389 -0.0020271999490665688 0 0.029671535832630741 0.00066239976698586245 0 0.03123627695820454 -0.0045971182853706237 0 0.021652386093009568 0.0021305682271015019 0 0.02061584784704059 0.0019181928236994389 0 0.021305468145915229 0.0027670061207466486 0 0.021305468145915229 0.0027670061207466486 0 0.020730286811565694 0.0036806184173845055 0 0.021597253630877639 0.0036016414570620133 0 0.021305468145915229 0.0027670061207466486 0 0.020265612266546666 0.0028451304749877201 0 0.020730286811565694 0.0036806184173845055 0 0.020265612266546666 0.0028451304749877201 0 0.019728886400145886 0.0034996553718642876 0 0.020730286811565694 0.0036806184173845055 0 0.02061584784704059 0.0019181928236994389 0 0.021305468145915229 0.0027670061207466486 0 0.020265612266546666 0.0028451304749877201 0 0.020265612266546666 0.0028451304749877201 0 0.019728886400145886 0.0034996553718642876 0 0.019330119283532596 0.0025359553103264289 0 0.02061584784704059 0.0019181928236994389 0 0.020265612266546666 0.0028451304749877201 0 0.019330119283532596 0.0025359553103264289 0 0.019728886400145886 0.0034996553718642876 0 0.019330119283532596 0.0025359553103264289 0 0.01859766606923292 0.0041272949759262869 0 0.026379132575392823 0.00078510317149131724 0 0.023573076784800355 0.0016728943043108368 0 0.019728886400145886 0.0034996553718642876 0 0.01980385410816065 0.0048520044641183089 0 0.01859766606923292 0.0041272949759262869 0 0.019728886400145886 0.0034996553718642876 0 0.020730286811565694 0.0036806184173845055 0 0.01980385410816065 0.0048520044641183089 0 0.020730286811565694 0.0036806184173845055 0 0.020883818307270204 0.0052669939516060207 0 0.01980385410816065 0.0048520044641183089 0 0.020730286811565694 0.0036806184173845055 0 0.020883818307270204 0.0052669939516060207 0 0.02172512796830009 0.0045151133664280765 0 0.020730286811565694 0.0036806184173845055 0 0.021597253630877639 0.0036016414570620133 0 0.02172512796830009 0.0045151133664280765 0 0.020883818307270204 0.0052669939516060207 0 0.01980385410816065 0.0048520044641183089 0 0.019857515511201591 0.0064953032156049471 0 0.020883818307270204 0.0052669939516060207 0 0.019857515511201591 0.0064953032156049471 0 0.021289022969661762 0.0065286853803183283 0 0.01980385410816065 0.0048520044641183089 0 0.01859766606923292 0.0041272949759262869 0 0.01833063393592731 0.006016537283287886 0 0.01980385410816065 0.0048520044641183089 0 0.019857515511201591 0.0064953032156049471 0 0.01833063393592731 0.006016537283287886 0 0.023939482994296359 0.0048196732015908092 0 0.022616986769948128 0.0040823319359950894 0 0.022932168665130859 0.00524721828136669 0 0.023939482994296359 0.0048196732015908092 0 0.023714222372701082 0.003810367922196405 0 0.022616986769948128 0.0040823319359950894 0 0.024797480361532974 0.0040911115341550593 0 0.023939482994296359 0.0048196732015908092 0 0.023714222372701082 0.003810367922196405 0 0.024797480361532974 0.0040911115341550593 0 0.024390332138249173 0.0031448716471117895 0 0.023714222372701082 0.003810367922196405 0 0.023135603841255556 0.0028297418985734064 0 0.023714222372701082 0.003810367922196405 0 0.022616986769948128 0.0040823319359950894 0 0.022206536686571299 0.0031148753782239322 0 0.022616986769948128 0.0040823319359950894 0 0.021597253630877639 0.0036016414570620133 0 0.022616986769948128 0.0040823319359950894 0 0.021597253630877639 0.0036016414570620133 0 0.02172512796830009 0.0045151133664280765 0 0.022616986769948128 0.0040823319359950894 0 0.02172512796830009 0.0045151133664280765 0 0.022932168665130859 0.00524721828136669 0 0.02172512796830009 0.0045151133664280765 0 0.021900488728561544 0.0055784705993194156 0 0.022932168665130859 0.00524721828136669 0 0.020883818307270204 0.0052669939516060207 0 0.02172512796830009 0.0045151133664280765 0 0.021900488728561544 0.0055784705993194156 0 0.020883818307270204 0.0052669939516060207 0 0.021900488728561544 0.0055784705993194156 0 0.021289022969661762 0.0065286853803183283 0 0.021900488728561544 0.0055784705993194156 0 0.02251067582734172 0.0064578024021654506 0 0.021289022969661762 0.0065286853803183283 0 0.021900488728561544 0.0055784705993194156 0 0.022932168665130859 0.00524721828136669 0 0.02251067582734172 0.0064578024021654506 0 0.022932168665130859 0.00524721828136669 0 0.02416757501970751 0.0061528411082766065 0 0.02251067582734172 0.0064578024021654506 0 0.023939482994296359 0.0048196732015908092 0 0.022932168665130859 0.00524721828136669 0 0.02416757501970751 0.0061528411082766065 0 0.025010126401910759 0.0052050789861278323 0 0.023939482994296359 0.0048196732015908092 0 0.02416757501970751 0.0061528411082766065 0 0.02416757501970751 0.0061528411082766065 0 0.023177490949381624 0.0074048982646122028 0 0.024406985693545647 0.0071625716934155354 0 0.02416757501970751 0.0061528411082766065 0 0.023177490949381624 0.0074048982646122028 0 0.02251067582734172 0.0064578024021654506 0 0.023177490949381624 0.0074048982646122028 0 0.02448643018311538 0.0080887779647110507 0 0.024406985693545647 0.0071625716934155354 0 0.02251067582734172 0.0064578024021654506 0 0.021963543654192536 0.0076995114660316985 0 0.021289022969661762 0.0065286853803183283 0 0.023177490949381624 0.0074048982646122028 0 0.02251067582734172 0.0064578024021654506 0 0.021963543654192536 0.0076995114660316985 0 0.021963543654192536 0.0076995114660316985 0 0.023115620571260095 0.0085261428694554334 0 0.021445756631630022 0.0092041813426257234 0 0.023115620571260095 0.0085261428694554334 0 0.022615032710151757 0.0097489626751151442 0 0.021445756631630022 0.0092041813426257234 0 0.021963543654192536 0.0076995114660316985 0 0.020201822438773515 0.0080369058972409365 0 0.021445756631630022 0.0092041813426257234 0 0.023115620571260095 0.0085261428694554334 0 0.023778346365704313 0.0094298254351331996 0 0.022615032710151757 0.0097489626751151442 0 0.023115620571260095 0.0085261428694554334 0 0.023778346365704313 0.0094298254351331996 0 0.02448643018311538 0.0080887779647110507 0 0.023177490949381624 0.0074048982646122028 0 0.023115620571260095 0.0085261428694554334 0 0.02448643018311538 0.0080887779647110507 0 0.023177490949381624 0.0074048982646122028 0 0.021963543654192536 0.0076995114660316985 0 0.023115620571260095 0.0085261428694554334 0 0.019857515511201591 0.0064953032156049471 0 0.020201822438773515 0.0080369058972409365 0 0.018319072536597591 0.0079343147067655224 0 0.019857515511201591 0.0064953032156049471 0 0.018319072536597591 0.0079343147067655224 0 0.01833063393592731 0.006016537283287886 0 0.021963543654192536 0.0076995114660316985 0 0.021289022969661762 0.0065286853803183283 0 0.020201822438773515 0.0080369058972409365 0 0.019857515511201591 0.0064953032156049471 0 0.021289022969661762 0.0065286853803183283 0 0.020201822438773515 0.0080369058972409365 0 0.020201822438773515 0.0080369058972409365 0 0.019027610634245695 0.0096857135103279538 0 0.021445756631630022 0.0092041813426257234 0 0.020201822438773515 0.0080369058972409365 0 0.018319072536597591 0.0079343147067655224 0 0.019027610634245695 0.0096857135103279538 0 0.019027610634245695 0.0096857135103279538 0 0.020237885197840956 0.011196047389920276 0 0.018523753553588741 0.011577532677888684 0 0.019027610634245695 0.0096857135103279538 0 0.018523753553588741 0.011577532677888684 0 0.017114118009881635 0.010907072281657696 0 0.019027610634245695 0.0096857135103279538 0 0.020237885197840956 0.011196047389920276 0 0.021445756631630022 0.0092041813426257234 0 0.018711013916473056 0.010849236066904367 0 0.01954271544035226 0.010131536491517641 0 0.01921533060465553 0.010446058115256797 0 0.017221121975952231 0.011978365982613304 0 0.019726932181514133 0.011749644653849971 0 0.01921533060465553 0.010446058115256797 0 0.021499243864542453 0.010729576824120828 0 0.019726932181514133 0.011749644653849971 0 0.020237885197840956 0.011196047389920276 0 0.018523753553588741 0.011577532677888684 0 0.018760521527104897 0.013367699308893637 0 0.018711013916473056 0.010849236066904367 0 0.016969360316114346 0.012061757208705748 0 0.022615032710151757 0.0097489626751151442 0 0.021499243864542453 0.010729576824120828 0 0.023414715015070395 0.010445432093596387 0 0.023277668119124153 0.010242803428642894 0 0.023239185096981075 0.01045700678492123 0 0.023778346365704313 0.0094298254351331996 0 0.022615032710151757 0.0097489626751151442 0 0.023414715015070395 0.010445432093596387 0 0.022615032710151757 0.0097489626751151442 0 0.021445756631630022 0.0092041813426257234 0 0.021499243864542453 0.010729576824120828 0 0.01921533060465553 0.010446058115256797 0 0.021445756631630022 0.0092041813426257234 0 0.021499243864542453 0.010729576824120828 0 0.021499243864542453 0.010729576824120828 0 0.021433651925214705 0.012536802913281941 0 0.023349985867117597 0.011761465019407429 0 0.021499243864542453 0.010729576824120828 0 0.023414715015070395 0.010445432093596387 0 0.023349985867117597 0.011761465019407429 0 0.023239185096981075 0.01045700678492123 0 0.023107607242061481 0.010365038133689162 0 0.030299672150855293 0.0096142001419683449 0 0.03034038772358472 0.0090201614988560264 0 0.030853375326790642 0.0091922993097660003 0 0.026970722574586364 0.0097230324302701367 0 0.023107607242061481 0.010365038133689162 0 0.023901694933341131 0.011348609764486504 0 0.026729754104539202 0.011742623865644805 0 0.023966681388238965 0.013188612563610994 0 0.030299672150855293 0.0096142001419683449 0 0.029939303756855398 0.0092703657779623881 0 0.03034038772358472 0.0090201614988560264 0 0.026729754104539202 0.011742623865644805 0 0.027439037733037203 0.0095474516329830915 0 0.029341248519051968 0.010060174795324225 0 0.026729754104539202 0.011742623865644805 0 0.027439037733037203 0.0095474516329830915 0 0.025709766551267714 0.010052528925102734 0 0.023901694933341131 0.011348609764486504 0 0.026729754104539202 0.011742623865644805 0 0.025709766551267714 0.010052528925102734 0 0.023778346365704313 0.0094298254351331996 0 0.023901694933341131 0.011348609764486504 0 0.025709766551267714 0.010052528925102734 0 0.023778346365704313 0.0094298254351331996 0 0.025709766551267714 0.010052528925102734 0 0.026102492834496126 0.0085120223094657353 0 0.023778346365704313 0.0094298254351331996 0 0.02448643018311538 0.0080887779647110507 0 0.026102492834496126 0.0085120223094657353 0 0.027439037733037203 0.0095474516329830915 0 0.025709766551267714 0.010052528925102734 0 0.026102492834496126 0.0085120223094657353 0 0.027439037733037203 0.0095474516329830915 0 0.026102492834496126 0.0085120223094657353 0 0.028197178087401555 0.00812652914013446 0 0.026102492834496126 0.0085120223094657353 0 0.026933337679693227 0.0074501630458046813 0 0.025538516756821596 0.0070019614743578387 0 0.026102492834496126 0.0085120223094657353 0 0.026933337679693227 0.0074501630458046813 0 0.028197178087401555 0.00812652914013446 0 0.026891395946062359 0.0062893924180417796 0 0.026933337679693227 0.0074501630458046813 0 0.028693359320420598 0.0071322400704286002 0 0.026891395946062359 0.0062893924180417796 0 0.026933337679693227 0.0074501630458046813 0 0.025538516756821596 0.0070019614743578387 0 0.02448643018311538 0.0080887779647110507 0 0.026102492834496126 0.0085120223094657353 0 0.025538516756821596 0.0070019614743578387 0 0.02416757501970751 0.0061528411082766065 0 0.025538516756821596 0.0070019614743578387 0 0.024406985693545647 0.0071625716934155354 0 0.02448643018311538 0.0080887779647110507 0 0.025538516756821596 0.0070019614743578387 0 0.024406985693545647 0.0071625716934155354 0 0.029977013791504876 0.006804627873342105 0 0.029975267269816988 0.0082546106216725874 0 0.028693359320420598 0.0071322400704286002 0 0.029977013791504876 0.006804627873342105 0 0.029975267269816988 0.0082546106216725874 0 0.031400006608121929 0.007367433049758022 0 0.029975267269816988 0.0082546106216725874 0 0.028693359320420598 0.0071322400704286002 0 0.028197178087401555 0.00812652914013446 0 0.026933337679693227 0.0074501630458046813 0 0.028693359320420598 0.0071322400704286002 0 0.028197178087401555 0.00812652914013446 0 0.029975267269816988 0.0082546106216725874 0 0.028197178087401555 0.00812652914013446 0 0.029341248519051968 0.010060174795324225 0 0.027439037733037203 0.0095474516329830915 0 0.028197178087401555 0.00812652914013446 0 0.029341248519051968 0.010060174795324225 0 0.029975267269816988 0.0082546106216725874 0 0.029341248519051968 0.010060174795324225 0 0.030525589025916532 0.0094448843895223941 0 0.029341248519051968 0.010060174795324225 0 0.029674872557601279 0.010038062428471307 0 0.030525589025916532 0.0094448843895223941 0 0.026970722574586364 0.0097230324302701367 0 0.027971547451065885 0.0095704439476339883 0 0.029341248519051968 0.010060174795324225 0 0.029526573121209144 0.0096360591554378559 0 0.029939303756855398 0.0092703657779623881 0 0.030299672150855293 0.0096142001419683449 0 0.029341248519051968 0.010060174795324225 0 0.029939303756855398 0.0092703657779623881 0 0.029341248519051968 0.010060174795324225 0 0.029674872557601279 0.010038062428471307 0 0.029526573121209144 0.0096360591554378559 0 0.029674872557601279 0.010038062428471307 0 0.030567765356263352 0.010094275295395753 0 0.02814031865806603 0.010028878532063204 0 0.029674872557601279 0.010038062428471307 0 0.02814031865806603 0.010028878532063204 0 0.029526573121209144 0.0096360591554378559 0 0.029674872557601279 0.010038062428471307 0 0.030525589025916532 0.0094448843895223941 0 0.030567765356263352 0.010094275295395753 0 0.027978925553241388 0.0157689597476636 0 0.026907629946741854 0.019903745963816957 0 0.030525589025916532 0.0094448843895223941 0 0.030567765356263352 0.010094275295395753 0 0.032531610513502882 0.0090774593945235418 0 0.027978925553241388 0.0157689597476636 0 0.028563434504542944 0.013504167005644996 0 0.025140363941556772 0.020372363857047517 0 0.021795890775914796 0.012915001683132019 0 0.02814031865806603 0.010028878532063204 0 0.025140363941556772 0.020372363857047517 0 0.01063726313127861 0.014215458744059948 0 0.021795890775914796 0.012915001683132019 0 0.025140363941556772 0.020372363857047517 0 0.01063726313127861 0.014215458744059948 0 0.0093271178977519763 0.02891140563131021 0 -0.001218211138083044 0.022656204108684026 0 -0.0076946965919795687 0.028612025751772855 0 0.01063726313127861 0.014215458744059948 0 0.0093271178977519763 0.02891140563131021 0 -0.0021358539253929949 0.024258918283699311 0 0.025140363941556772 0.020372363857047517 0 0.0093271178977519763 0.02891140563131021 0 0.020693165325760134 0.032039097281960978 0 0.026907629946741854 0.019903745963816957 0 0.026316974112667639 0.022909982896846304 0 0.0093271178977519763 0.02891140563131021 0 0.020693165325760134 0.032039097281960978 0 0.016132561025379539 0.044369099563943505 0 0.0093271178977519763 0.02891140563131021 0 0.0035876494523904858 0.039297451048186105 0 0.0013721758874389448 0.031438051092208208 0 0.0093271178977519763 0.02891140563131021 0 0.0035876494523904858 0.039297451048186105 0 0.016132561025379539 0.044369099563943505 0 0.0035876494523904858 0.039297451048186105 0 0.016132561025379539 0.044369099563943505 0 0.0072620821081867664 0.047932898554286153 0 0.032531610513502882 0.0090774593945235418 0 0.034028903656638645 0.0074136583229722332 0 0.032866941756631143 0.0073293982622319107 0 0.032531610513502882 0.0090774593945235418 0 0.032866941756631143 0.0073293982622319107 0 0.031454039668251714 0.0083149498346784916 0 0.029975267269816988 0.0082546106216725874 0 0.031454039668251714 0.0083149498346784916 0 0.031400006608121929 0.007367433049758022 0 0.032866941756631143 0.0073293982622319107 0 0.031454039668251714 0.0083149498346784916 0 0.031400006608121929 0.007367433049758022 0 0.029975267269816988 0.0082546106216725874 0 0.030525589025916532 0.0094448843895223941 0 0.031454039668251714 0.0083149498346784916 0 0.030525589025916532 0.0094448843895223941 0 0.032531610513502882 0.0090774593945235418 0 0.031454039668251714 0.0083149498346784916 0 -0.021763911081271237 0.034607065184253792 0 -0.021014634090474899 0.03373194433411221 0 -0.020256116111923426 0.034889785381471618 0 -0.021014634090474899 0.03373194433411221 0 -0.019975912279426546 0.033418937758687518 0 -0.020256116111923426 0.034889785381471618 0 -0.018841578274281651 0.034167701575277133 0 -0.019975912279426546 0.033418937758687518 0 -0.018382709446823856 0.032719283117731847 0 -0.018841578274281651 0.034167701575277133 0 -0.019975912279426546 0.033418937758687518 0 -0.020256116111923426 0.034889785381471618 0 -0.019975912279426546 0.033418937758687518 0 -0.019811267915266981 0.032172594202165727 0 -0.018382709446823856 0.032719283117731847 0 -0.019975912279426546 0.033418937758687518 0 -0.019811267915266981 0.032172594202165727 0 -0.02105107180527523 0.03255443903991221 0 -0.021014634090474899 0.03373194433411221 0 -0.019975912279426546 0.033418937758687518 0 -0.02105107180527523 0.03255443903991221 0 -0.019811267915266981 0.032172594202165727 0 -0.02105107180527523 0.03255443903991221 0 -0.021189917378039599 0.030926078207429371 0 -0.021189917378039599 0.030926078207429371 0 -0.019391585560776321 0.030969078251967784 0 -0.020647772075010711 0.028940217977991785 0 -0.019811267915266981 0.032172594202165727 0 -0.019391585560776321 0.030969078251967784 0 -0.018382709446823856 0.032719283117731847 0 -0.019811267915266981 0.032172594202165727 0 -0.021189917378039599 0.030926078207429371 0 -0.019391585560776321 0.030969078251967784 0 -0.019391585560776321 0.030969078251967784 0 -0.016773285369780216 0.030827934537546158 0 -0.018634343668403795 0.029283795522146043 0 -0.019391585560776321 0.030969078251967784 0 -0.016773285369780216 0.030827934537546158 0 -0.018382709446823856 0.032719283117731847 0 -0.016773285369780216 0.030827934537546158 0 -0.018382709446823856 0.032719283117731847 0 -0.016230983395656848 0.0332552959554413 0 -0.018841578274281651 0.034167701575277133 0 -0.018382709446823856 0.032719283117731847 0 -0.017132245667880845 0.03437902840810033 0 -0.018382709446823856 0.032719283117731847 0 -0.016230983395656848 0.0332552959554413 0 -0.017132245667880845 0.03437902840810033 0 -0.016773285369780216 0.030827934537546158 0 -0.016230983395656848 0.0332552959554413 0 -0.013968338657415501 0.032674032782103034 0 -0.016230983395656848 0.0332552959554413 0 -0.013968338657415501 0.032674032782103034 0 -0.015280842879023709 0.035787693777561476 0 -0.016773285369780216 0.030827934537546158 0 -0.013968338657415501 0.032674032782103034 0 -0.014484278053579536 0.029252565926555289 0 -0.011612245351119961 0.029845052044693121 0 -0.013968338657415501 0.032674032782103034 0 -0.014484278053579536 0.029252565926555289 0 0.0093271178977519763 0.02891140563131021 0 -0.0021358539253929949 0.024258918283699311 0 0.0013721758874389448 0.031438051092208208 0 -0.0021358539253929949 0.024258918283699311 0 0.0013721758874389448 0.031438051092208208 0 -0.004978559126333524 0.035579505729599212 0 0.0035876494523904858 0.039297451048186105 0 0.0013721758874389448 0.031438051092208208 0 -0.004978559126333524 0.035579505729599212 0 0.0035876494523904858 0.039297451048186105 0 -0.004734051767793377 0.04482493155830726 0 0.0072620821081867664 0.047932898554286153 0 0.0035876494523904858 0.039297451048186105 0 -0.004978559126333524 0.035579505729599212 0 -0.004734051767793377 0.04482493155830726 0 -0.004734051767793377 0.04482493155830726 0 -0.012279370303129091 0.038319680876599052 0 -0.013560391166669124 0.049385824286957689 0 -0.004978559126333524 0.035579505729599212 0 -0.004734051767793377 0.04482493155830726 0 -0.012279370303129091 0.038319680876599052 0 0.01159579003655376 0.032764254812330258 0 0.015807548526626827 0.02614133677026767 0 -0.012279370303129091 0.038319680876599052 0 -0.015279888558319275 0.038410562949902916 0 -0.014029744218012953 0.042311588649929968 0 -0.0076946965919795687 0.028612025751772855 0 -0.011599526642156608 0.032309590816580254 0 -0.0021358539253929949 0.024258918283699311 0 -0.004978559126333524 0.035579505729599212 0 -0.015280842879023709 0.035787693777561476 0 -0.004978559126333524 0.035579505729599212 0 -0.012279370303129091 0.038319680876599052 0 -0.015280842879023709 0.035787693777561476 0 -0.012279370303129091 0.038319680876599052 0 -0.015280842879023709 0.035787693777561476 0 -0.015279888558319275 0.038410562949902916 0 -0.016230983395656848 0.0332552959554413 0 -0.017132245667880845 0.03437902840810033 0 -0.015280842879023709 0.035787693777561476 0 -0.017132245667880845 0.03437902840810033 0 -0.015280842879023709 0.035787693777561476 0 -0.01684127282104339 0.035999294728018244 0 -0.017132245667880845 0.03437902840810033 0 -0.01684127282104339 0.035999294728018244 0 -0.018469580062106555 0.035532135988597835 0 -0.018841578274281651 0.034167701575277133 0 -0.017132245667880845 0.03437902840810033 0 -0.018469580062106555 0.035532135988597835 0 -0.01684127282104339 0.035999294728018244 0 -0.017285994452427792 0.03858096671254465 0 -0.018469580062106555 0.035532135988597835 0 -0.015280842879023709 0.035787693777561476 0 -0.01684127282104339 0.035999294728018244 0 -0.015279888558319275 0.038410562949902916 0 -0.01684127282104339 0.035999294728018244 0 -0.015279888558319275 0.038410562949902916 0 -0.017285994452427792 0.03858096671254465 0 -0.005285624107097946 0.026186334575261955 0 0.015807548526626827 0.02614133677026767 0 -0.015279888558319275 0.038410562949902916 0 -0.017285994452427792 0.03858096671254465 0 -0.014029744218012953 0.042311588649929968 0 -0.017285994452427792 0.03858096671254465 0 -0.020130356857721611 0.039009363218160599 0 -0.014029744218012953 0.042311588649929968 0 -0.017285994452427792 0.03858096671254465 0 -0.020130356857721611 0.039009363218160599 0 -0.019954957574960755 0.036959739296472324 0 -0.02187178654686113 0.037143940094314487 0 -0.020130356857721611 0.039009363218160599 0 -0.019954957574960755 0.036959739296472324 0 -0.021362246015626994 0.035843749587124552 0 -0.02187178654686113 0.037143940094314487 0 -0.019954957574960755 0.036959739296472324 0 -0.017285994452427792 0.03858096671254465 0 -0.019954957574960755 0.036959739296472324 0 -0.018469580062106555 0.035532135988597835 0 -0.018841578274281651 0.034167701575277133 0 -0.018469580062106555 0.035532135988597835 0 -0.020256116111923426 0.034889785381471618 0 -0.019954957574960755 0.036959739296472324 0 -0.018469580062106555 0.035532135988597835 0 -0.020256116111923426 0.034889785381471618 0 -0.021362246015626994 0.035843749587124552 0 -0.021763911081271237 0.034607065184253792 0 -0.020256116111923426 0.034889785381471618 0 -0.021362246015626994 0.035843749587124552 0 -0.019954957574960755 0.036959739296472324 0 -0.020256116111923426 0.034889785381471618 0 0.024022999832341695 0.011893583644725696 0 0.025883227086176273 0.015093161586755745 0 0.023811422792948445 0.016139932530479933 0 0.019935802014461334 0.014328264328295372 0 0.024022999832341695 0.011893583644725696 0 0.023811422792948445 0.016139932530479933 0 -0.023228090081850443 0.039758425085408229 0 -0.020130356857721611 0.039009363218160599 0 -0.019664054709987031 0.042051211535439149 0 -0.020130356857721611 0.039009363218160599 0 -0.019664054709987031 0.042051211535439149 0 -0.017138873484079442 0.042043442518177751 0 -0.020130356857721611 0.039009363218160599 0 -0.017138873484079442 0.042043442518177751 0 -0.015291065743883029 0.040320799503485535 0 -0.017138873484079442 0.042043442518177751 0 -0.015814815892944763 0.044183051439204736 0 -0.015291065743883029 0.040320799503485535 0 -0.019664054709987031 0.042051211535439149 0 -0.017138873484079442 0.042043442518177751 0 -0.015814815892944763 0.044183051439204736 0 0.0080212924122295449 0.021381791870099136 0 0.023677277616470357 0.021327565661516661 0 0.024022999832341695 0.011893583644725696 0 0.028003324637109923 0.014140202168605944 0 0.025883227086176273 0.015093161586755745 0 0.060711684160241648 0.0070611535192326791 0 0.057122366796795145 0.0073009778619615466 0 0.059825192166648958 0.013763525007804391 0 0.060711684160241648 0.0070611535192326791 0 0.059419786562726368 0.0063473103641472663 0 0.057122366796795145 0.0073009778619615466 0 0.023677277616470357 0.021327565661516661 0 0.024742008286659074 0.021547775397427665 0 0.023677277616470357 0.021327565661516661 0 0.015807548526626827 0.02614133677026767 0 -0.004734051767793377 0.04482493155830726 0 -0.013560391166669124 0.049385824286957689 0 -0.00089701837651956615 0.053314123484171728 0 0.015807548526626827 0.02614133677026767 0 0.025299276653135208 0.024602313640898127 0 0.057122366796795145 0.0073009778619615466 0 0.059825192166648958 0.013763525007804391 0 0.053644768924276415 0.011829964166129497 0 -0.004734051767793377 0.04482493155830726 0 -0.00089701837651956615 0.053314123484171728 0 0.0072620821081867664 0.047932898554286153 0 0.057122366796795145 0.0073009778619615466 0 0.053644768924276415 0.011829964166129497 0 0.052006784640501832 0.0070525672397029606 0 0.057122366796795145 0.0073009778619615466 0 0.052006784640501832 0.0070525672397029606 0 0.054201237588345393 0.0039898950819878352 0 0.052006784640501832 0.0070525672397029606 0 0.054201237588345393 0.0039898950819878352 0 0.049950990839641954 0.0022935256374924618 0 0.057122366796795145 0.0073009778619615466 0 0.054201237588345393 0.0039898950819878352 0 0.057366066226270655 0.0028286486441774297 0 0.054201237588345393 0.0039898950819878352 0 0.054540328078932145 0.00043837826356785814 0 0.057366066226270655 0.0028286486441774297 0 0.054201237588345393 0.0039898950819878352 0 0.054540328078932145 0.00043837826356785814 0 0.049950990839641954 0.0022935256374924618 0 0.041542862886559284 0.0026372105192128395 0 0.045290448772260128 -0.0022120200029530652 0 0.054540328078932145 0.00043837826356785814 0 0.057177217666757471 -0.0020889341298657954 0 0.05308134289908311 -0.0057742038111472296 0 0.054540328078932145 0.00043837826356785814 0 0.049950990839641954 0.0022935256374924618 0 0.05308134289908311 -0.0057742038111472296 0 0.054540328078932145 0.00043837826356785814 0 0.058685994617603501 0.00067683226291452916 0 0.057177217666757471 -0.0020889341298657954 0 0.057177217666757471 -0.0020889341298657954 0 0.061437914464357479 0.00075222036841928353 0 0.058069742188058181 -0.0070211596816143777 0 0.060146660748149013 -0.0016343996773374272 0 0.059258420715444099 -0.0033436103232631093 0 0.061437914464357479 0.00075222036841928353 0 0.061859329150172795 0.00025736468599898553 0 0.062249495668028253 0.00096146680057021116 0 0.058685994617603501 0.00067683226291452916 0 0.057177217666757471 -0.0020889341298657954 0 0.061437914464357479 0.00075222036841928353 0 0.058685994617603501 0.00067683226291452916 0 0.061869006439509815 0.001815803848435941 0 0.061437914464357479 0.00075222036841928353 0 0.058685994617603501 0.00067683226291452916 0 0.057366066226270655 0.0028286486441774297 0 0.061869006439509815 0.001815803848435941 0 0.054540328078932145 0.00043837826356785814 0 0.058685994617603501 0.00067683226291452916 0 0.057366066226270655 0.0028286486441774297 0 0.059419786562726368 0.0063473103641472663 0 0.057122366796795145 0.0073009778619615466 0 0.06112819336994163 0.0033510296726789791 0 0.060578353031763385 0.007024411771324136 0 0.059419786562726368 0.0063473103641472663 0 0.06112819336994163 0.0033510296726789791 0 0.046352291889874067 0.0050902943147410782 0 0.03953846432931489 0.0093809446691293513 0 0.057122366796795145 0.0073009778619615466 0 0.057366066226270655 0.0028286486441774297 0 0.061869006439509815 0.001815803848435941 0 0.025883227086176273 0.015093161586755745 0 0.027661954788374937 0.016598813282926419 0 0.023811422792948445 0.016139932530479933 0 0.023677277616470357 0.021327565661516661 0 0.03953846432931489 0.0093809446691293513 0 0.028003324637109923 0.014140202168605944 0 0.025883227086176273 0.015093161586755745 0 0.027661954788374937 0.016598813282926419 0 0.03953846432931489 0.0093809446691293513 0 0.044059085222878318 0.0055568286762183094 0 0.061884383527829337 -0.00055601015754017384 0 0.061859329150172795 0.00025736468599898553 0 0.061359849067828223 0.00012446573672566591 0 0.061884383527829337 -0.00055601015754017384 0 0.06117124195608542 7.3108585454063476e-05 0 0.061359849067828223 0.00012446573672566591 0 0.03953846432931489 0.0093809446691293513 0 0.043646519788739797 0.0041177120637684254 0 0.061869006439509815 0.001815803848435941 0 0.061437914464357479 0.00075222036841928353 0 0.061859329150172795 0.00025736468599898553 0 0.021388761971905656 0.019120185935255253 0 0.0243124436937713 0.019950240763463675 0 0.023811422792948445 0.016139932530479933 0 0.04102132645982591 0.0060175091991734129 0 0.044059085222878318 0.0055568286762183094 0 0.044059085222878318 0.0055568286762183094 0 0.044700643747995976 0.0056283419435507586 0 0.027661954788374937 0.016598813282926419 0 0.0243124436937713 0.019950240763463675 0 0.023811422792948445 0.016139932530479933 0 0.034705690111666562 0.0061321036924048989 0 0.03286227487659648 0.0055389306954608097 0 0.033665629063547357 0.0064157344139740219 0 0.034705690111666562 0.0061321036924048989 0 0.033665629063547357 0.0064157344139740219 0 0.03393977634274465 0.0066000320532381557 0 0.034705690111666562 0.0061321036924048989 0 0.040512609834218144 0.0047312515858008658 0 0.036018009715735703 0.0030558617394221086 0 0.034705690111666562 0.0061321036924048989 0 0.03286227487659648 0.0055389306954608097 0 0.033689885787036911 0.0041174272911075607 0 0.03286227487659648 0.0055389306954608097 0 0.032202408840001896 0.0038167403932782705 0 0.033689885787036911 0.0041174272911075607 0 0.031108548184501612 0.0053456621507026415 0 0.03286227487659648 0.0055389306954608097 0 0.032202408840001896 0.0038167403932782705 0 0.031108548184501612 0.0053456621507026415 0 0.03286227487659648 0.0055389306954608097 0 0.032483356013902301 0.0065082866458963376 0 0.03286227487659648 0.0055389306954608097 0 0.032483356013902301 0.0065082866458963376 0 0.033665629063547357 0.0064157344139740219 0 0.032866941756631143 0.0073293982622319107 0 0.031400006608121929 0.007367433049758022 0 0.032483356013902301 0.0065082866458963376 0 0.031108548184501612 0.0053456621507026415 0 0.032483356013902301 0.0065082866458963376 0 0.03112327988904761 0.0064349485039624519 0 0.031400006608121929 0.007367433049758022 0 0.032483356013902301 0.0065082866458963376 0 0.03112327988904761 0.0064349485039624519 0 0.032866941756631143 0.0073293982622319107 0 0.032483356013902301 0.0065082866458963376 0 0.033665629063547357 0.0064157344139740219 0 0.034028903656638645 0.0074136583229722332 0 0.032866941756631143 0.0073293982622319107 0 0.03393977634274465 0.0066000320532381557 0 0.032866941756631143 0.0073293982622319107 0 0.033665629063547357 0.0064157344139740219 0 0.03393977634274465 0.0066000320532381557 0 0.026316974112667639 0.022909982896846304 0 0.028908426066497957 0.01790773351083055 0 0.034028903656638645 0.0074136583229722332 0 0.03393977634274465 0.0066000320532381557 0 0.034240548342797397 0.0065176797047729147 0 0.025299276653135208 0.024602313640898127 0 0.028908426066497957 0.01790773351083055 0 0.016132561025379539 0.044369099563943505 0 0.0072620821081867664 0.047932898554286153 0 0.011337390638259377 0.057145019640895592 0 -0.00089701837651956615 0.053314123484171728 0 0.0072620821081867664 0.047932898554286153 0 0.011337390638259377 0.057145019640895592 0 0.053644768924276415 0.011829964166129497 0 0.052006784640501832 0.0070525672397029606 0 0.04711003744739195 0.0097776463138106191 0 0.028908426066497957 0.01790773351083055 0 0.041542862886559284 0.0026372105192128395 0 0.052006784640501832 0.0070525672397029606 0 0.04711003744739195 0.0097776463138106191 0 0.049950990839641954 0.0022935256374924618 0 0.032454032307650461 0.015700336525767813 0 0.028908426066497957 0.01790773351083055 0 0.047106470936683714 0.01089273848456908 0 0.040512609834218144 0.0047312515858008658 0 0.04425445833312884 0.0029557844687608647 0 0.034705690111666562 0.0061321036924048989 0 0.047106470936683714 0.01089273848456908 0 0.040512609834218144 0.0047312515858008658 0 0.034705690111666562 0.0061321036924048989 0 0.03393977634274465 0.0066000320532381557 0 0.034240548342797397 0.0065176797047729147 0 0.040512609834218144 0.0047312515858008658 0 0.04425445833312884 0.0029557844687608647 0 0.041044600294538054 0.0014602348158529736 0 0.04425445833312884 0.0029557844687608647 0 0.0505274176862597 0.00064396758291172492 0 0.043487309460436996 -0.0024240746492169931 0 0.04425445833312884 0.0029557844687608647 0 0.041044600294538054 0.0014602348158529736 0 0.043487309460436996 -0.0024240746492169931 0 0.047106470936683714 0.01089273848456908 0 0.04425445833312884 0.0029557844687608647 0 0.0505274176862597 0.00064396758291172492 0 0.0505274176862597 0.00064396758291172492 0 0.04821821147683665 -0.0036940568994567324 0 0.043487309460436996 -0.0024240746492169931 0 0.0505274176862597 0.00064396758291172492 0 0.04821821147683665 -0.0036940568994567324 0 0.05308134289908311 -0.0057742038111472296 0 0.041044600294538054 0.0014602348158529736 0 0.043487309460436996 -0.0024240746492169931 0 0.036656990023874757 -0.0051606848193719423 0 0.04821821147683665 -0.0036940568994567324 0 0.043487309460436996 -0.0024240746492169931 0 0.044801599648806388 -0.0054490284825636321 0 0.043487309460436996 -0.0024240746492169931 0 0.04167114956946219 -0.0035074984445856061 0 0.044801599648806388 -0.0054490284825636321 0 0.041872451077470667 -0.0030973790031845168 0 0.041780770168633852 -0.0031294632660146806 0 0.041044600294538054 0.0014602348158529736 0 0.036656990023874757 -0.0051606848193719423 0 0.036018009715735703 0.0030558617394221086 0 0.041780770168633852 -0.0031294632660146806 0 0.041118041259475636 -0.0012618209182983704 0 0.035224993906897609 0.0004166927162386119 0 0.036018009715735703 0.0030558617394221086 0 0.033545638283512216 0.0018928115823779507 0 0.034705690111666562 0.0061321036924048989 0 0.036018009715735703 0.0030558617394221086 0 0.033689885787036911 0.0041174272911075607 0 0.036018009715735703 0.0030558617394221086 0 0.033689885787036911 0.0041174272911075607 0 0.033545638283512216 0.0018928115823779507 0 0.040512609834218144 0.0047312515858008658 0 0.041044600294538054 0.0014602348158529736 0 0.036018009715735703 0.0030558617394221086 0 0.030692789891090769 0.0019207846537828332 0 0.032202408840001896 0.0038167403932782705 0 0.033545638283512216 0.0018928115823779507 0 0.032202408840001896 0.0038167403932782705 0 0.033689885787036911 0.0041174272911075607 0 0.033545638283512216 0.0018928115823779507 0 0.030692789891090769 0.0019207846537828332 0 0.033545638283512216 0.0018928115823779507 0 0.031033437189335555 -0.00055337702711603899 0 0.035224993906897609 0.0004166927162386119 0 0.033545638283512216 0.0018928115823779507 0 0.031033437189335555 -0.00055337702711603899 0 0.041780770168633852 -0.0031294632660146806 0 0.038008841617949742 -0.0037942211943521589 0 0.04263640505983643 -0.0051213978352041868 0 0.041931241016098776 -0.0045866975248527462 0 0.041909578141420163 -0.0056423914126899656 0 0.043388368838683536 -0.0040440423592489425 0 0.04263640505983643 -0.0051213978352041868 0 0.041931241016098776 -0.0045866975248527462 0 0.047627546624890153 -0.0085710736583784752 0 0.045269387563738647 -0.0065069914104530849 0 0.04263640505983643 -0.0051213978352041868 0 0.043350488761589222 -0.0061564182063112592 0 0.041909578141420163 -0.0056423914126899656 0 0.042070006296301969 -0.0079172195185597035 0 0.044719231014668764 -0.011883151590461305 0 0.042146387663706562 -0.013079990269285325 0 0.04263640505983643 -0.0051213978352041868 0 0.043367713506012422 -0.0050969120688188685 0 0.043350488761589222 -0.0061564182063112592 0 0.044408393626880392 -0.0061396954078889038 0 0.047627546624890153 -0.0085710736583784752 0 0.041780770168633852 -0.0031294632660146806 0 0.044408393626880392 -0.0061396954078889038 0 0.04167114956946219 -0.0035074984445856061 0 0.042070006296301969 -0.0079172195185597035 0 0.044801599648806388 -0.0054490284825636321 0 0.043388368838683536 -0.0040440423592489425 0 0.04263640505983643 -0.0051213978352041868 0 0.043367713506012422 -0.0050969120688188685 0 0.04821821147683665 -0.0036940568994567324 0 0.044801599648806388 -0.0054490284825636321 0 0.048596998269181998 -0.0068264240358365267 0 0.044801599648806388 -0.0054490284825636321 0 0.048596998269181998 -0.0068264240358365267 0 0.045972364672577426 -0.0090219050446725124 0 0.048596998269181998 -0.0068264240358365267 0 0.048754851927423154 -0.010128942851847032 0 0.045972364672577426 -0.0090219050446725124 0 0.042070006296301969 -0.0079172195185597035 0 0.044801599648806388 -0.0054490284825636321 0 0.045972364672577426 -0.0090219050446725124 0 0.04821821147683665 -0.0036940568994567324 0 0.048596998269181998 -0.0068264240358365267 0 0.05308134289908311 -0.0057742038111472296 0 0.048596998269181998 -0.0068264240358365267 0 0.051133544027617599 -0.0089740346943609321 0 0.05308134289908311 -0.0057742038111472296 0 0.048596998269181998 -0.0068264240358365267 0 0.051133544027617599 -0.0089740346943609321 0 0.048754851927423154 -0.010128942851847032 0 0.051133544027617599 -0.0089740346943609321 0 0.050795327323539308 -0.01098277220808851 0 0.052414901373169329 -0.011511926112776022 0 0.051133544027617599 -0.0089740346943609321 0 0.050795327323539308 -0.01098277220808851 0 0.048754851927423154 -0.010128942851847032 0 0.050795327323539308 -0.01098277220808851 0 0.048754851927423154 -0.010128942851847032 0 0.050390892088623088 -0.012841989693249968 0 0.050795327323539308 -0.01098277220808851 0 0.051666569244930037 -0.012733391835610156 0 0.050390892088623088 -0.012841989693249968 0 0.048754851927423154 -0.010128942851847032 0 0.047735046570616391 -0.011824519879237355 0 0.050390892088623088 -0.012841989693249968 0 0.050795327323539308 -0.01098277220808851 0 0.051666569244930037 -0.012733391835610156 0 0.052414901373169329 -0.011511926112776022 0 0.051666569244930037 -0.012733391835610156 0 0.052640430983244002 -0.01346177470835069 0 0.052414901373169329 -0.011511926112776022 0 0.042070006296301969 -0.0079172195185597035 0 0.045972364672577426 -0.0090219050446725124 0 0.044719231014668764 -0.011883151590461305 0 0.048754851927423154 -0.010128942851847032 0 0.045972364672577426 -0.0090219050446725124 0 0.047735046570616391 -0.011824519879237355 0 0.047735046570616391 -0.011824519879237355 0 0.044719231014668764 -0.011883151590461305 0 0.047684849509215893 -0.014166126587921752 0 0.045972364672577426 -0.0090219050446725124 0 0.047735046570616391 -0.011824519879237355 0 0.044719231014668764 -0.011883151590461305 0 0.044719231014668764 -0.011883151590461305 0 0.047684849509215893 -0.014166126587921752 0 0.047443098255745025 -0.014724655853370548 0 0.050190836309208377 -0.010218889452211357 0 0.047627546624890153 -0.0085710736583784752 0 0.044719231014668764 -0.011883151590461305 0 0.047443098255745025 -0.014724655853370548 0 0.042146387663706562 -0.013079990269285325 0 0.049446993929188283 -0.013433212398461547 0 0.047684849509215893 -0.014166126587921752 0 0.052184591671835846 -0.014880935366057418 0 0.047735046570616391 -0.011824519879237355 0 0.049446993929188283 -0.013433212398461547 0 0.047684849509215893 -0.014166126587921752 0 0.047684849509215893 -0.014166126587921752 0 0.047442576538700716 -0.014851825871480696 0 0.052184591671835846 -0.014880935366057418 0 0.047735046570616391 -0.011824519879237355 0 0.049446993929188283 -0.013433212398461547 0 0.050390892088623088 -0.012841989693249968 0 0.050179645737833588 -0.010244965485927971 0 0.050190836309208377 -0.010218889452211357 0 0.054485196879390158 -0.015483221095182831 0 0.052184591671835846 -0.014880935366057418 0 0.054023209708843473 -0.013442149783028249 0 0.050190836309208377 -0.010218889452211357 0 0.050439271137571649 -0.010487300584780508 0 0.051666569244930037 -0.012733391835610156 0 0.052640430983244002 -0.01346177470835069 0 0.052184591671835846 -0.014880935366057418 0 0.051666569244930037 -0.012733391835610156 0 0.050390892088623088 -0.012841989693249968 0 0.052184591671835846 -0.014880935366057418 0 0.049446993929188283 -0.013433212398461547 0 0.050390892088623088 -0.012841989693249968 0 0.052184591671835846 -0.014880935366057418 0 0.052640430983244002 -0.01346177470835069 0 0.052184591671835846 -0.014880935366057418 0 0.052344809037966622 -0.0143124681614016 0 0.055945313761283373 -0.0091478668076904659 0 0.055403476714315086 -0.010238989849317053 0 0.054023209708843473 -0.013442149783028249 0 0.052344809037966622 -0.0143124681614016 0 0.055129320427479998 -0.011294174027682338 0 0.052184591671835846 -0.014880935366057418 0 0.054023209708843473 -0.013442149783028249 0 0.052344809037966622 -0.0143124681614016 0 0.050190836309208377 -0.010218889452211357 0 0.051776882158794814 -0.010864365136286927 0 0.050627666975295957 -0.01029096216911741 0 0.050523033011096542 -0.010429155191580613 0 0.050577769051771457 -0.010448711773299018 0 0.054485196879390158 -0.015483221095182831 0 0.054023209708843473 -0.013442149783028249 0 0.056615833643495581 -0.011949347244859642 0 0.05397695598756818 -0.0090555424275730271 0 0.052114765053236506 -0.0070610063115580267 0 0.051339798662910892 -0.0088736596590057535 0 0.052114765053236506 -0.0070610063115580267 0 0.054000766920868505 -0.0061186678606386744 0 0.051194767013731421 -0.0051264025869025894 0 0.05397695598756818 -0.0090555424275730271 0 0.052114765053236506 -0.0070610063115580267 0 0.054000766920868505 -0.0061186678606386744 0 0.050553784447812319 -0.0098084103237021884 0 0.047627546624890153 -0.0085710736583784752 0 0.050627666975295957 -0.01029096216911741 0 0.050523033011096542 -0.010429155191580613 0 0.05051866361743132 -0.010251836197477077 0 0.059743414934141245 0.00067267009023302092 0 0.060853515405476087 0.0019047084824798134 0 0.061122395621933827 0.00059444372390289146 0 0.060853515405476087 0.0019047084824798134 0 0.061122395621933827 0.00059444372390289146 0 0.061758891442963808 0.00086933005261870711 0 0.059743414934141245 0.00067267009023302092 0 0.06106034977613669 -6.2401920305186158e-05 0 0.061122395621933827 0.00059444372390289146 0 0.05285613912569985 0.00057664275468040989 0 0.044059085222878318 0.0055568286762183094 0 0.061359849067828223 0.00012446573672566591 0 0.061122395621933827 0.00059444372390289146 0 0.061675716089062839 0.00049894348789402321 0 0.06106034977613669 -6.2401920305186158e-05 0 0.061359849067828223 0.00012446573672566591 0 0.061122395621933827 0.00059444372390289146 0 0.061122395621933827 0.00059444372390289146 0 0.061758891442963808 0.00086933005261870711 0 0.061675716089062839 0.00049894348789402321 0 0.061859329150172795 0.00025736468599898553 0 0.061359849067828223 0.00012446573672566591 0 0.061675716089062839 0.00049894348789402321 0 0.061859329150172795 0.00025736468599898553 0 0.061675716089062839 0.00049894348789402321 0 0.062140299792882082 0.00070910543862791624 0 0.061758891442963808 0.00086933005261870711 0 0.061675716089062839 0.00049894348789402321 0 0.062140299792882082 0.00070910543862791624 0 0.061758891442963808 0.00086933005261870711 0 0.062140299792882082 0.00070910543862791624 0 0.062799434233237347 0.00077221926268865586 0 0.066073765288779118 0.00018004826081169555 0 0.064550718026017251 0.00049233134612090401 0 0.07242550712168945 0.00042972596030169368 0 0.062799434233237347 0.00077221926268865586 0 0.067413098652643708 -0.0032884670776375572 0 0.060853515405476087 0.0019047084824798134 0 0.061758891442963808 0.00086933005261870711 0 0.062799434233237347 0.00077221926268865586 0 0.062799434233237347 0.00077221926268865586 0 0.062249495668028253 0.00096146680057021116 0 0.0602007343013784 -0.00014802854187244806 0 0.059258420715444099 -0.0033436103232631093 0 0.057524033851461008 -0.006360955614258727 0 0.062140299792882082 0.00070910543862791624 0 0.062799434233237347 0.00077221926268865586 0 0.062249495668028253 0.00096146680057021116 0 0.061859329150172795 0.00025736468599898553 0 0.062140299792882082 0.00070910543862791624 0 0.062249495668028253 0.00096146680057021116 0 0.057177217666757471 -0.0020889341298657954 0 0.058069742188058181 -0.0070211596816143777 0 0.05308134289908311 -0.0057742038111472296 0 0.058069742188058181 -0.0070211596816143777 0 0.05308134289908311 -0.0057742038111472296 0 0.053761614744910514 -0.0091849603403967514 0 0.051133544027617599 -0.0089740346943609321 0 0.05308134289908311 -0.0057742038111472296 0 0.053761614744910514 -0.0091849603403967514 0 0.058069742188058181 -0.0070211596816143777 0 0.053761614744910514 -0.0091849603403967514 0 0.054526106066984215 -0.012650048826296167 0 0.053761614744910514 -0.0091849603403967514 0 0.054526106066984215 -0.012650048826296167 0 0.052414901373169329 -0.011511926112776022 0 0.051133544027617599 -0.0089740346943609321 0 0.053761614744910514 -0.0091849603403967514 0 0.052414901373169329 -0.011511926112776022 0 0.052640430983244002 -0.01346177470835069 0 0.054526106066984215 -0.012650048826296167 0 0.052414901373169329 -0.011511926112776022 0 0.052640430983244002 -0.01346177470835069 0 0.054526106066984215 -0.012650048826296167 0 0.052344809037966622 -0.0143124681614016 0 0.0602007343013784 -0.00014802854187244806 0 0.057047551964587932 -0.0058660629472016348 0 0.062261510649659985 -0.0037841503687328997 0 0.057524033851461008 -0.006360955614258727 0 0.055945313761283373 -0.0091478668076904659 0 0.057047551964587932 -0.0058660629472016348 0 0.060560570374853483 -0.0076748062680817141 0 0.062261510649659985 -0.0037841503687328997 0 0.057047551964587932 -0.0058660629472016348 0 0.060560570374853483 -0.0076748062680817141 0 0.057878951296475321 -0.0095645135822585142 0 0.060560570374853483 -0.0076748062680817141 0 0.062261510649659985 -0.0037841503687328997 0 0.066688887617385173 -0.0088151645182027311 0 0.062799434233237347 0.00077221926268865586 0 0.0602007343013784 -0.00014802854187244806 0 0.062261510649659985 -0.0037841503687328997 0 0.062799434233237347 0.00077221926268865586 0 0.062261510649659985 -0.0037841503687328997 0 0.067413098652643708 -0.0032884670776375572 0 0.062261510649659985 -0.0037841503687328997 0 0.067413098652643708 -0.0032884670776375572 0 0.066688887617385173 -0.0088151645182027311 0 0.067413098652643708 -0.0032884670776375572 0 0.066688887617385173 -0.0088151645182027311 0 0.073444804124352253 -0.0052434935017551905 0 0.072110275451553435 -0.0063451992859274173 0 0.073444804124352253 -0.0052434935017551905 0 0.074215869836998682 -0.0082786335180016889 0 0.068545189622698205 -0.0073424603179793914 0 0.070486411354219763 -0.0063668522864948592 0 0.07242550712168945 0.00042972596030169368 0 0.067413098652643708 -0.0032884670776375572 0 0.073444804124352253 -0.0052434935017551905 0 0.075308870297240635 -0.003741973607476066 0 0.07242550712168945 0.00042972596030169368 0 0.073444804124352253 -0.0052434935017551905 0 0.076041639704566857 -0.010727588969592611 0 0.074215869836998682 -0.0082786335180016889 0 0.072158512808131292 -0.010146829398893569 0 0.075259446042538411 -0.0074458953627678619 0 0.073444804124352253 -0.0052434935017551905 0 0.074215869836998682 -0.0082786335180016889 0 0.072110275451553435 -0.0063451992859274173 0 0.074215869836998682 -0.0082786335180016889 0 0.072158512808131292 -0.010146829398893569 0 0.072158512808131292 -0.010146829398893569 0 0.069100551430188256 -0.0072520685963906621 0 0.068298302516646828 -0.010009598837209329 0 0.068545189622698205 -0.0073424603179793914 0 0.064953157811925386 -0.0089848989772721797 0 0.060560570374853483 -0.0076748062680817141 0 0.066688887617385173 -0.0088151645182027311 0 0.060826646534185409 -0.011317416392575233 0 0.072110275451553435 -0.0063451992859274173 0 0.072158512808131292 -0.010146829398893569 0 0.069100551430188256 -0.0072520685963906621 0 0.060826646534185409 -0.011317416392575233 0 0.057878951296475321 -0.0095645135822585142 0 0.055985561465933933 -0.012326994664554473 0 0.060560570374853483 -0.0076748062680817141 0 0.060826646534185409 -0.011317416392575233 0 0.057878951296475321 -0.0095645135822585142 0 0.068298302516646828 -0.010009598837209329 0 0.064444076069869738 -0.0084311588073538619 0 0.063782981912118716 -0.012933391336546134 0 0.069100551430188256 -0.0072520685963906621 0 0.068298302516646828 -0.010009598837209329 0 0.064444076069869738 -0.0084311588073538619 0 0.064953157811925386 -0.0089848989772721797 0 0.061540378239356049 -0.010440707637795759 0 0.068298302516646828 -0.010009598837209329 0 0.068936761544000469 -0.013572295745808378 0 0.063782981912118716 -0.012933391336546134 0 0.066073088178743536 -0.015369676750221039 0 0.068531117270056091 -0.017984564936773747 0 0.062965305915067687 -0.017065271234104472 0 0.066073088178743536 -0.015369676750221039 0 0.068936761544000469 -0.013572295745808378 0 0.068531117270056091 -0.017984564936773747 0 0.066073088178743536 -0.015369676750221039 0 0.068936761544000469 -0.013572295745808378 0 0.063782981912118716 -0.012933391336546134 0 0.068936761544000469 -0.013572295745808378 0 0.0744353060131554 -0.014419393195985387 0 0.073488731431834819 -0.017846882737688217 0 0.068936761544000469 -0.013572295745808378 0 0.073488731431834819 -0.017846882737688217 0 0.068531117270056091 -0.017984564936773747 0 0.072158512808131292 -0.010146829398893569 0 0.068298302516646828 -0.010009598837209329 0 0.068936761544000469 -0.013572295745808378 0 0.072158512808131292 -0.010146829398893569 0 0.068936761544000469 -0.013572295745808378 0 0.0744353060131554 -0.014419393195985387 0 0.078002246719668628 -0.015826024032838542 0 0.0744353060131554 -0.014419393195985387 0 0.07657296160293417 -0.018076729168719351 0 0.078002246719668628 -0.015826024032838542 0 0.077639879148414956 -0.012421943783072638 0 0.0744353060131554 -0.014419393195985387 0 0.076041639704566857 -0.010727588969592611 0 0.072158512808131292 -0.010146829398893569 0 0.0744353060131554 -0.014419393195985387 0 0.074176207140536202 -0.0095267915786098837 0 0.073601838846449122 -0.011361079492496113 0 0.056459325732321243 -0.011251716297781291 0 0.056615833643495581 -0.011949347244859642 0 0.056813435634674066 -0.011272465786846902 0 0.056813435634674066 -0.011272465786846902 0 0.058002710304618864 -0.011265142002954712 0 0.05614775320865116 -0.011391761851316885 0 0.056459325732321243 -0.011251716297781291 0 0.056813435634674066 -0.011272465786846902 0 0.05614775320865116 -0.011391761851316885 0 0.052136128225442176 -0.011363216095919906 0 0.052173207303167587 -0.011364292462633253 0 0.052429094393064146 -0.010651069333180144 0 0.052655648232294031 -0.01310294062627382 0 0.051057070877877087 -0.011693830393994017 0 0.054178677278311597 -0.012073342153419977 0 0.052429094393064146 -0.010651069333180144 0 0.052655648232294031 -0.01310294062627382 0 0.05397695598756818 -0.0090555424275730271 0 0.052429094393064146 -0.010651069333180144 0 0.051339798662910892 -0.0088736596590057535 0 0.052136128225442176 -0.011363216095919906 0 0.051776882158794814 -0.010864365136286927 0 0.050523033011096542 -0.010429155191580613 0 0.050530572085845375 -0.010614160748814442 0 0.050577769051771457 -0.010448711773299018 0 0.050553784447812319 -0.0098084103237021884 0 0.052136128225442176 -0.011363216095919906 0 0.05397695598756818 -0.0090555424275730271 0 0.054178677278311597 -0.012073342153419977 0 0.052429094393064146 -0.010651069333180144 0 0.054023209708843473 -0.013442149783028249 0 0.056615833643495581 -0.011949347244859642 0 0.055129320427479998 -0.011294174027682338 0 0.056615833643495581 -0.011949347244859642 0 0.055129320427479998 -0.011294174027682338 0 0.056334464769340925 -0.011469620859674168 0 0.056615833643495581 -0.011949347244859642 0 0.056334464769340925 -0.011469620859674168 0 0.056813435634674066 -0.011272465786846902 0 0.057878951296475321 -0.0095645135822585142 0 0.055129320427479998 -0.011294174027682338 0 0.055985561465933933 -0.012326994664554473 0 0.057047551964587932 -0.0058660629472016348 0 0.057878951296475321 -0.0095645135822585142 0 0.055129320427479998 -0.011294174027682338 0 0.061540378239356049 -0.010440707637795759 0 0.060039650295907999 -0.011093651617124689 0 0.055985561465933933 -0.012326994664554473 0 0.056334464769340925 -0.011469620859674168 0 0.058002710304618864 -0.011265142002954712 0 0.055129320427479998 -0.011294174027682338 0 0.055985561465933933 -0.012326994664554473 0 0.056334464769340925 -0.011469620859674168 0 0.056334464769340925 -0.011469620859674168 0 0.056813435634674066 -0.011272465786846902 0 0.058002710304618864 -0.011265142002954712 0 0.058002710304618864 -0.011265142002954712 0 0.059868679427193858 -0.015058745527661069 0 0.05712038881315655 -0.013721274703392274 0 0.058002710304618864 -0.011265142002954712 0 0.063782981912118716 -0.012933391336546134 0 0.059868679427193858 -0.015058745527661069 0 0.064444076069869738 -0.0084311588073538619 0 0.058002710304618864 -0.011265142002954712 0 0.063782981912118716 -0.012933391336546134 0 0.063782981912118716 -0.012933391336546134 0 0.059868679427193858 -0.015058745527661069 0 0.062965305915067687 -0.017065271234104472 0 0.066073088178743536 -0.015369676750221039 0 0.063782981912118716 -0.012933391336546134 0 0.062965305915067687 -0.017065271234104472 0 0.059868679427193858 -0.015058745527661069 0 0.062965305915067687 -0.017065271234104472 0 0.060199530152674471 -0.018683029255913516 0 0.059868679427193858 -0.015058745527661069 0 0.057540155865055023 -0.016688907558315442 0 0.060199530152674471 -0.018683029255913516 0 0.059868679427193858 -0.015058745527661069 0 0.057540155865055023 -0.016688907558315442 0 0.05712038881315655 -0.013721274703392274 0 0.057540155865055023 -0.016688907558315442 0 0.053751843997997657 -0.015212040026125801 0 0.056143041824489405 -0.018290755998503515 0 0.057540155865055023 -0.016688907558315442 0 0.05712038881315655 -0.013721274703392274 0 0.053751843997997657 -0.015212040026125801 0 0.056284973140651604 -0.010474068368877282 0 0.05614775320865116 -0.011391761851316885 0 0.053751843997997657 -0.015212040026125801 0 0.058002710304618864 -0.011265142002954712 0 0.05712038881315655 -0.013721274703392274 0 0.05614775320865116 -0.011391761851316885 0 0.052136128225442176 -0.011363216095919906 0 0.052329624944367555 -0.012796881579797666 0 0.05712038881315655 -0.013721274703392274 0 0.05614775320865116 -0.011391761851316885 0 0.053751843997997657 -0.015212040026125801 0 0.054178677278311597 -0.012073342153419977 0 0.052655648232294031 -0.01310294062627382 0 0.053751843997997657 -0.015212040026125801 0 0.052655648232294031 -0.01310294062627382 0 0.053751843997997657 -0.015212040026125801 0 0.050941141570185304 -0.014698364423270131 0 0.053751843997997657 -0.015212040026125801 0 0.050941141570185304 -0.014698364423270131 0 0.052362947370168958 -0.017147620810079429 0 0.050871213802211053 -0.013324458712276719 0 0.050077665864666256 -0.01412259501924561 0 0.050862542303945539 -0.014788821381194603 0 0.056206344891750019 -0.014537308787210282 0 0.059778141844506943 -0.016945611381779673 0 0.050941141570185304 -0.014698364423270131 0 0.050810719748020754 -0.018878343687390668 0 0.052362947370168958 -0.017147620810079429 0 0.050871213802211053 -0.013324458712276719 0 0.050077665864666256 -0.01412259501924561 0 0.049960127664138806 -0.013345674647839392 0 0.049211638469917884 -0.013522128180058478 0 0.049960127664138806 -0.013345674647839392 0 0.049725731579217558 -0.012542191713939742 0 0.050077665864666256 -0.01412259501924561 0 0.049211638469917884 -0.013522128180058478 0 0.049292490084789961 -0.014554845876433704 0 0.050077665864666256 -0.01412259501924561 0 0.049211638469917884 -0.013522128180058478 0 0.049960127664138806 -0.013345674647839392 0 0.049725731579217558 -0.012542191713939742 0 0.04859544949963613 -0.012620146040507083 0 0.048677382593721785 -0.011406846087820834 0 0.049211638469917884 -0.013522128180058478 0 0.049725731579217558 -0.012542191713939742 0 0.04859544949963613 -0.012620146040507083 0 0.052655648232294031 -0.01310294062627382 0 0.050941141570185304 -0.014698364423270131 0 0.051057070877877087 -0.011693830393994017 0 0.056206344891750019 -0.014537308787210282 0 0.055188802487386328 -0.013348863525484639 0 0.050871213802211053 -0.013324458712276719 0 0.049960127664138806 -0.013345674647839392 0 0.049725731579217558 -0.012542191713939742 0 0.050871213802211053 -0.013324458712276719 0 0.049725731579217558 -0.012542191713939742 0 0.051057070877877087 -0.011693830393994017 0 0.04747701407700608 -0.013801635078738241 0 0.047619515358227019 -0.012708325107855578 0 0.046706426471603078 -0.013257125901246693 0 0.04747701407700608 -0.013801635078738241 0 0.048308007816218579 -0.013286036557388787 0 0.048463132762703733 -0.014148892839292162 0 0.04747701407700608 -0.013801635078738241 0 0.048308007816218579 -0.013286036557388787 0 0.047619515358227019 -0.012708325107855578 0 0.049211638469917884 -0.013522128180058478 0 0.048463132762703733 -0.014148892839292162 0 0.049292490084789961 -0.014554845876433704 0 0.049211638469917884 -0.013522128180058478 0 0.048308007816218579 -0.013286036557388787 0 0.048463132762703733 -0.014148892839292162 0 0.049211638469917884 -0.013522128180058478 0 0.048308007816218579 -0.013286036557388787 0 0.04859544949963613 -0.012620146040507083 0 0.048111196487246245 -0.012129598015879307 0 0.04859544949963613 -0.012620146040507083 0 0.047619515358227019 -0.012708325107855578 0 0.048308007816218579 -0.013286036557388787 0 0.04859544949963613 -0.012620146040507083 0 0.047619515358227019 -0.012708325107855578 0 0.048111196487246245 -0.012129598015879307 0 0.04859544949963613 -0.012620146040507083 0 0.048677382593721785 -0.011406846087820834 0 0.047619515358227019 -0.012708325107855578 0 0.047558774902247559 -0.011778169805572178 0 0.046334715477987301 -0.012029406206631163 0 0.048111196487246245 -0.012129598015879307 0 0.047619515358227019 -0.012708325107855578 0 0.047558774902247559 -0.011778169805572178 0 0.047619515358227019 -0.012708325107855578 0 0.046466607696373959 -0.012541810594175085 0 0.046706426471603078 -0.013257125901246693 0 0.045268266187815327 -0.01090696689070755 0 0.046014926387986918 -0.012022777594786089 0 0.04667104659207813 -0.01077297476127609 0 0.046014926387986918 -0.012022777594786089 0 0.048677382593721785 -0.011406846087820834 0 0.04667104659207813 -0.01077297476127609 0 0.04638203615616792 -0.011504830781081195 0 0.047288503361546483 -0.011395444477824729 0 0.048111196487246245 -0.012129598015879307 0 0.047558774902247559 -0.011778169805572178 0 0.048677382593721785 -0.011406846087820834 0 0.048677382593721785 -0.011406846087820834 0 0.046898053160421997 -0.0094074722073992419 0 0.04667104659207813 -0.01077297476127609 0 0.048677382593721785 -0.011406846087820834 0 0.046898053160421997 -0.0094074722073992419 0 0.048924167629620527 -0.0089658249706084259 0 0.045268266187815327 -0.01090696689070755 0 0.046898053160421997 -0.0094074722073992419 0 0.04667104659207813 -0.01077297476127609 0 0.045190815552925132 -0.010961417822059377 0 0.045799464289145192 -0.010410005994393215 0 0.044900573729467298 -0.010923075430963275 0 0.046898053160421997 -0.0094074722073992419 0 0.044599243169120485 -0.0090098417425647486 0 0.049725731579217558 -0.012542191713939742 0 0.051057070877877087 -0.011693830393994017 0 0.049978239984159407 -0.01047148875723611 0 0.052429094393064146 -0.010651069333180144 0 0.051057070877877087 -0.011693830393994017 0 0.049978239984159407 -0.01047148875723611 0 0.049725731579217558 -0.012542191713939742 0 0.048677382593721785 -0.011406846087820834 0 0.049978239984159407 -0.01047148875723611 0 0.048677382593721785 -0.011406846087820834 0 0.049978239984159407 -0.01047148875723611 0 0.048924167629620527 -0.0089658249706084259 0 0.052429094393064146 -0.010651069333180144 0 0.049978239984159407 -0.01047148875723611 0 0.051339798662910892 -0.0088736596590057535 0 0.049978239984159407 -0.01047148875723611 0 0.051339798662910892 -0.0088736596590057535 0 0.048924167629620527 -0.0089658249706084259 0 0.052114765053236506 -0.0070610063115580267 0 0.051339798662910892 -0.0088736596590057535 0 0.050102739832533688 -0.007116495480684366 0 0.051339798662910892 -0.0088736596590057535 0 0.050102739832533688 -0.007116495480684366 0 0.048924167629620527 -0.0089658249706084259 0 0.052114765053236506 -0.0070610063115580267 0 0.050102739832533688 -0.007116495480684366 0 0.051194767013731421 -0.0051264025869025894 0 0.050102739832533688 -0.007116495480684366 0 0.048378164946299637 -0.0070049195872466802 0 0.048630464792375809 -0.005611937956433638 0 0.050102739832533688 -0.007116495480684366 0 0.048378164946299637 -0.0070049195872466802 0 0.048924167629620527 -0.0089658249706084259 0 0.048378164946299637 -0.0070049195872466802 0 0.048924167629620527 -0.0089658249706084259 0 0.046538759329177906 -0.0077090135296897884 0 0.046898053160421997 -0.0094074722073992419 0 0.048924167629620527 -0.0089658249706084259 0 0.046538759329177906 -0.0077090135296897884 0 0.046898053160421997 -0.0094074722073992419 0 0.046538759329177906 -0.0077090135296897884 0 0.044599243169120485 -0.0090098417425647486 0 0.046538759329177906 -0.0077090135296897884 0 0.04395091609404151 -0.0073234721498869424 0 0.044599243169120485 -0.0090098417425647486 0 0.046538759329177906 -0.0077090135296897884 0 0.045333725629357086 -0.0061074981268144828 0 0.04395091609404151 -0.0073234721498869424 0 0.046538759329177906 -0.0077090135296897884 0 0.047197688192659459 -0.0059321107862559388 0 0.045333725629357086 -0.0061074981268144828 0 0.048378164946299637 -0.0070049195872466802 0 0.046538759329177906 -0.0077090135296897884 0 0.047197688192659459 -0.0059321107862559388 0 0.048378164946299637 -0.0070049195872466802 0 0.047197688192659459 -0.0059321107862559388 0 0.048630464792375809 -0.005611937956433638 0 0.047197688192659459 -0.0059321107862559388 0 0.046225146998671231 -0.0048205514359522831 0 0.04787221761566194 -0.0043056405574625166 0 0.047197688192659459 -0.0059321107862559388 0 0.04787221761566194 -0.0043056405574625166 0 0.048630464792375809 -0.005611937956433638 0 0.04824588419652992 -0.0041566557784575749 0 0.04787221761566194 -0.0043056405574625166 0 0.048630464792375809 -0.005611937956433638 0 0.047197688192659459 -0.0059321107862559388 0 0.045333725629357086 -0.0061074981268144828 0 0.046225146998671231 -0.0048205514359522831 0 0.045333725629357086 -0.0061074981268144828 0 0.046225146998671231 -0.0048205514359522831 0 0.044305435388965142 -0.0045404594930941915 0 0.046225146998671231 -0.0048205514359522831 0 0.045812586024209692 -0.0033532048937928408 0 0.044305435388965142 -0.0045404594930941915 0 0.035152252774273217 -0.0023680459078028989 0 0.038784159309598581 -0.0041600978113173715 0 0.045812586024209692 -0.0033532048937928408 0 0.048206101780483027 -0.0041786742937422036 0 0.04787221761566194 -0.0043056405574625166 0 0.026954923926647979 0.00076241810786551898 0 0.02514661451142354 -0.00028669881995028036 0 0.02773864293177947 -0.0014186951332923147 0 0.046225146998671231 -0.0048205514359522831 0 0.045812586024209692 -0.0033532048937928408 0 0.04787221761566194 -0.0043056405574625166 0 0.038784159309598581 -0.0041600978113173715 0 0.038954732425341407 -0.0041143970106845909 0 0.028964250944204909 0.00067236682261413152 0 0.02773864293177947 -0.0014186951332923147 0 0.031033437189335555 -0.00055337702711603899 0 0.038784159309598581 -0.0041600978113173715 0 0.038008841617949742 -0.0037942211943521589 0 0.028964250944204909 0.00067236682261413152 0 0.026954923926647979 0.00076241810786551898 0 0.02773864293177947 -0.0014186951332923147 0 0.040464099027458809 -0.005124772416940742 0 0.041931241016098776 -0.0045866975248527462 0 0.041909578141420163 -0.0056423914126899656 0 0.050102739832533688 -0.007116495480684366 0 0.051194767013731421 -0.0051264025869025894 0 0.048630464792375809 -0.005611937956433638 0 0.04824588419652992 -0.0041566557784575749 0 0.051194767013731421 -0.0051264025869025894 0 0.048630464792375809 -0.005611937956433638 0 0.038784159309598581 -0.0041600978113173715 0 0.045269387563738647 -0.0065069914104530849 0 0.040972794859690569 -0.0055605542120613681 0 0.039289304439623633 -0.0063503223717394849 0 0.040374544402089228 -0.0067824115676021826 0 0.039728886617454016 -0.0059481655459231375 0 0.038836636941111002 -0.0061438416886756197 0 0.040972794859690569 -0.0055605542120613681 0 0.040699211398478839 -0.0042281471035807644 0 0.041611601415138873 -0.0042565923976319387 0 0.038629118847367874 -0.00594677541173275 0 0.039513998654369713 -0.0040130073192889667 0 0.038183483892337555 -0.0044400795424792729 0 0.040972794859690569 -0.0055605542120613681 0 0.038629118847367874 -0.00594677541173275 0 0.039513998654369713 -0.0040130073192889667 0 0.038160432073940799 -0.0030762556080301314 0 0.040631607988536177 -0.0031558692034980374 0 0.039513998654369713 -0.0040130073192889667 0 0.038199189221959202 -0.0031989643380076161 0 0.039513998654369713 -0.0040130073192889667 0 0.038183483892337555 -0.0044400795424792729 0 0.032901407322066013 -0.0027949563480264821 0 0.034588350469171851 -0.0036319798643971051 0 0.040631607988536177 -0.0031558692034980374 0 0.039513998654369713 -0.0040130073192889667 0 0.040699211398478839 -0.0042281471035807644 0 0.040972794859690569 -0.0055605542120613681 0 0.039513998654369713 -0.0040130073192889667 0 0.040699211398478839 -0.0042281471035807644 0 0.040631607988536177 -0.0031558692034980374 0 0.040699211398478839 -0.0042281471035807644 0 0.041611601415138873 -0.0042565923976319387 0 0.042307220255023141 -0.002955015083086853 0 0.040631607988536177 -0.0031558692034980374 0 0.041765764619642577 -0.0035877435012321122 0 0.040631607988536177 -0.0031558692034980374 0 0.041765764619642577 -0.0035877435012321122 0 0.041611601415138873 -0.0042565923976319387 0 0.042307220255023141 -0.002955015083086853 0 0.041765764619642577 -0.0035877435012321122 0 0.042686546028597727 -0.0041265323116129069 0 0.041765764619642577 -0.0035877435012321122 0 0.041611601415138873 -0.0042565923976319387 0 0.042686546028597727 -0.0041265323116129069 0 0.041611601415138873 -0.0042565923976319387 0 0.042686546028597727 -0.0041265323116129069 0 0.043115002615866808 -0.0053550477008571552 0 0.042307220255023141 -0.002955015083086853 0 0.045812586024209692 -0.0033532048937928408 0 0.044305435388965142 -0.0045404594930941915 0 0.031264769900229313 -0.00084959125508191546 0 0.035152252774273217 -0.0023680459078028989 0 0.042307220255023141 -0.002955015083086853 0 0.042686546028597727 -0.0041265323116129069 0 0.044305435388965142 -0.0045404594930941915 0 0.045333725629357086 -0.0061074981268144828 0 0.044305435388965142 -0.0045404594930941915 0 0.043115002615866808 -0.0053550477008571552 0 0.042686546028597727 -0.0041265323116129069 0 0.044305435388965142 -0.0045404594930941915 0 0.043115002615866808 -0.0053550477008571552 0 0.040972794859690569 -0.0055605542120613681 0 0.043115002615866808 -0.0053550477008571552 0 0.041874008360926855 -0.0069182324651517945 0 0.040972794859690569 -0.0055605542120613681 0 0.041611601415138873 -0.0042565923976319387 0 0.043115002615866808 -0.0053550477008571552 0 0.043115002615866808 -0.0053550477008571552 0 0.041874008360926855 -0.0069182324651517945 0 0.04395091609404151 -0.0073234721498869424 0 0.041874008360926855 -0.0069182324651517945 0 0.04395091609404151 -0.0073234721498869424 0 0.042602987950460809 -0.0084292541302881385 0 0.045333725629357086 -0.0061074981268144828 0 0.043115002615866808 -0.0053550477008571552 0 0.04395091609404151 -0.0073234721498869424 0 0.04395091609404151 -0.0073234721498869424 0 0.044599243169120485 -0.0090098417425647486 0 0.042602987950460809 -0.0084292541302881385 0 0.044599243169120485 -0.0090098417425647486 0 0.042602987950460809 -0.0084292541302881385 0 0.042886978442090211 -0.010099431437113627 0 0.041874008360926855 -0.0069182324651517945 0 0.042602987950460809 -0.0084292541302881385 0 0.040659330014077025 -0.0079510946020403817 0 0.042602987950460809 -0.0084292541302881385 0 0.040659330014077025 -0.0079510946020403817 0 0.041414240797361612 -0.009302991169750063 0 0.040659330014077025 -0.0079510946020403817 0 0.040144244309169533 -0.0091668157621766465 0 0.041414240797361612 -0.009302991169750063 0 0.040972794859690569 -0.0055605542120613681 0 0.041874008360926855 -0.0069182324651517945 0 0.040374544402089228 -0.0067824115676021826 0 0.041874008360926855 -0.0069182324651517945 0 0.040659330014077025 -0.0079510946020403817 0 0.040374544402089228 -0.0067824115676021826 0 0.040659330014077025 -0.0079510946020403817 0 0.040374544402089228 -0.0067824115676021826 0 0.03952429999460659 -0.0072617409599385957 0 0.039289304439623633 -0.0063503223717394849 0 0.03952429999460659 -0.0072617409599385957 0 0.038636640230277478 -0.0073138298998956996 0 0.039289304439623633 -0.0063503223717394849 0 0.040374544402089228 -0.0067824115676021826 0 0.03952429999460659 -0.0072617409599385957 0 0.03952429999460659 -0.0072617409599385957 0 0.039463617432371076 -0.0082305023916651853 0 0.038636640230277478 -0.0073138298998956996 0 0.040659330014077025 -0.0079510946020403817 0 0.03952429999460659 -0.0072617409599385957 0 0.039463617432371076 -0.0082305023916651853 0 0.040659330014077025 -0.0079510946020403817 0 0.039463617432371076 -0.0082305023916651853 0 0.040144244309169533 -0.0091668157621766465 0 0.039463617432371076 -0.0082305023916651853 0 0.040144244309169533 -0.0091668157621766465 0 0.038765735702933755 -0.0095355796668175046 0 0.042335176205520568 -0.010404372917777439 0 0.041508412904593756 -0.01059017696541301 0 0.041327791531735485 -0.0098682574546832182 0 0.040144244309169533 -0.0091668157621766465 0 0.040845239179852506 -0.010924459436822602 0 0.038765735702933755 -0.0095355796668175046 0 0.042032996771845188 -0.0103105027507241 0 0.040302099312612596 -0.0091042324514330024 0 0.040923780725183004 -0.010206202934006547 0 0.040302099312612596 -0.0091042324514330024 0 0.040144244309169533 -0.0091668157621766465 0 0.041414240797361612 -0.009302991169750063 0 0.040845239179852506 -0.010924459436822602 0 0.042335176205520568 -0.010404372917777439 0 0.042006133077139032 -0.010862433189281564 0 0.042493222061427076 -0.011144522087669199 0 0.040288466149752726 -0.0094266492397800956 0 0.040625918169390603 -0.010630980865417814 0 0.039469381881939498 -0.0098317673594127096 0 0.041508412904593756 -0.01059017696541301 0 0.042006133077139032 -0.010862433189281564 0 0.041687905928989091 -0.011310670333839036 0 0.042335176205520568 -0.010404372917777439 0 0.041508412904593756 -0.01059017696541301 0 0.042006133077139032 -0.010862433189281564 0 0.040923780725183004 -0.010206202934006547 0 0.04159039859046957 -0.011507807961819966 0 0.044900573729467298 -0.010923075430963275 0 0.044599243169120485 -0.0090098417425647486 0 0.042886978442090211 -0.010099431437113627 0 0.042602987950460809 -0.0084292541302881385 0 0.041414240797361612 -0.009302991169750063 0 0.042886978442090211 -0.010099431437113627 0 0.041414240797361612 -0.009302991169750063 0 0.040845239179852506 -0.010924459436822602 0 0.042886978442090211 -0.010099431437113627 0 0.042032996771845188 -0.0103105027507241 0 0.044588829771565808 -0.01157898575014652 0 0.042335176205520568 -0.010404372917777439 0 0.043384798517772931 -0.010961681629417422 0 0.043301395492470807 -0.010978813795539721 0 0.040845239179852506 -0.010924459436822602 0 0.042886978442090211 -0.010099431437113627 0 0.043264866682034518 -0.012365583565830455 0 0.042335176205520568 -0.010404372917777439 0 0.043301395492470807 -0.010978813795539721 0 0.042493222061427076 -0.011144522087669199 0 0.04638203615616792 -0.011504830781081195 0 0.044588829771565808 -0.01157898575014652 0 0.045268266187815327 -0.01090696689070755 0 0.046014926387986918 -0.012022777594786089 0 0.043612846352944212 -0.012508385203110773 0 0.044900573729467298 -0.010923075430963275 0 0.042886978442090211 -0.010099431437113627 0 0.043264866682034518 -0.012365583565830455 0 0.045190815552925132 -0.010961417822059377 0 0.044588829771565808 -0.01157898575014652 0 0.047619515358227019 -0.012708325107855578 0 0.045676126185454302 -0.011462413235434409 0 0.046466607696373959 -0.012541810594175085 0 0.046140584733075134 -0.012273640438184521 0 0.044588829771565808 -0.01157898575014652 0 0.045676126185454302 -0.011462413235434409 0 0.046466607696373959 -0.012541810594175085 0 0.045629250065224447 -0.01196673922903224 0 0.046466607696373959 -0.012541810594175085 0 0.045865836087982656 -0.012581925120410046 0 0.045945933042888604 -0.013122221855454351 0 0.046466607696373959 -0.012541810594175085 0 0.045629250065224447 -0.01196673922903224 0 0.045865836087982656 -0.012581925120410046 0 0.045210365316628101 -0.011635389200158016 0 0.044282425903799008 -0.012457257119363924 0 0.043879850065163116 -0.011910237383036501 0 0.044450159168566553 -0.011598382233882142 0 0.043089377077753323 -0.011539832584575882 0 0.045629250065224447 -0.01196673922903224 0 0.045865836087982656 -0.012581925120410046 0 0.045148943000710047 -0.012803880775709006 0 0.045629250065224447 -0.01196673922903224 0 0.044422965653982696 -0.012417190216072831 0 0.045148943000710047 -0.012803880775709006 0 0.045629250065224447 -0.01196673922903224 0 0.045510121836742745 -0.011501887306567572 0 0.044422965653982696 -0.012417190216072831 0 0.045676126185454302 -0.011462413235434409 0 0.045629250065224447 -0.01196673922903224 0 0.045510121836742745 -0.011501887306567572 0 0.044588829771565808 -0.01157898575014652 0 0.044450159168566553 -0.011598382233882142 0 0.044450159168566553 -0.011598382233882142 0 0.044159330803780608 -0.012058193312629188 0 0.044422965653982696 -0.012417190216072831 0 0.045148943000710047 -0.012803880775709006 0 0.044235400066460061 -0.013250075693724951 0 0.044702318068691752 -0.013751755202770109 0 0.045148943000710047 -0.012803880775709006 0 0.044235400066460061 -0.013250075693724951 0 0.044702318068691752 -0.013751755202770109 0 0.045413242904146667 -0.013448871370764837 0 0.045148943000710047 -0.012803880775709006 0 0.044702318068691752 -0.013751755202770109 0 0.045413242904146667 -0.013448871370764837 0 0.045973035941424628 -0.01414973061612404 0 0.045413242904146667 -0.013448871370764837 0 0.045148943000710047 -0.012803880775709006 0 0.045945933042888604 -0.013122221855454351 0 0.04747701407700608 -0.013801635078738241 0 0.046706426471603078 -0.013257125901246693 0 0.045973035941424628 -0.01414973061612404 0 0.045865836087982656 -0.012581925120410046 0 0.045148943000710047 -0.012803880775709006 0 0.045945933042888604 -0.013122221855454351 0 0.045945933042888604 -0.013122221855454351 0 0.046706426471603078 -0.013257125901246693 0 0.045973035941424628 -0.01414973061612404 0 0.045413242904146667 -0.013448871370764837 0 0.045945933042888604 -0.013122221855454351 0 0.045973035941424628 -0.01414973061612404 0 0.046466607696373959 -0.012541810594175085 0 0.045945933042888604 -0.013122221855454351 0 0.046706426471603078 -0.013257125901246693 0 0.042006133077139032 -0.010862433189281564 0 0.041687905928989091 -0.011310670333839036 0 0.042493222061427076 -0.011144522087669199 0 0.042525511722912551 -0.012183175470564319 0 0.043879850065163116 -0.011910237383036501 0 0.043549963894605928 -0.012576374795463568 0 0.04159039859046957 -0.011507807961819966 0 0.043089377077753323 -0.011539832584575882 0 0.044282425903799008 -0.012457257119363924 0 0.043879850065163116 -0.011910237383036501 0 0.043549963894605928 -0.012576374795463568 0 0.042525511722912551 -0.012183175470564319 0 0.043549963894605928 -0.012576374795463568 0 0.043346588319070511 -0.013297316275185671 0 0.044422965653982696 -0.012417190216072831 0 0.044235400066460061 -0.013250075693724951 0 0.043346588319070511 -0.013297316275185671 0 0.044282425903799008 -0.012457257119363924 0 0.043549963894605928 -0.012576374795463568 0 0.043346588319070511 -0.013297316275185671 0 0.044159330803780608 -0.012058193312629188 0 0.043907167328765116 -0.012341857902336851 0 0.044702318068691752 -0.013751755202770109 0 0.044235400066460061 -0.013250075693724951 0 0.043725720890746597 -0.01414876977105645 0 0.044235400066460061 -0.013250075693724951 0 0.043346588319070511 -0.013297316275185671 0 0.043725720890746597 -0.01414876977105645 0 0.043346588319070511 -0.013297316275185671 0 0.0428977066341652 -0.013732818286653762 0 0.043725720890746597 -0.01414876977105645 0 0.041632336304433248 -0.010411700366646919 0 0.04231253786413533 -0.012751314756551993 0 0.040376356441860883 -0.012524754403564813 0 0.042525511722912551 -0.012183175470564319 0 0.043346588319070511 -0.013297316275185671 0 0.0428977066341652 -0.013732818286653762 0 0.04159039859046957 -0.011507807961819966 0 0.042185614358984803 -0.013057070323438927 0 0.04231253786413533 -0.012751314756551993 0 0.0413080519059153 -0.014064523227305418 0 0.040376356441860883 -0.012524754403564813 0 0.04231253786413533 -0.012751314756551993 0 0.0413080519059153 -0.014064523227305418 0 0.043076738356815684 -0.015266085430783619 0 0.042185614358984803 -0.013057070323438927 0 0.042460048952518245 -0.013918899779849335 0 0.043725720890746597 -0.01414876977105645 0 0.043076738356815684 -0.015266085430783619 0 0.04487002817662724 -0.0147913167087607 0 0.0428977066341652 -0.013732818286653762 0 0.043725720890746597 -0.01414876977105645 0 0.043076738356815684 -0.015266085430783619 0 0.043076738356815684 -0.015266085430783619 0 0.044593930141175769 -0.017209480565955337 0 0.044949256960596325 -0.015918580904883829 0 0.0413080519059153 -0.014064523227305418 0 0.043076738356815684 -0.015266085430783619 0 0.041042667689827131 -0.015599418561080968 0 0.043076738356815684 -0.015266085430783619 0 0.041042667689827131 -0.015599418561080968 0 0.041785155552445899 -0.016869724303616634 0 0.041785155552445899 -0.016869724303616634 0 0.043281331932861281 -0.017893092563668743 0 0.041321684931017136 -0.018540357140635826 0 0.041785155552445899 -0.016869724303616634 0 0.041321684931017136 -0.018540357140635826 0 0.04015035256630043 -0.017043941916466264 0 0.041042667689827131 -0.015599418561080968 0 0.041785155552445899 -0.016869724303616634 0 0.04015035256630043 -0.017043941916466264 0 0.043076738356815684 -0.015266085430783619 0 0.041785155552445899 -0.016869724303616634 0 0.043281331932861281 -0.017893092563668743 0 0.043076738356815684 -0.015266085430783619 0 0.043281331932861281 -0.017893092563668743 0 0.044593930141175769 -0.017209480565955337 0 0.043281331932861281 -0.017893092563668743 0 0.044593930141175769 -0.017209480565955337 0 0.045189993294215719 -0.019899041725324491 0 0.043281331932861281 -0.017893092563668743 0 0.042692748172695194 -0.019762359926775667 0 0.045189993294215719 -0.019899041725324491 0 0.043281331932861281 -0.017893092563668743 0 0.041321684931017136 -0.018540357140635826 0 0.042692748172695194 -0.019762359926775667 0 0.047375323741195428 -0.017860856419797563 0 0.047222737554420871 -0.017306973212577223 0 0.050569470787725231 -0.018837516380655225 0 0.047375323741195428 -0.017860856419797563 0 0.04652006440387764 -0.01682114211545584 0 0.046848950130832671 -0.019363532801162781 0 0.047375323741195428 -0.017860856419797563 0 0.047222737554420871 -0.017306973212577223 0 0.04652006440387764 -0.01682114211545584 0 0.067661500479010178 -0.011391716877222791 0 0.06931163787039113 -0.010399459029317649 0 0.047375323741195428 -0.017860856419797563 0 0.048842679298108899 -0.01942078377269732 0 0.048127014114316753 -0.02016699969407058 0 0.047375323741195428 -0.017860856419797563 0 0.046848950130832671 -0.019363532801162781 0 0.048071908877658144 -0.019679898906195419 0 0.046173437801770904 -0.017254298621217998 0 0.045718779681053534 -0.018352409571107807 0 0.04652006440387764 -0.01682114211545584 0 0.045189993294215719 -0.019899041725324491 0 0.046848950130832671 -0.019363532801162781 0 0.044593930141175769 -0.017209480565955337 0 0.045911847394017491 -0.017588549487518486 0 0.045189993294215719 -0.019899041725324491 0 0.044593930141175769 -0.017209480565955337 0 0.045911847394017491 -0.017588549487518486 0 0.044949256960596325 -0.015918580904883829 0 0.046173437801770904 -0.017254298621217998 0 0.046817682393475432 -0.015683547839304417 0 0.04652006440387764 -0.01682114211545584 0 0.047423250831918499 -0.016438403912999437 0 0.047126096555498972 -0.01541375814104593 0 0.047222737554420871 -0.017306973212577223 0 0.047423250831918499 -0.016438403912999437 0 0.047906432468332573 -0.017023998749050924 0 0.047222737554420871 -0.017306973212577223 0 0.04652006440387764 -0.01682114211545584 0 0.047423250831918499 -0.016438403912999437 0 0.045911847394017491 -0.017588549487518486 0 0.046644083458369449 -0.015529418063615963 0 0.044949256960596325 -0.015918580904883829 0 0.043076738356815684 -0.015266085430783619 0 0.044949256960596325 -0.015918580904883829 0 0.04487002817662724 -0.0147913167087607 0 0.046644083458369449 -0.015529418063615963 0 0.044949256960596325 -0.015918580904883829 0 0.04487002817662724 -0.0147913167087607 0 0.044702318068691752 -0.013751755202770109 0 0.04487002817662724 -0.0147913167087607 0 0.045973035941424628 -0.01414973061612404 0 0.044702318068691752 -0.013751755202770109 0 0.043725720890746597 -0.01414876977105645 0 0.04487002817662724 -0.0147913167087607 0 0.046644083458369449 -0.015529418063615963 0 0.04487002817662724 -0.0147913167087607 0 0.045973035941424628 -0.01414973061612404 0 0.04747701407700608 -0.013801635078738241 0 0.046644083458369449 -0.015529418063615963 0 0.045973035941424628 -0.01414973061612404 0 0.04747701407700608 -0.013801635078738241 0 0.047126096555498972 -0.01541375814104593 0 0.047912814135719482 -0.014808190690865525 0 0.047168079111439255 -0.014825442119546329 0 0.046817682393475432 -0.015683547839304417 0 0.04747701407700608 -0.013801635078738241 0 0.047912814135719482 -0.014808190690865525 0 0.048463132762703733 -0.014148892839292162 0 0.048463132762703733 -0.014148892839292162 0 0.048595290279201869 -0.015032275175996755 0 0.049292490084789961 -0.014554845876433704 0 0.048595290279201869 -0.015032275175996755 0 0.049292490084789961 -0.014554845876433704 0 0.049286312590641888 -0.015349758754274084 0 0.047912814135719482 -0.014808190690865525 0 0.048463132762703733 -0.014148892839292162 0 0.048595290279201869 -0.015032275175996755 0 0.048595290279201869 -0.015032275175996755 0 0.048757572981823774 -0.015797487924772133 0 0.047994777394716352 -0.015662379692537594 0 0.048595290279201869 -0.015032275175996755 0 0.048757572981823774 -0.015797487924772133 0 0.049286312590641888 -0.015349758754274084 0 0.048757572981823774 -0.015797487924772133 0 0.049286312590641888 -0.015349758754274084 0 0.049623054128114595 -0.01616909904430704 0 0.048757572981823774 -0.015797487924772133 0 0.047994777394716352 -0.015662379692537594 0 0.048215987939107689 -0.016431981390770747 0 0.047423250831918499 -0.016438403912999437 0 0.047126096555498972 -0.01541375814104593 0 0.047994777394716352 -0.015662379692537594 0 0.047126096555498972 -0.01541375814104593 0 0.047912814135719482 -0.014808190690865525 0 0.047994777394716352 -0.015662379692537594 0 0.047912814135719482 -0.014808190690865525 0 0.048595290279201869 -0.015032275175996755 0 0.047994777394716352 -0.015662379692537594 0 0.050077665864666256 -0.01412259501924561 0 0.050862542303945539 -0.014788821381194603 0 0.0500862722035516 -0.015078806111257408 0 0.050077665864666256 -0.01412259501924561 0 0.0500862722035516 -0.015078806111257408 0 0.049292490084789961 -0.014554845876433704 0 0.0500862722035516 -0.015078806111257408 0 0.049292490084789961 -0.014554845876433704 0 0.049286312590641888 -0.015349758754274084 0 0.0500862722035516 -0.015078806111257408 0 0.050331887594741762 -0.015695725398303145 0 0.049829203068972865 -0.01596656982146721 0 0.0500862722035516 -0.015078806111257408 0 0.049286312590641888 -0.015349758754274084 0 0.049623054128114595 -0.01616909904430704 0 0.05852945761767455 -0.018253405530791352 0 0.059915516379230954 -0.018299226318052936 0 0.050810719748020754 -0.018878343687390668 0 0.05092670137774663 -0.023138600363031895 0 0.052651744857003191 -0.020163411685575304 0 0.050862542303945539 -0.014788821381194603 0 0.050331887594741762 -0.015695725398303145 0 0.050867364081156358 -0.016053581250386934 0 0.059778141844506943 -0.016945611381779673 0 0.067643945633990538 -0.019864768004479567 0 0.050862542303945539 -0.014788821381194603 0 0.0500862722035516 -0.015078806111257408 0 0.050331887594741762 -0.015695725398303145 0 0.067643945633990538 -0.019864768004479567 0 0.07824706393261395 -0.022620433331090376 0 0.074665281092517674 -0.018313791938095195 0 0.074240454850561133 -0.018541159802905046 0 0.074703732505457587 -0.019052027181719944 0 0.050331887594741762 -0.015695725398303145 0 0.050867364081156358 -0.016053581250386934 0 0.050156138239322329 -0.016396774148543406 0 0.067643945633990538 -0.019864768004479567 0 0.065308067628069344 -0.018726173000839792 0 0.050156138239322329 -0.016396774148543406 0 0.049829203068972865 -0.01596656982146721 0 0.049553780546279021 -0.01672879104075891 0 0.059915516379230954 -0.018299226318052936 0 0.065046285829661793 -0.017098374272439879 0 0.050331887594741762 -0.015695725398303145 0 0.050156138239322329 -0.016396774148543406 0 0.049829203068972865 -0.01596656982146721 0 0.065308067628069344 -0.018726173000839792 0 0.065046285829661793 -0.017098374272439879 0 0.074180894467793496 -0.019013790395026042 0 0.073801711491241928 -0.018768844307098267 0 0.073603452769974764 -0.019229585332404608 0 0.074240454850561133 -0.018541159802905046 0 0.074180894467793496 -0.019013790395026042 0 0.073801711491241928 -0.018768844307098267 0 0.088723854770800553 -0.026535587628788569 0 0.088803606477895106 -0.028568000694858143 0 0.089481902486630932 -0.028014296983741502 0 0.074240454850561133 -0.018541159802905046 0 0.074180894467793496 -0.019013790395026042 0 0.074703732505457587 -0.019052027181719944 0 0.047906432468332573 -0.017023998749050924 0 0.048215987939107689 -0.016431981390770747 0 0.04847538639565508 -0.016971193859098278 0 0.047423250831918499 -0.016438403912999437 0 0.047906432468332573 -0.017023998749050924 0 0.048215987939107689 -0.016431981390770747 0 0.047423250831918499 -0.016438403912999437 0 0.047994777394716352 -0.015662379692537594 0 0.048215987939107689 -0.016431981390770747 0 0.048757572981823774 -0.015797487924772133 0 0.048215987939107689 -0.016431981390770747 0 0.048895032178457795 -0.016463602422380111 0 0.049623054128114595 -0.01616909904430704 0 0.048895032178457795 -0.016463602422380111 0 0.049186078100219466 -0.017185307173534559 0 0.048757572981823774 -0.015797487924772133 0 0.049623054128114595 -0.01616909904430704 0 0.048895032178457795 -0.016463602422380111 0 0.048895032178457795 -0.016463602422380111 0 0.04847538639565508 -0.016971193859098278 0 0.049186078100219466 -0.017185307173534559 0 0.048215987939107689 -0.016431981390770747 0 0.048895032178457795 -0.016463602422380111 0 0.04847538639565508 -0.016971193859098278 0 0.04847538639565508 -0.016971193859098278 0 0.049186078100219466 -0.017185307173534559 0 0.048202579211248223 -0.017690568571038151 0 0.065046285829661793 -0.017098374272439879 0 0.066162991017811118 -0.013999359914200444 0 0.067979825295555685 -0.015327628877153679 0 0.071734022992548024 -0.013282726569445135 0 0.069392594310742059 -0.012074182651932138 0 0.065046285829661793 -0.017098374272439879 0 0.073542759497358515 -0.015268096862784826 0 0.066162991017811118 -0.013999359914200444 0 0.073542759497358515 -0.015268096862784826 0 0.047375323741195428 -0.017860856419797563 0 0.050569470787725231 -0.018837516380655225 0 0.048842679298108899 -0.01942078377269732 0 0.047222737554420871 -0.017306973212577223 0 0.047906432468332573 -0.017023998749050924 0 0.048202579211248223 -0.017690568571038151 0 0.066162991017811118 -0.013999359914200444 0 0.06981933533978707 -0.011385566997373248 0 0.058780923020405731 -0.012379179907033898 0 0.066162991017811118 -0.013999359914200444 0 0.047906432468332573 -0.017023998749050924 0 0.04847538639565508 -0.016971193859098278 0 0.048202579211248223 -0.017690568571038151 0 0.050569470787725231 -0.018837516380655225 0 0.048842679298108899 -0.01942078377269732 0 0.049202841699061438 -0.019601234989239533 0 0.069685507122318593 -0.011358634131722011 0 0.06981933533978707 -0.011385566997373248 0 0.06981933533978707 -0.011385566997373248 0 0.079279852775864981 -0.011794939590071043 0 0.078748984805708855 -0.012606187633192642 0 0.076973847770873197 -0.011691916550447962 0 0.079242517282120714 -0.01140895230238863 0 0.048842679298108899 -0.01942078377269732 0 0.04919503942813417 -0.019597352423411738 0 0.048127014114316753 -0.02016699969407058 0 0.07261609272837638 -0.0094663454021474847 0 0.069604644439923091 -0.011091884089409122 0 0.075572948513582691 -0.014156048741973253 0 0.06981933533978707 -0.011385566997373248 0 0.06931163787039113 -0.010399459029317649 0 0.078748984805708855 -0.012606187633192642 0 0.079472534736628173 -0.012219074823941831 0 0.079242517282120714 -0.01140895230238863 0 0.079279852775864981 -0.011794939590071043 0 0.087386463923021171 -0.01480742840103182 0 0.07261609272837638 -0.0094663454021474847 0 0.076690710072327653 -0.011573780004173646 0 0.075572948513582691 -0.014156048741973253 0 0.07657240242806379 -0.012222194196967448 0 0.07552732468739079 -0.014637004775593109 0 0.082791164774807177 -0.015436105747311409 0 0.073542759497358515 -0.015268096862784826 0 0.079279852775864981 -0.011794939590071043 0 0.10344383095205054 0.00046870913009307925 0 0.10361666843365447 0.00017916605497206639 0 0.1038324551032251 0.00024806371778987791 0 0.10344383095205054 0.00046870913009307925 0 0.10361666843365447 0.00017916605497206639 0 0.10322991353715576 -1.0492042978284105e-05 0 0.076973847770873197 -0.011691916550447962 0 0.078172218199046906 -0.0089538799024189465 0 0.079242517282120714 -0.01140895230238863 0 0.078565470693101297 -0.0090206706697115516 0 0.078172218199046906 -0.0089538799024189465 0 0.079242517282120714 -0.01140895230238863 0 0.083451206863121491 -0.0082701657844679258 0 0.072319520467235443 -0.01076224360137187 0 0.079279852775864981 -0.011794939590071043 0 0.086352059934904704 -0.0073671234525371212 0 0.074703732505457587 -0.019052027181719944 0 0.074170258608501766 -0.019522243396015358 0 0.0747479517418696 -0.019816690072873209 0 0.07824706393261395 -0.022620433331090376 0 0.087001731718813688 -0.021986986032911542 0 0.088803606477895106 -0.028568000694858143 0 0.089167841373875095 -0.029537859647999425 0 0.088884966609514171 -0.030521512717134863 0 0.074180894467793496 -0.019013790395026042 0 0.074703732505457587 -0.019052027181719944 0 0.074170258608501766 -0.019522243396015358 0 0.079441100207850682 -0.018165898544434893 0 0.087001731718813688 -0.021986986032911542 0 0.089354713997131033 -0.024987158599680939 0 0.089369455081572 -0.023163997426923908 0 0.074180894467793496 -0.019013790395026042 0 0.073603452769974764 -0.019229585332404608 0 0.074170258608501766 -0.019522243396015358 0 0.07552732468739079 -0.014637004775593109 0 0.082791164774807177 -0.015436105747311409 0 0.082289427512415761 -0.018104891547001869 0 0.073542759497358515 -0.015268096862784826 0 0.079441100207850682 -0.018165898544434893 0 0.082791164774807177 -0.015436105747311409 0 0.082289427512415761 -0.018104891547001869 0 0.089000485241021651 -0.018643401460524234 0 0.10361666843365447 0.00017916605497206639 0 0.1038324551032251 0.00024806371778987791 0 0.10390839589010196 2.9149922258584529e-05 0 0.1038324551032251 0.00024806371778987791 0 0.10395409530706691 4.9480940744649221e-05 0 0.10390839589010196 2.9149922258584529e-05 0 0.087386463923021171 -0.01480742840103182 0 0.089875442834337627 -0.018472356350004118 0 0.082289427512415761 -0.018104891547001869 0 0.089040764829645958 -0.021563799288656309 0 0.089000485241021651 -0.018643401460524234 0 0.1038324551032251 0.00024806371778987791 0 0.10400419297741245 8.6173897450006064e-05 0 0.10395409530706691 4.9480940744649221e-05 0 0.087939371840224934 -0.018691389225834437 0 0.089697058016444842 -0.019594880539477791 0 0.087934320215214787 -0.022691010006949411 0 0.089875442834337627 -0.018472356350004118 0 0.087001731718813688 -0.021986986032911542 0 0.091678513732879552 -0.02038618470293594 0 0.089369455081572 -0.023163997426923908 0 0.091678513732879552 -0.02038618470293594 0 0.089875442834337627 -0.018472356350004118 0 0.089167841373875095 -0.029537859647999425 0 0.089183751134868802 -0.03067165337851321 0 0.088884966609514171 -0.030521512717134863 0 0.089697058016444842 -0.019594880539477791 0 0.087934320215214787 -0.022691010006949411 0 0.089741574935583185 -0.023626887092717166 0 0.089369455081572 -0.023163997426923908 0 0.087001731718813688 -0.021986986032911542 0 0.10386793948186994 -0.00012241808329546569 0 0.10396300052504799 2.6601127439234995e-05 0 0.10400238432567169 0.00017679459299124698 0 0.091678513732879552 -0.02038618470293594 0 0.099694361664502212 -0.015157774066872303 0 0.089875442834337627 -0.018472356350004118 0 0.090813293356462252 -0.013985871868570891 0 0.10400419297741245 8.6173897450006064e-05 0 0.10396300052504799 2.6601127439234995e-05 0 0.10395409530706691 4.9480940744649221e-05 0 0.10386793948186994 -0.00012241808329546569 0 0.10390862718337311 -0.00015487517517878436 0 0.10396300052504799 2.6601127439234995e-05 0 0.10396300052504799 2.6601127439234995e-05 0 0.10395409530706691 4.9480940744649221e-05 0 0.1039984371891864 0.00011977132065226462 0 0.10395409530706691 4.9480940744649221e-05 0 0.10390839589010196 2.9149922258584529e-05 0 0.1039984371891864 0.00011977132065226462 0 0.10404561327895294 0.00025179345806204358 0 0.1039984371891864 0.00011977132065226462 0 0.10409596769149916 0.00022437698835109607 0 0.10390839589010196 2.9149922258584529e-05 0 0.10404561327895294 0.00025179345806204358 0 0.10406009271678381 0.00022170187715023139 0 0.10390839589010196 2.9149922258584529e-05 0 0.10404561327895294 0.00025179345806204358 0 0.1039984371891864 0.00011977132065226462 0 0.1039984371891864 0.00011977132065226462 0 0.10400238432567169 0.00017679459299124698 0 0.10409596769149916 0.00022437698835109607 0 0.10396300052504799 2.6601127439234995e-05 0 0.1039984371891864 0.00011977132065226462 0 0.10400238432567169 0.00017679459299124698 0 0.10420197330263804 2.4238508986380157e-05 0 0.10410517439199878 9.8652004858281681e-05 0 0.10417631969000375 0.00023339278127507335 0 0.10486713781587208 0.0049454707510490229 0 0.10411185105717756 0.0030699418458806607 0 0.1039575874993094 0.0043771653293812798 0 0.08690348191756031 -0.0056040825312480107 0 0.092056288776729833 -0.0032036503423271455 0 0.08690348191756031 -0.0056040825312480107 0 0.093289929719559295 0.00074341106866204233 0 0.10486713781587208 0.0049454707510490229 0 0.1046786070350435 0.0055353036306170734 0 0.1039575874993094 0.0043771653293812798 0 0.08690348191756031 -0.0056040825312480107 0 0.083451206863121491 -0.0082701657844679258 0 0.085205159420185861 -0.008826010810806275 0 0.086270463433892539 -0.012474461097472318 0 0.083805148963373391 -0.012056185742380637 0 0.08690348191756031 -0.0056040825312480107 0 0.086352059934904704 -0.0073671234525371212 0 0.10420197330263804 2.4238508986380157e-05 0 0.10417929557570757 -2.2590914673884819e-05 0 0.10410517439199878 9.8652004858281681e-05 0 0.083451206863121491 -0.0082701657844679258 0 0.086352059934904704 -0.0073671234525371212 0 0.10390839589010196 2.9149922258584529e-05 0 0.10410517439199878 9.8652004858281681e-05 0 0.10406009271678381 0.00022170187715023139 0 0.10390839589010196 2.9149922258584529e-05 0 0.10417929557570757 -2.2590914673884819e-05 0 0.10410517439199878 9.8652004858281681e-05 0 0.10361666843365447 0.00017916605497206639 0 0.10390839589010196 2.9149922258584529e-05 0 0.10322991353715576 -1.0492042978284105e-05 0 0.098464529524657257 -0.006399929089012487 0 0.086352059934904704 -0.0073671234525371212 0 0.10406009271678381 0.00022170187715023139 0 0.10417631969000375 0.00023339278127507335 0 0.10404481847445171 0.00051785951605102165 0 0.10410517439199878 9.8652004858281681e-05 0 0.10406009271678381 0.00022170187715023139 0 0.10417631969000375 0.00023339278127507335 0 0.10357725813007065 0.0020049477329517119 0 0.10381189070451116 0.0014270129488371669 0 0.10338379997792148 0.0014916712781445113 0 0.10381189070451116 0.0014270129488371669 0 0.10338379997792148 0.0014916712781445113 0 0.10355799011150089 0.0010237690499728571 0 0.10411185105717756 0.0030699418458806607 0 0.10266069019043479 0.0024929347489912007 0 0.10317666681444485 0.001133421835272913 0 0.093289929719559295 0.00074341106866204233 0 0.094927151108742752 0.0019521702146243756 0 0.10266069019043479 0.0024929347489912007 0 0.10315263460443355 0.0035780571537031456 0 0.10162797794440875 0.0033944392753718681 0 0.10411185105717756 0.0030699418458806607 0 0.10315263460443355 0.0035780571537031456 0 0.1039575874993094 0.0043771653293812798 0 0.10411185105717756 0.0030699418458806607 0 0.10266069019043479 0.0024929347489912007 0 0.10315263460443355 0.0035780571537031456 0 0.10315263460443355 0.0035780571537031456 0 0.1039575874993094 0.0043771653293812798 0 0.10296225634986803 0.0047255311026331492 0 0.1046786070350435 0.0055353036306170734 0 0.10296225634986803 0.0047255311026331492 0 0.10155821582672099 0.006239485613822815 0 0.10315263460443355 0.0035780571537031456 0 0.10296225634986803 0.0047255311026331492 0 0.10162797794440875 0.0033944392753718681 0 0.1046786070350435 0.0055353036306170734 0 0.1039575874993094 0.0043771653293812798 0 0.10296225634986803 0.0047255311026331492 0 0.10296225634986803 0.0047255311026331492 0 0.10076364492983529 0.0047431346734797663 0 0.10162797794440875 0.0033944392753718681 0 0.10296225634986803 0.0047255311026331492 0 0.10076364492983529 0.0047431346734797663 0 0.10155821582672099 0.006239485613822815 0 0.10076364492983529 0.0047431346734797663 0 0.09912039744271707 0.0055154008496685145 0 0.10155821582672099 0.006239485613822815 0 0.10076364492983529 0.0047431346734797663 0 0.10162797794440875 0.0033944392753718681 0 0.10027960800161134 0.0036600163580646425 0 0.10162797794440875 0.0033944392753718681 0 0.100455314881382 0.002615515122193158 0 0.10027960800161134 0.0036600163580646425 0 0.10266069019043479 0.0024929347489912007 0 0.10162797794440875 0.0033944392753718681 0 0.10150002723919722 0.0021274585157889329 0 0.10162797794440875 0.0033944392753718681 0 0.10150002723919722 0.0021274585157889329 0 0.100455314881382 0.002615515122193158 0 0.10150002723919722 0.0021274585157889329 0 0.100455314881382 0.002615515122193158 0 0.10051377646872221 0.0016654009314893317 0 0.100455314881382 0.002615515122193158 0 0.099764439682922326 0.0021811853969072241 0 0.10051377646872221 0.0016654009314893317 0 0.100455314881382 0.002615515122193158 0 0.099764439682922326 0.0021811853969072241 0 0.099438049046725041 0.0030538641365174088 0 0.099764439682922326 0.0021811853969072241 0 0.098906328911186198 0.0021438386255484211 0 0.099438049046725041 0.0030538641365174088 0 0.098906328911186198 0.0021438386255484211 0 0.099438049046725041 0.0030538641365174088 0 0.098584359350784606 0.0038742580738152514 0 0.099438049046725041 0.0030538641365174088 0 0.098584359350784606 0.0038742580738152514 0 0.09926949363554069 0.0042518363121168499 0 0.099438049046725041 0.0030538641365174088 0 0.10027960800161134 0.0036600163580646425 0 0.09926949363554069 0.0042518363121168499 0 0.100455314881382 0.002615515122193158 0 0.099438049046725041 0.0030538641365174088 0 0.10027960800161134 0.0036600163580646425 0 0.098906328911186198 0.0021438386255484211 0 0.098584359350784606 0.0038742580738152514 0 0.096929911688457882 0.0051688282125506389 0 0.098069139820951973 0.0010090001836028819 0 0.096473292727386598 0.0033668803661438367 0 0.096929911688457882 0.0051688282125506389 0 0.098247040921285847 0.0011426427446879477 0 0.097590972082142888 0.0031868756013200064 0 0.095607296990644838 0.0015544177342994305 0 0.096581624906577193 0.0019575998941864241 0 0.0957032454235546 0.0025426399052725919 0 0.095607296990644838 0.0015544177342994305 0 0.096662752819114961 0.0010251579367505227 0 0.095659062960034638 0.00055039675927079444 0 0.095607296990644838 0.0015544177342994305 0 0.096662752819114961 0.0010251579367505227 0 0.096581624906577193 0.0019575998941864241 0 0.098069139820951973 0.0010090001836028819 0 0.096581624906577193 0.0019575998941864241 0 0.096473292727386598 0.0033668803661438367 0 0.098069139820951973 0.0010090001836028819 0 0.096662752819114961 0.0010251579367505227 0 0.096581624906577193 0.0019575998941864241 0 0.096581624906577193 0.0019575998941864241 0 0.096473292727386598 0.0033668803661438367 0 0.0957032454235546 0.0025426399052725919 0 0.096473292727386598 0.0033668803661438367 0 0.0957032454235546 0.0025426399052725919 0 0.095187528065653823 0.0034790118428327187 0 0.096473292727386598 0.0033668803661438367 0 0.096389675684074638 0.004571395427602775 0 0.096929911688457882 0.0051688282125506389 0 0.096473292727386598 0.0033668803661438367 0 0.09560767789521657 0.004100787992046895 0 0.095187528065653823 0.0034790118428327187 0 0.096473292727386598 0.0033668803661438367 0 0.09560767789521657 0.004100787992046895 0 0.096389675684074638 0.004571395427602775 0 0.098584359350784606 0.0038742580738152514 0 0.096929911688457882 0.0051688282125506389 0 0.098354806317556498 0.0048120230522345868 0 0.096929911688457882 0.0051688282125506389 0 0.098028429627505312 0.0055931675192554759 0 0.098354806317556498 0.0048120230522345868 0 0.10076364492983529 0.0047431346734797663 0 0.10027960800161134 0.0036600163580646425 0 0.09926949363554069 0.0042518363121168499 0 0.10076364492983529 0.0047431346734797663 0 0.09926949363554069 0.0042518363121168499 0 0.09912039744271707 0.0055154008496685145 0 0.09926949363554069 0.0042518363121168499 0 0.098354806317556498 0.0048120230522345868 0 0.09912039744271707 0.0055154008496685145 0 0.098584359350784606 0.0038742580738152514 0 0.09926949363554069 0.0042518363121168499 0 0.098354806317556498 0.0048120230522345868 0 0.098028429627505312 0.0055931675192554759 0 0.098354806317556498 0.0048120230522345868 0 0.09912039744271707 0.0055154008496685145 0 0.042491317249066358 -0.022047988467902565 0 0.045189993294215719 -0.019899041725324491 0 0.045674322056457037 -0.022661768061607773 0 0.069880906775467933 -0.007622979423113089 0 0.074601430864836088 -0.007794890707408869 0 0.09912039744271707 0.0055154008496685145 0 0.097830811059038889 0.0072245671229056599 0 0.10155821582672099 0.006239485613822815 0 0.098028429627505312 0.0055931675192554759 0 0.09912039744271707 0.0055154008496685145 0 0.097830811059038889 0.0072245671229056599 0 0.042491317249066358 -0.022047988467902565 0 0.041179823243777954 -0.020436064139369985 0 0.039514918151391881 -0.021568093991303463 0 0.096929911688457882 0.0051688282125506389 0 0.097830811059038889 0.0072245671229056599 0 0.093182499384706796 0.0080271853329211499 0 0.096929911688457882 0.0051688282125506389 0 0.098028429627505312 0.0055931675192554759 0 0.097830811059038889 0.0072245671229056599 0 0.041321684931017136 -0.018540357140635826 0 0.042692748172695194 -0.019762359926775667 0 0.041179823243777954 -0.020436064139369985 0 0.042491317249066358 -0.022047988467902565 0 0.042692748172695194 -0.019762359926775667 0 0.041179823243777954 -0.020436064139369985 0 0.042491317249066358 -0.022047988467902565 0 0.042692748172695194 -0.019762359926775667 0 0.045189993294215719 -0.019899041725324491 0 0.045189993294215719 -0.019899041725324491 0 0.046800734265786709 -0.021045615695765393 0 0.045674322056457037 -0.022661768061607773 0 0.045189993294215719 -0.019899041725324491 0 0.046848950130832671 -0.019363532801162781 0 0.046800734265786709 -0.021045615695765393 0 0.046848950130832671 -0.019363532801162781 0 0.048071908877658144 -0.019679898906195419 0 0.048396745332150826 -0.020592111782355857 0 0.06931163787039113 -0.010399459029317649 0 0.072319520467235443 -0.01076224360137187 0 0.048396745332150826 -0.020592111782355857 0 0.046800734265786709 -0.021045615695765393 0 0.047546933280349098 -0.021914052119017008 0 0.046848950130832671 -0.019363532801162781 0 0.048396745332150826 -0.020592111782355857 0 0.046800734265786709 -0.021045615695765393 0 0.049344105939394881 -0.023341038247482078 0 0.048396745332150826 -0.020592111782355857 0 0.047546933280349098 -0.021914052119017008 0 0.049344105939394881 -0.023341038247482078 0 0.047546933280349098 -0.021914052119017008 0 0.045674322056457037 -0.022661768061607773 0 0.046800734265786709 -0.021045615695765393 0 0.047546933280349098 -0.021914052119017008 0 0.045674322056457037 -0.022661768061607773 0 0.083451206863121491 -0.0082701657844679258 0 0.074601430864836088 -0.007794890707408869 0 0.078907399685592725 -0.021081896527354056 0 0.078408867214082467 -0.022230810380611907 0 0.07738880243401465 -0.021365683221744806 0 0.078408867214082467 -0.022230810380611907 0 0.07740459452775808 -0.02225246400880726 0 0.07738880243401465 -0.021365683221744806 0 0.07740459452775808 -0.02225246400880726 0 0.075933561274914449 -0.021521406007791913 0 0.076570055348251953 -0.022273907780092334 0 0.07740459452775808 -0.02225246400880726 0 0.075933561274914449 -0.021521406007791913 0 0.07738880243401465 -0.021365683221744806 0 0.075933561274914449 -0.021521406007791913 0 0.07738880243401465 -0.021365683221744806 0 0.076237396537977106 -0.020610234622577762 0 0.075933561274914449 -0.021521406007791913 0 0.076237396537977106 -0.020610234622577762 0 0.0741451680345461 -0.021024786882360463 0 0.078907399685592725 -0.021081896527354056 0 0.07738880243401465 -0.021365683221744806 0 0.077918538865576245 -0.020045898488850942 0 0.07738880243401465 -0.021365683221744806 0 0.077918538865576245 -0.020045898488850942 0 0.076237396537977106 -0.020610234622577762 0 0.077918538865576245 -0.020045898488850942 0 0.07657296160293417 -0.018076729168719351 0 0.076237396537977106 -0.020610234622577762 0 0.078511181724699147 -0.018393986609952916 0 0.077918538865576245 -0.020045898488850942 0 0.07657296160293417 -0.018076729168719351 0 0.07657296160293417 -0.018076729168719351 0 0.073488731431834819 -0.017846882737688217 0 0.076237396537977106 -0.020610234622577762 0 0.0744353060131554 -0.014419393195985387 0 0.07657296160293417 -0.018076729168719351 0 0.073488731431834819 -0.017846882737688217 0 0.073488731431834819 -0.017846882737688217 0 0.076237396537977106 -0.020610234622577762 0 0.0741451680345461 -0.021024786882360463 0 0.0741451680345461 -0.021024786882360463 0 0.068531117270056091 -0.017984564936773747 0 0.067363805520353037 -0.023262879169488174 0 0.072348894800039865 -0.022219675276145798 0 0.071373897669306144 -0.022518347021451331 0 0.073488731431834819 -0.017846882737688217 0 0.0741451680345461 -0.021024786882360463 0 0.068531117270056091 -0.017984564936773747 0 0.068531117270056091 -0.017984564936773747 0 0.067363805520353037 -0.023262879169488174 0 0.063624072152125788 -0.02056619487816852 0 0.07542679696274901 -0.021418622302809612 0 0.075559962317558363 -0.021449682083883658 0 0.075330494694007225 -0.021604947722233619 0 0.0741451680345461 -0.021024786882360463 0 0.07542679696274901 -0.021418622302809612 0 0.075559962317558363 -0.021449682083883658 0 0.075933561274914449 -0.021521406007791913 0 0.0741451680345461 -0.021024786882360463 0 0.075559962317558363 -0.021449682083883658 0 0.075933561274914449 -0.021521406007791913 0 0.075559962317558363 -0.021449682083883658 0 0.076570055348251953 -0.022273907780092334 0 0.075559962317558363 -0.021449682083883658 0 0.075601850514687957 -0.021970082454286822 0 0.075330494694007225 -0.021604947722233619 0 0.075559962317558363 -0.021449682083883658 0 0.075601850514687957 -0.021970082454286822 0 0.076570055348251953 -0.022273907780092334 0 0.075213278171302841 -0.021952296071094925 0 0.074888365754470984 -0.021721116582496515 0 0.075330494694007225 -0.021604947722233619 0 0.075601850514687957 -0.021970082454286822 0 0.075213278171302841 -0.021952296071094925 0 0.075330494694007225 -0.021604947722233619 0 0.075601850514687957 -0.021970082454286822 0 0.075213278171302841 -0.021952296071094925 0 0.075390363035734514 -0.0223099110773834 0 0.075213278171302841 -0.021952296071094925 0 0.074845964913488744 -0.022168477475155397 0 0.074888365754470984 -0.021721116582496515 0 0.075213278171302841 -0.021952296071094925 0 0.074845964913488744 -0.022168477475155397 0 0.075390363035734514 -0.0223099110773834 0 0.082050563132708171 -0.02719549833918352 0 0.082687360335716983 -0.027848056372599243 0 0.082400097926675353 -0.027080075496796158 0 0.0787251875116739 -0.024747600569124402 0 0.079188394405572127 -0.025099588965539616 0 0.074845964913488744 -0.022168477475155397 0 0.074888365754470984 -0.021721116582496515 0 0.074504260616329074 -0.021679312803834762 0 0.070639295202223062 -0.022925676950161619 0 0.075409828985588345 -0.022663455658595122 0 0.074888365754470984 -0.021721116582496515 0 0.075020881621369676 -0.021366839306786047 0 0.074504260616329074 -0.021679312803834762 0 0.075020881621369676 -0.021366839306786047 0 0.074416634172457405 -0.021437252732402972 0 0.074504260616329074 -0.021679312803834762 0 0.07542679696274901 -0.021418622302809612 0 0.075020881621369676 -0.021366839306786047 0 0.075330494694007225 -0.021604947722233619 0 0.074888365754470984 -0.021721116582496515 0 0.075020881621369676 -0.021366839306786047 0 0.075330494694007225 -0.021604947722233619 0 0.071373897669306144 -0.022518347021451331 0 0.070639295202223062 -0.022925676950161619 0 0.067363805520353037 -0.023262879169488174 0 0.061553640243983535 -0.02431493935022774 0 0.063624072152125788 -0.02056619487816852 0 0.063624072152125788 -0.02056619487816852 0 0.062965305915067687 -0.017065271234104472 0 0.060199530152674471 -0.018683029255913516 0 0.068531117270056091 -0.017984564936773747 0 0.063624072152125788 -0.02056619487816852 0 0.062965305915067687 -0.017065271234104472 0 0.063624072152125788 -0.02056619487816852 0 0.060199530152674471 -0.018683029255913516 0 0.059425289906069309 -0.021329852450287227 0 0.057540155865055023 -0.016688907558315442 0 0.060199530152674471 -0.018683029255913516 0 0.058017368504276579 -0.019436345504501455 0 0.060199530152674471 -0.018683029255913516 0 0.058017368504276579 -0.019436345504501455 0 0.059425289906069309 -0.021329852450287227 0 0.061553640243983535 -0.02431493935022774 0 0.057203122167964915 -0.02287007750590201 0 0.056188345177314955 -0.025115778047931293 0 0.061553640243983535 -0.02431493935022774 0 0.063624072152125788 -0.02056619487816852 0 0.059425289906069309 -0.021329852450287227 0 0.058017368504276579 -0.019436345504501455 0 0.059425289906069309 -0.021329852450287227 0 0.05663940399472063 -0.020784638392944293 0 0.061553640243983535 -0.02431493935022774 0 0.059425289906069309 -0.021329852450287227 0 0.057203122167964915 -0.02287007750590201 0 0.057203122167964915 -0.02287007750590201 0 0.05493552215579401 -0.02172791812588392 0 0.056188345177314955 -0.025115778047931293 0 0.09060268661931567 -0.025522015286181615 0 0.090505261214878494 -0.026775251645432242 0 0.091035090093358154 -0.026682663179117067 0 0.072180475059255345 -0.022782288741136913 0 0.075409828985588345 -0.022663455658595122 0 0.055100739873720939 -0.021599667977226327 0 0.05663940399472063 -0.020784638392944293 0 0.054175155447138502 -0.018805749472861205 0 0.072180475059255345 -0.022782288741136913 0 0.070884936443932414 -0.023207605441006054 0 0.057203122167964915 -0.02287007750590201 0 0.05493552215579401 -0.02172791812588392 0 0.05663940399472063 -0.020784638392944293 0 0.059425289906069309 -0.021329852450287227 0 0.057203122167964915 -0.02287007750590201 0 0.05663940399472063 -0.020784638392944293 0 0.053751843997997657 -0.015212040026125801 0 0.056143041824489405 -0.018290755998503515 0 0.054175155447138502 -0.018805749472861205 0 0.058017368504276579 -0.019436345504501455 0 0.05663940399472063 -0.020784638392944293 0 0.056143041824489405 -0.018290755998503515 0 0.072180475059255345 -0.022782288741136913 0 0.070501326543335713 -0.021171196402511184 0 0.05663940399472063 -0.020784638392944293 0 0.056143041824489405 -0.018290755998503515 0 0.054175155447138502 -0.018805749472861205 0 0.057540155865055023 -0.016688907558315442 0 0.058017368504276579 -0.019436345504501455 0 0.056143041824489405 -0.018290755998503515 0 0.050810719748020754 -0.018878343687390668 0 0.052362947370168958 -0.017147620810079429 0 0.052651744857003191 -0.020163411685575304 0 0.052362947370168958 -0.017147620810079429 0 0.054175155447138502 -0.018805749472861205 0 0.052651744857003191 -0.020163411685575304 0 0.053751843997997657 -0.015212040026125801 0 0.052362947370168958 -0.017147620810079429 0 0.054175155447138502 -0.018805749472861205 0 0.05092670137774663 -0.023138600363031895 0 0.054996548659858223 -0.020910757063538361 0 0.052651744857003191 -0.020163411685575304 0 0.088723854770800553 -0.026535587628788569 0 0.09060268661931567 -0.025522015286181615 0 0.08988482924998499 -0.02665969532489075 0 0.067643945633990538 -0.019864768004479567 0 0.072180475059255345 -0.022782288741136913 0 0.054996548659858223 -0.020910757063538361 0 0.054175155447138502 -0.018805749472861205 0 0.052651744857003191 -0.020163411685575304 0 0.09060268661931567 -0.025522015286181615 0 0.08988482924998499 -0.02665969532489075 0 0.090505261214878494 -0.026775251645432242 0 0.088723854770800553 -0.026535587628788569 0 0.089902880339808713 -0.027474081882915641 0 0.08988482924998499 -0.02665969532489075 0 0.088723854770800553 -0.026535587628788569 0 0.089902880339808713 -0.027474081882915641 0 0.089481902486630932 -0.028014296983741502 0 0.089902880339808713 -0.027474081882915641 0 0.090259604466230506 -0.027167469656777396 0 0.08988482924998499 -0.02665969532489075 0 0.090360870977631028 -0.027614853045287491 0 0.089902880339808713 -0.027474081882915641 0 0.090259604466230506 -0.027167469656777396 0 0.090259604466230506 -0.027167469656777396 0 0.08988482924998499 -0.02665969532489075 0 0.090505261214878494 -0.026775251645432242 0 0.076457741438066606 -0.022617154764470737 0 0.075409828985588345 -0.022663455658595122 0 0.090505261214878494 -0.026775251645432242 0 0.091090634041607013 -0.026678959252590857 0 0.090861907208434456 -0.027005350743829617 0 0.091090634041607013 -0.026678959252590857 0 0.091181780188619665 -0.027243946439416286 0 0.090861907208434456 -0.027005350743829617 0 0.091090634041607013 -0.026678959252590857 0 0.091181780188619665 -0.027243946439416286 0 0.091388942739098269 -0.027470089130637577 0 0.075409828985588345 -0.022663455658595122 0 0.079188394405572127 -0.025099588965539616 0 0.091181780188619665 -0.027243946439416286 0 0.091414212419730093 -0.027477131394620196 0 0.091031228318533997 -0.027582025696134087 0 0.079360976104016587 -0.025227235644092363 0 0.079188394405572127 -0.025099588965539616 0 0.090259604466230506 -0.027167469656777396 0 0.090505261214878494 -0.026775251645432242 0 0.090652023295455131 -0.027321668999523409 0 0.090505261214878494 -0.026775251645432242 0 0.090861907208434456 -0.027005350743829617 0 0.090652023295455131 -0.027321668999523409 0 0.091181780188619665 -0.027243946439416286 0 0.090861907208434456 -0.027005350743829617 0 0.090652023295455131 -0.027321668999523409 0 0.091031228318533997 -0.027582025696134087 0 0.090652023295455131 -0.027321668999523409 0 0.090762230298471372 -0.027869769005195246 0 0.091181780188619665 -0.027243946439416286 0 0.091031228318533997 -0.027582025696134087 0 0.090652023295455131 -0.027321668999523409 0 0.090360870977631028 -0.027614853045287491 0 0.090259604466230506 -0.027167469656777396 0 0.090652023295455131 -0.027321668999523409 0 0.090360870977631028 -0.027614853045287491 0 0.090652023295455131 -0.027321668999523409 0 0.090762230298471372 -0.027869769005195246 0 0.090762230298471372 -0.027869769005195246 0 0.090962675868494061 -0.028381050983163399 0 0.090289293400582143 -0.028286086544684317 0 0.091414212419730093 -0.027477131394620196 0 0.091459108250986895 -0.028445698241618789 0 0.092047386546764184 -0.029206639829985975 0 0.079188394405572127 -0.025099588965539616 0 0.084250067655359154 -0.028322020295691964 0 0.090360870977631028 -0.027614853045287491 0 0.090762230298471372 -0.027869769005195246 0 0.090289293400582143 -0.028286086544684317 0 0.091031228318533997 -0.027582025696134087 0 0.090762230298471372 -0.027869769005195246 0 0.091132279283304141 -0.027955982701773179 0 0.090762230298471372 -0.027869769005195246 0 0.091132279283304141 -0.027955982701773179 0 0.090962675868494061 -0.028381050983163399 0 0.091414212419730093 -0.027477131394620196 0 0.091132279283304141 -0.027955982701773179 0 0.091459108250986895 -0.028445698241618789 0 0.091414212419730093 -0.027477131394620196 0 0.091031228318533997 -0.027582025696134087 0 0.091132279283304141 -0.027955982701773179 0 0.091132279283304141 -0.027955982701773179 0 0.091459108250986895 -0.028445698241618789 0 0.090962675868494061 -0.028381050983163399 0 0.091459108250986895 -0.028445698241618789 0 0.091556701129242732 -0.028953431889728196 0 0.092047386546764184 -0.029206639829985975 0 0.091459108250986895 -0.028445698241618789 0 0.091251256754958224 -0.028825746363855015 0 0.090962675868494061 -0.028381050983163399 0 0.091459108250986895 -0.028445698241618789 0 0.091251256754958224 -0.028825746363855015 0 0.091556701129242732 -0.028953431889728196 0 0.09082065420938934 -0.028963261030522117 0 0.090301889154540668 -0.028948236537393642 0 0.090289293400582143 -0.028286086544684317 0 0.090962675868494061 -0.028381050983163399 0 0.09082065420938934 -0.028963261030522117 0 0.090289293400582143 -0.028286086544684317 0 0.091251256754958224 -0.028825746363855015 0 0.090962675868494061 -0.028381050983163399 0 0.09082065420938934 -0.028963261030522117 0 0.089481902486630932 -0.028014296983741502 0 0.090289293400582143 -0.028286086544684317 0 0.089724473453605236 -0.028961966528433893 0 0.090301889154540668 -0.028948236537393642 0 0.090289293400582143 -0.028286086544684317 0 0.089724473453605236 -0.028961966528433893 0 0.088803606477895106 -0.028568000694858143 0 0.089481902486630932 -0.028014296983741502 0 0.089724473453605236 -0.028961966528433893 0 0.090360870977631028 -0.027614853045287491 0 0.089902880339808713 -0.027474081882915641 0 0.090289293400582143 -0.028286086544684317 0 0.089902880339808713 -0.027474081882915641 0 0.089481902486630932 -0.028014296983741502 0 0.090289293400582143 -0.028286086544684317 0 0.089944055753274049 -0.029782836957889258 0 0.090375999194536816 -0.029456282048833392 0 0.090512111197330269 -0.02999755679962551 0 0.089944055753274049 -0.029782836957889258 0 0.090512111197330269 -0.02999755679962551 0 0.090233742901251121 -0.030430212513921907 0 0.089944055753274049 -0.029782836957889258 0 0.089619152027879997 -0.03022179931081441 0 0.090233742901251121 -0.030430212513921907 0 0.089167841373875095 -0.029537859647999425 0 0.08920533172798184 -0.030760805841141242 0 0.089619152027879997 -0.03022179931081441 0 0.089167841373875095 -0.029537859647999425 0 0.089944055753274049 -0.029782836957889258 0 0.089619152027879997 -0.03022179931081441 0 0.089167841373875095 -0.029537859647999425 0 0.089944055753274049 -0.029782836957889258 0 0.089724473453605236 -0.028961966528433893 0 0.088803606477895106 -0.028568000694858143 0 0.089167841373875095 -0.029537859647999425 0 0.089724473453605236 -0.028961966528433893 0 0.089944055753274049 -0.029782836957889258 0 0.089724473453605236 -0.028961966528433893 0 0.090375999194536816 -0.029456282048833392 0 0.090301889154540668 -0.028948236537393642 0 0.089724473453605236 -0.028961966528433893 0 0.090375999194536816 -0.029456282048833392 0 0.09082065420938934 -0.028963261030522117 0 0.090301889154540668 -0.028948236537393642 0 0.090375999194536816 -0.029456282048833392 0 0.09082065420938934 -0.028963261030522117 0 0.090375999194536816 -0.029456282048833392 0 0.090858162146540161 -0.029674348595526683 0 0.09082065420938934 -0.028963261030522117 0 0.091461126151470687 -0.029393642208221153 0 0.090858162146540161 -0.029674348595526683 0 0.091556701129242732 -0.028953431889728196 0 0.091461126151470687 -0.029393642208221153 0 0.092047386546764184 -0.029206639829985975 0 0.091251256754958224 -0.028825746363855015 0 0.09082065420938934 -0.028963261030522117 0 0.091461126151470687 -0.029393642208221153 0 0.091251256754958224 -0.028825746363855015 0 0.091556701129242732 -0.028953431889728196 0 0.091461126151470687 -0.029393642208221153 0 0.090858162146540161 -0.029674348595526683 0 0.090512111197330269 -0.02999755679962551 0 0.091094946792520545 -0.030448065017937172 0 0.091461126151470687 -0.029393642208221153 0 0.090858162146540161 -0.029674348595526683 0 0.091094946792520545 -0.030448065017937172 0 0.090375999194536816 -0.029456282048833392 0 0.090858162146540161 -0.029674348595526683 0 0.090512111197330269 -0.02999755679962551 0 0.091094946792520545 -0.030448065017937172 0 0.091791374605253981 -0.031086010280218443 0 0.090534929091429225 -0.03133896452356514 0 0.090512111197330269 -0.02999755679962551 0 0.091094946792520545 -0.030448065017937172 0 0.090233742901251121 -0.030430212513921907 0 0.091461126151470687 -0.029393642208221153 0 0.091094946792520545 -0.030448065017937172 0 0.091791374605253981 -0.031086010280218443 0 0.091094946792520545 -0.030448065017937172 0 0.090534929091429225 -0.03133896452356514 0 0.090233742901251121 -0.030430212513921907 0 0.091791374605253981 -0.031086010280218443 0 0.090534929091429225 -0.03133896452356514 0 0.091851610394488692 -0.031676605233400573 0 0.090534929091429225 -0.03133896452356514 0 0.089899924368870204 -0.03069008588188895 0 0.090233742901251121 -0.030430212513921907 0 0.089619152027879997 -0.03022179931081441 0 0.089899924368870204 -0.03069008588188895 0 0.090233742901251121 -0.030430212513921907 0 0.08920533172798184 -0.030760805841141242 0 0.089619152027879997 -0.03022179931081441 0 0.089899924368870204 -0.03069008588188895 0 0.089369455081572 -0.023163997426923908 0 0.091302137701676084 -0.025968747826954089 0 0.09084572194614321 -0.031390572448882686 0 0.090841168745594142 -0.031059163753945261 0 0.091413417587472026 -0.031382541235129388 0 0.08920533172798184 -0.030760805841141242 0 0.090534929091429225 -0.03133896452356514 0 0.089899924368870204 -0.03069008588188895 0 0.091678513732879552 -0.02038618470293594 0 0.096558413841268786 -0.027510761009921451 0 0.10962929876750635 -0.039904126623890021 0 0.10662960945287968 -0.034975417677361051 0 0.1013293114279108 -0.035733342539268458 0 0.09084572194614321 -0.031390572448882686 0 0.091413417587472026 -0.031382541235129388 0 0.091699356066102522 -0.031851937108140764 0 0.10962929876750635 -0.039904126623890021 0 0.10968863782475216 -0.030120087936057433 0 0.10662960945287968 -0.034975417677361051 0 0.10662960945287968 -0.034975417677361051 0 0.1034621189727955 -0.031678219479805952 0 0.1013293114279108 -0.035733342539268458 0 0.10968863782475216 -0.030120087936057433 0 0.10662960945287968 -0.034975417677361051 0 0.1034621189727955 -0.031678219479805952 0 0.10968863782475216 -0.030120087936057433 0 0.1034621189727955 -0.031678219479805952 0 0.10068378495958477 -0.026925320091497593 0 0.098675922034667116 -0.030481679885560137 0 0.096111230935571973 -0.027378301925633924 0 0.10068378495958477 -0.026925320091497593 0 0.098675922034667116 -0.030481679885560137 0 0.1034621189727955 -0.031678219479805952 0 0.10068378495958477 -0.026925320091497593 0 0.098675922034667116 -0.030481679885560137 0 0.1034621189727955 -0.031678219479805952 0 0.1013293114279108 -0.035733342539268458 0 0.091699356066102522 -0.031851937108140764 0 0.091851610394488692 -0.031676605233400573 0 0.092200609972752784 -0.031628608450935618 0 0.091302137701676084 -0.025968747826954089 0 0.091873426674438929 -0.026818572990126757 0 0.091413417587472026 -0.031382541235129388 0 0.091699356066102522 -0.031851937108140764 0 0.091851610394488692 -0.031676605233400573 0 0.091791374605253981 -0.031086010280218443 0 0.091851610394488692 -0.031676605233400573 0 0.092125101416628191 -0.031537601721868744 0 0.092125101416628191 -0.031537601721868744 0 0.0916727929364968 -0.032079737713019203 0 0.092460669505599821 -0.030996477393538675 0 0.091851610394488692 -0.031676605233400573 0 0.092125101416628191 -0.031537601721868744 0 0.092200609972752784 -0.031628608450935618 0 0.091699356066102522 -0.031851937108140764 0 0.092200609972752784 -0.031628608450935618 0 0.092691614819987084 -0.031122375188415645 0 0.089079341874677559 -0.032147024692978081 0 0.087711672736594248 -0.030414835483537184 0 0.092125101416628191 -0.031537601721868744 0 0.092200609972752784 -0.031628608450935618 0 0.0916727929364968 -0.032079737713019203 0 0.092200609972752784 -0.031628608450935618 0 0.092691614819987084 -0.031122375188415645 0 0.0916727929364968 -0.032079737713019203 0 0.096558413841268786 -0.027510761009921451 0 0.095790259177944759 -0.028367074714962141 0 0.098675922034667116 -0.030481679885560137 0 0.1013293114279108 -0.035733342539268458 0 0.092691614819987084 -0.031122375188415645 0 0.098675922034667116 -0.030481679885560137 0 0.092691614819987084 -0.031122375188415645 0 0.096111230935571973 -0.027378301925633924 0 0.089797900668961844 -0.029414637014356045 0 0.089724362131265847 -0.033222765251675661 0 0.085395638089037634 -0.028833062548054199 0 0.092691614819987084 -0.031122375188415645 0 0.089797900668961844 -0.029414637014356045 0 0.092150429263075886 -0.025237635165965503 0 0.089797900668961844 -0.029414637014356045 0 0.089724362131265847 -0.033222765251675661 0 0.0916727929364968 -0.032079737713019203 0 0.092691614819987084 -0.031122375188415645 0 0.089797900668961844 -0.029414637014356045 0 0.0916727929364968 -0.032079737713019203 0 0.085772573314053163 -0.028840451544864726 0 0.087711672736594248 -0.030414835483537184 0 0.089724362131265847 -0.033222765251675661 0 0.0916727929364968 -0.032079737713019203 0 0.093911962548646921 -0.038204204606157428 0 0.081421777943020732 -0.025384769569186515 0 0.081346827281350217 -0.026486143847341246 0 0.082107757431223671 -0.026241931573698089 0 0.091461126151470687 -0.029393642208221153 0 0.091791374605253981 -0.031086010280218443 0 0.092460669505599821 -0.030996477393538675 0 0.091791374605253981 -0.031086010280218443 0 0.092125101416628191 -0.031537601721868744 0 0.092460669505599821 -0.030996477393538675 0 0.088968850241330485 -0.030901504428191853 0 0.087711672736594248 -0.030414835483537184 0 0.091461126151470687 -0.029393642208221153 0 0.092591996581150082 -0.030778076581650257 0 0.092047386546764184 -0.029206639829985975 0 0.082050563132708171 -0.02719549833918352 0 0.082107757431223671 -0.026241931573698089 0 0.082400097926675353 -0.027080075496796158 0 0.087711672736594248 -0.030414835483537184 0 0.084250067655359154 -0.028322020295691964 0 0.074845964913488744 -0.022168477475155397 0 0.075459089488392903 -0.02304615781997672 0 0.075390363035734514 -0.0223099110773834 0 0.0787251875116739 -0.024747600569124402 0 0.07863052997518627 -0.02467682399934306 0 0.082050563132708171 -0.02719549833918352 0 0.081346827281350217 -0.026486143847341246 0 0.082107757431223671 -0.026241931573698089 0 0.075459089488392903 -0.02304615781997672 0 0.075390363035734514 -0.0223099110773834 0 0.075849921409592971 -0.022551669003395378 0 0.075601850514687957 -0.021970082454286822 0 0.075849921409592971 -0.022551669003395378 0 0.076570055348251953 -0.022273907780092334 0 0.075459089488392903 -0.02304615781997672 0 0.075849921409592971 -0.022551669003395378 0 0.07659308642485059 -0.022873681506442773 0 0.075849921409592971 -0.022551669003395378 0 0.076570055348251953 -0.022273907780092334 0 0.07659308642485059 -0.022873681506442773 0 0.075601850514687957 -0.021970082454286822 0 0.075390363035734514 -0.0223099110773834 0 0.075849921409592971 -0.022551669003395378 0 0.076570055348251953 -0.022273907780092334 0 0.07659308642485059 -0.022873681506442773 0 0.077838084389693057 -0.023291181310175272 0 0.077838084389693057 -0.023291181310175272 0 0.076997765009303762 -0.024137139745323159 0 0.079054318742430227 -0.02421683089020087 0 0.07659308642485059 -0.022873681506442773 0 0.077838084389693057 -0.023291181310175272 0 0.076997765009303762 -0.024137139745323159 0 0.081421777943020732 -0.025384769569186515 0 0.081346827281350217 -0.026486143847341246 0 0.080588407865034239 -0.025722944737192097 0 0.075459089488392903 -0.02304615781997672 0 0.07659308642485059 -0.022873681506442773 0 0.076997765009303762 -0.024137139745323159 0 0.07863052997518627 -0.02467682399934306 0 0.078721910523997796 -0.024677432399377235 0 0.081421777943020732 -0.025384769569186515 0 0.080629659265015391 -0.025095988142820911 0 0.080588407865034239 -0.025722944737192097 0 0.085772573314053163 -0.028840451544864726 0 0.08371162141451885 -0.026727282176388454 0 0.081421777943020732 -0.025384769569186515 0 0.080629659265015391 -0.025095988142820911 0 0.080709045723381681 -0.024491118499426805 0 0.080709045723381681 -0.024491118499426805 0 0.079699155294769286 -0.024772045988572945 0 0.080544914645208507 -0.024472034707344107 0 0.080629659265015391 -0.025095988142820911 0 0.080709045723381681 -0.024491118499426805 0 0.079699155294769286 -0.024772045988572945 0 0.076997765009303762 -0.024137139745323159 0 0.079699155294769286 -0.024772045988572945 0 0.079054318742430227 -0.02421683089020087 0 0.078721910523997796 -0.024677432399377235 0 0.078836533304606937 -0.024688890670953201 0 0.080629659265015391 -0.025095988142820911 0 0.080588407865034239 -0.025722944737192097 0 0.079699155294769286 -0.024772045988572945 0 0.079054318742430227 -0.02421683089020087 0 0.080081003220585881 -0.024611325965886395 0 0.079881594485230994 -0.024310986080656054 0 0.079699155294769286 -0.024772045988572945 0 0.080081003220585881 -0.024611325965886395 0 0.080544914645208507 -0.024472034707344107 0 0.079699155294769286 -0.024772045988572945 0 0.079054318742430227 -0.02421683089020087 0 0.080081003220585881 -0.024611325965886395 0 0.080729507108513759 -0.024738910914382004 0 0.080081003220585881 -0.024611325965886395 0 0.079881594485230994 -0.024310986080656054 0 0.079054318742430227 -0.02421683089020087 0 0.079881594485230994 -0.024310986080656054 0 0.078924498162021656 -0.023625724553891805 0 0.079745087043239932 -0.023703607051853509 0 0.078924498162021656 -0.023625724553891805 0 0.07881840525941973 -0.022999338649406193 0 0.079745087043239932 -0.023703607051853509 0 0.079881594485230994 -0.024310986080656054 0 0.078924498162021656 -0.023625724553891805 0 0.077838084389693057 -0.023291181310175272 0 0.078924498162021656 -0.023625724553891805 0 0.077931594863557177 -0.022890973742952594 0 0.077838084389693057 -0.023291181310175272 0 0.079054318742430227 -0.02421683089020087 0 0.078924498162021656 -0.023625724553891805 0 0.07740459452775808 -0.02225246400880726 0 0.076570055348251953 -0.022273907780092334 0 0.077931594863557177 -0.022890973742952594 0 0.076570055348251953 -0.022273907780092334 0 0.077838084389693057 -0.023291181310175272 0 0.077931594863557177 -0.022890973742952594 0 0.078408867214082467 -0.022230810380611907 0 0.07740459452775808 -0.02225246400880726 0 0.07881840525941973 -0.022999338649406193 0 0.07740459452775808 -0.02225246400880726 0 0.077931594863557177 -0.022890973742952594 0 0.07881840525941973 -0.022999338649406193 0 0.079594878192115429 -0.022892171973598278 0 0.078408867214082467 -0.022230810380611907 0 0.07881840525941973 -0.022999338649406193 0 0.078924498162021656 -0.023625724553891805 0 0.077931594863557177 -0.022890973742952594 0 0.07881840525941973 -0.022999338649406193 0 0.088441232781707957 -0.010981796408243311 0 0.094308884565718176 -0.015410760715912998 0 0.087146680150185021 -0.017866184054488518 0 0.088441232781707957 -0.010981796408243311 0 0.094308884565718176 -0.015410760715912998 0 0.095824497203109038 -0.010115869053244101 0 0.094308884565718176 -0.015410760715912998 0 0.1017729141351041 -0.01840556768798934 0 0.098821143309901466 -0.013193931450332715 0 0.094308884565718176 -0.015410760715912998 0 0.098821143309901466 -0.013193931450332715 0 0.095824497203109038 -0.010115869053244101 0 0.098821143309901466 -0.013193931450332715 0 0.099568963165651586 -0.0099884254768402986 0 0.095824497203109038 -0.010115869053244101 0 0.087939461189413717 -0.019907396202068786 0 0.091977522370582585 -0.01707755663602227 0 0.094308884565718176 -0.015410760715912998 0 0.09358431774574294 -0.021792967022362393 0 0.1017729141351041 -0.01840556768798934 0 0.08223119143986321 -0.023998403886819175 0 0.087146680150185021 -0.017866184054488518 0 0.09358431774574294 -0.021792967022362393 0 0.094308884565718176 -0.015410760715912998 0 0.087146680150185021 -0.017866184054488518 0 0.09358431774574294 -0.021792967022362393 0 0.08223119143986321 -0.023998403886819175 0 0.080680177499982866 -0.02416174859847239 0 0.080544100853690848 -0.023183066224248136 0 0.085831418733873177 -0.021071313964094243 0 0.087939461189413717 -0.019907396202068786 0 0.080729507108513759 -0.024738910914382004 0 0.080081003220585881 -0.024611325965886395 0 0.080680177499982866 -0.02416174859847239 0 0.080729507108513759 -0.024738910914382004 0 0.08223119143986321 -0.023998403886819175 0 0.080680177499982866 -0.02416174859847239 0 0.080081003220585881 -0.024611325965886395 0 0.080680177499982866 -0.02416174859847239 0 0.080544914645208507 -0.024472034707344107 0 0.080680177499982866 -0.02416174859847239 0 0.080544914645208507 -0.024472034707344107 0 0.081487834717634974 -0.024216669912843731 0 0.080680177499982866 -0.02416174859847239 0 0.080544100853690848 -0.023183066224248136 0 0.081487834717634974 -0.024216669912843731 0 0.081487834717634974 -0.024216669912843731 0 0.085820691414158212 -0.021870648103596922 0 0.08296414127679283 -0.020376446341164391 0 0.080544100853690848 -0.023183066224248136 0 0.081487834717634974 -0.024216669912843731 0 0.08296414127679283 -0.020376446341164391 0 0.08371162141451885 -0.026727282176388454 0 0.082711240664065863 -0.025596953226385562 0 0.080709045723381681 -0.024491118499426805 0 0.080544914645208507 -0.024472034707344107 0 0.081487834717634974 -0.024216669912843731 0 0.089797900668961844 -0.029414637014356045 0 0.085395638089037634 -0.028833062548054199 0 0.08756881983504787 -0.025068080739438194 0 0.085395638089037634 -0.028833062548054199 0 0.081487834717634974 -0.024216669912843731 0 0.08756881983504787 -0.025068080739438194 0 0.08756881983504787 -0.025068080739438194 0 0.085820691414158212 -0.021870648103596922 0 0.089581724047355829 -0.021730523442348892 0 0.081487834717634974 -0.024216669912843731 0 0.08756881983504787 -0.025068080739438194 0 0.085820691414158212 -0.021870648103596922 0 0.091977522370582585 -0.01707755663602227 0 0.095947833644875039 -0.013035260814794666 0 0.085820691414158212 -0.021870648103596922 0 0.08296414127679283 -0.020376446341164391 0 0.087711294102988904 -0.018030760695598211 0 0.1017729141351041 -0.01840556768798934 0 0.098821143309901466 -0.013193931450332715 0 0.1026806206341668 -0.012542654271754944 0 0.098821143309901466 -0.013193931450332715 0 0.1026806206341668 -0.012542654271754944 0 0.099568963165651586 -0.0099884254768402986 0 0.095947833644875039 -0.013035260814794666 0 0.098726892194203761 -0.0092227744183514104 0 0.1017729141351041 -0.01840556768798934 0 0.1026806206341668 -0.012542654271754944 0 0.10866799511616659 -0.015588392308590118 0 0.1026806206341668 -0.012542654271754944 0 0.10866799511616659 -0.015588392308590118 0 0.10544527494225556 -0.0083919931693473126 0 0.10191222648947539 -0.0052717529307390633 0 0.10208456627802427 -0.0046382131056851711 0 0.1018516136034724 -0.0044833465908622298 0 0.095947833644875039 -0.013035260814794666 0 0.0987146084296463 -0.010297987483994069 0 0.10191222648947539 -0.0052717529307390633 0 0.1025223836701319 -0.0052089243538566187 0 0.10208456627802427 -0.0046382131056851711 0 0.1025223836701319 -0.0052089243538566187 0 0.1028261958217527 -0.0058332723998622948 0 0.1027474201800939 -0.0044921301954367427 0 0.0987146084296463 -0.010297987483994069 0 0.10022563272252548 -0.0092796139192942596 0 0.094498976946082031 -0.0079116077804920713 0 0.09528174080478094 -0.014193052964350385 0 0.1013841907442086 -0.011017705044198958 0 0.087028364580408524 -0.010481187444030829 0 0.094498976946082031 -0.0079116077804920713 0 0.09528174080478094 -0.014193052964350385 0 0.085820691414158212 -0.021870648103596922 0 0.087711294102988904 -0.018030760695598211 0 0.089581724047355829 -0.021730523442348892 0 0.095947833644875039 -0.013035260814794666 0 0.094698350393228672 -0.017308122676413296 0 0.087028364580408524 -0.010481187444030829 0 0.09528174080478094 -0.014193052964350385 0 0.089757197831612692 -0.017718297333299785 0 0.08756881983504787 -0.025068080739438194 0 0.089581724047355829 -0.021730523442348892 0 0.092150429263075886 -0.025237635165965503 0 0.094698350393228672 -0.017308122676413296 0 0.094786670821112431 -0.019702011354056942 0 0.089797900668961844 -0.029414637014356045 0 0.08756881983504787 -0.025068080739438194 0 0.092150429263075886 -0.025237635165965503 0 0.092691614819987084 -0.031122375188415645 0 0.092150429263075886 -0.025237635165965503 0 0.096111230935571973 -0.027378301925633924 0 0.092150429263075886 -0.025237635165965503 0 0.096111230935571973 -0.027378301925633924 0 0.097491686065265704 -0.021712439852810659 0 0.089757197831612692 -0.017718297333299785 0 0.092150429263075886 -0.025237635165965503 0 0.097491686065265704 -0.021712439852810659 0 0.09528174080478094 -0.014193052964350385 0 0.097491686065265704 -0.021712439852810659 0 0.10274507874335208 -0.016349497093530084 0 0.09528174080478094 -0.014193052964350385 0 0.089757197831612692 -0.017718297333299785 0 0.097491686065265704 -0.021712439852810659 0 0.097491686065265704 -0.021712439852810659 0 0.10388796472800271 -0.021693909621255385 0 0.10274507874335208 -0.016349497093530084 0 0.097491686065265704 -0.021712439852810659 0 0.10388796472800271 -0.021693909621255385 0 0.10068378495958477 -0.026925320091497593 0 0.096111230935571973 -0.027378301925633924 0 0.097491686065265704 -0.021712439852810659 0 0.10068378495958477 -0.026925320091497593 0 0.10968863782475216 -0.030120087936057433 0 0.10388796472800271 -0.021693909621255385 0 0.10068378495958477 -0.026925320091497593 0 0.10968863782475216 -0.030120087936057433 0 0.10388796472800271 -0.021693909621255385 0 0.10972484269869713 -0.020284025146987558 0 0.10388796472800271 -0.021693909621255385 0 0.10274507874335208 -0.016349497093530084 0 0.10972484269869713 -0.020284025146987558 0 0.10274507874335208 -0.016349497093530084 0 0.10972484269869713 -0.020284025146987558 0 0.10917026194858645 -0.010540032420951214 0 0.10274507874335208 -0.016349497093530084 0 0.1013841907442086 -0.011017705044198958 0 0.10917026194858645 -0.010540032420951214 0 0.09528174080478094 -0.014193052964350385 0 0.10274507874335208 -0.016349497093530084 0 0.1013841907442086 -0.011017705044198958 0 0.1013841907442086 -0.011017705044198958 0 0.1028261958217527 -0.0058332723998622948 0 0.10917026194858645 -0.010540032420951214 0 0.094498976946082031 -0.0079116077804920713 0 0.1013841907442086 -0.011017705044198958 0 0.1028261958217527 -0.0058332723998622948 0 0.1028261958217527 -0.0058332723998622948 0 0.10917026194858645 -0.010540032420951214 0 0.10761774078273116 -0.0041347763665312946 0 0.1028261958217527 -0.0058332723998622948 0 0.10453471456038627 -0.0032137091061006564 0 0.10761774078273116 -0.0041347763665312946 0 0.1028261958217527 -0.0058332723998622948 0 0.10453471456038627 -0.0032137091061006564 0 0.1027474201800939 -0.0044921301954367427 0 0.10453471456038627 -0.0032137091061006564 0 0.1034076723590126 -0.0028139685929268773 0 0.1027474201800939 -0.0044921301954367427 0 0.10453471456038627 -0.0032137091061006564 0 0.10462740263289808 -0.0011604299588595802 0 0.1034076723590126 -0.0028139685929268773 0 0.10453471456038627 -0.0032137091061006564 0 0.10761774078273116 -0.0041347763665312946 0 0.10638965026980673 -0.0013161716248025952 0 0.1052865126118664 -0.00051269694808834339 0 0.10462740263289808 -0.0011604299588595802 0 0.10638965026980673 -0.0013161716248025952 0 0.10453471456038627 -0.0032137091061006564 0 0.10462740263289808 -0.0011604299588595802 0 0.10638965026980673 -0.0013161716248025952 0 0.1052865126118664 -0.00051269694808834339 0 0.10500089828251175 -5.1765038143273572e-07 0 0.10500123605623912 2.0853156155212579e-08 0 0.1052865126118664 -0.00051269694808834339 0 0.10638965026980673 -0.0013161716248025952 0 0.10500123605623912 2.0853156155212579e-08 0 0.10500089828251175 -5.1765038143273572e-07 0 0.10462740263289808 -0.0011604299588595802 0 0.10499580420815653 4.9838442221404765e-07 0 0.1052865126118664 -0.00051269694808834339 0 0.10500089828251175 -5.1765038143273572e-07 0 0.10462740263289808 -0.0011604299588595802 0 0.10462740263289808 -0.0011604299588595802 0 0.10333772376080522 -0.001654921947537775 0 0.1034076723590126 -0.0028139685929268773 0 0.10333772376080522 -0.001654921947537775 0 0.10499580420815653 4.9838442221404765e-07 0 0.10230851549303553 -0.00072100864137690209 0 0.10499874639751496 -1.0048079037262766e-06 0 0.1040393755155055 -0.00073478036204953454 0 0.10462740263289808 -0.0011604299588595802 0 0.10333772376080522 -0.001654921947537775 0 0.10499580420815653 4.9838442221404765e-07 0 0.10499999929500101 1.5460391204429891e-09 0 0.1049999977541011 -1.8919506214368509e-09 0 0.10499911921791064 -8.7562825364123552e-07 0 0.1049999977541011 -1.8919506214368509e-09 0 0.10499911921791064 -8.7562825364123552e-07 0 0.10499884063232792 -1.2128915990447485e-06 0 0.10333772376080522 -0.001654921947537775 0 0.10230851549303553 -0.00072100864137690209 0 0.10184889468947243 -0.0020840155202469638 0 0.10333772376080522 -0.001654921947537775 0 0.10184889468947243 -0.0020840155202469638 0 0.10238382133924938 -0.0033702571831575137 0 0.10184889468947243 -0.0020840155202469638 0 0.10238382133924938 -0.0033702571831575137 0 0.10128878150232197 -0.0033137722208927997 0 0.10333772376080522 -0.001654921947537775 0 0.10238382133924938 -0.0033702571831575137 0 0.1034076723590126 -0.0028139685929268773 0 0.10238382133924938 -0.0033702571831575137 0 0.1034076723590126 -0.0028139685929268773 0 0.1027474201800939 -0.0044921301954367427 0 0.1025223836701319 -0.0052089243538566187 0 0.1027474201800939 -0.0044921301954367427 0 0.10208456627802427 -0.0046382131056851711 0 0.10238382133924938 -0.0033702571831575137 0 0.1027474201800939 -0.0044921301954367427 0 0.10208456627802427 -0.0046382131056851711 0 0.10238382133924938 -0.0033702571831575137 0 0.10208456627802427 -0.0046382131056851711 0 0.10128878150232197 -0.0033137722208927997 0 0.10308169865022705 -0.0029053253372280769 0 0.10312825939999169 -0.0024070755309099023 0 0.10208456627802427 -0.0046382131056851711 0 0.1018516136034724 -0.0044833465908622298 0 0.10229190105718303 -0.0038393587762508051 0 0.1026806206341668 -0.012542654271754944 0 0.10544527494225556 -0.0083919931693473126 0 0.10223775586092561 -0.0088926078599389346 0 0.1026806206341668 -0.012542654271754944 0 0.10223775586092561 -0.0088926078599389346 0 0.099568963165651586 -0.0099884254768402986 0 0.10223775586092561 -0.0088926078599389346 0 0.099568963165651586 -0.0099884254768402986 0 0.10060078259206737 -0.0071393707827071325 0 0.10060078259206737 -0.0071393707827071325 0 0.099662050965083307 -0.005310392451491148 0 0.098191855107369053 -0.0071566954559318862 0 0.099568963165651586 -0.0099884254768402986 0 0.10060078259206737 -0.0071393707827071325 0 0.098191855107369053 -0.0071566954559318862 0 0.10544527494225556 -0.0083919931693473126 0 0.10223775586092561 -0.0088926078599389346 0 0.10228744040107335 -0.0064524953786719618 0 0.10223775586092561 -0.0088926078599389346 0 0.10060078259206737 -0.0071393707827071325 0 0.10228744040107335 -0.0064524953786719618 0 0.10228744040107335 -0.0064524953786719618 0 0.10112194174925535 -0.0050600388441956832 0 0.10187121890541294 -0.0032951727580426905 0 0.10060078259206737 -0.0071393707827071325 0 0.10228744040107335 -0.0064524953786719618 0 0.10112194174925535 -0.0050600388441956832 0 0.10060078259206737 -0.0071393707827071325 0 0.10112194174925535 -0.0050600388441956832 0 0.099662050965083307 -0.005310392451491148 0 0.10112194174925535 -0.0050600388441956832 0 0.099662050965083307 -0.005310392451491148 0 0.1005553916644724 -0.0033428029664011854 0 0.10112194174925535 -0.0050600388441956832 0 0.1005553916644724 -0.0033428029664011854 0 0.10187121890541294 -0.0032951727580426905 0 0.1018516136034724 -0.0044833465908622298 0 0.10187121890541294 -0.0032951727580426905 0 0.10229190105718303 -0.0038393587762508051 0 0.10544527494225556 -0.0083919931693473126 0 0.10228744040107335 -0.0064524953786719618 0 0.10187121890541294 -0.0032951727580426905 0 0.10312825939999169 -0.0024070755309099023 0 0.10355208845391403 -0.0014048537410122968 0 0.098726892194203761 -0.0092227744183514104 0 0.09916537780542338 -0.0073612666939957038 0 0.10187121890541294 -0.0032951727580426905 0 0.10229190105718303 -0.0038393587762508051 0 0.1024040131704808 -0.0025454328747513671 0 0.10184889468947243 -0.0020840155202469638 0 0.10128878150232197 -0.0033137722208927997 0 0.10049848340073808 -0.0017691369440569905 0 0.10230851549303553 -0.00072100864137690209 0 0.10184889468947243 -0.0020840155202469638 0 0.10049848340073808 -0.0017691369440569905 0 0.1040393755155055 -0.00073478036204953454 0 0.10355208845391403 -0.0014048537410122968 0 0.10499708941177589 -3.3022808909192417e-06 0 0.10499884063232792 -1.2128915990447485e-06 0 0.10499999672326772 -4.6054599733841728e-10 0 0.10499911921791064 -8.7562825364123552e-07 0 0.10499708941177589 -3.3022808909192417e-06 0 0.10499884063232792 -1.2128915990447485e-06 0 0.1049999977541011 -1.8919506214368509e-09 0 0.10499884063232792 -1.2128915990447485e-06 0 0.10499999672326772 -4.6054599733841728e-10 0 0.10499826260147317 9.9622907915896057e-07 0 0.10457656219780184 -0.00036519938116733649 0 0.103273689725359 9.8689617565264975e-06 0 0.10355208845391403 -0.0014048537410122968 0 0.10499720397735052 -1.939248683322618e-06 0 0.10528016950911706 -0.00059358874656376538 0 0.10499826260147317 9.9622907915896057e-07 0 0.10457656219780184 -0.00036519938116733649 0 0.10446180561198364 -0.0018592657434624606 0 0.10528016950911706 -0.00059358874656376538 0 0.10457656219780184 -0.00036519938116733649 0 0.10218161943980346 -0.002331956888191124 0 0.10355208845391403 -0.0014048537410122968 0 0.1005553916644724 -0.0033428029664011854 0 0.10187121890541294 -0.0032951727580426905 0 0.1024040131704808 -0.0025454328747513671 0 0.10446180561198364 -0.0018592657434624606 0 0.10457656219780184 -0.00036519938116733649 0 0.103273689725359 9.8689617565264975e-06 0 0.10446180561198364 -0.0018592657434624606 0 0.103273689725359 9.8689617565264975e-06 0 0.10049177917999359 -0.0027069936738958011 0 0.103273689725359 9.8689617565264975e-06 0 0.10437849036997038 7.3290299063235207e-05 0 0.10441055361143532 0.00032129566105945634 0 0.10499826260147317 9.9622907915896057e-07 0 0.103273689725359 9.8689617565264975e-06 0 0.10439813725436023 -0.00012745917577178457 0 0.10499826260147317 9.9622907915896057e-07 0 0.10499890872642056 -6.4817426606118228e-07 0 0.10439813725436023 -0.00012745917577178457 0 0.10477669908301672 -6.5945443309354482e-05 0 0.10499890872642056 -6.4817426606118228e-07 0 0.10439813725436023 -0.00012745917577178457 0 0.10477669908301672 -6.5945443309354482e-05 0 0.10437849036997038 7.3290299063235207e-05 0 0.10458240923005699 0.00014572032150890498 0 0.10477669908301672 -6.5945443309354482e-05 0 0.10439813725436023 -0.00012745917577178457 0 0.10437849036997038 7.3290299063235207e-05 0 0.103273689725359 9.8689617565264975e-06 0 0.10439813725436023 -0.00012745917577178457 0 0.10437849036997038 7.3290299063235207e-05 0 0.10437849036997038 7.3290299063235207e-05 0 0.10458240923005699 0.00014572032150890498 0 0.10441055361143532 0.00032129566105945634 0 0.10458240923005699 0.00014572032150890498 0 0.10441055361143532 0.00032129566105945634 0 0.10457068368675518 0.00018554256564959194 0 0.103273689725359 9.8689617565264975e-06 0 0.094683454922541724 -0.0048147479388068798 0 0.10049177917999359 -0.0027069936738958011 0 0.099182638242192048 -0.0024976536331989957 0 0.098111024188119261 -0.0036634758570619347 0 0.10218161943980346 -0.002331956888191124 0 0.10123798552536002 -0.0029137120803504322 0 0.099662050965083307 -0.005310392451491148 0 0.1005553916644724 -0.0033428029664011854 0 0.097870983117917407 -0.0047691111296764748 0 0.10446180561198364 -0.0018592657434624606 0 0.10049177917999359 -0.0027069936738958011 0 0.097870983117917407 -0.0047691111296764748 0 0.099662050965083307 -0.005310392451491148 0 0.097870983117917407 -0.0047691111296764748 0 0.098191855107369053 -0.0071566954559318862 0 0.094683454922541724 -0.0048147479388068798 0 0.10049177917999359 -0.0027069936738958011 0 0.097870983117917407 -0.0047691111296764748 0 0.094683454922541724 -0.0048147479388068798 0 0.097870983117917407 -0.0047691111296764748 0 0.095101321436971559 -0.0075130713347914746 0 0.097870983117917407 -0.0047691111296764748 0 0.095101321436971559 -0.0075130713347914746 0 0.098191855107369053 -0.0071566954559318862 0 0.095101321436971559 -0.0075130713347914746 0 0.098191855107369053 -0.0071566954559318862 0 0.095824497203109038 -0.010115869053244101 0 0.099568963165651586 -0.0099884254768402986 0 0.098191855107369053 -0.0071566954559318862 0 0.095824497203109038 -0.010115869053244101 0 0.088441232781707957 -0.010981796408243311 0 0.095101321436971559 -0.0075130713347914746 0 0.095824497203109038 -0.010115869053244101 0 0.10464395393126613 8.7460722474578081e-05 0 0.10441055361143532 0.00032129566105945634 0 0.10457068368675518 0.00018554256564959194 0 0.088441232781707957 -0.010981796408243311 0 0.094683454922541724 -0.0048147479388068798 0 0.095101321436971559 -0.0075130713347914746 0 0.095988604801683863 -0.006017900085706733 0 0.098111024188119261 -0.0036634758570619347 0 0.10125208066281702 -0.0044278540553752089 0 0.10122958810714533 -0.006455927161782892 0 0.10009073008173978 -0.0019128222969485393 0 0.10125208066281702 -0.0044278540553752089 0 0.10231068020946257 -0.0061038466501860738 0 0.10085131167520668 -0.002194847166576351 0 0.10247158319197973 -0.0027902044479154063 0 0.10132377571014686 -0.00092206344876384118 0 0.1024243287166158 -0.00018534220252873062 0 0.10285013650200178 -0.00048300590430995759 0 0.10150262405094873 -6.1474193050315454e-05 0 0.10287849144618119 -0.00031228771375221728 0 0.1024243287166158 -0.00018534220252873062 0 0.10285013650200178 -0.00048300590430995759 0 0.10125208066281702 -0.0044278540553752089 0 0.10231068020946257 -0.0061038466501860738 0 0.10170380082151079 -0.0060405507771178913 0 0.1024243287166158 -0.00018534220252873062 0 0.10258779747903955 2.7035455833029428e-05 0 0.10209476653516288 4.0985364796891386e-05 0 0.10287849144618119 -0.00031228771375221728 0 0.1024243287166158 -0.00018534220252873062 0 0.10282318957780501 -0.00015340087418030463 0 0.1024243287166158 -0.00018534220252873062 0 0.10282318957780501 -0.00015340087418030463 0 0.10258779747903955 2.7035455833029428e-05 0 0.10282318957780501 -0.00015340087418030463 0 0.10258779747903955 2.7035455833029428e-05 0 0.10309683198641671 5.2495556969339943e-05 0 0.10282318957780501 -0.00015340087418030463 0 0.10320969330276278 -0.00027706195332016765 0 0.10309683198641671 5.2495556969339943e-05 0 0.10320969330276278 -0.00027706195332016765 0 0.10309683198641671 5.2495556969339943e-05 0 0.10352242420750933 -8.4063673775863578e-05 0 0.10320969330276278 -0.00027706195332016765 0 0.10352242420750933 -8.4063673775863578e-05 0 0.10372452413293239 -0.00030887523997593952 0 0.10287849144618119 -0.00031228771375221728 0 0.10282318957780501 -0.00015340087418030463 0 0.10320969330276278 -0.00027706195332016765 0 0.10287849144618119 -0.00031228771375221728 0 0.10320969330276278 -0.00027706195332016765 0 0.10307633961755502 -0.00038611849616632761 0 0.10307633961755502 -0.00038611849616632761 0 0.10337212063999347 -0.00044333077176145045 0 0.10285013650200178 -0.00048300590430995759 0 0.10320969330276278 -0.00027706195332016765 0 0.10307633961755502 -0.00038611849616632761 0 0.10337212063999347 -0.00044333077176145045 0 0.10337212063999347 -0.00044333077176145045 0 0.10285013650200178 -0.00048300590430995759 0 0.10366155016037129 -0.00052769234906664426 0 0.10320969330276278 -0.00027706195332016765 0 0.10337212063999347 -0.00044333077176145045 0 0.10372452413293239 -0.00030887523997593952 0 0.10337212063999347 -0.00044333077176145045 0 0.10372452413293239 -0.00030887523997593952 0 0.10380196545031321 -0.00043194528929566158 0 0.1018397758613373 -0.0067075207623231358 0 0.10131567097596664 -0.0080690919054870192 0 0.10391101725011639 -0.0098008086909136295 0 0.10231068020946257 -0.0061038466501860738 0 0.1018397758613373 -0.0067075207623231358 0 0.10391101725011639 -0.0098008086909136295 0 0.10247158319197973 -0.0027902044479154063 0 0.10348091044089626 -0.0042082571455101065 0 0.10287849144618119 -0.00031228771375221728 0 0.10307633961755502 -0.00038611849616632761 0 0.10285013650200178 -0.00048300590430995759 0 0.10125208066281702 -0.0044278540553752089 0 0.10170380082151079 -0.0060405507771178913 0 0.10122958810714533 -0.006455927161782892 0 0.10231068020946257 -0.0061038466501860738 0 0.10170380082151079 -0.0060405507771178913 0 0.1018397758613373 -0.0067075207623231358 0 0.099645971777268944 -0.0053123102575367859 0 0.09959052747961078 -0.0052879684972575907 0 0.10170380082151079 -0.0060405507771178913 0 0.1018397758613373 -0.0067075207623231358 0 0.10122958810714533 -0.006455927161782892 0 0.1018397758613373 -0.0067075207623231358 0 0.10119663374512657 -0.0065012212321185949 0 0.10091181666398487 -0.0070288028565703127 0 0.1018397758613373 -0.0067075207623231358 0 0.10091181666398487 -0.0070288028565703127 0 0.10131567097596664 -0.0080690919054870192 0 0.10091181666398487 -0.0070288028565703127 0 0.10131567097596664 -0.0080690919054870192 0 0.10027940263870169 -0.0075118303044303643 0 0.10119663374512657 -0.0065012212321185949 0 0.099644427487929593 -0.0068281914323129094 0 0.097267614516271791 -0.0051971627206258975 0 0.09959052747961078 -0.0052879684972575907 0 0.097148627668562915 -0.0049170964358108147 0 0.10131567097596664 -0.0080690919054870192 0 0.10027940263870169 -0.0075118303044303643 0 0.099879706034271765 -0.0082246142496389934 0 0.10091181666398487 -0.0070288028565703127 0 0.10027940263870169 -0.0075118303044303643 0 0.099644427487929593 -0.0068281914323129094 0 0.09965271201699491 -0.0074143677525564788 0 0.099879706034271765 -0.0082246142496389934 0 0.098692020346989789 -0.0072683801089510718 0 0.10027940263870169 -0.0075118303044303643 0 0.09965271201699491 -0.0074143677525564788 0 0.099644427487929593 -0.0068281914323129094 0 0.10027940263870169 -0.0075118303044303643 0 0.09965271201699491 -0.0074143677525564788 0 0.099879706034271765 -0.0082246142496389934 0 0.098692020346989789 -0.0072683801089510718 0 0.097832962397593287 -0.0077514176430546399 0 0.098400216250795855 -0.0085983278624639798 0 0.099879706034271765 -0.0082246142496389934 0 0.098692020346989789 -0.0072683801089510718 0 0.098400216250795855 -0.0085983278624639798 0 0.09965271201699491 -0.0074143677525564788 0 0.098692020346989789 -0.0072683801089510718 0 0.099644427487929593 -0.0068281914323129094 0 0.098692020346989789 -0.0072683801089510718 0 0.099644427487929593 -0.0068281914323129094 0 0.097267614516271791 -0.0051971627206258975 0 0.10119663374512657 -0.0065012212321185949 0 0.10091181666398487 -0.0070288028565703127 0 0.099644427487929593 -0.0068281914323129094 0 0.096822587066532212 -0.0080797107018008765 0 0.097240004975738037 -0.0069767007451674336 0 0.095425979301369521 -0.0064984165296964004 0 0.098692020346989789 -0.0072683801089510718 0 0.097832962397593287 -0.0077514176430546399 0 0.097240004975738037 -0.0069767007451674336 0 0.096822587066532212 -0.0080797107018008765 0 0.097832962397593287 -0.0077514176430546399 0 0.098400216250795855 -0.0085983278624639798 0 0.096822587066532212 -0.0080797107018008765 0 0.097832962397593287 -0.0077514176430546399 0 0.097240004975738037 -0.0069767007451674336 0 0.098692020346989789 -0.0072683801089510718 0 0.097240004975738037 -0.0069767007451674336 0 0.097267614516271791 -0.0051971627206258975 0 0.097240004975738037 -0.0069767007451674336 0 0.097267614516271791 -0.0051971627206258975 0 0.095425979301369521 -0.0064984165296964004 0 0.09713339769468754 -0.0056583374439070156 0 0.098427767854433162 -0.0044634722670636815 0 0.097584914729627728 -0.0029211727824101394 0 0.09713339769468754 -0.0056583374439070156 0 0.095590342507090559 -0.0034317569298104493 0 0.097584914729627728 -0.0029211727824101394 0 0.10076926369126424 -0.0070078697345996614 0 0.09713339769468754 -0.0056583374439070156 0 0.098427767854433162 -0.0044634722670636815 0 0.10076926369126424 -0.0070078697345996614 0 0.098427767854433162 -0.0044634722670636815 0 0.099403817027860053 -0.0030016967373936772 0 0.09959052747961078 -0.0052879684972575907 0 0.099231848965321487 -0.0024844692692495762 0 0.10125208066281702 -0.0044278540553752089 0 0.10009073008173978 -0.0019128222969485393 0 0.10085131167520668 -0.002194847166576351 0 0.10009073008173978 -0.0019128222969485393 0 0.10085131167520668 -0.002194847166576351 0 0.099437325677664348 0.0013248778580092441 0 0.10132377571014686 -0.00092206344876384118 0 0.1006627128903264 0.00021186996100738765 0 0.098427767854433162 -0.0044634722670636815 0 0.099403817027860053 -0.0030016967373936772 0 0.097584914729627728 -0.0029211727824101394 0 0.099403817027860053 -0.0030016967373936772 0 0.097584914729627728 -0.0029211727824101394 0 0.097750939450433866 -0.00095614883225063167 0 0.095590342507090559 -0.0034317569298104493 0 0.097584914729627728 -0.0029211727824101394 0 0.095743390587880103 -0.0019724995498136321 0 0.097584914729627728 -0.0029211727824101394 0 0.095743390587880103 -0.0019724995498136321 0 0.09677098702444524 -0.0013546357346711877 0 0.097584914729627728 -0.0029211727824101394 0 0.09677098702444524 -0.0013546357346711877 0 0.097750939450433866 -0.00095614883225063167 0 0.095743390587880103 -0.0019724995498136321 0 0.09586830474656037 -0.00054371599184477369 0 0.09677098702444524 -0.0013546357346711877 0 0.09586830474656037 -0.00054371599184477369 0 0.096904471785017487 -0.00037914063664823828 0 0.09677098702444524 -0.0013546357346711877 0 0.096904471785017487 -0.00037914063664823828 0 0.097750939450433866 -0.00095614883225063167 0 0.097227629111172706 0.00032970223905883774 0 0.096904471785017487 -0.00037914063664823828 0 0.09677098702444524 -0.0013546357346711877 0 0.097750939450433866 -0.00095614883225063167 0 0.098069139820951973 0.0010090001836028819 0 0.096662752819114961 0.0010251579367505227 0 0.097227629111172706 0.00032970223905883774 0 0.098069139820951973 0.0010090001836028819 0 0.097750939450433866 -0.00095614883225063167 0 0.097227629111172706 0.00032970223905883774 0 0.096662752819114961 0.0010251579367505227 0 0.097227629111172706 0.00032970223905883774 0 0.096461306848177136 0.00025805771240159682 0 0.096904471785017487 -0.00037914063664823828 0 0.097227629111172706 0.00032970223905883774 0 0.096461306848177136 0.00025805771240159682 0 0.09586830474656037 -0.00054371599184477369 0 0.096904471785017487 -0.00037914063664823828 0 0.096461306848177136 0.00025805771240159682 0 0.096662752819114961 0.0010251579367505227 0 0.096461306848177136 0.00025805771240159682 0 0.095659062960034638 0.00055039675927079444 0 0.09586830474656037 -0.00054371599184477369 0 0.096461306848177136 0.00025805771240159682 0 0.095659062960034638 0.00055039675927079444 0 0.098069139820951973 0.0010090001836028819 0 0.099403817027860053 -0.0030016967373936772 0 0.097750939450433866 -0.00095614883225063167 0 0.10150262405094873 -6.1474193050315454e-05 0 0.10084044607322912 0.00088084512443525377 0 0.099437325677664348 0.0013248778580092441 0 0.098906328911186198 0.0021438386255484211 0 0.10009073008173978 -0.0019128222969485393 0 0.099437325677664348 0.0013248778580092441 0 0.098247040921285847 0.0011426427446879477 0 0.099231848965321487 -0.0024844692692495762 0 0.099764439682922326 0.0021811853969072241 0 0.098906328911186198 0.0021438386255484211 0 0.099437325677664348 0.0013248778580092441 0 0.099764439682922326 0.0021811853969072241 0 0.099437325677664348 0.0013248778580092441 0 0.10051377646872221 0.0016654009314893317 0 0.10084044607322912 0.00088084512443525377 0 0.099437325677664348 0.0013248778580092441 0 0.10051377646872221 0.0016654009314893317 0 0.10150002723919722 0.0021274585157889329 0 0.10051377646872221 0.0016654009314893317 0 0.10142812198721696 0.0012044985475548357 0 0.10150002723919722 0.0021274585157889329 0 0.10222218140102517 0.0015276780498088679 0 0.10142812198721696 0.0012044985475548357 0 0.10266069019043479 0.0024929347489912007 0 0.10150002723919722 0.0021274585157889329 0 0.10222218140102517 0.0015276780498088679 0 0.10222218140102517 0.0015276780498088679 0 0.10232413384949078 0.0008141413602761738 0 0.10142812198721696 0.0012044985475548357 0 0.10232413384949078 0.0008141413602761738 0 0.10142812198721696 0.0012044985475548357 0 0.10149401535745235 0.00048208851219258612 0 0.10084044607322912 0.00088084512443525377 0 0.10142812198721696 0.0012044985475548357 0 0.10149401535745235 0.00048208851219258612 0 0.10084044607322912 0.00088084512443525377 0 0.10051377646872221 0.0016654009314893317 0 0.10142812198721696 0.0012044985475548357 0 0.10150262405094873 -6.1474193050315454e-05 0 0.10084044607322912 0.00088084512443525377 0 0.10149401535745235 0.00048208851219258612 0 0.10149401535745235 0.00048208851219258612 0 0.10222424052994715 0.00031519222075508679 0 0.10177665010309953 0.00017783804835216574 0 0.10232413384949078 0.0008141413602761738 0 0.10149401535745235 0.00048208851219258612 0 0.10222424052994715 0.00031519222075508679 0 0.10222424052994715 0.00031519222075508679 0 0.10258779747903955 2.7035455833029428e-05 0 0.10209476653516288 4.0985364796891386e-05 0 0.10222424052994715 0.00031519222075508679 0 0.10209476653516288 4.0985364796891386e-05 0 0.10177665010309953 0.00017783804835216574 0 0.10150262405094873 -6.1474193050315454e-05 0 0.10149401535745235 0.00048208851219258612 0 0.10177665010309953 0.00017783804835216574 0 0.1024243287166158 -0.00018534220252873062 0 0.10150262405094873 -6.1474193050315454e-05 0 0.10209476653516288 4.0985364796891386e-05 0 0.10150262405094873 -6.1474193050315454e-05 0 0.10209476653516288 4.0985364796891386e-05 0 0.10177665010309953 0.00017783804835216574 0 0.10309683198641671 5.2495556969339943e-05 0 0.10349167255432937 0.00043538551875059027 0 0.10352242420750933 -8.4063673775863578e-05 0 0.10309683198641671 5.2495556969339943e-05 0 0.10292683067188951 0.00049033902564301268 0 0.10349167255432937 0.00043538551875059027 0 0.10258779747903955 2.7035455833029428e-05 0 0.10309683198641671 5.2495556969339943e-05 0 0.10292683067188951 0.00049033902564301268 0 0.10222424052994715 0.00031519222075508679 0 0.10258779747903955 2.7035455833029428e-05 0 0.10292683067188951 0.00049033902564301268 0 0.10232413384949078 0.0008141413602761738 0 0.10222424052994715 0.00031519222075508679 0 0.10292683067188951 0.00049033902564301268 0 0.10292683067188951 0.00049033902564301268 0 0.10317666681444485 0.001133421835272913 0 0.10349167255432937 0.00043538551875059027 0 0.10338379997792148 0.0014916712781445113 0 0.10317666681444485 0.001133421835272913 0 0.10355799011150089 0.0010237690499728571 0 0.10232413384949078 0.0008141413602761738 0 0.10292683067188951 0.00049033902564301268 0 0.10317666681444485 0.001133421835272913 0 0.10222218140102517 0.0015276780498088679 0 0.10232413384949078 0.0008141413602761738 0 0.10317666681444485 0.001133421835272913 0 0.10266069019043479 0.0024929347489912007 0 0.10222218140102517 0.0015276780498088679 0 0.10317666681444485 0.001133421835272913 0 0.10381189070451116 0.0014270129488371669 0 0.10355799011150089 0.0010237690499728571 0 0.10404481847445171 0.00051785951605102165 0 0.10355799011150089 0.0010237690499728571 0 0.10404481847445171 0.00051785951605102165 0 0.10349167255432937 0.00043538551875059027 0 0.10317666681444485 0.001133421835272913 0 0.10355799011150089 0.0010237690499728571 0 0.10349167255432937 0.00043538551875059027 0 0.10404561327895294 0.00025179345806204358 0 0.10406009271678381 0.00022170187715023139 0 0.10404481847445171 0.00051785951605102165 0 0.092056288776729833 -0.0032036503423271455 0 0.093647492454028411 -0.0026036986461776255 0 0.10407199829079959 0.00023253966259070515 0 0.10415863056244509 0.00025285437202773382 0 0.10414747470469492 8.4098447617375789e-06 0 0.10404481847445171 0.00051785951605102165 0 0.10407199829079959 0.00023253966259070515 0 0.10383251903104906 8.2450643241139591e-05 0 0.10404481847445171 0.00051785951605102165 0 0.10407199829079959 0.00023253966259070515 0 0.10415863056244509 0.00025285437202773382 0 0.10404481847445171 0.00051785951605102165 0 0.10349167255432937 0.00043538551875059027 0 0.10383251903104906 8.2450643241139591e-05 0 0.10349167255432937 0.00043538551875059027 0 0.10352242420750933 -8.4063673775863578e-05 0 0.10383251903104906 8.2450643241139591e-05 0 0.10400238432567169 0.00017679459299124698 0 0.10409596769149916 0.00022437698835109607 0 0.10427381999144705 0.00018529370405994617 0 0.099694361664502212 -0.015157774066872303 0 0.10337707898778202 -0.010375160815820147 0 0.10409596769149916 0.00022437698835109607 0 0.10415863056244509 0.00025285437202773382 0 0.10427381999144705 0.00018529370405994617 0 0.10404561327895294 0.00025179345806204358 0 0.10404481847445171 0.00051785951605102165 0 0.10415863056244509 0.00025285437202773382 0 0.10404561327895294 0.00025179345806204358 0 0.10409596769149916 0.00022437698835109607 0 0.10415863056244509 0.00025285437202773382 0 0.10415863056244509 0.00025285437202773382 0 0.10427381999144705 0.00018529370405994617 0 0.10429895492033477 3.8154810921318377e-05 0 0.10448051135142832 -8.2984490161324429e-05 0 0.10429895492033477 3.8154810921318377e-05 0 0.10437913417934756 -0.00020999238344971861 0 0.10337707898778202 -0.010375160815820147 0 0.10490096983195626 -0.0062038494934125677 0 0.10427381999144705 0.00018529370405994617 0 0.10448051135142832 -8.2984490161324429e-05 0 0.10429895492033477 3.8154810921318377e-05 0 0.10415863056244509 0.00025285437202773382 0 0.10429895492033477 3.8154810921318377e-05 0 0.10414747470469492 8.4098447617375789e-06 0 0.10429895492033477 3.8154810921318377e-05 0 0.10437913417934756 -0.00020999238344971861 0 0.10414747470469492 8.4098447617375789e-06 0 0.10448051135142832 -8.2984490161324429e-05 0 0.10437913417934756 -0.00020999238344971861 0 0.10456666654003768 -0.00028675001923736702 0 0.10490096983195626 -0.0062038494934125677 0 0.10531688942474578 -0.0031899561992194008 0 0.10391330720389273 -0.00014240468180285918 0 0.10352242420750933 -8.4063673775863578e-05 0 0.10372452413293239 -0.00030887523997593952 0 0.10391330720389273 -0.00014240468180285918 0 0.10352242420750933 -8.4063673775863578e-05 0 0.10383251903104906 8.2450643241139591e-05 0 0.10391330720389273 -0.00014240468180285918 0 0.10383251903104906 8.2450643241139591e-05 0 0.10414747470469492 8.4098447617375789e-06 0 0.10407199829079959 0.00023253966259070515 0 0.10383251903104906 8.2450643241139591e-05 0 0.10414747470469492 8.4098447617375789e-06 0 0.10391330720389273 -0.00014240468180285918 0 0.10414747470469492 8.4098447617375789e-06 0 0.10412441431509259 -0.00024629208183772454 0 0.10437913417934756 -0.00020999238344971861 0 0.10414747470469492 8.4098447617375789e-06 0 0.10412441431509259 -0.00024629208183772454 0 0.10437913417934756 -0.00020999238344971861 0 0.10412441431509259 -0.00024629208183772454 0 0.10435723734905097 -0.00034676649389781195 0 0.10412441431509259 -0.00024629208183772454 0 0.10372452413293239 -0.00030887523997593952 0 0.10404487461213779 -0.00036494423181619978 0 0.10391330720389273 -0.00014240468180285918 0 0.10412441431509259 -0.00024629208183772454 0 0.10372452413293239 -0.00030887523997593952 0 0.10372452413293239 -0.00030887523997593952 0 0.10380196545031321 -0.00043194528929566158 0 0.10404487461213779 -0.00036494423181619978 0 0.10380196545031321 -0.00043194528929566158 0 0.10413529811419996 -0.00042467371055997027 0 0.10404487461213779 -0.00036494423181619978 0 0.10412441431509259 -0.00024629208183772454 0 0.10404487461213779 -0.00036494423181619978 0 0.10435723734905097 -0.00034676649389781195 0 0.10413529811419996 -0.00042467371055997027 0 0.10404487461213779 -0.00036494423181619978 0 0.10435723734905097 -0.00034676649389781195 0 0.10413529811419996 -0.00042467371055997027 0 0.10435723734905097 -0.00034676649389781195 0 0.10444175592104227 -0.00038789121669147885 0 0.10435723734905097 -0.00034676649389781195 0 0.10444175592104227 -0.00038789121669147885 0 0.10466132667287045 -0.00028351845281366766 0 0.10444175592104227 -0.00038789121669147885 0 0.10427867404298509 -0.00044479343566589368 0 0.104492912281913 -0.00041692523695236475 0 0.10413529811419996 -0.00042467371055997027 0 0.10427867404298509 -0.00044479343566589368 0 0.10366155016037129 -0.00052769234906664426 0 0.10427867404298509 -0.00044479343566589368 0 0.104492912281913 -0.00041692523695236475 0 0.10422831017125674 -0.00049644444848230757 0 0.10413529811419996 -0.00042467371055997027 0 0.10444175592104227 -0.00038789121669147885 0 0.10427867404298509 -0.00044479343566589368 0 0.10437913417934756 -0.00020999238344971861 0 0.10456666654003768 -0.00028675001923736702 0 0.10458202010258374 -0.00031241157519439565 0 0.10437913417934756 -0.00020999238344971861 0 0.10435723734905097 -0.00034676649389781195 0 0.10458202010258374 -0.00031241157519439565 0 0.10435723734905097 -0.00034676649389781195 0 0.10458202010258374 -0.00031241157519439565 0 0.10466132667287045 -0.00028351845281366766 0 0.10531688942474578 -0.0031899561992194008 0 0.10524641814945135 -0.0013780748061512033 0 0.10456666654003768 -0.00028675001923736702 0 0.10458202010258374 -0.00031241157519439565 0 0.10467316314263241 -0.00024591577628773129 0 0.10458202010258374 -0.00031241157519439565 0 0.10467316314263241 -0.00024591577628773129 0 0.10480411009202473 -0.00017276091707858193 0 0.10458202010258374 -0.00031241157519439565 0 0.10480411009202473 -0.00017276091707858193 0 0.10466132667287045 -0.00028351845281366766 0 0.10480411009202473 -0.00017276091707858193 0 0.10466132667287045 -0.00028351845281366766 0 0.10482851688884885 -0.00015315003404568506 0 0.10480411009202473 -0.00017276091707858193 0 0.10499975323710928 -1.2463112332903458e-07 0 0.10482851688884885 -0.00015315003404568506 0 0.10467316314263241 -0.00024591577628773129 0 0.10480411009202473 -0.00017276091707858193 0 0.10499947910122846 -1.3252210235908982e-07 0 0.10480411009202473 -0.00017276091707858193 0 0.10499975323710928 -1.2463112332903458e-07 0 0.10499947910122846 -1.3252210235908982e-07 0 0.10524641814945135 -0.0013780748061512033 0 0.10500051856873277 -1.5326001943263705e-06 0 0.104492912281913 -0.00041692523695236475 0 0.10466398989184854 -0.00027752947058539942 0 0.10469920508637125 -0.00024244106321963697 0 0.10466398989184854 -0.00027752947058539942 0 0.10480176625754134 -0.0001703606324677747 0 0.10469920508637125 -0.00024244106321963697 0 0.10421163298831324 -0.0012822459102907122 0 0.10359763663064994 -0.0035431016465845978 0 0.10498846684795141 -1.6610253730604691e-05 0 0.10499160124484171 -2.1839900122203704e-05 0 0.10498354437898352 -3.8758295699422505e-05 0 0.104492912281913 -0.00041692523695236475 0 0.10469920508637125 -0.00024244106321963697 0 0.10455759219687635 -0.00046952834110032277 0 0.10357720828366325 -0.0034368932101720086 0 0.10359763663064994 -0.0035431016465845978 0 0.10444175592104227 -0.00038789121669147885 0 0.104492912281913 -0.00041692523695236475 0 0.10466398989184854 -0.00027752947058539942 0 0.10444175592104227 -0.00038789121669147885 0 0.10466132667287045 -0.00028351845281366766 0 0.10466398989184854 -0.00027752947058539942 0 0.10466132667287045 -0.00028351845281366766 0 0.10466398989184854 -0.00027752947058539942 0 0.10482851688884885 -0.00015315003404568506 0 0.10499975323710928 -1.2463112332903458e-07 0 0.10482851688884885 -0.00015315003404568506 0 0.10499949549321086 -3.1507816987449838e-07 0 0.10480176625754134 -0.0001703606324677747 0 0.10482851688884885 -0.00015315003404568506 0 0.10499949549321086 -3.1507816987449838e-07 0 0.10466398989184854 -0.00027752947058539942 0 0.10480176625754134 -0.0001703606324677747 0 0.10482851688884885 -0.00015315003404568506 0 0.10499717555992427 -2.3637486596849887e-06 0 0.10421163298831324 -0.0012822459102907122 0 0.1049999822207731 -6.7629281214234569e-09 0 0.10498846684795141 -1.6610253730604691e-05 0 0.10499998157428818 -9.1771450738213085e-09 0 0.10480176625754134 -0.0001703606324677747 0 0.10499949549321086 -3.1507816987449838e-07 0 0.10469920508637125 -0.00024244106321963697 0 0.10498846684795141 -1.6610253730604691e-05 0 0.10499998157428818 -9.1771450738213085e-09 0 0.10499160124484171 -2.1839900122203704e-05 0 0.10499998157428818 -9.1771450738213085e-09 0 0.10499668349335588 -2.4973700719586823e-05 0 0.10499160124484171 -2.1839900122203704e-05 0 0.10499998157428818 -9.1771450738213085e-09 0 0.10500003019348167 -1.946251158537239e-08 0 0.10499668349335588 -2.4973700719586823e-05 0 0.10500003019348167 -1.946251158537239e-08 0 0.10499668349335588 -2.4973700719586823e-05 0 0.10500789957219757 -2.9589462770768223e-05 0 0.10499668349335588 -2.4973700719586823e-05 0 0.10499688045934863 -6.645607341844701e-05 0 0.10500789957219757 -2.9589462770768223e-05 0 0.10499668349335588 -2.4973700719586823e-05 0 0.10498354437898352 -3.8758295699422505e-05 0 0.10499688045934863 -6.645607341844701e-05 0 0.10499668349335588 -2.4973700719586823e-05 0 0.10499160124484171 -2.1839900122203704e-05 0 0.10498354437898352 -3.8758295699422505e-05 0 0.10554954873621847 -0.013326077002512765 0 0.10139989888604412 -0.011541519716905958 0 0.10391101725011639 -0.0098008086909136295 0 0.10359763663064994 -0.0035431016465845978 0 0.10313523488606002 -0.0047141429083711961 0 0.10427867404298509 -0.00044479343566589368 0 0.10422831017125674 -0.00049644444848230757 0 0.10366155016037129 -0.00052769234906664426 0 0.10359763663064994 -0.0035431016465845978 0 0.10348091044089626 -0.0042082571455101065 0 0.10131567097596664 -0.0080690919054870192 0 0.10116003787152034 -0.0092611211180509325 0 0.10391101725011639 -0.0098008086909136295 0 0.10139989888604412 -0.011541519716905958 0 0.10116003787152034 -0.0092611211180509325 0 0.10391101725011639 -0.0098008086909136295 0 0.10139989888604412 -0.011541519716905958 0 0.10116003787152034 -0.0092611211180509325 0 0.09959796639399307 -0.0092053369818888061 0 0.10131567097596664 -0.0080690919054870192 0 0.099879706034271765 -0.0082246142496389934 0 0.10116003787152034 -0.0092611211180509325 0 0.10380196545031321 -0.00043194528929566158 0 0.10413529811419996 -0.00042467371055997027 0 0.10366155016037129 -0.00052769234906664426 0 0.10337212063999347 -0.00044333077176145045 0 0.10380196545031321 -0.00043194528929566158 0 0.10366155016037129 -0.00052769234906664426 0 0.096822587066532212 -0.0080797107018008765 0 0.097128079871719869 -0.0097379211506657057 0 0.093890502558554828 -0.0083488263423379203 0 0.096822587066532212 -0.0080797107018008765 0 0.097143337168318175 -0.0097275799354563548 0 0.098400216250795855 -0.0085983278624639798 0 0.10086976079154814 -0.0049417352737813518 0 0.10097202299608662 -0.0043689000949999387 0 0.099879706034271765 -0.0082246142496389934 0 0.098400216250795855 -0.0085983278624639798 0 0.09959796639399307 -0.0092053369818888061 0 0.10139989888604412 -0.011541519716905958 0 0.097143337168318175 -0.0097275799354563548 0 0.09959796639399307 -0.0092053369818888061 0 0.10313523488606002 -0.0047141429083711961 0 0.10097202299608662 -0.0043689000949999387 0 0.097143337168318175 -0.0097275799354563548 0 0.098400216250795855 -0.0085983278624639798 0 0.09959796639399307 -0.0092053369818888061 0 0.099879706034271765 -0.0082246142496389934 0 0.10116003787152034 -0.0092611211180509325 0 0.09959796639399307 -0.0092053369818888061 0 0.10499688045934863 -6.645607341844701e-05 0 0.10502283515876346 -9.7976968234612371e-05 0 0.10502460006616998 -4.9616750721227628e-05 0 0.10097202299608662 -0.0043689000949999387 0 0.10259092436971597 -0.0022205753636619988 0 0.099523384758875219 -0.0032216054437877091 0 0.09968802990593098 -0.0040867666419536755 0 0.099029603070695249 -0.0037125159525304131 0 0.09968802990593098 -0.0040867666419536755 0 0.099249800378077346 -0.0043420465811518033 0 0.099029603070695249 -0.0037125159525304131 0 0.09968802990593098 -0.0040867666419536755 0 0.099249800378077346 -0.0043420465811518033 0 0.099856269204195602 -0.0049509303879551689 0 0.10259092436971597 -0.0022205753636619988 0 0.10443505886370177 -0.00065830756535661191 0 0.10502460006616998 -4.9616750721227628e-05 0 0.10500789957219757 -2.9589462770768223e-05 0 0.10502152830252628 -7.8137754258035384e-06 0 0.10499688045934863 -6.645607341844701e-05 0 0.10502460006616998 -4.9616750721227628e-05 0 0.10500789957219757 -2.9589462770768223e-05 0 0.10500003019348167 -1.946251158537239e-08 0 0.10500789957219757 -2.9589462770768223e-05 0 0.10502152830252628 -7.8137754258035384e-06 0 0.10443505886370177 -0.00065830756535661191 0 0.10499102768433471 -5.6995224374161204e-06 0 0.10499891575337679 -2.220918970234575e-06 0 0.10443505886370177 -0.00065830756535661191 0 0.10500000059893688 5.7565372335059865e-11 0 0.10499975359013694 -3.859269066028692e-07 0 0.10499999749732872 -1.5634544511048655e-09 0 0.099249800378077346 -0.0043420465811518033 0 0.099856269204195602 -0.0049509303879551689 0 0.09905000304818018 -0.0047837958640794577 0 0.10443505886370177 -0.00065830756535661191 0 0.10252216225543564 -0.0015952941584173016 0 0.10499966407439738 -4.3674744583444518e-07 0 0.10500001561950563 6.7551085384610925e-09 0 0.10499911716349591 5.0189656340002882e-07 0 0.10500001561950563 6.7551085384610925e-09 0 0.10499911716349591 5.0189656340002882e-07 0 0.10499996321737057 -1.9142998223086426e-08 0 0.10252216225543564 -0.0015952941584173016 0 0.10148514393585562 -0.0022901461323092624 0 0.10499911716349591 5.0189656340002882e-07 0 0.10499996321737057 -1.9142998223086426e-08 0 0.10497744907958295 -1.9283814623367548e-06 0 0.10500000513748639 1.5096318160113046e-09 0 0.10499999106952254 -2.6270552387473587e-09 0 0.10500036861259074 4.8180031201897582e-07 0 0.10499998835438479 -1.3108657477832179e-09 0 0.1049936056944739 -6.8014753520343094e-08 0 0.10499996321737057 -1.9142998223086426e-08 0 0.10497744907958295 -1.9283814623367548e-06 0 0.10497710225088475 -2.8690462522898081e-06 0 0.098241271715467871 -0.0046110762826600564 0 0.098623147276963891 -0.004174989038938281 0 0.09807930890164672 -0.0039817155040633347 0 0.09905000304818018 -0.0047837958640794577 0 0.098241271715467871 -0.0046110762826600564 0 0.098623147276963891 -0.004174989038938281 0 0.099249800378077346 -0.0043420465811518033 0 0.09905000304818018 -0.0047837958640794577 0 0.098623147276963891 -0.004174989038938281 0 0.099249800378077346 -0.0043420465811518033 0 0.098623147276963891 -0.004174989038938281 0 0.099029603070695249 -0.0037125159525304131 0 0.10499577625515312 -2.114139355781085e-06 0 0.10499999106952254 -2.6270552387473587e-09 0 0.10499999171910107 -5.6526964709142032e-09 0 0.10499577625515312 -2.114139355781085e-06 0 0.1049884820113777 -5.3750194474679808e-06 0 0.10499999171910107 -5.6526964709142032e-09 0 0.10497710225088475 -2.8690462522898081e-06 0 0.10498592754263804 -7.1905879718586135e-06 0 0.1049884820113777 -5.3750194474679808e-06 0 0.10497744907958295 -1.9283814623367548e-06 0 0.10497710225088475 -2.8690462522898081e-06 0 0.10498592754263804 -7.1905879718586135e-06 0 0.1049936056944739 -6.8014753520343094e-08 0 0.10499304632101106 -9.8148318604532795e-07 0 0.10499577625515312 -2.114139355781085e-06 0 0.10500036861259074 4.8180031201897582e-07 0 0.1049884820113777 -5.3750194474679808e-06 0 0.10499577625515312 -2.114139355781085e-06 0 0.10499999106952254 -2.6270552387473587e-09 0 0.10500036861259074 4.8180031201897582e-07 0 0.09744826971433844 -0.0044311800145092886 0 0.097670529994349914 -0.0038438175488795688 0 0.09807930890164672 -0.0039817155040633347 0 0.10148514393585562 -0.0022901461323092624 0 0.10012649048600841 -0.0029199162585416866 0 0.098241271715467871 -0.0046110762826600564 0 0.09744826971433844 -0.0044311800145092886 0 0.09807930890164672 -0.0039817155040633347 0 0.09744826971433844 -0.0044311800145092886 0 0.097254853095631949 -0.0036156071017767388 0 0.096670379070097179 -0.0042567103515140023 0 0.10498592754263804 -7.1905879718586135e-06 0 0.1049884820113777 -5.3750194474679808e-06 0 0.10498519105258075 -8.5905868578228176e-06 0 0.10012649048600841 -0.0029199162585416866 0 0.096410314718250789 -0.0034816811401819376 0 0.09744826971433844 -0.0044311800145092886 0 0.097254853095631949 -0.0036156071017767388 0 0.097670529994349914 -0.0038438175488795688 0 0.097254853095631949 -0.0036156071017767388 0 0.097670529994349914 -0.0038438175488795688 0 0.097946747981122725 -0.003481720698330925 0 0.097670529994349914 -0.0038438175488795688 0 0.09807930890164672 -0.0039817155040633347 0 0.097946747981122725 -0.003481720698330925 0 0.095064792694563083 -0.0044593280685296492 0 0.094764960986920638 -0.0045120714205099718 0 0.097254853095631949 -0.0036156071017767388 0 0.097946747981122725 -0.003481720698330925 0 0.09782692726034288 -0.002987770615631343 0 0.094764960986920638 -0.0045120714205099718 0 0.093874084360520582 -0.0049764713864399891 0 0.097957545029953047 -0.0034577982083056126 0 0.097834530211993967 -0.0029361743279679069 0 0.09822866952478157 -0.0031117989568981807 0 0.086431565808904598 -0.0099257463757329075 0 0.088722858304632946 -0.0073945782612151621 0 0.086468078462369424 -0.0066159319704777019 0 0.093296276030500641 -0.0060229632236745252 0 0.093874084360520582 -0.0049764713864399891 0 0.086431565808904598 -0.0099257463757329075 0 0.086468078462369424 -0.0066159319704777019 0 0.084229227759992281 -0.0073620287811995205 0 0.098623147276963891 -0.004174989038938281 0 0.099029603070695249 -0.0037125159525304131 0 0.098457049145273104 -0.0035591977494387277 0 0.098623147276963891 -0.004174989038938281 0 0.09807930890164672 -0.0039817155040633347 0 0.098457049145273104 -0.0035591977494387277 0 0.09807930890164672 -0.0039817155040633347 0 0.097957545029953047 -0.0034577982083056126 0 0.098457049145273104 -0.0035591977494387277 0 0.098457049145273104 -0.0035591977494387277 0 0.09822866952478157 -0.0031117989568981807 0 0.098822596617182429 -0.0029184215318521839 0 0.097957545029953047 -0.0034577982083056126 0 0.098457049145273104 -0.0035591977494387277 0 0.09822866952478157 -0.0031117989568981807 0 0.099029603070695249 -0.0037125159525304131 0 0.098457049145273104 -0.0035591977494387277 0 0.098822596617182429 -0.0029184215318521839 0 0.099523384758875219 -0.0032216054437877091 0 0.099029603070695249 -0.0037125159525304131 0 0.098822596617182429 -0.0029184215318521839 0 0.10097202299608662 -0.0043689000949999387 0 0.097206562501587837 -0.0045740105722454896 0 0.096822587066532212 -0.0080797107018008765 0 0.093890502558554828 -0.0083488263423379203 0 0.095425979301369521 -0.0064984165296964004 0 0.093890502558554828 -0.0083488263423379203 0 0.093333226605195427 -0.006089448825300733 0 0.095425979301369521 -0.0064984165296964004 0 0.097148627668562915 -0.0049170964358108147 0 0.094022775641484063 -0.0040143306144053183 0 0.09713339769468754 -0.0056583374439070156 0 0.095590342507090559 -0.0034317569298104493 0 0.093431434774745581 -0.004300170374367137 0 0.093333226605195427 -0.006089448825300733 0 0.095425979301369521 -0.0064984165296964004 0 0.093429092932356794 -0.0039437215666871554 0 0.097267614516271791 -0.0051971627206258975 0 0.095425979301369521 -0.0064984165296964004 0 0.093429092932356794 -0.0039437215666871554 0 0.093429092932356794 -0.0039437215666871554 0 0.091787839421095307 -0.0048983454000668929 0 0.089724043728533931 -0.0028220032088735296 0 0.091787839421095307 -0.0048983454000668929 0 0.090189022563514826 -0.0048614286415962866 0 0.089724043728533931 -0.0028220032088735296 0 0.093333226605195427 -0.006089448825300733 0 0.091787839421095307 -0.0048983454000668929 0 0.091246725095286321 -0.0064312288656942565 0 0.093333226605195427 -0.006089448825300733 0 0.093429092932356794 -0.0039437215666871554 0 0.091787839421095307 -0.0048983454000668929 0 0.091787839421095307 -0.0048983454000668929 0 0.090880251527548667 -0.0055282988231786295 0 0.090189022563514826 -0.0048614286415962866 0 0.091787839421095307 -0.0048983454000668929 0 0.090880251527548667 -0.0055282988231786295 0 0.091246725095286321 -0.0064312288656942565 0 0.090880251527548667 -0.0055282988231786295 0 0.091246725095286321 -0.0064312288656942565 0 0.090307326565383206 -0.005926193438894771 0 0.091246725095286321 -0.0064312288656942565 0 0.090747845882635111 -0.0069765659082700838 0 0.090307326565383206 -0.005926193438894771 0 0.09822866952478157 -0.0031117989568981807 0 0.098822596617182429 -0.0029184215318521839 0 0.09812177391749885 -0.0026163499297894989 0 0.093890502558554828 -0.0083488263423379203 0 0.093333226605195427 -0.006089448825300733 0 0.091246725095286321 -0.0064312288656942565 0 0.097206562501587837 -0.0045740105722454896 0 0.094312969377451733 -0.0045794802151287884 0 0.093890502558554828 -0.0083488263423379203 0 0.091246725095286321 -0.0064312288656942565 0 0.090739278872466592 -0.0069950956438367563 0 0.0942151379482426 -0.0046735143446343047 0 0.094312969377451733 -0.0045794802151287884 0 0.097834530211993967 -0.0029361743279679069 0 0.09822866952478157 -0.0031117989568981807 0 0.09812177391749885 -0.0026163499297894989 0 0.093538572245439294 -0.004071292908175669 0 0.092600827271052316 -0.0051123895404323431 0 0.093905221854384657 -0.00568870700299053 0 0.088722858304632946 -0.0073945782612151621 0 0.088291380971137187 -0.0055179929301773564 0 0.086468078462369424 -0.0066159319704777019 0 0.093874084360520582 -0.0049764713864399891 0 0.094312969377451733 -0.0045794802151287884 0 0.093874084360520582 -0.0049764713864399891 0 0.092244569144813146 -0.004050436499565809 0 0.090747845882635111 -0.0069765659082700838 0 0.089008041081648212 -0.0062057474420258614 0 0.090307326565383206 -0.005926193438894771 0 0.094312969377451733 -0.0045794802151287884 0 0.092244569144813146 -0.004050436499565809 0 0.088291380971137187 -0.0055179929301773564 0 0.086468078462369424 -0.0066159319704777019 0 0.08662229065223094 -0.0047873616321355856 0 0.086468078462369424 -0.0066159319704777019 0 0.08662229065223094 -0.0047873616321355856 0 0.084936860769194794 -0.0047530527148856288 0 0.088344500128654038 -0.0055454899310172518 0 0.08662229065223094 -0.0047873616321355856 0 0.087748544899673778 -0.0028195658637940198 0 0.08662229065223094 -0.0047873616321355856 0 0.086265052456116806 -0.0034417145054480014 0 0.084936860769194794 -0.0047530527148856288 0 0.092244569144813146 -0.004050436499565809 0 0.091139957744124006 -0.0038055559757868272 0 0.08662229065223094 -0.0047873616321355856 0 0.086265052456116806 -0.0034417145054480014 0 0.087748544899673778 -0.0028195658637940198 0 0.092244569144813146 -0.004050436499565809 0 0.090513980319236631 -0.0026615587890969042 0 0.089008041081648212 -0.0062057474420258614 0 0.089289854175543956 -0.0042717375961852117 0 0.088234790039057431 -0.0032036287160663863 0 0.089008041081648212 -0.0062057474420258614 0 0.090189022563514826 -0.0048614286415962866 0 0.090307326565383206 -0.005926193438894771 0 0.089008041081648212 -0.0062057474420258614 0 0.090189022563514826 -0.0048614286415962866 0 0.089289854175543956 -0.0042717375961852117 0 0.090880251527548667 -0.0055282988231786295 0 0.090189022563514826 -0.0048614286415962866 0 0.090307326565383206 -0.005926193438894771 0 0.090189022563514826 -0.0048614286415962866 0 0.089289854175543956 -0.0042717375961852117 0 0.089724043728533931 -0.0028220032088735296 0 0.088234790039057431 -0.0032036287160663863 0 0.087310716851800502 -4.0375017104124776e-05 0 0.08914578530470163 -0.00093195328602216885 0 0.089289854175543956 -0.0042717375961852117 0 0.089724043728533931 -0.0028220032088735296 0 0.088234790039057431 -0.0032036287160663863 0 0.089724043728533931 -0.0028220032088735296 0 0.088234790039057431 -0.0032036287160663863 0 0.08914578530470163 -0.00093195328602216885 0 0.089724043728533931 -0.0028220032088735296 0 0.08914578530470163 -0.00093195328602216885 0 0.090572703524777906 -0.0011815380903351968 0 0.090513980319236631 -0.0026615587890969042 0 0.089860138699734443 -0.001629721505399307 0 0.087748544899673778 -0.0028195658637940198 0 0.086299518440907816 -0.0020438355115781196 0 0.087310716851800502 -4.0375017104124776e-05 0 0.086265052456116806 -0.0034417145054480014 0 0.086299518440907816 -0.0020438355115781196 0 0.085089711984200303 -0.0027313621464682769 0 0.086265052456116806 -0.0034417145054480014 0 0.087748544899673778 -0.0028195658637940198 0 0.086299518440907816 -0.0020438355115781196 0 0.087310716851800502 -4.0375017104124776e-05 0 0.085157485706910133 -0.00090100210412701965 0 0.085935100349747356 0.001921544804726877 0 0.086299518440907816 -0.0020438355115781196 0 0.087310716851800502 -4.0375017104124776e-05 0 0.085157485706910133 -0.00090100210412701965 0 0.08914578530470163 -0.00093195328602216885 0 0.090465573658241344 0.000331830659450938 0 0.090572703524777906 -0.0011815380903351968 0 0.087310716851800502 -4.0375017104124776e-05 0 0.08914578530470163 -0.00093195328602216885 0 0.088577925326005003 0.0013848179116873875 0 0.08914578530470163 -0.00093195328602216885 0 0.090465573658241344 0.000331830659450938 0 0.088577925326005003 0.0013848179116873875 0 0.090465573658241344 0.000331830659450938 0 0.091817561134002301 -0.00037687854581330317 0 0.091868045803339099 0.0010292461442606773 0 0.090465573658241344 0.000331830659450938 0 0.090572703524777906 -0.0011815380903351968 0 0.091817561134002301 -0.00037687854581330317 0 0.090572703524777906 -0.0011815380903351968 0 0.091817561134002301 -0.00037687854581330317 0 0.092033403577738079 -0.0020217864673025502 0 0.091817561134002301 -0.00037687854581330317 0 0.093250068660834892 -0.00081318532067100116 0 0.092033403577738079 -0.0020217864673025502 0 0.091817561134002301 -0.00037687854581330317 0 0.093104062986821862 0.00054893916218508396 0 0.093250068660834892 -0.00081318532067100116 0 0.091817561134002301 -0.00037687854581330317 0 0.093104062986821862 0.00054893916218508396 0 0.091868045803339099 0.0010292461442606773 0 0.093104062986821862 0.00054893916218508396 0 0.094549651611430516 -4.9343019231228533e-05 0 0.093250068660834892 -0.00081318532067100116 0 0.093104062986821862 0.00054893916218508396 0 0.094549651611430516 -4.9343019231228533e-05 0 0.094403574622779152 0.0010358178733412987 0 0.095659062960034638 0.00055039675927079444 0 0.094549651611430516 -4.9343019231228533e-05 0 0.094403574622779152 0.0010358178733412987 0 0.09586830474656037 -0.00054371599184477369 0 0.095659062960034638 0.00055039675927079444 0 0.094549651611430516 -4.9343019231228533e-05 0 0.09586830474656037 -0.00054371599184477369 0 0.094549651611430516 -4.9343019231228533e-05 0 0.094527323974823857 -0.0010989770311900233 0 0.095743390587880103 -0.0019724995498136321 0 0.09586830474656037 -0.00054371599184477369 0 0.094527323974823857 -0.0010989770311900233 0 0.094527323974823857 -0.0010989770311900233 0 0.093250068660834892 -0.00081318532067100116 0 0.094040655369631146 -0.0023033856339200235 0 0.094549651611430516 -4.9343019231228533e-05 0 0.094527323974823857 -0.0010989770311900233 0 0.093250068660834892 -0.00081318532067100116 0 0.093250068660834892 -0.00081318532067100116 0 0.094040655369631146 -0.0023033856339200235 0 0.092033403577738079 -0.0020217864673025502 0 0.095743390587880103 -0.0019724995498136321 0 0.094527323974823857 -0.0010989770311900233 0 0.094040655369631146 -0.0023033856339200235 0 0.095590342507090559 -0.0034317569298104493 0 0.095743390587880103 -0.0019724995498136321 0 0.094040655369631146 -0.0023033856339200235 0 0.095590342507090559 -0.0034317569298104493 0 0.093431434774745581 -0.004300170374367137 0 0.094040655369631146 -0.0023033856339200235 0 0.093431434774745581 -0.004300170374367137 0 0.094040655369631146 -0.0023033856339200235 0 0.092033403577738079 -0.0020217864673025502 0 0.093431434774745581 -0.004300170374367137 0 0.089724043728533931 -0.0028220032088735296 0 0.092033403577738079 -0.0020217864673025502 0 0.094022775641484063 -0.0040143306144053183 0 0.09225692576956189 -0.0034381418353737797 0 0.089724043728533931 -0.0028220032088735296 0 0.090572703524777906 -0.0011815380903351968 0 0.092033403577738079 -0.0020217864673025502 0 0.080109848501803721 -0.00055000456418067005 0 0.082746339689174817 -0.0025361596105875298 0 0.078798416610774802 -0.0034711259156563565 0 0.077580942299826539 -0.00061695436625075354 0 0.078798416610774802 -0.0034711259156563565 0 0.075294743674523157 -0.0014833998592002199 0 0.077580942299826539 -0.00061695436625075354 0 0.080109848501803721 -0.00055000456418067005 0 0.078798416610774802 -0.0034711259156563565 0 0.077580942299826539 -0.00061695436625075354 0 0.080109848501803721 -0.00055000456418067005 0 0.07760822698015736 0.0018375861371301636 0 0.080109848501803721 -0.00055000456418067005 0 0.080324136259185247 0.0016564476438166358 0 0.07760822698015736 0.0018375861371301636 0 0.083285674780018693 8.2914526152907253e-06 0 0.082881382686336935 -0.0025578281552387002 0 0.080109848501803721 -0.00055000456418067005 0 0.083240442881622731 0.00050106422793224248 0 0.082746339689174817 -0.0025361596105875298 0 0.080109848501803721 -0.00055000456418067005 0 0.083240442881622731 0.00050106422793224248 0 0.080324136259185247 0.0016564476438166358 0 0.083426768683065325 0.00040009890072671353 0 0.085157485706910133 -0.00090100210412701965 0 0.085935100349747356 0.001921544804726877 0 0.083426768683065325 0.00040009890072671353 0 0.085157485706910133 -0.00090100210412701965 0 0.08303135241322275 -0.0026745549383455449 0 0.085157485706910133 -0.00090100210412701965 0 0.085089711984200303 -0.0027313621464682769 0 0.08303135241322275 -0.0026745549383455449 0 0.086299518440907816 -0.0020438355115781196 0 0.085157485706910133 -0.00090100210412701965 0 0.085089711984200303 -0.0027313621464682769 0 0.082881382686336935 -0.0025578281552387002 0 0.082481654624956324 -0.0050685623410776579 0 0.082746339689174817 -0.0025361596105875298 0 0.082323163496937468 -0.0055257828707546168 0 0.078798416610774802 -0.0034711259156563565 0 0.085089711984200303 -0.0027313621464682769 0 0.08303135241322275 -0.0026745549383455449 0 0.084936860769194794 -0.0047530527148856288 0 0.08303135241322275 -0.0026745549383455449 0 0.084936860769194794 -0.0047530527148856288 0 0.082544534532578206 -0.0055810902935170869 0 0.086265052456116806 -0.0034417145054480014 0 0.085089711984200303 -0.0027313621464682769 0 0.084936860769194794 -0.0047530527148856288 0 0.084936860769194794 -0.0047530527148856288 0 0.082544534532578206 -0.0055810902935170869 0 0.084229227759992281 -0.0073620287811995205 0 0.086468078462369424 -0.0066159319704777019 0 0.084936860769194794 -0.0047530527148856288 0 0.084229227759992281 -0.0073620287811995205 0 0.082481654624956324 -0.0050685623410776579 0 0.082266793029040053 -0.0063984543634828164 0 0.082544534532578206 -0.0055810902935170869 0 0.084229227759992281 -0.0073620287811995205 0 0.081957619268087423 -0.008498303798198938 0 0.082323163496937468 -0.0055257828707546168 0 0.079662701101850877 -0.0061960824528446588 0 0.081957619268087423 -0.008498303798198938 0 0.082323163496937468 -0.0055257828707546168 0 0.079662701101850877 -0.0061960824528446588 0 0.078798416610774802 -0.0034711259156563565 0 0.079931551005290341 -0.0052841625599663999 0 0.0808372282788834 -0.0051098949639857023 0 0.079662701101850877 -0.0061960824528446588 0 0.078798416610774802 -0.0034711259156563565 0 0.076966500975250401 -0.0066765410415620613 0 0.079662701101850877 -0.0061960824528446588 0 0.078990347078146478 -0.008845960287708371 0 0.076966500975250401 -0.0066765410415620613 0 0.078990347078146478 -0.008845960287708371 0 0.077412780122732561 -0.0093472029064326327 0 0.077242709326522579 -0.006887419664926139 0 0.080551792969947703 -0.0057733742153775816 0 0.0808372282788834 -0.0051098949639857023 0 0.079662701101850877 -0.0061960824528446588 0 0.078990347078146478 -0.008845960287708371 0 0.081957619268087423 -0.008498303798198938 0 0.078990347078146478 -0.008845960287708371 0 0.081957619268087423 -0.008498303798198938 0 0.080971767473362877 -0.01176668385858312 0 0.092513193050821868 -0.0033214290389719063 0 0.093841080658458018 -0.0038243137989661022 0 0.078990347078146478 -0.008845960287708371 0 0.077950125164480147 -0.011000714709099664 0 0.080971767473362877 -0.01176668385858312 0 0.078990347078146478 -0.008845960287708371 0 0.077412780122732561 -0.0093472029064326327 0 0.077950125164480147 -0.011000714709099664 0 0.086431565808904598 -0.0099257463757329075 0 0.084229227759992281 -0.0073620287811995205 0 0.084050208262404141 -0.009708203125882638 0 0.084229227759992281 -0.0073620287811995205 0 0.081957619268087423 -0.008498303798198938 0 0.084050208262404141 -0.009708203125882638 0 0.081957619268087423 -0.008498303798198938 0 0.084050208262404141 -0.009708203125882638 0 0.080971767473362877 -0.01176668385858312 0 0.084050208262404141 -0.009708203125882638 0 0.084121003703440125 -0.012476577144485241 0 0.080971767473362877 -0.01176668385858312 0 0.093296276030500641 -0.0060229632236745252 0 0.096410314718250789 -0.0034816811401819376 0 0.086431565808904598 -0.0099257463757329075 0 0.084050208262404141 -0.009708203125882638 0 0.084121003703440125 -0.012476577144485241 0 0.1049884820113777 -5.3750194474679808e-06 0 0.10498519105258075 -8.5905868578228176e-06 0 0.10499440379816308 -3.0007724951728405e-06 0 0.10489765841515905 -4.736981077696446e-05 0 0.10496583920389489 -2.3244732678677541e-05 0 0.10496452336969998 -3.7784817791408495e-05 0 0.096410314718250789 -0.0034816811401819376 0 0.093841080658458018 -0.0038243137989661022 0 0.096410314718250789 -0.0034816811401819376 0 0.10098110705226987 2.9423965159981453e-05 0 0.1049999357144402 -1.1927752223122284e-09 0 0.10499364679767287 1.2630773187275699e-07 0 0.10499440379816308 -3.0007724951728405e-06 0 0.10489765841515905 -4.736981077696446e-05 0 0.10496583920389489 -2.3244732678677541e-05 0 0.10499364679767287 1.2630773187275699e-07 0 0.10498519105258075 -8.5905868578228176e-06 0 0.10499364679767287 1.2630773187275699e-07 0 0.10499440379816308 -3.0007724951728405e-06 0 0.1049999357144402 -1.1927752223122284e-09 0 0.10499999171910107 -5.6526964709142032e-09 0 0.10499440379816308 -3.0007724951728405e-06 0 0.1049884820113777 -5.3750194474679808e-06 0 0.10499999171910107 -5.6526964709142032e-09 0 0.10499440379816308 -3.0007724951728405e-06 0 0.10496799509049289 -1.6853792091565924e-05 0 0.10498506603523157 -1.2949908419585746e-05 0 0.10498480824662802 -9.098863033616675e-06 0 0.10496799509049289 -1.6853792091565924e-05 0 0.10496452336969998 -3.7784817791408495e-05 0 0.10498506603523157 -1.2949908419585746e-05 0 0.10496583920389489 -2.3244732678677541e-05 0 0.10496452336969998 -3.7784817791408495e-05 0 0.10498506603523157 -1.2949908419585746e-05 0 0.1049999357144402 -1.1927752223122284e-09 0 0.10499364679767287 1.2630773187275699e-07 0 0.10499998473196463 -9.2379006552930364e-09 0 0.10499364679767287 1.2630773187275699e-07 0 0.10498506603523157 -1.2949908419585746e-05 0 0.10499998473196463 -9.2379006552930364e-09 0 0.10496583920389489 -2.3244732678677541e-05 0 0.10499364679767287 1.2630773187275699e-07 0 0.10498506603523157 -1.2949908419585746e-05 0 0.10498506603523157 -1.2949908419585746e-05 0 0.10499998473196463 -9.2379006552930364e-09 0 0.10498480824662802 -9.098863033616675e-06 0 0.10499998473196463 -9.2379006552930364e-09 0 0.10498480824662802 -9.098863033616675e-06 0 0.10499996097049459 -1.1953462182868361e-08 0 0.10498480824662802 -9.098863033616675e-06 0 0.10497830189199903 -7.7974314689034389e-06 0 0.10499996097049459 -1.1953462182868361e-08 0 0.10496799509049289 -1.6853792091565924e-05 0 0.10498480824662802 -9.098863033616675e-06 0 0.10497830189199903 -7.7974314689034389e-06 0 0.10496799509049289 -1.6853792091565924e-05 0 0.10497830189199903 -7.7974314689034389e-06 0 0.10495625984081766 -8.1697130815170291e-06 0 0.10496998002314915 -4.7431146800139983e-06 0 0.10495977351238277 -2.0485468408821507e-05 0 0.10489064768850069 -4.0550333392112457e-05 0 0.097709512207753965 0.0014317924605238631 0 0.092775287999475764 -0.0019711696453386775 0 0.10497830189199903 -7.7974314689034389e-06 0 0.10496998002314915 -4.7431146800139983e-06 0 0.10495625984081766 -8.1697130815170291e-06 0 0.10497830189199903 -7.7974314689034389e-06 0 0.10499996097049459 -1.1953462182868361e-08 0 0.10496998002314915 -4.7431146800139983e-06 0 0.10496998002314915 -4.7431146800139983e-06 0 0.10499995378866057 1.8177602536284383e-09 0 0.10499038620722942 -3.3562982521330333e-06 0 0.10499996097049459 -1.1953462182868361e-08 0 0.10496998002314915 -4.7431146800139983e-06 0 0.10499995378866057 1.8177602536284383e-09 0 0.10496998002314915 -4.7431146800139983e-06 0 0.10499038620722942 -3.3562982521330333e-06 0 0.10497717840164597 -1.3826415044196071e-05 0 0.10499995378866057 1.8177602536284383e-09 0 0.10499038620722942 -3.3562982521330333e-06 0 0.10499999863672002 -2.2671880065200751e-09 0 0.10499038620722942 -3.3562982521330333e-06 0 0.10497717840164597 -1.3826415044196071e-05 0 0.10499411812882292 -5.1199838350054693e-06 0 0.10375782852443254 9.6126880632797879e-05 0 0.10316317137884629 0.00027788076941312147 0 0.10497717840164597 -1.3826415044196071e-05 0 0.10496145818544024 -1.6323553877999532e-05 0 0.1049556760716544 -1.8135049230198966e-05 0 0.10497717840164597 -1.3826415044196071e-05 0 0.10496397367504461 -2.0101384518803499e-05 0 0.10495977351238277 -2.0485468408821507e-05 0 0.10497717840164597 -1.3826415044196071e-05 0 0.10496397367504461 -2.0101384518803499e-05 0 0.10496083406201147 -2.01543999237407e-05 0 0.10497717840164597 -1.3826415044196071e-05 0 0.10496145818544024 -1.6323553877999532e-05 0 0.10496083406201147 -2.01543999237407e-05 0 0.10496998002314915 -4.7431146800139983e-06 0 0.10497717840164597 -1.3826415044196071e-05 0 0.10495977351238277 -2.0485468408821507e-05 0 0.094228949410417692 -0.001742629569671547 0 0.095201515882869181 -0.0015708124899338949 0 0.10495977351238277 -2.0485468408821507e-05 0 0.10492924460943172 -4.2785023501625882e-05 0 0.10489064768850069 -4.0550333392112457e-05 0 0.10492924460943172 -4.2785023501625882e-05 0 0.10495645941609949 -2.6395891199907065e-05 0 0.10495108864024329 -3.5021260818770921e-05 0 0.10496397367504461 -2.0101384518803499e-05 0 0.10495977351238277 -2.0485468408821507e-05 0 0.10495645941609949 -2.6395891199907065e-05 0 0.10495977351238277 -2.0485468408821507e-05 0 0.10492924460943172 -4.2785023501625882e-05 0 0.10495645941609949 -2.6395891199907065e-05 0 0.10496092283579607 -1.6880717197927296e-05 0 0.10496083406201147 -2.01543999237407e-05 0 0.10495108864024329 -3.5021260818770921e-05 0 0.10153536259528441 0.00016373441758583249 0 0.10173496535161553 0.0001691154753046294 0 0.10496397367504461 -2.0101384518803499e-05 0 0.10496083406201147 -2.01543999237407e-05 0 0.10495645941609949 -2.6395891199907065e-05 0 0.10496083406201147 -2.01543999237407e-05 0 0.10495645941609949 -2.6395891199907065e-05 0 0.10495108864024329 -3.5021260818770921e-05 0 0.10153536259528441 0.00016373441758583249 0 0.095201515882869181 -0.0015708124899338949 0 0.083946408362344918 -0.0020301357360063017 0 0.083514605889881355 -0.0013673922809352426 0 0.082696807724604998 -0.0017039251488911518 0 0.083946408362344918 -0.0020301357360063017 0 0.083514605889881355 -0.0013673922809352426 0 0.084596089236800912 -0.0014512572897565077 0 0.084753490934260378 -0.0022181674454851415 0 0.084596089236800912 -0.0014512572897565077 0 0.085207074283799755 -0.0016727133263631875 0 0.084753490934260378 -0.0022181674454851415 0 0.084010757945908204 -0.0020409676912298822 0 0.084596089236800912 -0.0014512572897565077 0 0.095201515882869181 -0.0015708124899338949 0 0.092424555936209574 -0.0029992570446628003 0 0.084596089236800912 -0.0014512572897565077 0 0.085207074283799755 -0.0016727133263631875 0 0.084803941327016144 -0.00096466734174411282 0 0.085207074283799755 -0.0016727133263631875 0 0.085547890974022156 -0.0012234250817836794 0 0.084803941327016144 -0.00096466734174411282 0 0.085207074283799755 -0.0016727133263631875 0 0.08595399302553311 -0.0017088325374430926 0 0.085533125889148381 -0.0023990061392385048 0 0.085207074283799755 -0.0016727133263631875 0 0.08595399302553311 -0.0017088325374430926 0 0.085547890974022156 -0.0012234250817836794 0 0.077412780122732561 -0.0093472029064326327 0 0.076187281426393139 -0.0086022006965074758 0 0.077242709326522579 -0.006887419664926139 0 0.08595399302553311 -0.0017088325374430926 0 0.086378670066954225 -0.0010163281383263984 0 0.085547890974022156 -0.0012234250817836794 0 0.085666969464108109 -0.0045952455216047121 0 0.0808372282788834 -0.0051098949639857023 0 0.077412780122732561 -0.0093472029064326327 0 0.076187281426393139 -0.0086022006965074758 0 0.075142669855128838 -0.010303682874217448 0 0.092513193050821868 -0.0033214290389719063 0 0.092775287999475764 -0.0019711696453386775 0 0.077412780122732561 -0.0093472029064326327 0 0.077950125164480147 -0.011000714709099664 0 0.075142669855128838 -0.010303682874217448 0 0.085666969464108109 -0.0045952455216047121 0 0.092775287999475764 -0.0019711696453386775 0 0.094228949410417692 -0.001742629569671547 0 0.092775287999475764 -0.0019711696453386775 0 0.084753490934260378 -0.0022181674454851415 0 0.085207074283799755 -0.0016727133263631875 0 0.085533125889148381 -0.0023990061392385048 0 0.10470802581524599 0.00016267065687060355 0 0.1048513859678373 0.00013784655530798461 0 0.10498241434353432 8.9252467778275159e-06 0 0.10499602020121399 2.9083814272946507e-05 0 0.10493108069468464 2.4556761916241016e-05 0 0.10498241434353432 8.9252467778275159e-06 0 0.10500102864592906 1.1390435114966643e-05 0 0.10499602020121399 2.9083814272946507e-05 0 0.10498241434353432 8.9252467778275159e-06 0 0.10499995288753751 -1.1868391926730212e-08 0 0.10500102864592906 1.1390435114966643e-05 0 0.10499939695425807 5.0133825656683301e-07 0 0.10459225463757255 0.00019737897814248179 0 0.10499996949313466 4.7760450519052728e-09 0 0.10499901060884687 -8.8934440733217187e-06 0 0.10497578209839234 -6.8387272459765238e-06 0 0.10500002112009477 -3.6803679841820716e-09 0 0.10499996949313466 4.7760450519052728e-09 0 0.10499901060884687 -8.8934440733217187e-06 0 0.1050057012538963 2.4085223811427467e-05 0 0.10501253746166256 2.8108579447202693e-05 0 0.10499602020121399 2.9083814272946507e-05 0 0.10500102864592906 1.1390435114966643e-05 0 0.1050057012538963 2.4085223811427467e-05 0 0.10501360158345602 2.8399381651430474e-05 0 0.10500102864592906 1.1390435114966643e-05 0 0.1050057012538963 2.4085223811427467e-05 0 0.10499602020121399 2.9083814272946507e-05 0 0.10459225463757255 0.00019737897814248179 0 0.10360935213059136 0.00021700838119649777 0 0.10497578209839234 -6.8387272459765238e-06 0 0.10494964057813967 -2.5089323534226133e-05 0 0.10497121610889239 -3.3053395071804369e-05 0 0.10499901060884687 -8.8934440733217187e-06 0 0.10497578209839234 -6.8387272459765238e-06 0 0.10497121610889239 -3.3053395071804369e-05 0 0.10500000307502445 -5.6538763995384289e-10 0 0.10500060068358347 -3.0357232868377185e-06 0 0.10499999863672002 -2.2671880065200751e-09 0 0.10499873809713987 8.6039350876797344e-07 0 0.1043325716027024 0.00023319667506908781 0 0.10500060068358347 -3.0357232868377185e-06 0 0.10499999863672002 -2.2671880065200751e-09 0 0.10499411812882292 -5.1199838350054693e-06 0 0.10499038620722942 -3.3562982521330333e-06 0 0.10499999863672002 -2.2671880065200751e-09 0 0.10499411812882292 -5.1199838350054693e-06 0 0.10500060068358347 -3.0357232868377185e-06 0 0.10499411812882292 -5.1199838350054693e-06 0 0.10499375619192663 -1.5139511673782658e-05 0 0.10497717840164597 -1.3826415044196071e-05 0 0.10499411812882292 -5.1199838350054693e-06 0 0.10499375619192663 -1.5139511673782658e-05 0 0.1043325716027024 0.00023319667506908781 0 0.10316317137884629 0.00027788076941312147 0 0.10316317137884629 0.00027788076941312147 0 0.10360935213059136 0.00021700838119649777 0 0.10153536259528441 0.00016373441758583249 0 0.10316317137884629 0.00027788076941312147 0 0.10086660355751371 0.0012424937008754561 0 0.10168654202962273 0.00090468788219720975 0 0.1021616241735659 0.0013166897589252159 0 0.10086660355751371 0.0012424937008754561 0 0.10007127212853976 0.00049905023293390178 0 0.10168243807721759 0.0001715197576273556 0 0.10086660355751371 0.0012424937008754561 0 0.10168654202962273 0.00090468788219720975 0 0.10168243807721759 0.0001715197576273556 0 0.10294193671557537 0.00045813009137937667 0 0.10295619876587989 0.00047080410945961202 0 0.10298179555713144 0.00046200842357856846 0 0.10153536259528441 0.00016373441758583249 0 0.10360935213059136 0.00021700838119649777 0 0.095201515882869181 -0.0015708124899338949 0 0.092759655326773521 -0.00090273551523198338 0 0.10168243807721759 0.0001715197576273556 0 0.10239730083493147 0.00055068145234072881 0 0.10321593796029858 -6.7075648830799557e-05 0 0.092759655326773521 -0.00090273551523198338 0 0.092409037362639987 -0.00070598175677918397 0 0.082696807724604998 -0.0017039251488911518 0 0.081550213675377209 -0.001411600732924708 0 0.081999283508550472 -0.00056464289499681642 0 0.10274208213062321 0.00081167090983912094 0 0.10239730083493147 0.00055068145234072881 0 0.10224511010536609 0.00099537884661506397 0 0.10274208213062321 0.00081167090983912094 0 0.10239730083493147 0.00055068145234072881 0 0.10303003260014158 0.00051872758552358835 0 0.10168654202962273 0.00090468788219720975 0 0.10239730083493147 0.00055068145234072881 0 0.10224511010536609 0.00099537884661506397 0 0.10168654202962273 0.00090468788219720975 0 0.10168243807721759 0.0001715197576273556 0 0.10239730083493147 0.00055068145234072881 0 0.10168654202962273 0.00090468788219720975 0 0.10224511010536609 0.00099537884661506397 0 0.10215433968704302 0.0013001478767248457 0 0.10347206696704517 0.00019306667694281507 0 0.10360935213059136 0.00021700838119649777 0 0.10224511010536609 0.00099537884661506397 0 0.10215433968704302 0.0013001478767248457 0 0.10224946918104272 0.001303924563662438 0 0.10360935213059136 0.00021700838119649777 0 0.10371730059563938 0.00022261084978021729 0 0.1050057012538963 2.4085223811427467e-05 0 0.10501360158345602 2.8399381651430474e-05 0 0.10501253746166256 2.8108579447202693e-05 0 0.10274208213062321 0.00081167090983912094 0 0.10224511010536609 0.00099537884661506397 0 0.10224946918104272 0.001303924563662438 0 0.10371730059563938 0.00022261084978021729 0 0.10421312410860438 0.00022432438557004914 0 0.1050082534922311 4.5068773824677028e-05 0 0.10498027738389294 6.3999483459762399e-05 0 0.10498108901240515 4.3266931050399804e-05 0 0.10274208213062321 0.00081167090983912094 0 0.10224946918104272 0.001303924563662438 0 0.10376748526215429 0.00067580802497471204 0 0.10274208213062321 0.00081167090983912094 0 0.10303003260014158 0.00051872758552358835 0 0.10376748526215429 0.00067580802497471204 0 0.10371730059563938 0.00022261084978021729 0 0.10470802581524599 0.00016267065687060355 0 0.10239730083493147 0.00055068145234072881 0 0.10303003260014158 0.00051872758552358835 0 0.10321593796029858 -6.7075648830799557e-05 0 0.10303003260014158 0.00051872758552358835 0 0.10321593796029858 -6.7075648830799557e-05 0 0.10376748526215429 0.00067580802497471204 0 0.092409037362639987 -0.00070598175677918397 0 0.092276427831313124 -0.00053495896683299906 0 0.10321593796029858 -6.7075648830799557e-05 0 0.10376748526215429 0.00067580802497471204 0 0.10451012075258558 -0.00019734239927422052 0 0.10498027738389294 6.3999483459762399e-05 0 0.10498108901240515 4.3266931050399804e-05 0 0.10493108069468464 2.4556761916241016e-05 0 0.081069614920518202 -0.00038389597499865666 0 0.080890191553510779 0.00029940316158228873 0 0.080302890602614918 -4.8632915623349104e-05 0 0.081069614920518202 -0.00038389597499865666 0 0.081473056982675401 0.00011270768564254739 0 0.080890191553510779 0.00029940316158228873 0 0.081069614920518202 -0.00038389597499865666 0 0.080419076055287864 -0.0011386783074747234 0 0.080302890602614918 -4.8632915623349104e-05 0 0.081550213675377209 -0.001411600732924708 0 0.081069614920518202 -0.00038389597499865666 0 0.080419076055287864 -0.0011386783074747234 0 0.081550213675377209 -0.001411600732924708 0 0.081069614920518202 -0.00038389597499865666 0 0.081999283508550472 -0.00056464289499681642 0 0.081069614920518202 -0.00038389597499865666 0 0.081473056982675401 0.00011270768564254739 0 0.081999283508550472 -0.00056464289499681642 0 0.081473056982675401 0.00011270768564254739 0 0.081999283508550472 -0.00056464289499681642 0 0.082154490348649925 0.00022189119486825063 0 0.081999283508550472 -0.00056464289499681642 0 0.08304771135434566 -0.00043552602898431982 0 0.082154490348649925 0.00022189119486825063 0 0.082696807724604998 -0.0017039251488911518 0 0.081999283508550472 -0.00056464289499681642 0 0.08304771135434566 -0.00043552602898431982 0 0.083514605889881355 -0.0013673922809352426 0 0.082696807724604998 -0.0017039251488911518 0 0.08304771135434566 -0.00043552602898431982 0 0.080988920045506438 -0.0010533313939184764 0 0.079644410991526207 -0.00064993180313806709 0 0.08304771135434566 -0.00043552602898431982 0 0.082720283479660664 0.00054420103769881099 0 0.083368833600454828 0.00050603792442799865 0 0.08304771135434566 -0.00043552602898431982 0 0.082720283479660664 0.00054420103769881099 0 0.081850336785355984 0.00035839337859272345 0 0.082720283479660664 0.00054420103769881099 0 0.08298287091647634 0.0010543218958838651 0 0.083368833600454828 0.00050603792442799865 0 0.082720283479660664 0.00054420103769881099 0 0.08298287091647634 0.0010543218958838651 0 0.082181732673778526 0.0010142565856371074 0 0.075916938132479364 0.0013034694939699416 0 0.076353457256171528 0.0010269999514760395 0 0.072442661810349002 0.0011534975302804013 0 0.073812165732837373 0.0013986368021022292 0 0.072724540975070348 0.0023603926478277608 0 0.072442661810349002 0.0011534975302804013 0 0.071812365130233438 0.0019390929685617656 0 0.072724540975070348 0.0023603926478277608 0 0.08298287091647634 0.0010543218958838651 0 0.082495790345396613 0.0015381977769195962 0 0.08348794946727861 0.0016880577481066708 0 0.08298287091647634 0.0010543218958838651 0 0.082495790345396613 0.0015381977769195962 0 0.082181732673778526 0.0010142565856371074 0 0.075916938132479364 0.0013034694939699416 0 0.073433276688909477 0.0012759621752411079 0 0.071079968407756169 0.00090764433519070905 0 0.070898788983345437 0.0023632109100248148 0 0.071812365130233438 0.0019390929685617656 0 0.082495790345396613 0.0015381977769195962 0 0.082181732673778526 0.0010142565856371074 0 0.081443362468609226 0.0013793340608396262 0 0.072442661810349002 0.0011534975302804013 0 0.071079968407756169 0.00090764433519070905 0 0.071812365130233438 0.0019390929685617656 0 0.081469266330921317 0.0011608642514819624 0 0.082181732673778526 0.0010142565856371074 0 0.081443362468609226 0.0013793340608396262 0 0.081469266330921317 0.0011608642514819624 0 0.082181732673778526 0.0010142565856371074 0 0.081850336785355984 0.00035839337859272345 0 0.082720283479660664 0.00054420103769881099 0 0.082181732673778526 0.0010142565856371074 0 0.081850336785355984 0.00035839337859272345 0 0.081473056982675401 0.00011270768564254739 0 0.08125624605235883 0.00089056636749777665 0 0.080890191553510779 0.00029940316158228873 0 0.081469266330921317 0.0011608642514819624 0 0.081850336785355984 0.00035839337859272345 0 0.080631034575210217 0.0012390743697715044 0 0.081473056982675401 0.00011270768564254739 0 0.082154490348649925 0.00022189119486825063 0 0.08125624605235883 0.00089056636749777665 0 0.079644410991526207 -0.00064993180313806709 0 0.074268009995366882 0.0012460336829872266 0 0.073433276688909477 0.0012759621752411079 0 0.074268009995366882 0.0012460336829872266 0 0.073433276688909477 0.0012759621752411079 0 0.069913504755416009 0.0028606008235843726 0 0.081469266330921317 0.0011608642514819624 0 0.081439347821800387 0.0013897107730793967 0 0.080631034575210217 0.0012390743697715044 0 0.068256881992648205 0.0024263413126800765 0 0.068088198066579467 0.0026900868669352054 0 0.068179585510130383 0.0030935872465721373 0 0.068256881992648205 0.0024263413126800765 0 0.068088198066579467 0.0026900868669352054 0 0.067871779730640014 0.0023996032737951035 0 0.073483197871041961 0.0012583016558061042 0 0.073433276688909477 0.0012759621752411079 0 0.068011805695201225 0.003015503737725374 0 0.068495679919398728 0.0030594172267571842 0 0.070842340112062821 0.0013817340381667644 0 0.069201526017202364 0.0010899022440125489 0 0.069233243657241261 0.0025863624915414634 0 0.068088198066579467 0.0026900868669352054 0 0.067871779730640014 0.0023996032737951035 0 0.067360673015951986 0.0028051676844345818 0 0.074268009995366882 0.0012460336829872266 0 0.068495679919398728 0.0030594172267571842 0 0.080890191553510779 0.00029940316158228873 0 0.080302890602614918 -4.8632915623349104e-05 0 0.080358344719101138 0.00072693499146733536 0 0.074268009995366882 0.0012460336829872266 0 0.074414020745827619 0.0011170703836626147 0 0.08125624605235883 0.00089056636749777665 0 0.080890191553510779 0.00029940316158228873 0 0.080358344719101138 0.00072693499146733536 0 0.085600489184938566 -0.00012479273636262605 0 0.084991416652023186 -0.00014345676294093699 0 0.08536444764751526 -0.00066516510378443461 0 0.084991416652023186 -0.00014345676294093699 0 0.08536444764751526 -0.00066516510378443461 0 0.084771373014017895 -0.00043089011941404242 0 0.085600489184938566 -0.00012479273636262605 0 0.084991416652023186 -0.00014345676294093699 0 0.084820934780192786 0.00044227756796773484 0 0.078798416610774802 -0.0034711259156563565 0 0.07459016028329768 -0.0043013459216199651 0 0.076774918828794711 -0.0067354137342015407 0 0.085600489184938566 -0.00012479273636262605 0 0.086378670066954225 -0.0010163281383263984 0 0.08536444764751526 -0.00066516510378443461 0 0.086378670066954225 -0.0010163281383263984 0 0.085547890974022156 -0.0012234250817836794 0 0.08536444764751526 -0.00066516510378443461 0 0.079322684548556871 -0.0029358651707852503 0 0.0808372282788834 -0.0051098949639857023 0 0.08536444764751526 -0.00066516510378443461 0 0.084803941327016144 -0.00096466734174411282 0 0.084771373014017895 -0.00043089011941404242 0 0.085547890974022156 -0.0012234250817836794 0 0.08536444764751526 -0.00066516510378443461 0 0.084803941327016144 -0.00096466734174411282 0 0.084803941327016144 -0.00096466734174411282 0 0.083911827339184883 -0.00084000213286324077 0 0.084323702855927024 -0.00044587298417310032 0 0.084596089236800912 -0.0014512572897565077 0 0.084803941327016144 -0.00096466734174411282 0 0.083911827339184883 -0.00084000213286324077 0 0.084803941327016144 -0.00096466734174411282 0 0.084771373014017895 -0.00043089011941404242 0 0.084323702855927024 -0.00044587298417310032 0 0.083514605889881355 -0.0013673922809352426 0 0.084596089236800912 -0.0014512572897565077 0 0.083911827339184883 -0.00084000213286324077 0 0.083514605889881355 -0.0013673922809352426 0 0.08304771135434566 -0.00043552602898431982 0 0.083911827339184883 -0.00084000213286324077 0 0.08304771135434566 -0.00043552602898431982 0 0.083911827339184883 -0.00084000213286324077 0 0.083873933992802338 1.9487445911048528e-05 0 0.08304771135434566 -0.00043552602898431982 0 0.083873933992802338 1.9487445911048528e-05 0 0.083368833600454828 0.00050603792442799865 0 0.083911827339184883 -0.00084000213286324077 0 0.083873933992802338 1.9487445911048528e-05 0 0.084323702855927024 -0.00044587298417310032 0 0.084991416652023186 -0.00014345676294093699 0 0.084771373014017895 -0.00043089011941404242 0 0.084489352326393749 -5.4677896157639404e-06 0 0.084771373014017895 -0.00043089011941404242 0 0.084323702855927024 -0.00044587298417310032 0 0.084489352326393749 -5.4677896157639404e-06 0 0.083873933992802338 1.9487445911048528e-05 0 0.084323702855927024 -0.00044587298417310032 0 0.084489352326393749 -5.4677896157639404e-06 0 0.083873933992802338 1.9487445911048528e-05 0 0.084489352326393749 -5.4677896157639404e-06 0 0.084244356261321873 0.00043333348105320085 0 0.084489352326393749 -5.4677896157639404e-06 0 0.084244356261321873 0.00043333348105320085 0 0.084820934780192786 0.00044227756796773484 0 0.084991416652023186 -0.00014345676294093699 0 0.084489352326393749 -5.4677896157639404e-06 0 0.084820934780192786 0.00044227756796773484 0 0.079971091423683999 -0.00028204774991882122 0 0.081043875735036741 -0.00065004200778503117 0 0.084244356261321873 0.00043333348105320085 0 0.084182832752065104 0.0010383080417003907 0 0.083851799396293863 0.00062276852044221428 0 0.084244356261321873 0.00043333348105320085 0 0.084182832752065104 0.0010383080417003907 0 0.084820934780192786 0.00044227756796773484 0 0.083890861186946761 0.0011666651489787227 0 0.084716126856437327 0.00087767935560524905 0 0.084820934780192786 0.00044227756796773484 0 0.083368833600454828 0.00050603792442799865 0 0.083851799396293863 0.00062276852044221428 0 0.083601910702082047 0.0010350285908565049 0 0.083873933992802338 1.9487445911048528e-05 0 0.083368833600454828 0.00050603792442799865 0 0.083851799396293863 0.00062276852044221428 0 0.083873933992802338 1.9487445911048528e-05 0 0.084244356261321873 0.00043333348105320085 0 0.083851799396293863 0.00062276852044221428 0 0.084182832752065104 0.0010383080417003907 0 0.083851799396293863 0.00062276852044221428 0 0.083601910702082047 0.0010350285908565049 0 0.08298287091647634 0.0010543218958838651 0 0.083368833600454828 0.00050603792442799865 0 0.083601910702082047 0.0010350285908565049 0 0.08298287091647634 0.0010543218958838651 0 0.083601910702082047 0.0010350285908565049 0 0.08348794946727861 0.0016880577481066708 0 0.079971091423683999 -0.00028204774991882122 0 0.076353457256171528 0.0010269999514760395 0 0.084182832752065104 0.0010383080417003907 0 0.083601910702082047 0.0010350285908565049 0 0.08348794946727861 0.0016880577481066708 0 0.083890861186946761 0.0011666651489787227 0 0.083578041841435094 0.002109835381896066 0 0.082925291346966648 0.0019936376790200164 0 0.074727171590495717 0.0006369232779460934 0 0.076353457256171528 0.0010269999514760395 0 0.07502566580853158 0.00051840005583371875 0 0.073715943056576264 0.00028072976624915615 0 0.074201542630150052 0.001442093240888082 0 0.073607051376724061 0.00078664873791405845 0 0.072804846472429727 0.0015195392978589481 0 0.074249286411345039 0.00035638023267970189 0 0.074742899375571728 0.00044513100228542898 0 0.073618701512338847 0.0010649076624394023 0 0.074727171590495717 0.0006369232779460934 0 0.072804846472429727 0.0015195392978589481 0 0.072471908019785009 -0.0018844693045549923 0 0.070404744093436056 0.00046956422388835312 0 0.071826276795957669 0.00010847308838615983 0 0.070982206731506181 0.0005675432875053148 0 0.071826276795957669 0.00010847308838615983 0 0.074330309994441748 0.0011976198613430644 0 0.077470931285985159 -0.0011726106027311694 0 0.074727171590495717 0.0006369232779460934 0 0.083890861186946761 0.0011666651489787227 0 0.084716126856437327 0.00087767935560524905 0 0.083578041841435094 0.002109835381896066 0 0.072471908019785009 -0.0018844693045549923 0 0.071826276795957669 0.00010847308838615983 0 0.073537477031198714 -0.00042137725043796416 0 0.070404744093436056 0.00046956422388835312 0 0.070987075031643726 0.00057349361872595849 0 0.071826276795957669 0.00010847308838615983 0 0.073607051376724061 0.00078664873791405845 0 0.073479756792797557 0.00082094386090810184 0 0.074727171590495717 0.0006369232779460934 0 0.073607051376724061 0.00078664873791405845 0 0.073537477031198714 -0.00042137725043796416 0 0.075294743674523157 -0.0014833998592002199 0 0.074330309994441748 0.0011976198613430644 0 0.071826276795957669 0.00010847308838615983 0 0.073537477031198714 -0.00042137725043796416 0 0.074330309994441748 0.0011976198613430644 0 0.073607051376724061 0.00078664873791405845 0 0.074232051572880098 0.0010254519724967927 0 0.072471908019785009 -0.0018844693045549923 0 0.073537477031198714 -0.00042137725043796416 0 0.075294743674523157 -0.0014833998592002199 0 0.07459016028329768 -0.0043013459216199651 0 0.072471908019785009 -0.0018844693045549923 0 0.075294743674523157 -0.0014833998592002199 0 0.085600489184938566 -0.00012479273636262605 0 0.084716126856437327 0.00087767935560524905 0 0.084820934780192786 0.00044227756796773484 0 0.079322684548556871 -0.0029358651707852503 0 0.077470931285985159 -0.0011726106027311694 0 0.078798416610774802 -0.0034711259156563565 0 0.07459016028329768 -0.0043013459216199651 0 0.075294743674523157 -0.0014833998592002199 0 0.077580942299826539 -0.00061695436625075354 0 0.074330309994441748 0.0011976198613430644 0 0.07760822698015736 0.0018375861371301636 0 0.077580942299826539 -0.00061695436625075354 0 0.075294743674523157 -0.0014833998592002199 0 0.074330309994441748 0.0011976198613430644 0 0.074806924430821542 0.0033851372539563476 0 0.073646724956041992 0.0010294066332708787 0 0.07760822698015736 0.0018375861371301636 0 0.074232051572880098 0.0010254519724967927 0 0.07560294792808335 0.0013159661261789972 0 0.074806924430821542 0.0033851372539563476 0 0.075178118395610324 0.0053960379535743872 0 0.077600217274120573 0.0043875655746254578 0 0.074806924430821542 0.0033851372539563476 0 0.075178118395610324 0.0053960379535743872 0 0.072591191460884635 0.0047616176282238116 0 0.074806924430821542 0.0033851372539563476 0 0.072591191460884635 0.0047616176282238116 0 0.072208740538696442 0.0028167436525016148 0 0.072591191460884635 0.0047616176282238116 0 0.070886077642055373 0.0049727477681662758 0 0.072919375567018788 0.0065653651621162042 0 0.072591191460884635 0.0047616176282238116 0 0.072208740538696442 0.0028167436525016148 0 0.071123709545616906 0.0037425727355074063 0 0.074806924430821542 0.0033851372539563476 0 0.072208740538696442 0.0028167436525016148 0 0.073646724956041992 0.0010294066332708787 0 0.069816208193013415 0.00033623842608735961 0 0.072208740538696442 0.0028167436525016148 0 0.073646724956041992 0.0010294066332708787 0 0.069816208193013415 0.00033623842608735961 0 0.072208740538696442 0.0028167436525016148 0 0.070096753187409308 0.0026581111271210644 0 0.069816208193013415 0.00033623842608735961 0 0.070096753187409308 0.0026581111271210644 0 0.069100665576050407 0.0016473998911908053 0 0.072208740538696442 0.0028167436525016148 0 0.070096753187409308 0.0026581111271210644 0 0.071123709545616906 0.0037425727355074063 0 0.073715943056576264 0.00028072976624915615 0 0.074201542630150052 0.001442093240888082 0 0.071620502550398438 0.0021440835442963183 0 0.072804846472429727 0.0015195392978589481 0 0.070098453936191712 0.0028684158427941336 0 0.072804846472429727 0.0015195392978589481 0 0.071932686674344729 0.0021095225611335693 0 0.069816208193013415 0.00033623842608735961 0 0.069100665576050407 0.0016473998911908053 0 0.068306340357062997 0.0011688422780953295 0 0.069100665576050407 0.0016473998911908053 0 0.068306340357062997 0.0011688422780953295 0 0.068276206963054614 0.002461789105052238 0 0.070096753187409308 0.0026581111271210644 0 0.069100665576050407 0.0016473998911908053 0 0.068276206963054614 0.002461789105052238 0 0.070096753187409308 0.0026581111271210644 0 0.068276206963054614 0.002461789105052238 0 0.068527700131817554 0.003639481771800165 0 0.068276206963054614 0.002461789105052238 0 0.067567548838018132 0.0033659855731827957 0 0.068527700131817554 0.003639481771800165 0 0.068276206963054614 0.002461789105052238 0 0.067567548838018132 0.0033659855731827957 0 0.06695862633567716 0.0026792490096310554 0 0.068306340357062997 0.0011688422780953295 0 0.068276206963054614 0.002461789105052238 0 0.06695862633567716 0.0026792490096310554 0 0.067567548838018132 0.0033659855731827957 0 0.068527700131817554 0.003639481771800165 0 0.067292868075733522 0.0044462887614791797 0 0.067567548838018132 0.0033659855731827957 0 0.067292868075733522 0.0044462887614791797 0 0.066384043622795735 0.0035894068206332621 0 0.068527700131817554 0.003639481771800165 0 0.069005886202906069 0.0048274970262401455 0 0.069907147820586907 0.0039072505575247999 0 0.068527700131817554 0.003639481771800165 0 0.069005886202906069 0.0048274970262401455 0 0.067292868075733522 0.0044462887614791797 0 0.067292868075733522 0.0044462887614791797 0 0.067995320967990852 0.0056824460746158385 0 0.06660245703725419 0.0060206594782683306 0 0.069005886202906069 0.0048274970262401455 0 0.067292868075733522 0.0044462887614791797 0 0.067995320967990852 0.0056824460746158385 0 0.071123709545616906 0.0037425727355074063 0 0.069907147820586907 0.0039072505575247999 0 0.070886077642055373 0.0049727477681662758 0 0.070096753187409308 0.0026581111271210644 0 0.068527700131817554 0.003639481771800165 0 0.069907147820586907 0.0039072505575247999 0 0.070096753187409308 0.0026581111271210644 0 0.071123709545616906 0.0037425727355074063 0 0.069907147820586907 0.0039072505575247999 0 0.069005886202906069 0.0048274970262401455 0 0.070886077642055373 0.0049727477681662758 0 0.069436268469657197 0.0063165784987656457 0 0.069005886202906069 0.0048274970262401455 0 0.069907147820586907 0.0039072505575247999 0 0.070886077642055373 0.0049727477681662758 0 0.072591191460884635 0.0047616176282238116 0 0.071123709545616906 0.0037425727355074063 0 0.070886077642055373 0.0049727477681662758 0 0.070886077642055373 0.0049727477681662758 0 0.069436268469657197 0.0063165784987656457 0 0.070977384152651882 0.0073692627670552679 0 0.070886077642055373 0.0049727477681662758 0 0.070977384152651882 0.0073692627670552679 0 0.072919375567018788 0.0065653651621162042 0 0.069436268469657197 0.0063165784987656457 0 0.070977384152651882 0.0073692627670552679 0 0.069330127081833781 0.007997068970146598 0 0.067995320967990852 0.0056824460746158385 0 0.06768431126798341 0.0072152437224945248 0 0.06660245703725419 0.0060206594782683306 0 0.069005886202906069 0.0048274970262401455 0 0.069436268469657197 0.0063165784987656457 0 0.067995320967990852 0.0056824460746158385 0 0.069436268469657197 0.0063165784987656457 0 0.067995320967990852 0.0056824460746158385 0 0.06768431126798341 0.0072152437224945248 0 0.069436268469657197 0.0063165784987656457 0 0.06768431126798341 0.0072152437224945248 0 0.069330127081833781 0.007997068970146598 0 0.069330127081833781 0.007997068970146598 0 0.067289164194805504 0.0094883228526489588 0 0.070563738971829396 0.0094419667698710918 0 0.06768431126798341 0.0072152437224945248 0 0.069330127081833781 0.007997068970146598 0 0.067289164194805504 0.0094883228526489588 0 0.070977384152651882 0.0073692627670552679 0 0.070563738971829396 0.0094419667698710918 0 0.072728208917650444 0.0089054952986532907 0 0.070977384152651882 0.0073692627670552679 0 0.069330127081833781 0.007997068970146598 0 0.070563738971829396 0.0094419667698710918 0 0.072728208917650444 0.0089054952986532907 0 0.072277880191754254 0.010848939155802852 0 0.076455960121257036 0.010146609457783323 0 0.070563738971829396 0.0094419667698710918 0 0.072728208917650444 0.0089054952986532907 0 0.072278814974497896 0.010818545349184866 0 0.052984653424268009 0.00222434846632276 0 0.051695899257044847 0.00096146175348412572 0 0.074960035593505739 0.0076389900675960052 0 0.076455960121257036 0.010146609457783323 0 0.077507300574226251 0.0071894883933017505 0 0.072728208917650444 0.0089054952986532907 0 0.074960035593505739 0.0076389900675960052 0 0.076455960121257036 0.010146609457783323 0 0.075178118395610324 0.0053960379535743872 0 0.074960035593505739 0.0076389900675960052 0 0.077507300574226251 0.0071894883933017505 0 0.075178118395610324 0.0053960379535743872 0 0.074960035593505739 0.0076389900675960052 0 0.072919375567018788 0.0065653651621162042 0 0.072728208917650444 0.0089054952986532907 0 0.074960035593505739 0.0076389900675960052 0 0.072919375567018788 0.0065653651621162042 0 0.070977384152651882 0.0073692627670552679 0 0.072728208917650444 0.0089054952986532907 0 0.072919375567018788 0.0065653651621162042 0 0.075178118395610324 0.0053960379535743872 0 0.072591191460884635 0.0047616176282238116 0 0.072919375567018788 0.0065653651621162042 0 0.067502480984232491 0.0036352944612921207 0 0.068082748845544758 0.0038563980520729024 0 0.067369723435764736 0.0042391222305119963 0 0.067502480984232491 0.0036352944612921207 0 0.067369723435764736 0.0042391222305119963 0 0.066884474945418021 0.0036181586187822045 0 0.068088198066579467 0.0026900868669352054 0 0.067566641602383973 0.0030257534099229532 0 0.066964533521729749 0.0028432871801687652 0 0.067566641602383973 0.0030257534099229532 0 0.066884474945418021 0.0036181586187822045 0 0.066964533521729749 0.0028432871801687652 0 0.067502480984232491 0.0036352944612921207 0 0.067566641602383973 0.0030257534099229532 0 0.066884474945418021 0.0036181586187822045 0 0.067502480984232491 0.0036352944612921207 0 0.067566641602383973 0.0030257534099229532 0 0.067830344301124793 0.0033520878582886907 0 0.067830344301124793 0.0033520878582886907 0 0.067917213470018306 0.0030379079099317513 0 0.068179585510130383 0.0030935872465721373 0 0.067566641602383973 0.0030257534099229532 0 0.067830344301124793 0.0033520878582886907 0 0.067917213470018306 0.0030379079099317513 0 0.068088198066579467 0.0026900868669352054 0 0.067566641602383973 0.0030257534099229532 0 0.067917213470018306 0.0030379079099317513 0 0.068088198066579467 0.0026900868669352054 0 0.067917213470018306 0.0030379079099317513 0 0.068179585510130383 0.0030935872465721373 0 0.070898788983345437 0.0023632109100248148 0 0.070714563453999596 0.0038240272657263132 0 0.0716378276087907 0.0033206282602947384 0 0.067830344301124793 0.0033520878582886907 0 0.068179585510130383 0.0030935872465721373 0 0.068082748845544758 0.0038563980520729024 0 0.069913504755416009 0.0028606008235843726 0 0.066505913888683821 0.0045788781642041795 0 0.067502480984232491 0.0036352944612921207 0 0.067830344301124793 0.0033520878582886907 0 0.068082748845544758 0.0038563980520729024 0 0.061724618058742159 0.0047650899299657634 0 0.062356464724249251 0.004823807627390278 0 0.06276579155361868 0.0060260552224053344 0 0.062356464724249251 0.004823807627390278 0 0.063947490061897289 0.0051505047183208526 0 0.06276579155361868 0.0060260552224053344 0 0.062356464724249251 0.004823807627390278 0 0.063947490061897289 0.0051505047183208526 0 0.063529926843610057 0.0037810161557353551 0 0.061724618058742159 0.0047650899299657634 0 0.062356464724249251 0.004823807627390278 0 0.063561307608339127 0.0037614311068157871 0 0.063947490061897289 0.0051505047183208526 0 0.063529926843610057 0.0037810161557353551 0 0.065081462666927006 0.0039655095003193275 0 0.067899497988237842 0.0042370044771328618 0 0.068590061064019422 0.0038273957291204068 0 0.066505913888683821 0.0045788781642041795 0 0.068590061064019422 0.0038273957291204068 0 0.070898788983345437 0.0023632109100248148 0 0.0716378276087907 0.0033206282602947384 0 0.071812365130233438 0.0019390929685617656 0 0.0716378276087907 0.0033206282602947384 0 0.071812365130233438 0.0019390929685617656 0 0.072724540975070348 0.0023603926478277608 0 0.068590061064019422 0.0038273957291204068 0 0.070098453936191712 0.0028684158427941336 0 0.068590061064019422 0.0038273957291204068 0 0.072407810136648182 0.0024238380149729211 0 0.068339969313619436 0.0011495943701050879 0 0.065909081993897695 0.0024749438791198909 0 0.06695862633567716 0.0026792490096310554 0 0.074201542630150052 0.001442093240888082 0 0.071863947894594257 0.0027260529131670056 0 0.071620502550398438 0.0021440835442963183 0 0.069519384942939327 0.0040127621686545465 0 0.071863947894594257 0.0027260529131670056 0 0.071620502550398438 0.0021440835442963183 0 0.076353457256171528 0.0010269999514760395 0 0.072407810136648182 0.0024238380149729211 0 0.065909081993897695 0.0024749438791198909 0 0.06695862633567716 0.0026792490096310554 0 0.066384043622795735 0.0035894068206332621 0 0.067567548838018132 0.0033659855731827957 0 0.06695862633567716 0.0026792490096310554 0 0.066384043622795735 0.0035894068206332621 0 0.067292868075733522 0.0044462887614791797 0 0.066384043622795735 0.0035894068206332621 0 0.06564296096203405 0.0048270582274302538 0 0.063529926843610057 0.0037810161557353551 0 0.065909081993897695 0.0024749438791198909 0 0.065081462666927006 0.0039655095003193275 0 0.066384043622795735 0.0035894068206332621 0 0.065081462666927006 0.0039655095003193275 0 0.06564296096203405 0.0048270582274302538 0 0.065909081993897695 0.0024749438791198909 0 0.066384043622795735 0.0035894068206332621 0 0.065081462666927006 0.0039655095003193275 0 0.063947490061897289 0.0051505047183208526 0 0.065081462666927006 0.0039655095003193275 0 0.06564296096203405 0.0048270582274302538 0 0.063947490061897289 0.0051505047183208526 0 0.06564296096203405 0.0048270582274302538 0 0.065250916521919888 0.0061035830081971306 0 0.067292868075733522 0.0044462887614791797 0 0.06564296096203405 0.0048270582274302538 0 0.06660245703725419 0.0060206594782683306 0 0.06660245703725419 0.0060206594782683306 0 0.065250916521919888 0.0061035830081971306 0 0.065753078557499248 0.0073719834350665422 0 0.06564296096203405 0.0048270582274302538 0 0.06660245703725419 0.0060206594782683306 0 0.065250916521919888 0.0061035830081971306 0 0.065250916521919888 0.0061035830081971306 0 0.065753078557499248 0.0073719834350665422 0 0.064014148070317189 0.0068488314240008827 0 0.06768431126798341 0.0072152437224945248 0 0.06660245703725419 0.0060206594782683306 0 0.065753078557499248 0.0073719834350665422 0 0.067289164194805504 0.0094883228526489588 0 0.065753078557499248 0.0073719834350665422 0 0.063784343696764043 0.0088737933695438188 0 0.06768431126798341 0.0072152437224945248 0 0.067289164194805504 0.0094883228526489588 0 0.065753078557499248 0.0073719834350665422 0 0.063784343696764043 0.0088737933695438188 0 0.061285269903597998 0.0082524400333624411 0 0.062334361722427185 0.010701614007914563 0 0.063784343696764043 0.0088737933695438188 0 0.062943145382729326 0.0075591610704994995 0 0.061285269903597998 0.0082524400333624411 0 0.063784343696764043 0.0088737933695438188 0 0.062943145382729326 0.0075591610704994995 0 0.064014148070317189 0.0068488314240008827 0 0.062943145382729326 0.0075591610704994995 0 0.064014148070317189 0.0068488314240008827 0 0.06276579155361868 0.0060260552224053344 0 0.065753078557499248 0.0073719834350665422 0 0.063784343696764043 0.0088737933695438188 0 0.064014148070317189 0.0068488314240008827 0 0.063947490061897289 0.0051505047183208526 0 0.065250916521919888 0.0061035830081971306 0 0.064014148070317189 0.0068488314240008827 0 0.063947490061897289 0.0051505047183208526 0 0.064014148070317189 0.0068488314240008827 0 0.06276579155361868 0.0060260552224053344 0 0.061724618058742159 0.0047650899299657634 0 0.06276579155361868 0.0060260552224053344 0 0.061285269903597998 0.0082524400333624411 0 0.066505913888683821 0.0045788781642041795 0 0.064141322714736562 0.0077608600709350162 0 0.061751917394162303 0.0039481293794718557 0 0.061278031522788108 0.0078278069705744104 0 0.058770283245370918 0.0055721790232738568 0 0.066505913888683821 0.0045788781642041795 0 0.062374807854068501 0.0049778074637566319 0 0.062943145382729326 0.0075591610704994995 0 0.06276579155361868 0.0060260552224053344 0 0.061285269903597998 0.0082524400333624411 0 0.064141322714736562 0.0077608600709350162 0 0.06336885993074487 0.0094551936336352092 0 0.061278031522788108 0.0078278069705744104 0 0.058520472852982779 0.0078345057587710688 0 0.059561199025091903 0.010006133210422753 0 0.058520472852982779 0.0078345057587710688 0 0.057665512978531036 0.0099452936088297132 0 0.059561199025091903 0.010006133210422753 0 0.061278031522788108 0.0078278069705744104 0 0.058520472852982779 0.0078345057587710688 0 0.058770283245370918 0.0055721790232738568 0 0.058520472852982779 0.0078345057587710688 0 0.058770283245370918 0.0055721790232738568 0 0.055790450954184174 0.0071964885874071464 0 0.044353239251147231 0.0023061328069252525 0 0.044131738025866736 0.001983870586457681 0 0.040381451812821434 0.0029986540631548931 0 0.023305176606245682 0.0041861968223292989 0 0.022336572143635193 0.0017965260540645268 0 0.0239378092034487 0.0027919451903886455 0 0.043695796845515208 0.0015218000381611941 0 0.037056858880995171 0.0018473845211788244 0 0.023305176606245682 0.0041861968223292989 0 0.0239378092034487 0.0027919451903886455 0 0.025516025037660869 0.0038496004987219985 0 0.030643315245103806 -8.9431911340209072e-05 0 0.037056858880995171 0.0018473845211788244 0 0.043695796845515208 0.0015218000381611941 0 0.04521505755222676 0.0024482708055911778 0 0.059550639502654948 0.012678829771449554 0 0.059561199025091903 0.010006133210422753 0 0.060803583611957118 0.011720067620128271 0 0.059550639502654948 0.012678829771449554 0 0.057665512978531036 0.0099452936088297132 0 0.059561199025091903 0.010006133210422753 0 0.04521505755222676 0.0024482708055911778 0 0.052260591550482093 0.0056501406983020591 0 0.048684204987860656 0.0034184311126148588 0 0.04955346776577671 0.0046824978880106102 0 0.050619560205396659 0.0034696111388116779 0 0.061285269903597998 0.0082524400333624411 0 0.060803583611957118 0.011720067620128271 0 0.062334361722427185 0.010701614007914563 0 0.061278031522788108 0.0078278069705744104 0 0.059561199025091903 0.010006133210422753 0 0.060803583611957118 0.011720067620128271 0 0.060803583611957118 0.011720067620128271 0 0.062334361722427185 0.010701614007914563 0 0.061016757271077811 0.012669125151882595 0 0.044520366267304573 -0.0011106736764068745 0 0.044381929464599956 -0.0010902572094629644 0 0.044290756179182586 -0.0014624514265039786 0 0.044381929464599956 -0.0010902572094629644 0 0.044154349592263768 -0.0012809680930097591 0 0.044290756179182586 -0.0014624514265039786 0 0.046357295097412536 0.0018812963347978732 0 0.045086599840640659 0.0011611775506142012 0 0.043695796845515208 0.0015218000381611941 0 0.036908999260608484 -0.0009342400872037758 0 0.059550639502654948 0.012678829771449554 0 0.060803583611957118 0.011720067620128271 0 0.061016757271077811 0.012669125151882595 0 0.042288937721094273 0.0020230237897499344 0 0.041708112261352084 0.0011758195129520795 0 0.046667973047266477 0.0012750670848881319 0 0.04521505755222676 0.0024482708055911778 0 0.046357295097412536 0.0018812963347978732 0 0.043695796845515208 0.0015218000381611941 0 0.046357295097412536 0.0018812963347978732 0 0.044294890294215669 -0.0010709069408439402 0 0.044023374129112711 -0.0009620444610788987 0 0.043854482992098355 -0.0010943181221553431 0 0.044771903242404022 -0.001014057654789785 0 0.044294890294215669 -0.0010709069408439402 0 0.044023374129112711 -0.0009620444610788987 0 0.046357295097412536 0.0018812963347978732 0 0.05261518247805861 0.0026660982830572647 0 0.045086599840640659 0.0011611775506142012 0 0.044709869075540531 0.00093725865901510058 0 0.043983723169964663 -0.0012552205628715673 0 0.04410805484585182 -0.0011034750035404826 0 0.043854482992098355 -0.0010943181221553431 0 0.044381929464599956 -0.0010902572094629644 0 0.044154349592263768 -0.0012809680930097591 0 0.04410805484585182 -0.0011034750035404826 0 0.044154349592263768 -0.0012809680930097591 0 0.043983723169964663 -0.0012552205628715673 0 0.04410805484585182 -0.0011034750035404826 0 0.063784343696764043 0.0088737933695438188 0 0.062334361722427185 0.010701614007914563 0 0.064783281684006849 0.012038665277596054 0 0.062334361722427185 0.010701614007914563 0 0.061016757271077811 0.012669125151882595 0 0.064783281684006849 0.012038665277596054 0 0.044023374129112711 -0.0009620444610788987 0 0.043854482992098355 -0.0010943181221553431 0 0.043484711434822194 -0.00092247052544508728 0 0.067289164194805504 0.0094883228526489588 0 0.064783281684006849 0.012038665277596054 0 0.068530420766431246 0.011434556503049698 0 0.067289164194805504 0.0094883228526489588 0 0.063784343696764043 0.0088737933695438188 0 0.064783281684006849 0.012038665277596054 0 0.05261518247805861 0.0026660982830572647 0 0.054296165663426037 0.0023751026613398137 0 0.043983723169964663 -0.0012552205628715673 0 0.043854482992098355 -0.0010943181221553431 0 0.043785835258519819 -0.0013321341964207525 0 0.043854482992098355 -0.0010943181221553431 0 0.043785835258519819 -0.0013321341964207525 0 0.043595962000712897 -0.0012165541975059579 0 0.043785835258519819 -0.0013321341964207525 0 0.043747245635352962 -0.0016176852187428778 0 0.043512016280615899 -0.0014524428150399576 0 0.043983723169964663 -0.0012552205628715673 0 0.043785835258519819 -0.0013321341964207525 0 0.044002156086008597 -0.0014566327360872409 0 0.043785835258519819 -0.0013321341964207525 0 0.043747245635352962 -0.0016176852187428778 0 0.044002156086008597 -0.0014566327360872409 0 0.033065384680362124 -0.0023326151372844751 0 0.035408924816438599 -0.0043899447946324057 0 0.043747245635352962 -0.0016176852187428778 0 0.044048502024354522 -0.0018308560716829886 0 0.043644441038797749 -0.001932497176041735 0 0.043747245635352962 -0.0016176852187428778 0 0.044048502024354522 -0.0018308560716829886 0 0.044002156086008597 -0.0014566327360872409 0 0.033065384680362124 -0.0023326151372844751 0 0.036908999260608484 -0.0009342400872037758 0 0.02144859088626476 0.0010385269449829789 0 0.02178916440057049 0.0013095473772415846 0 0.021870247350394768 0.0020052912411537976 0 0.02144859088626476 0.0010385269449829789 0 0.021684245321571208 0.001130673685899129 0 0.02178916440057049 0.0013095473772415846 0 0.0214434059074044 0.0010848519691257158 0 0.021684245321571208 0.001130673685899129 0 0.021547228596397756 0.00063823359128719855 0 0.033065384680362124 -0.0023326151372844751 0 0.032415973468290407 -0.0023799736353684554 0 0.044048502024354522 -0.0018308560716829886 0 0.044002156086008597 -0.0014566327360872409 0 0.044290756179182586 -0.0014624514265039786 0 0.044154349592263768 -0.0012809680930097591 0 0.044002156086008597 -0.0014566327360872409 0 0.044290756179182586 -0.0014624514265039786 0 0.044154349592263768 -0.0012809680930097591 0 0.043983723169964663 -0.0012552205628715673 0 0.044002156086008597 -0.0014566327360872409 0 0.023305176606245682 0.0041861968223292989 0 0.021870247350394768 0.0020052912411537976 0 0.022336572143635193 0.0017965260540645268 0 0.022336572143635193 0.0017965260540645268 0 0.022264217694252842 0.0015131313838748868 0 0.022506239573946499 0.0016707536441038151 0 0.022336572143635193 0.0017965260540645268 0 0.022123902060237118 0.0016097160793884283 0 0.022264217694252842 0.0015131313838748868 0 0.021870247350394768 0.0020052912411537976 0 0.022123902060237118 0.0016097160793884283 0 0.021972353149300582 0.0014833758818980306 0 0.02178916440057049 0.0013095473772415846 0 0.021870247350394768 0.0020052912411537976 0 0.021972353149300582 0.0014833758818980306 0 0.021870247350394768 0.0020052912411537976 0 0.022336572143635193 0.0017965260540645268 0 0.022123902060237118 0.0016097160793884283 0 0.022123902060237118 0.0016097160793884283 0 0.021972353149300582 0.0014833758818980306 0 0.022090269465562706 0.001352690690028987 0 0.022090269465562706 0.001352690690028987 0 0.021961559786154689 0.0011863765580290479 0 0.022255205984314838 0.0012222042309479268 0 0.021972353149300582 0.0014833758818980306 0 0.022090269465562706 0.001352690690028987 0 0.021961559786154689 0.0011863765580290479 0 0.02178916440057049 0.0013095473772415846 0 0.021972353149300582 0.0014833758818980306 0 0.021961559786154689 0.0011863765580290479 0 0.021684245321571208 0.001130673685899129 0 0.02178916440057049 0.0013095473772415846 0 0.021961559786154689 0.0011863765580290479 0 0.021961559786154689 0.0011863765580290479 0 0.022144963402062699 0.0009139392253735987 0 0.02187387675277612 0.00087533273803033155 0 0.021684245321571208 0.001130673685899129 0 0.021961559786154689 0.0011863765580290479 0 0.02187387675277612 0.00087533273803033155 0 0.0224068504746151 0.00097537501619166921 0 0.022255205984314838 0.0012222042309479268 0 0.022144963402062699 0.0009139392253735987 0 0.021961559786154689 0.0011863765580290479 0 0.022255205984314838 0.0012222042309479268 0 0.022144963402062699 0.0009139392253735987 0 0.022255205984314838 0.0012222042309479268 0 0.022264217694252842 0.0015131313838748868 0 0.022451830222762831 0.0014139992014179645 0 0.022090269465562706 0.001352690690028987 0 0.022255205984314838 0.0012222042309479268 0 0.022264217694252842 0.0015131313838748868 0 0.022123902060237118 0.0016097160793884283 0 0.022090269465562706 0.001352690690028987 0 0.022264217694252842 0.0015131313838748868 0 0.022264217694252842 0.0015131313838748868 0 0.022451830222762831 0.0014139992014179645 0 0.022506239573946499 0.0016707536441038151 0 0.022451830222762831 0.0014139992014179645 0 0.022757664417544406 0.0015794780555088261 0 0.022506239573946499 0.0016707536441038151 0 0.022255205984314838 0.0012222042309479268 0 0.022451830222762831 0.0014139992014179645 0 0.022595999800824922 0.0012156935061959731 0 0.022451830222762831 0.0014139992014179645 0 0.022595999800824922 0.0012156935061959731 0 0.022757664417544406 0.0015794780555088261 0 0.0224068504746151 0.00097537501619166921 0 0.022595999800824922 0.0012156935061959731 0 0.02267373766878493 0.00082316884382256617 0 0.0224068504746151 0.00097537501619166921 0 0.022255205984314838 0.0012222042309479268 0 0.022595999800824922 0.0012156935061959731 0 0.022595999800824922 0.0012156935061959731 0 0.02308589048270945 0.00121684864265208 0 0.02267373766878493 0.00082316884382256617 0 0.022595999800824922 0.0012156935061959731 0 0.022757664417544406 0.0015794780555088261 0 0.02308589048270945 0.00121684864265208 0 0.022757664417544406 0.0015794780555088261 0 0.02309740040869564 0.0018123682372407557 0 0.02308589048270945 0.00121684864265208 0 0.022757664417544406 0.0015794780555088261 0 0.022722430540187525 0.0021035161687801714 0 0.02309740040869564 0.0018123682372407557 0 0.022722430540187525 0.0021035161687801714 0 0.023240404477375267 0.002495227444351164 0 0.02309740040869564 0.0018123682372407557 0 0.022757664417544406 0.0015794780555088261 0 0.022506239573946499 0.0016707536441038151 0 0.022722430540187525 0.0021035161687801714 0 0.022336572143635193 0.0017965260540645268 0 0.022506239573946499 0.0016707536441038151 0 0.022722430540187525 0.0021035161687801714 0 0.028808777139312146 -0.00058342726899478616 0 0.030643315245103806 -8.9431911340209072e-05 0 0.030451323382653432 -0.013264452685483485 0 0.029908355434392069 -0.013091198923594694 0 0.03014174973204168 -0.01276128946589429 0 0.030451323382653432 -0.013264452685483485 0 0.030044085034493948 -0.013619710076449638 0 0.029908355434392069 -0.013091198923594694 0 0.051695899257044847 0.00096146175348412572 0 0.053681195909992097 -0.0014231058952030693 0 0.030451323382653432 -0.013264452685483485 0 0.030044085034493948 -0.013619710076449638 0 0.030813730910815827 -0.01379338225725076 0 0.051695899257044847 0.00096146175348412572 0 0.043773201243049634 -0.0042780305266706632 0 0.051695899257044847 0.00096146175348412572 0 0.054296165663426037 0.0023751026613398137 0 0.070563738971829396 0.0094419667698710918 0 0.072278814974497896 0.010818545349184866 0 0.068530420766431246 0.011434556503049698 0 0.043043758110532591 -0.00085741344705029371 0 0.043484711434822194 -0.00092247052544508728 0 0.043101741926867582 -0.0012363163408197579 0 0.067289164194805504 0.0094883228526489588 0 0.070563738971829396 0.0094419667698710918 0 0.068530420766431246 0.011434556503049698 0 0.043484711434822194 -0.00092247052544508728 0 0.043595962000712897 -0.0012165541975059579 0 0.04336507956155046 -0.0012853818860912279 0 0.043854482992098355 -0.0010943181221553431 0 0.043484711434822194 -0.00092247052544508728 0 0.043595962000712897 -0.0012165541975059579 0 0.043595962000712897 -0.0012165541975059579 0 0.04336507956155046 -0.0012853818860912279 0 0.043512016280615899 -0.0014524428150399576 0 0.043484711434822194 -0.00092247052544508728 0 0.043101741926867582 -0.0012363163408197579 0 0.04336507956155046 -0.0012853818860912279 0 0.043101741926867582 -0.0012363163408197579 0 0.04336507956155046 -0.0012853818860912279 0 0.043157417539268196 -0.0016328605081019352 0 0.04336507956155046 -0.0012853818860912279 0 0.043512016280615899 -0.0014524428150399576 0 0.043157417539268196 -0.0016328605081019352 0 0.043773201243049634 -0.0042780305266706632 0 0.038259546337106744 -0.0064283822949800142 0 0.043512016280615899 -0.0014524428150399576 0 0.043441000463260465 -0.0017195708784281144 0 0.043157417539268196 -0.0016328605081019352 0 0.043747245635352962 -0.0016176852187428778 0 0.043512016280615899 -0.0014524428150399576 0 0.043441000463260465 -0.0017195708784281144 0 0.043785835258519819 -0.0013321341964207525 0 0.043595962000712897 -0.0012165541975059579 0 0.043512016280615899 -0.0014524428150399576 0 0.043747245635352962 -0.0016176852187428778 0 0.043441000463260465 -0.0017195708784281144 0 0.043644441038797749 -0.001932497176041735 0 0.043441000463260465 -0.0017195708784281144 0 0.043221076791440424 -0.0020345433031044827 0 0.043644441038797749 -0.001932497176041735 0 0.038259546337106744 -0.0064283822949800142 0 0.033336113180839975 -0.0078100182345571482 0 0.029787828687566211 -0.012646089107073592 0 0.029962931876780289 -0.012453080491927317 0 0.029677030779951406 -0.012259339520442315 0 0.043441000463260465 -0.0017195708784281144 0 0.043157417539268196 -0.0016328605081019352 0 0.043221076791440424 -0.0020345433031044827 0 0.029787828687566211 -0.012646089107073592 0 0.029962931876780289 -0.012453080491927317 0 0.03014174973204168 -0.01276128946589429 0 0.029962931876780289 -0.012453080491927317 0 0.03014174973204168 -0.01276128946589429 0 0.030168915615337837 -0.012495742063433147 0 0.029908355434392069 -0.013091198923594694 0 0.029787828687566211 -0.012646089107073592 0 0.03014174973204168 -0.01276128946589429 0 0.030451323382653432 -0.013264452685483485 0 0.03014174973204168 -0.01276128946589429 0 0.03069409200636045 -0.012817322311332889 0 0.03014174973204168 -0.01276128946589429 0 0.030168915615337837 -0.012495742063433147 0 0.03069409200636045 -0.012817322311332889 0 0.035510048213562191 -0.0098589233027153826 0 0.037142924573064499 -0.0094102992764459881 0 0.030168915615337837 -0.012495742063433147 0 0.030508004117859231 -0.013622507129993073 0 0.030654121546173026 -0.012366390414919767 0 0.031465795683022837 -0.012717780805073891 0 0.030508004117859231 -0.013622507129993073 0 0.030654121546173026 -0.012366390414919767 0 0.031465795683022837 -0.012717780805073891 0 0.032267048349825127 -0.012662859750342471 0 0.032097825455058952 -0.012098243136365953 0 0.031465795683022837 -0.012717780805073891 0 0.032212522518488239 -0.013172428461975094 0 0.032267048349825127 -0.012662859750342471 0 0.031465795683022837 -0.012717780805073891 0 0.031438243194016904 -0.013761625361528026 0 0.032212522518488239 -0.013172428461975094 0 0.031438243194016904 -0.013761625361528026 0 0.03230183069207334 -0.013902818104221819 0 0.032212522518488239 -0.013172428461975094 0 0.031438243194016904 -0.013761625361528026 0 0.031985771387326764 -0.014492242789715944 0 0.03230183069207334 -0.013902818104221819 0 0.031465795683022837 -0.012717780805073891 0 0.031438243194016904 -0.013761625361528026 0 0.030508004117859231 -0.013622507129993073 0 0.037142924573064499 -0.0094102992764459881 0 0.042715997990590435 -0.0074803275839857939 0 0.030451323382653432 -0.013264452685483485 0 0.03069409200636045 -0.012817322311332889 0 0.031218498129060947 -0.013321368905419661 0 0.031438243194016904 -0.013761625361528026 0 0.030508004117859231 -0.013622507129993073 0 0.031174203901977574 -0.014989731218142571 0 0.031438243194016904 -0.013761625361528026 0 0.031174203901977574 -0.014989731218142571 0 0.031985771387326764 -0.014492242789715944 0 0.031174203901977574 -0.014989731218142571 0 0.031985771387326764 -0.014492242789715944 0 0.032441310208853789 -0.015245502442511719 0 0.031174203901977574 -0.014989731218142571 0 0.032441310208853789 -0.015245502442511719 0 0.032054355278361174 -0.016462415514223519 0 0.042715997990590435 -0.0074803275839857939 0 0.055594574831973081 -0.0035047276414631062 0 0.031218498129060947 -0.013321368905419661 0 0.030813730910815827 -0.01379338225725076 0 0.031743508990406753 -0.013945035795912823 0 0.030451323382653432 -0.013264452685483485 0 0.031218498129060947 -0.013321368905419661 0 0.030813730910815827 -0.01379338225725076 0 0.033315081422191126 -0.015785540126246229 0 0.034574168411743385 -0.015466398290040198 0 0.03396919700368628 -0.01693451134009059 0 0.033315081422191126 -0.015785540126246229 0 0.033639828850208268 -0.01481922095517137 0 0.034574168411743385 -0.015466398290040198 0 0.033315081422191126 -0.015785540126246229 0 0.032441310208853789 -0.015245502442511719 0 0.033639828850208268 -0.01481922095517137 0 0.033315081422191126 -0.015785540126246229 0 0.032441310208853789 -0.015245502442511719 0 0.032054355278361174 -0.016462415514223519 0 0.032441310208853789 -0.015245502442511719 0 0.032851996735007494 -0.014369073009131511 0 0.033639828850208268 -0.01481922095517137 0 0.031985771387326764 -0.014492242789715944 0 0.032441310208853789 -0.015245502442511719 0 0.032851996735007494 -0.014369073009131511 0 0.031985771387326764 -0.014492242789715944 0 0.032851996735007494 -0.014369073009131511 0 0.03230183069207334 -0.013902818104221819 0 0.032851996735007494 -0.014369073009131511 0 0.033639828850208268 -0.01481922095517137 0 0.033478302372715735 -0.01404009040030859 0 0.033639828850208268 -0.01481922095517137 0 0.034351276450499811 -0.014693461936089712 0 0.034574168411743385 -0.015466398290040198 0 0.033639828850208268 -0.01481922095517137 0 0.034351276450499811 -0.014693461936089712 0 0.034174657729242011 -0.014147670794018149 0 0.033639828850208268 -0.01481922095517137 0 0.034174657729242011 -0.014147670794018149 0 0.033478302372715735 -0.01404009040030859 0 0.034174657729242011 -0.014147670794018149 0 0.033737865646575271 -0.013793423062748769 0 0.033930129141226957 -0.013472766743320271 0 0.03336474768395141 -0.013150909283684906 0 0.033277072706601185 -0.013259529950957253 0 0.032879154564500745 -0.012821049642117912 0 0.034174657729242011 -0.014147670794018149 0 0.033737865646575271 -0.013793423062748769 0 0.033478302372715735 -0.01404009040030859 0 0.033737865646575271 -0.013793423062748769 0 0.03338460925068331 -0.013525254983000454 0 0.033930129141226957 -0.013472766743320271 0 0.033737865646575271 -0.013793423062748769 0 0.033478302372715735 -0.01404009040030859 0 0.03338460925068331 -0.013525254983000454 0 0.033478302372715735 -0.01404009040030859 0 0.03338460925068331 -0.013525254983000454 0 0.032876487305448593 -0.013601860454254133 0 0.03338460925068331 -0.013525254983000454 0 0.033930129141226957 -0.013472766743320271 0 0.032879154564500745 -0.012821049642117912 0 0.032851996735007494 -0.014369073009131511 0 0.03230183069207334 -0.013902818104221819 0 0.032876487305448593 -0.013601860454254133 0 0.032851996735007494 -0.014369073009131511 0 0.033478302372715735 -0.01404009040030859 0 0.032876487305448593 -0.013601860454254133 0 0.03338460925068331 -0.013525254983000454 0 0.032876487305448593 -0.013601860454254133 0 0.032879154564500745 -0.012821049642117912 0 0.03230183069207334 -0.013902818104221819 0 0.032876487305448593 -0.013601860454254133 0 0.032212522518488239 -0.013172428461975094 0 0.032212522518488239 -0.013172428461975094 0 0.032879154564500745 -0.012821049642117912 0 0.032267048349825127 -0.012662859750342471 0 0.032876487305448593 -0.013601860454254133 0 0.032212522518488239 -0.013172428461975094 0 0.032879154564500745 -0.012821049642117912 0 0.032879154564500745 -0.012821049642117912 0 0.033051615943716958 -0.012659762177634443 0 0.032657545259406777 -0.012454478177706391 0 0.032879154564500745 -0.012821049642117912 0 0.032267048349825127 -0.012662859750342471 0 0.032657545259406777 -0.012454478177706391 0 0.03336474768395141 -0.013150909283684906 0 0.032879154564500745 -0.012821049642117912 0 0.033051615943716958 -0.012659762177634443 0 0.033701581776403672 -0.014535600016957828 0 0.033051615943716958 -0.012659762177634443 0 0.033937225627434127 -0.013310250674389568 0 0.035764623711548496 -0.012931928113743926 0 0.035227310117226428 -0.012684630826974451 0 0.035562769752463246 -0.012582412816621763 0 0.035005850321740424 -0.01238942103881289 0 0.033051615943716958 -0.012659762177634443 0 0.033937225627434127 -0.013310250674389568 0 0.033690629745704699 -0.012590795034275815 0 0.034703282261065276 -0.013926592600109535 0 0.034607052995688579 -0.012903085449006804 0 0.036303831659632364 -0.013813840028049003 0 0.033937225627434127 -0.013310250674389568 0 0.034703282261065276 -0.013926592600109535 0 0.034607052995688579 -0.012903085449006804 0 0.033937225627434127 -0.013310250674389568 0 0.034607052995688579 -0.012903085449006804 0 0.033690629745704699 -0.012590795034275815 0 0.033701581776403672 -0.014535600016957828 0 0.033937225627434127 -0.013310250674389568 0 0.034703282261065276 -0.013926592600109535 0 0.034607052995688579 -0.012903085449006804 0 0.036303831659632364 -0.013813840028049003 0 0.03507805262586354 -0.011978479721500982 0 0.034703282261065276 -0.013926592600109535 0 0.036303831659632364 -0.013813840028049003 0 0.03514486796228377 -0.015096995711543318 0 0.036569231760856927 -0.013913058245337015 0 0.036382438715175394 -0.015216766093427654 0 0.036969526719959747 -0.014087614152191306 0 0.037580201100795643 -0.016302814605109097 0 0.036312319953421331 -0.016762753912276461 0 0.036303831659632364 -0.013813840028049003 0 0.03514486796228377 -0.015096995711543318 0 0.036312319953421331 -0.016762753912276461 0 0.03336474768395141 -0.013150909283684906 0 0.033277072706601185 -0.013259529950957253 0 0.03373148586110012 -0.013734396676030731 0 0.035764623711548496 -0.012931928113743926 0 0.037193854536271241 -0.013032691880612032 0 0.033701581776403672 -0.014535600016957828 0 0.03514486796228377 -0.015096995711543318 0 0.034769023237686048 -0.016646659449361563 0 0.035562769752463246 -0.012582412816621763 0 0.037193854536271241 -0.013032691880612032 0 0.034174657729242011 -0.014147670794018149 0 0.033930129141226957 -0.013472766743320271 0 0.035041255120454355 -0.014351850956531881 0 0.033701581776403672 -0.014535600016957828 0 0.034703282261065276 -0.013926592600109535 0 0.03514486796228377 -0.015096995711543318 0 0.039802680051372184 -0.014188521911163252 0 0.038620356798677091 -0.012751231864216488 0 0.040376356441860883 -0.012524754403564813 0 0.0413080519059153 -0.014064523227305418 0 0.039802680051372184 -0.014188521911163252 0 0.040376356441860883 -0.012524754403564813 0 0.0413080519059153 -0.014064523227305418 0 0.041042667689827131 -0.015599418561080968 0 0.039802680051372184 -0.014188521911163252 0 0.036969526719959747 -0.014087614152191306 0 0.039802680051372184 -0.014188521911163252 0 0.038620356798677091 -0.012751231864216488 0 0.036969526719959747 -0.014087614152191306 0 0.039802680051372184 -0.014188521911163252 0 0.039010490954037538 -0.015757281746667087 0 0.036969526719959747 -0.014087614152191306 0 0.039010490954037538 -0.015757281746667087 0 0.037580201100795643 -0.016302814605109097 0 0.041042667689827131 -0.015599418561080968 0 0.039802680051372184 -0.014188521911163252 0 0.039010490954037538 -0.015757281746667087 0 0.041042667689827131 -0.015599418561080968 0 0.039010490954037538 -0.015757281746667087 0 0.04015035256630043 -0.017043941916466264 0 0.04015035256630043 -0.017043941916466264 0 0.038534096455398681 -0.017303710031535798 0 0.039742242107757793 -0.018259686205175193 0 0.039010490954037538 -0.015757281746667087 0 0.038534096455398681 -0.017303710031535798 0 0.037580201100795643 -0.016302814605109097 0 0.039010490954037538 -0.015757281746667087 0 0.04015035256630043 -0.017043941916466264 0 0.038534096455398681 -0.017303710031535798 0 0.038534096455398681 -0.017303710031535798 0 0.037580201100795643 -0.016302814605109097 0 0.037087831175647082 -0.017733483959748657 0 0.038534096455398681 -0.017303710031535798 0 0.038647640034040219 -0.018916213679878034 0 0.037087831175647082 -0.017733483959748657 0 0.038647640034040219 -0.018916213679878034 0 0.037087831175647082 -0.017733483959748657 0 0.037244891684434421 -0.019240531227823335 0 0.038534096455398681 -0.017303710031535798 0 0.038647640034040219 -0.018916213679878034 0 0.039742242107757793 -0.018259686205175193 0 0.041321684931017136 -0.018540357140635826 0 0.041179823243777954 -0.020436064139369985 0 0.040017820220724004 -0.019482663230475154 0 0.038647640034040219 -0.018916213679878034 0 0.039742242107757793 -0.018259686205175193 0 0.040017820220724004 -0.019482663230475154 0 0.041321684931017136 -0.018540357140635826 0 0.039742242107757793 -0.018259686205175193 0 0.040017820220724004 -0.019482663230475154 0 0.041321684931017136 -0.018540357140635826 0 0.04015035256630043 -0.017043941916466264 0 0.039742242107757793 -0.018259686205175193 0 0.037193854536271241 -0.013032691880612032 0 0.037188745035794946 -0.014428869370975548 0 0.034351276450499811 -0.014693461936089712 0 0.035041255120454355 -0.014351850956531881 0 0.034574168411743385 -0.015466398290040198 0 0.034351276450499811 -0.014693461936089712 0 0.034174657729242011 -0.014147670794018149 0 0.035041255120454355 -0.014351850956531881 0 0.03514486796228377 -0.015096995711543318 0 0.034769023237686048 -0.016646659449361563 0 0.036312319953421331 -0.016762753912276461 0 0.034769023237686048 -0.016646659449361563 0 0.037087831175647082 -0.017733483959748657 0 0.037244891684434421 -0.019240531227823335 0 0.034769023237686048 -0.016646659449361563 0 0.036312319953421331 -0.016762753912276461 0 0.037087831175647082 -0.017733483959748657 0 0.037580201100795643 -0.016302814605109097 0 0.036312319953421331 -0.016762753912276461 0 0.037087831175647082 -0.017733483959748657 0 0.037193854536271241 -0.013032691880612032 0 0.045852639408312773 -0.011023537120997889 0 0.034912869817313195 -0.012947182293929846 0 0.03603909530031104 -0.014972851577383555 0 0.037162807233157152 -0.015506439496987458 0 0.03603909530031104 -0.014972851577383555 0 0.037162807233157152 -0.015506439496987458 0 0.03716296874096741 -0.01703405652197592 0 0.035980765254136432 -0.015577177008453283 0 0.035376690321138167 -0.016390116551961174 0 0.036155462131196275 -0.016539082900019684 0 0.035041255120454355 -0.014351850956531881 0 0.035980765254136432 -0.015577177008453283 0 0.034574168411743385 -0.015466398290040198 0 0.034574168411743385 -0.015466398290040198 0 0.035376690321138167 -0.016390116551961174 0 0.03396919700368628 -0.01693451134009059 0 0.035980765254136432 -0.015577177008453283 0 0.034574168411743385 -0.015466398290040198 0 0.035376690321138167 -0.016390116551961174 0 0.035376690321138167 -0.016390116551961174 0 0.036283548213082072 -0.017521165007038073 0 0.03396919700368628 -0.01693451134009059 0 0.062257876031684756 -0.0055997449591011156 0 0.059097776214888875 -0.0043775975972100414 0 0.035376690321138167 -0.016390116551961174 0 0.036155462131196275 -0.016539082900019684 0 0.036283548213082072 -0.017521165007038073 0 0.035980765254136432 -0.015577177008453283 0 0.036155462131196275 -0.016539082900019684 0 0.03716296874096741 -0.01703405652197592 0 0.037188745035794946 -0.014428869370975548 0 0.037386852198006332 -0.015182842461415234 0 0.036155462131196275 -0.016539082900019684 0 0.03716296874096741 -0.01703405652197592 0 0.036283548213082072 -0.017521165007038073 0 0.088787472250111438 0.0086079572117179672 0 0.090452516406608133 0.0058481911681381241 0 0.088075074735838421 0.0045972955450087737 0 0.088787472250111438 0.0086079572117179672 0 0.085798052264505945 0.0066503358573497149 0 0.08445152213680529 0.0093391596096132831 0 0.088787472250111438 0.0086079572117179672 0 0.085798052264505945 0.0066503358573497149 0 0.088075074735838421 0.0045972955450087737 0 0.041179823243777954 -0.020436064139369985 0 0.040017820220724004 -0.019482663230475154 0 0.039514918151391881 -0.021568093991303463 0 0.038647640034040219 -0.018916213679878034 0 0.040017820220724004 -0.019482663230475154 0 0.039514918151391881 -0.021568093991303463 0 0.045852639408312773 -0.011023537120997889 0 0.064492030454662994 -0.0074932462197172126 0 0.038647640034040219 -0.018916213679878034 0 0.037244891684434421 -0.019240531227823335 0 0.039514918151391881 -0.021568093991303463 0 0.03716296874096741 -0.01703405652197592 0 0.036283548213082072 -0.017521165007038073 0 0.039505102432521401 -0.018113868522880029 0 0.037162807233157152 -0.015506439496987458 0 0.03716296874096741 -0.01703405652197592 0 0.039505102432521401 -0.018113868522880029 0 0.062257876031684756 -0.0055997449591011156 0 0.064492030454662994 -0.0074932462197172126 0 0.093114380154634191 0.0079606987060987285 0 0.090452516406608133 0.0058481911681381241 0 0.092482084719307925 0.004297365977391868 0 0.088787472250111438 0.0086079572117179672 0 0.093114380154634191 0.0079606987060987285 0 0.090452516406608133 0.0058481911681381241 0 0.069880906775467933 -0.007622979423113089 0 0.064492030454662994 -0.0074932462197172126 0 0.075875270038407244 -0.0073482918645239757 0 0.064492030454662994 -0.0074932462197172126 0 0.096389675684074638 0.004571395427602775 0 0.096929911688457882 0.0051688282125506389 0 0.093182499384706796 0.0080271853329211499 0 0.096389675684074638 0.004571395427602775 0 0.093114380154634191 0.0079606987060987285 0 0.094352803189174869 0.0050012563083325287 0 0.093114380154634191 0.0079606987060987285 0 0.094352803189174869 0.0050012563083325287 0 0.092482084719307925 0.004297365977391868 0 0.095187528065653823 0.0034790118428327187 0 0.094352803189174869 0.0050012563083325287 0 0.093925214037151011 0.0035854299977001905 0 0.09560767789521657 0.004100787992046895 0 0.095187528065653823 0.0034790118428327187 0 0.094352803189174869 0.0050012563083325287 0 0.09560767789521657 0.004100787992046895 0 0.096389675684074638 0.004571395427602775 0 0.094352803189174869 0.0050012563083325287 0 0.094352803189174869 0.0050012563083325287 0 0.093925214037151011 0.0035854299977001905 0 0.092482084719307925 0.004297365977391868 0 0.090452516406608133 0.0058481911681381241 0 0.092482084719307925 0.004297365977391868 0 0.090926986451225364 0.0024704461405099238 0 0.090465573658241344 0.000331830659450938 0 0.090926986451225364 0.0024704461405099238 0 0.091868045803339099 0.0010292461442606773 0 0.090926986451225364 0.0024704461405099238 0 0.091868045803339099 0.0010292461442606773 0 0.093032723643388868 0.0021831754428850068 0 0.093104062986821862 0.00054893916218508396 0 0.091868045803339099 0.0010292461442606773 0 0.093032723643388868 0.0021831754428850068 0 0.092482084719307925 0.004297365977391868 0 0.090926986451225364 0.0024704461405099238 0 0.093032723643388868 0.0021831754428850068 0 0.093925214037151011 0.0035854299977001905 0 0.093032723643388868 0.0021831754428850068 0 0.094665467171664783 0.0023747198678789644 0 0.093925214037151011 0.0035854299977001905 0 0.092482084719307925 0.004297365977391868 0 0.093032723643388868 0.0021831754428850068 0 0.093032723643388868 0.0021831754428850068 0 0.094403574622779152 0.0010358178733412987 0 0.094665467171664783 0.0023747198678789644 0 0.093104062986821862 0.00054893916218508396 0 0.093032723643388868 0.0021831754428850068 0 0.094403574622779152 0.0010358178733412987 0 0.095607296990644838 0.0015544177342994305 0 0.095659062960034638 0.00055039675927079444 0 0.094403574622779152 0.0010358178733412987 0 0.095607296990644838 0.0015544177342994305 0 0.094403574622779152 0.0010358178733412987 0 0.094665467171664783 0.0023747198678789644 0 0.095607296990644838 0.0015544177342994305 0 0.0957032454235546 0.0025426399052725919 0 0.094665467171664783 0.0023747198678789644 0 0.0957032454235546 0.0025426399052725919 0 0.095187528065653823 0.0034790118428327187 0 0.094665467171664783 0.0023747198678789644 0 0.095187528065653823 0.0034790118428327187 0 0.093925214037151011 0.0035854299977001905 0 0.094665467171664783 0.0023747198678789644 0 0.088075074735838421 0.0045972955450087737 0 0.085935100349747356 0.001921544804726877 0 0.085449049514591563 0.0043327540300795503 0 0.085798052264505945 0.0066503358573497149 0 0.088075074735838421 0.0045972955450087737 0 0.085449049514591563 0.0043327540300795503 0 0.090452516406608133 0.0058481911681381241 0 0.090926986451225364 0.0024704461405099238 0 0.088075074735838421 0.0045972955450087737 0 0.090926986451225364 0.0024704461405099238 0 0.088075074735838421 0.0045972955450087737 0 0.088577925326005003 0.0013848179116873875 0 0.090465573658241344 0.000331830659450938 0 0.090926986451225364 0.0024704461405099238 0 0.088577925326005003 0.0013848179116873875 0 0.088075074735838421 0.0045972955450087737 0 0.088577925326005003 0.0013848179116873875 0 0.085935100349747356 0.001921544804726877 0 0.087310716851800502 -4.0375017104124776e-05 0 0.088577925326005003 0.0013848179116873875 0 0.085935100349747356 0.001921544804726877 0 0.083285674780018693 8.2914526152907253e-06 0 0.08350793577897879 0.0014164086001940898 0 0.083426768683065325 0.00040009890072671353 0 0.085935100349747356 0.001921544804726877 0 0.083801932025953957 0.0036964845320539199 0 0.085935100349747356 0.001921544804726877 0 0.085449049514591563 0.0043327540300795503 0 0.083801932025953957 0.0036964845320539199 0 0.085449049514591563 0.0043327540300795503 0 0.083801932025953957 0.0036964845320539199 0 0.083665955150765386 0.0048524617660012882 0 0.083801932025953957 0.0036964845320539199 0 0.083665955150765386 0.0048524617660012882 0 0.082072358543234622 0.0041277342224137915 0 0.085798052264505945 0.0066503358573497149 0 0.085449049514591563 0.0043327540300795503 0 0.083665955150765386 0.0048524617660012882 0 0.083665955150765386 0.0048524617660012882 0 0.082072358543234622 0.0041277342224137915 0 0.082117567846751088 0.0070878346999412537 0 0.083801932025953957 0.0036964845320539199 0 0.082072358543234622 0.0041277342224137915 0 0.082102819902245106 0.0026086366543365005 0 0.082072358543234622 0.0041277342224137915 0 0.082102819902245106 0.0026086366543365005 0 0.080268019859571257 0.0038122719230700209 0 0.083240442881622731 0.00050106422793224248 0 0.083801932025953957 0.0036964845320539199 0 0.082102819902245106 0.0026086366543365005 0 0.083240442881622731 0.00050106422793224248 0 0.082102819902245106 0.0026086366543365005 0 0.080324136259185247 0.0016564476438166358 0 0.080324136259185247 0.0016564476438166358 0 0.07760822698015736 0.0018375861371301636 0 0.080268019859571257 0.0038122719230700209 0 0.082102819902245106 0.0026086366543365005 0 0.080324136259185247 0.0016564476438166358 0 0.080268019859571257 0.0038122719230700209 0 0.074806924430821542 0.0033851372539563476 0 0.07760822698015736 0.0018375861371301636 0 0.077600217274120573 0.0043875655746254578 0 0.07760822698015736 0.0018375861371301636 0 0.077600217274120573 0.0043875655746254578 0 0.080268019859571257 0.0038122719230700209 0 0.077600217274120573 0.0043875655746254578 0 0.080268019859571257 0.0038122719230700209 0 0.080116733546243851 0.0060092548680912398 0 0.082072358543234622 0.0041277342224137915 0 0.080268019859571257 0.0038122719230700209 0 0.080116733546243851 0.0060092548680912398 0 0.080116733546243851 0.0060092548680912398 0 0.077507300574226251 0.0071894883933017505 0 0.080533297412066107 0.009424516834863967 0 0.075178118395610324 0.0053960379535743872 0 0.077600217274120573 0.0043875655746254578 0 0.077507300574226251 0.0071894883933017505 0 0.077600217274120573 0.0043875655746254578 0 0.080116733546243851 0.0060092548680912398 0 0.077507300574226251 0.0071894883933017505 0 0.053681195909992097 -0.0014231058952030693 0 0.055594574831973081 -0.0035047276414631062 0 0.076455960121257036 0.010146609457783323 0 0.077507300574226251 0.0071894883933017505 0 0.080533297412066107 0.009424516834863967 0 0.033315081422191126 -0.015785540126246229 0 0.032054355278361174 -0.016462415514223519 0 0.03396919700368628 -0.01693451134009059 0 0.079873235959310118 0.010108813832377446 0 0.08445152213680529 0.0093391596096132831 0 0.08173731543112342 0.0074551221736595466 0 0.055594574831973081 -0.0035047276414631062 0 0.059097776214888875 -0.0043775975972100414 0 0.055594574831973081 -0.0035047276414631062 0 0.065132025272014157 -0.002001458080334043 0 0.085798052264505945 0.0066503358573497149 0 0.08445152213680529 0.0093391596096132831 0 0.083885798327691469 0.0070231115897824107 0 0.08445152213680529 0.0093391596096132831 0 0.083885798327691469 0.0070231115897824107 0 0.08173731543112342 0.0074551221736595466 0 0.083665955150765386 0.0048524617660012882 0 0.083885798327691469 0.0070231115897824107 0 0.08173731543112342 0.0074551221736595466 0 0.085798052264505945 0.0066503358573497149 0 0.083665955150765386 0.0048524617660012882 0 0.083885798327691469 0.0070231115897824107 0 0.082072358543234622 0.0041277342224137915 0 0.080116733546243851 0.0060092548680912398 0 0.082117567846751088 0.0070878346999412537 0 0.068199959137925911 -0.0018291487681691388 0 0.065132025272014157 -0.002001458080334043 0 0.080116733546243851 0.0060092548680912398 0 0.080533297412066107 0.009424516834863967 0 0.082117567846751088 0.0070878346999412537 0 0.085230518882786724 0.00015493225547481645 0 0.088372543726720876 0.0012413305750754596 0 0.086976360870341371 0.00033405627667773584 0 0.07940782367201106 0.001071778599653535 0 0.08265688756096691 0.0014419554847970317 0 0.088372543726720876 0.0012413305750754596 0 0.079853311170207553 2.9461160732807223e-05 0 0.081112136865086573 0.00027942489379507421 0 0.07940782367201106 0.001071778599653535 0 0.08265688756096691 0.0014419554847970317 0 0.079122119608932562 0.00037864489114144588 0 0.085230518882786724 0.00015493225547481645 0 0.084056451007847033 1.9129924961900309e-05 0 0.086976360870341371 0.00033405627667773584 0 0.085095645271852635 3.9684126697285613e-07 0 0.084056451007847033 1.9129924961900309e-05 0 0.079359828575176414 2.562461198995882e-07 0 0.085095645271852635 3.9684126697285613e-07 0 0.084056451007847033 1.9129924961900309e-05 0 0.086976360870341371 0.00033405627667773584 0 0.085230518882786724 0.00015493225547481645 0 0.084056451007847033 1.9129924961900309e-05 0 0.082221357065069708 0.00010921926741364277 0 0.079853311170207553 2.9461160732807223e-05 0 0.077224174207665239 -0.00047713437024711854 0 0.084056451007847033 1.9129924961900309e-05 0 0.082221357065069708 0.00010921926741364277 0 0.079359828575176414 2.562461198995882e-07 0 0.085230518882786724 0.00015493225547481645 0 0.082221357065069708 0.00010921926741364277 0 0.079981054798457712 0.0003581823501355632 0 0.082221357065069708 0.00010921926741364277 0 0.079359828575176414 2.562461198995882e-07 0 0.079981054798457712 0.0003581823501355632 0 0.07940782367201106 0.001071778599653535 0 0.077399500421478529 -9.2971699527100472e-05 0 0.078283830256865597 0.00026755727162008236 0 0.07940782367201106 0.001071778599653535 0 0.077399500421478529 -9.2971699527100472e-05 0 0.076119055284493073 -0.00051357359052668064 0 0.078283830256865597 0.00026755727162008236 0 0.077571317379407451 -0.00012657991087377412 0 0.079122119608932562 0.00037864489114144588 0 0.07940782367201106 0.001071778599653535 0 0.078283830256865597 0.00026755727162008236 0 0.079122119608932562 0.00037864489114144588 0 0.077399500421478529 -9.2971699527100472e-05 0 0.078283830256865597 0.00026755727162008236 0 0.077571317379407451 -0.00012657991087377412 0 0.077571317379407451 -0.00012657991087377412 0 0.077987037833635475 0.0002389997884100646 0 0.076990624723507317 -0.00019964953933130234 0 0.077571317379407451 -0.00012657991087377412 0 0.077987037833635475 0.0002389997884100646 0 0.079122119608932562 0.00037864489114144588 0 0.076930593878437203 0.00033130184007815422 0 0.076248434362068018 -0.00024864720434850183 0 0.076990624723507317 -0.00019964953933130234 0 0.077987037833635475 0.0002389997884100646 0 0.076930593878437203 0.00033130184007815422 0 0.076990624723507317 -0.00019964953933130234 0 0.077987037833635475 0.0002389997884100646 0 0.076930593878437203 0.00033130184007815422 0 0.077901444729521888 0.0012266334668804596 0 0.077901444729521888 0.0012266334668804596 0 0.077253814177111066 0.0022385233155115848 0 0.076608268009201411 0.0014462057594812115 0 0.076930593878437203 0.00033130184007815422 0 0.077901444729521888 0.0012266334668804596 0 0.076608268009201411 0.0014462057594812115 0 0.077901444729521888 0.0012266334668804596 0 0.079326659359877691 0.001062281905045421 0 0.078015082823054249 0.0034669070622175288 0 0.08265688756096691 0.0014419554847970317 0 0.079326659359877691 0.001062281905045421 0 0.078015082823054249 0.0034669070622175288 0 0.077987037833635475 0.0002389997884100646 0 0.079122119608932562 0.00037864489114144588 0 0.079326659359877691 0.001062281905045421 0 0.08265688756096691 0.0014419554847970317 0 0.079122119608932562 0.00037864489114144588 0 0.079326659359877691 0.001062281905045421 0 0.077987037833635475 0.0002389997884100646 0 0.077901444729521888 0.0012266334668804596 0 0.079326659359877691 0.001062281905045421 0 0.08265688756096691 0.0014419554847970317 0 0.09375037836393138 0.0026296360176679976 0 0.088372543726720876 0.0012413305750754596 0 0.086991849008171501 0.0018301386451332192 0 0.08749945514987359 0.0020937761553076243 0 0.09375037836393138 0.0026296360176679976 0 0.092163325697390525 0.0008747494826234569 0 0.088372543726720876 0.0012413305750754596 0 0.078015082823054249 0.0034669070622175288 0 0.076614265563087147 0.003837911383269305 0 0.076680515227178905 0.0028374390514585603 0 0.077901444729521888 0.0012266334668804596 0 0.078015082823054249 0.0034669070622175288 0 0.077253814177111066 0.0022385233155115848 0 0.077253814177111066 0.0022385233155115848 0 0.076680515227178905 0.0028374390514585603 0 0.076608268009201411 0.0014462057594812115 0 0.078015082823054249 0.0034669070622175288 0 0.077253814177111066 0.0022385233155115848 0 0.076680515227178905 0.0028374390514585603 0 0.09375037836393138 0.0026296360176679976 0 0.09539293078218089 0.0010238978673746354 0 0.098967399429479144 0.001793717515099452 0 0.08749945514987359 0.0020937761553076243 0 0.088634035468245553 0.0023084778395330925 0 0.09539293078218089 0.0010238978673746354 0 0.097766193835266565 0.00038920011536435644 0 0.098967399429479144 0.001793717515099452 0 0.09539293078218089 0.0010238978673746354 0 0.092163325697390525 0.0008747494826234569 0 0.094544057367544176 7.0489725681913251e-05 0 0.092163325697390525 0.0008747494826234569 0 0.090747568912015103 0.00043790152666218569 0 0.094544057367544176 7.0489725681913251e-05 0 0.09375037836393138 0.0026296360176679976 0 0.09539293078218089 0.0010238978673746354 0 0.092163325697390525 0.0008747494826234569 0 0.092163325697390525 0.0008747494826234569 0 0.090747568912015103 0.00043790152666218569 0 0.088372543726720876 0.0012413305750754596 0 0.090747568912015103 0.00043790152666218569 0 0.088372543726720876 0.0012413305750754596 0 0.086976360870341371 0.00033405627667773584 0 0.085095645271852635 3.9684126697285613e-07 0 0.086976360870341371 0.00033405627667773584 0 0.0908345513271165 -3.0494490332144707e-07 0 0.090747568912015103 0.00043790152666218569 0 0.086976360870341371 0.00033405627667773584 0 0.0908345513271165 -3.0494490332144707e-07 0 0.090747568912015103 0.00043790152666218569 0 0.0908345513271165 -3.0494490332144707e-07 0 0.093591266076809843 -0.00042444540394751202 0 0.0908345513271165 -3.0494490332144707e-07 0 0.093591266076809843 -0.00042444540394751202 0 0.096558022719699849 -4.0567695385623731e-07 0 0.090747568912015103 0.00043790152666218569 0 0.093591266076809843 -0.00042444540394751202 0 0.094544057367544176 7.0489725681913251e-05 0 0.093591266076809843 -0.00042444540394751202 0 0.094984713069261512 -0.0013899460663272017 0 0.095920896275731971 -0.00054439422436973136 0 0.096572556729318068 -1.0110033611081409e-06 0 0.098987755060285912 -0.00084185887016535082 0 0.093591266076809843 -0.00042444540394751202 0 0.096558022719699849 -4.0567695385623731e-07 0 0.094984713069261512 -0.0013899460663272017 0 0.10499488237923855 -2.3569847427838633e-06 0 0.10332165093136488 -0.0004722565566345477 0 0.10498892878887878 -1.3453726098937177e-06 0 0.096583063322894583 3.4078767823537962e-06 0 0.10499488237923855 -2.3569847427838633e-06 0 0.10332165093136488 -0.0004722565566345477 0 0.10274049489839385 -0.0013448726618514814 0 0.10498892878887878 -1.3453726098937177e-06 0 0.10067910397982971 -0.0020371698963634541 0 0.10499775561908631 -1.2702931125295416e-06 0 0.10383003142343408 -0.00083740966347212501 0 0.10332165093136488 -0.0004722565566345477 0 0.10274049489839385 -0.0013448726618514814 0 0.10498892878887878 -1.3453726098937177e-06 0 0.098987755060285912 -0.00084185887016535082 0 0.10002396811948128 -0.0011087548088875917 0 0.094984713069261512 -0.0013899460663272017 0 0.10274049489839385 -0.0013448726618514814 0 0.099551790436663609 -0.0012926082051436696 0 0.099551790436663609 -0.0012926082051436696 0 0.10020380288861361 -0.0010847824081885529 0 0.10067910397982971 -0.0020371698963634541 0 0.10274049489839385 -0.0013448726618514814 0 0.099551790436663609 -0.0012926082051436696 0 0.10067910397982971 -0.0020371698963634541 0 0.099551790436663609 -0.0012926082051436696 0 0.098609863655233873 -0.00066530946964397746 0 0.10020380288861361 -0.0010847824081885529 0 0.099551790436663609 -0.0012926082051436696 0 0.098609863655233873 -0.00066530946964397746 0 0.095920896275731971 -0.00054439422436973136 0 0.098609863655233873 -0.00066530946964397746 0 0.10018040711141772 -4.7991492095545724e-05 0 0.10020380288861361 -0.0010847824081885529 0 0.094984713069261512 -0.0013899460663272017 0 0.099551790436663609 -0.0012926082051436696 0 0.095920896275731971 -0.00054439422436973136 0 0.098609863655233873 -0.00066530946964397746 0 0.095920896275731971 -0.00054439422436973136 0 0.094544057367544176 7.0489725681913251e-05 0 0.093591266076809843 -0.00042444540394751202 0 0.095920896275731971 -0.00054439422436973136 0 0.094544057367544176 7.0489725681913251e-05 0 0.09539293078218089 0.0010238978673746354 0 0.094544057367544176 7.0489725681913251e-05 0 0.097766193835266565 0.00038920011536435644 0 0.098609863655233873 -0.00066530946964397746 0 0.094544057367544176 7.0489725681913251e-05 0 0.097766193835266565 0.00038920011536435644 0 0.097766193835266565 0.00038920011536435644 0 0.10018040711141772 -4.7991492095545724e-05 0 0.098967399429479144 0.001793717515099452 0 0.098609863655233873 -0.00066530946964397746 0 0.097766193835266565 0.00038920011536435644 0 0.10018040711141772 -4.7991492095545724e-05 0 0.090646066405338774 0.0019394199010945436 0 0.088634035468245553 0.0023084778395330925 0 0.10018040711141772 -4.7991492095545724e-05 0 0.10293766630344975 0.00021827682413526645 0 0.098967399429479144 0.001793717515099452 0 0.10018040711141772 -4.7991492095545724e-05 0 0.10293766630344975 0.00021827682413526645 0 0.10265925072601527 -0.00060672803624545277 0 0.07573426326416334 0.004379220513435666 0 0.075467763335850424 0.0038613232208570335 0 0.076614265563087147 0.003837911383269305 0 0.07573426326416334 0.004379220513435666 0 0.075336043013198462 0.0043598012084575142 0 0.075467763335850424 0.0038613232208570335 0 0.10293766630344975 0.00021827682413526645 0 0.10345332893952258 -0.00054530187099300438 0 0.10415173217576278 -0.00050171366035013751 0 0.090646066405338774 0.0019394199010945436 0 0.095531035221363081 -0.00041993397184310127 0 0.07573426326416334 0.004379220513435666 0 0.075336043013198462 0.0043598012084575142 0 0.075071517475549104 0.0049085366101776469 0 0.10293766630344975 0.00021827682413526645 0 0.10265925072601527 -0.00060672803624545277 0 0.10345332893952258 -0.00054530187099300438 0 0.10265925072601527 -0.00060672803624545277 0 0.10345332893952258 -0.00054530187099300438 0 0.10365472672620639 -0.0005362150544922249 0 0.10345332893952258 -0.00054530187099300438 0 0.10402382234293432 -0.00046888764224281175 0 0.10415173217576278 -0.00050171366035013751 0 0.10265925072601527 -0.00060672803624545277 0 0.10468380480860681 -0.00035301894039163227 0 0.10365472672620639 -0.0005362150544922249 0 0.10265925072601527 -0.00060672803624545277 0 0.10020380288861361 -0.0010847824081885529 0 0.10067910397982971 -0.0020371698963634541 0 0.10366197575114239 -0.00070152230544879169 0 0.10383003142343408 -0.00083740966347212501 0 0.10018040711141772 -4.7991492095545724e-05 0 0.10265925072601527 -0.00060672803624545277 0 0.10020380288861361 -0.0010847824081885529 0 0.10468380480860681 -0.00035301894039163227 0 0.10402382234293432 -0.00046888764224281175 0 0.10467259147494407 -0.00017342255327212265 0 0.10468380480860681 -0.00035301894039163227 0 0.10365472672620639 -0.0005362150544922249 0 0.10402382234293432 -0.00046888764224281175 0 0.10345332893952258 -0.00054530187099300438 0 0.10365472672620639 -0.0005362150544922249 0 0.10402382234293432 -0.00046888764224281175 0 0.10402382234293432 -0.00046888764224281175 0 0.10458435532029564 -0.00019507431769949404 0 0.1043780667272418 -0.0003544609356137698 0 0.10402382234293432 -0.00046888764224281175 0 0.10458435532029564 -0.00019507431769949404 0 0.10467259147494407 -0.00017342255327212265 0 0.10458435532029564 -0.00019507431769949404 0 0.1049990755660789 -1.7638787737883028e-07 0 0.10499888248366512 -2.5603248696480204e-07 0 0.10458435532029564 -0.00019507431769949404 0 0.1049990755660789 -1.7638787737883028e-07 0 0.10467259147494407 -0.00017342255327212265 0 0.10500042716617172 3.0675154433862681e-08 0 0.10468380480860681 -0.00035301894039163227 0 0.10467259147494407 -0.00017342255327212265 0 0.10500042716617172 3.0675154433862681e-08 0 0.1049990755660789 -1.7638787737883028e-07 0 0.10467259147494407 -0.00017342255327212265 0 0.10494612211949522 1.4037674157083446e-05 0 0.10499997009207716 1.3075887314965085e-07 0 0.10499974431866993 -1.573543754622847e-07 0 0.10494612211949522 1.4037674157083446e-05 0 0.1049462252902357 -4.1611693873378404e-05 0 0.10486860530516762 3.7236697069975222e-05 0 0.10498840287351474 -9.7378016210040065e-07 0 0.1007702079877331 -0.00032011647973241407 0 0.10458435532029564 -0.00019507431769949404 0 0.10499888248366512 -2.5603248696480204e-07 0 0.1043780667272418 -0.0003544609356137698 0 0.10494612211949522 1.4037674157083446e-05 0 0.10499997009207716 1.3075887314965085e-07 0 0.10497955520834182 -2.099596325188857e-05 0 0.1007702079877331 -0.00032011647973241407 0 0.095531035221363081 -0.00041993397184310127 0 0.10402382234293432 -0.00046888764224281175 0 0.1043780667272418 -0.0003544609356137698 0 0.10415173217576278 -0.00050171366035013751 0 0.10497955520834182 -2.099596325188857e-05 0 0.1049462252902357 -4.1611693873378404e-05 0 0.10496056666511643 -6.6974732809219284e-05 0 0.099496116931229978 -0.0016604577494290034 0 0.095531035221363081 -0.00041993397184310127 0 0.10494612211949522 1.4037674157083446e-05 0 0.10497955520834182 -2.099596325188857e-05 0 0.1049462252902357 -4.1611693873378404e-05 0 0.10412907124198963 0.00033825255580291182 0 0.10462002670889194 0.00044580765788370953 0 0.10486860530516762 3.7236697069975222e-05 0 0.099496116931229978 -0.0016604577494290034 0 0.10057577569642734 -0.0019135643156954509 0 0.10439701273290451 0.00067354135374452699 0 0.10467078499046535 0.00088733007298262936 0 0.10462002670889194 0.00044580765788370953 0 0.10412907124198963 0.00033825255580291182 0 0.10439701273290451 0.00067354135374452699 0 0.10462002670889194 0.00044580765788370953 0 0.10439701273290451 0.00067354135374452699 0 0.10415073468442106 0.0010094901473774918 0 0.10467078499046535 0.00088733007298262936 0 0.10412907124198963 0.00033825255580291182 0 0.10439701273290451 0.00067354135374452699 0 0.10415073468442106 0.0010094901473774918 0 0.10412907124198963 0.00033825255580291182 0 0.10415073468442106 0.0010094901473774918 0 0.10345685928005656 0.00082649067274955879 0 0.10415073468442106 0.0010094901473774918 0 0.10378277296745006 0.0013395197439020742 0 0.104098218474299 0.0014677186336136321 0 0.10415073468442106 0.0010094901473774918 0 0.104098218474299 0.0014677186336136321 0 0.10456166711467223 0.0015929301809902924 0 0.10415073468442106 0.0010094901473774918 0 0.10456166711467223 0.0015929301809902924 0 0.10467078499046535 0.00088733007298262936 0 0.075336043013198462 0.0043598012084575142 0 0.075071517475549104 0.0049085366101776469 0 0.075070816568899607 0.0042471132803415333 0 0.10345685928005656 0.00082649067274955879 0 0.10378277296745006 0.0013395197439020742 0 0.10335644256960735 0.0016970058211625205 0 0.095531035221363081 -0.00041993397184310127 0 0.090714902162972622 0.0025730115097189689 0 0.10415073468442106 0.0010094901473774918 0 0.10345685928005656 0.00082649067274955879 0 0.10378277296745006 0.0013395197439020742 0 0.10378277296745006 0.0013395197439020742 0 0.10335644256960735 0.0016970058211625205 0 0.1038840694554206 0.0017468489585688179 0 0.10335644256960735 0.0016970058211625205 0 0.1038840694554206 0.0017468489585688179 0 0.10361041358273419 0.0021296297475908357 0 0.075336043013198462 0.0043598012084575142 0 0.075070816568899607 0.0042471132803415333 0 0.075467763335850424 0.0038613232208570335 0 0.104098218474299 0.0014677186336136321 0 0.10417397646344331 0.001745365576505469 0 0.10456166711467223 0.0015929301809902924 0 0.10378277296745006 0.0013395197439020742 0 0.104098218474299 0.0014677186336136321 0 0.1038840694554206 0.0017468489585688179 0 0.104098218474299 0.0014677186336136321 0 0.1038840694554206 0.0017468489585688179 0 0.10417397646344331 0.001745365576505469 0 0.1038840694554206 0.0017468489585688179 0 0.10401624791151638 0.0019814735868518489 0 0.10394011699139377 0.0023143990813398714 0 0.090437043153592966 0.0026001358692491431 0 0.089097885977064126 0.0023242516684585188 0 0.1038840694554206 0.0017468489585688179 0 0.10401624791151638 0.0019814735868518489 0 0.10417397646344331 0.001745365576505469 0 0.10417397646344331 0.001745365576505469 0 0.10435284188894672 0.0019799977021768638 0 0.10456166711467223 0.0015929301809902924 0 0.10401624791151638 0.0019814735868518489 0 0.10417397646344331 0.001745365576505469 0 0.10435284188894672 0.0019799977021768638 0 0.09347552364557718 0.0024311641089751717 0 0.092022524542311149 0.0016250630418374106 0 0.10401624791151638 0.0019814735868518489 0 0.10427375833752399 0.002242735965478354 0 0.10394011699139377 0.0023143990813398714 0 0.10401624791151638 0.0019814735868518489 0 0.10435284188894672 0.0019799977021768638 0 0.10438890658623086 0.0023193240538508593 0 0.10435284188894672 0.0019799977021768638 0 0.10438890658623086 0.0023193240538508593 0 0.1045963756202168 0.0022814763259015468 0 0.092022524542311149 0.0016250630418374106 0 0.089097885977064126 0.0023242516684585188 0 0.1038840694554206 0.0017468489585688179 0 0.10394291574802519 0.0024784621734734026 0 0.10361041358273419 0.0021296297475908357 0 0.073785611609085422 0.0034352324053630694 0 0.07365739635752723 0.0025662797552002689 0 0.074109770612955275 0.0029410480927781536 0 0.089097885977064126 0.0023242516684585188 0 0.085798528819577016 0.0021352478600931237 0 0.087286537970839503 0.002287183228734229 0 0.087218149976506468 0.0022152827352364467 0 0.087258788517300109 0.0021256327229859625 0 0.08718435828014838 0.0023040486213869466 0 0.087286537970839503 0.002287183228734229 0 0.087218149976506468 0.0022152827352364467 0 0.08718435828014838 0.0023040486213869466 0 0.087218149976506468 0.0022152827352364467 0 0.087127389606887484 0.0022520280087608016 0 0.086172843700952823 0.0020855929642148874 0 0.090765640540304671 0.0012410303647555406 0 0.087218149976506468 0.0022152827352364467 0 0.087200417867857177 0.0020641187835247869 0 0.087127389606887484 0.0022520280087608016 0 0.087218149976506468 0.0022152827352364467 0 0.087258788517300109 0.0021256327229859625 0 0.087200417867857177 0.0020641187835247869 0 0.07365739635752723 0.0025662797552002689 0 0.07419194934544511 0.0021330912354028215 0 0.074109770612955275 0.0029410480927781536 0 0.087258788517300109 0.0021256327229859625 0 0.087224602288666603 0.0020588805134952141 0 0.087227839960057951 0.0019674981109281293 0 0.07365739635752723 0.0025662797552002689 0 0.07419194934544511 0.0021330912354028215 0 0.073558103741471897 0.0016899872640523217 0 0.085798528819577016 0.0021352478600931237 0 0.083585496463604095 0.0022070383628185462 0 0.081433710024453654 0.0020243384735334816 0 0.081689642631975964 0.0013102349588249096 0 0.08069074977580297 0.002189062727899246 0 0.086183399446036285 0.0020838025297566696 0 0.086172843700952823 0.0020855929642148874 0 0.087258788517300109 0.0021256327229859625 0 0.087224602288666603 0.0020588805134952141 0 0.087200417867857177 0.0020641187835247869 0 0.07419194934544511 0.0021330912354028215 0 0.074573095208079976 0.0026568172614394947 0 0.074899612278056346 0.0017636202451396204 0 0.074109770612955275 0.0029410480927781536 0 0.074573095208079976 0.0026568172614394947 0 0.074556369110919701 0.0032956134165519082 0 0.07419194934544511 0.0021330912354028215 0 0.074109770612955275 0.0029410480927781536 0 0.074573095208079976 0.0026568172614394947 0 0.08574733646080579 0.0046281652620763988 0 0.086375513270678383 0.0049188928520092655 0 0.090714902162972622 0.0025730115097189689 0 0.086375513270678383 0.0049188928520092655 0 0.10335644256960735 0.0016970058211625205 0 0.10326024396478731 0.0025964525764282822 0 0.10361041358273419 0.0021296297475908357 0 0.075070816568899607 0.0042471132803415333 0 0.075063995675763884 0.0035153094302588909 0 0.075467763335850424 0.0038613232208570335 0 0.073785611609085422 0.0034352324053630694 0 0.074109770612955275 0.0029410480927781536 0 0.074556369110919701 0.0032956134165519082 0 0.089097885977064126 0.0023242516684585188 0 0.086375513270678383 0.0049188928520092655 0 0.10394291574802519 0.0024784621734734026 0 0.10326024396478731 0.0025964525764282822 0 0.10361041358273419 0.0021296297475908357 0 0.075467763335850424 0.0038613232208570335 0 0.075714095924906452 0.0033167522456588557 0 0.076614265563087147 0.003837911383269305 0 0.075063995675763884 0.0035153094302588909 0 0.075467763335850424 0.0038613232208570335 0 0.075714095924906452 0.0033167522456588557 0 0.074573095208079976 0.0026568172614394947 0 0.074529073964104478 0.0034806858759450169 0 0.075714095924906452 0.0033167522456588557 0 0.086375513270678383 0.0049188928520092655 0 0.08226700804871763 0.0052124332215878746 0 0.075714095924906452 0.0033167522456588557 0 0.076614265563087147 0.003837911383269305 0 0.076680515227178905 0.0028374390514585603 0 0.075714095924906452 0.0033167522456588557 0 0.076680515227178905 0.0028374390514585603 0 0.075816938101764889 0.0021663470584510507 0 0.076680515227178905 0.0028374390514585603 0 0.075816938101764889 0.0021663470584510507 0 0.076608268009201411 0.0014462057594812115 0 0.075714095924906452 0.0033167522456588557 0 0.075816938101764889 0.0021663470584510507 0 0.075249653602976224 0.0024652426488826749 0 0.074573095208079976 0.0026568172614394947 0 0.075714095924906452 0.0033167522456588557 0 0.075249653602976224 0.0024652426488826749 0 0.074573095208079976 0.0026568172614394947 0 0.075249653602976224 0.0024652426488826749 0 0.074899612278056346 0.0017636202451396204 0 0.075816938101764889 0.0021663470584510507 0 0.075249653602976224 0.0024652426488826749 0 0.074899612278056346 0.0017636202451396204 0 0.075816938101764889 0.0021663470584510507 0 0.074899612278056346 0.0017636202451396204 0 0.075764483744059696 0.0011220645810456767 0 0.075816938101764889 0.0021663470584510507 0 0.075764483744059696 0.0011220645810456767 0 0.076608268009201411 0.0014462057594812115 0 0.075764483744059696 0.0011220645810456767 0 0.076608268009201411 0.0014462057594812115 0 0.076241612847028226 0.00045894424409467137 0 0.076241612847028226 0.00045894424409467137 0 0.075407800096430805 0.00013123257471889287 0 0.076248434362068018 -0.00024864720434850183 0 0.076930593878437203 0.00033130184007815422 0 0.076241612847028226 0.00045894424409467137 0 0.076248434362068018 -0.00024864720434850183 0 0.076930593878437203 0.00033130184007815422 0 0.076608268009201411 0.0014462057594812115 0 0.076241612847028226 0.00045894424409467137 0 0.074899612278056346 0.0017636202451396204 0 0.075764483744059696 0.0011220645810456767 0 0.075407800096430805 0.00013123257471889287 0 0.075764483744059696 0.0011220645810456767 0 0.076241612847028226 0.00045894424409467137 0 0.075407800096430805 0.00013123257471889287 0 0.075626548131560431 0.0011686201032701244 0 0.075866991244407864 0.000787024970419355 0 0.075151319642671383 0.00045855838028168274 0 0.0740084996470734 0.00054584430586366022 0 0.074391984461560604 0.0012020239439110812 0 0.074899612278056346 0.0017636202451396204 0 0.075151319642671383 0.00045855838028168274 0 0.074391984461560604 0.0012020239439110812 0 0.08019644719759686 0.0019611822904715601 0 0.083585496463604095 0.0022070383628185462 0 0.079692538797634618 0.0023900628877529615 0 0.083585496463604095 0.0022070383628185462 0 0.079971761975461686 0.0024120843366703133 0 0.079588000393494548 0.002525903651690471 0 0.079897206556148348 0.0017233003251423619 0 0.0740084996470734 0.00054584430586366022 0 0.073558103741471897 0.0016899872640523217 0 0.074391984461560604 0.0012020239439110812 0 0.081502141597797548 -6.3080429549427724e-05 0 0.081689642631975964 0.0013102349588249096 0 0.080508293030052178 0.00068894490071873694 0 0.087224602288666603 0.0020588805134952141 0 0.08719840582343423 0.0020645500835352187 0 0.087227839960057951 0.0019674981109281293 0 0.086172843700952823 0.0020855929642148874 0 0.083585496463604095 0.0022070383628185462 0 0.07419194934544511 0.0021330912354028215 0 0.074899612278056346 0.0017636202451396204 0 0.074391984461560604 0.0012020239439110812 0 0.07419194934544511 0.0021330912354028215 0 0.073558103741471897 0.0016899872640523217 0 0.074391984461560604 0.0012020239439110812 0 0.079179434884421029 0.00059689677526476306 0 0.079670709903821912 0.0011035296131597686 0 0.079692297138696758 0.00040957773465197131 0 0.079179434884421029 0.00059689677526476306 0 0.079670709903821912 0.0011035296131597686 0 0.07870124535716698 0.001120481971840693 0 0.079670709903821912 0.0011035296131597686 0 0.07870124535716698 0.001120481971840693 0 0.079755070926945559 0.0020578702004007249 0 0.079670709903821912 0.0011035296131597686 0 0.080138068509832877 0.0013761994080797096 0 0.079752056562075707 0.0020441536962732994 0 0.085093238823442344 0.00049376209426614493 0 0.087395174251412619 0.0014957645761593599 0 0.080138068509832877 0.0013761994080797096 0 0.08045362271391987 0.00052224470198234817 0 0.080619235417778032 0.0018500642041545104 0 0.081689642631975964 0.0013102349588249096 0 0.080508293030052178 0.00068894490071873694 0 0.08069074977580297 0.002189062727899246 0 0.079670709903821912 0.0011035296131597686 0 0.08045362271391987 0.00052224470198234817 0 0.079692297138696758 0.00040957773465197131 0 0.079670709903821912 0.0011035296131597686 0 0.080138068509832877 0.0013761994080797096 0 0.08045362271391987 0.00052224470198234817 0 0.08045362271391987 0.00052224470198234817 0 0.079930712310129104 -0.00019294401996324573 0 0.079692297138696758 0.00040957773465197131 0 0.08045362271391987 0.00052224470198234817 0 0.079930712310129104 -0.00019294401996324573 0 0.080325083309431222 -0.00081576889622338286 0 0.085093238823442344 0.00049376209426614493 0 0.084376766993826763 -3.4610771534212937e-05 0 0.081502141597797548 -6.3080429549427724e-05 0 0.080508293030052178 0.00068894490071873694 0 0.080325083309431222 -0.00081576889622338286 0 0.079930712310129104 -0.00019294401996324573 0 0.079239009514977421 -6.2413540908124308e-05 0 0.079761073260030985 -0.00096137774729759058 0 0.079239009514977421 -6.2413540908124308e-05 0 0.078304543287265202 -0.00047956833557881537 0 0.079761073260030985 -0.00096137774729759058 0 0.079930712310129104 -0.00019294401996324573 0 0.079692297138696758 0.00040957773465197131 0 0.079239009514977421 -6.2413540908124308e-05 0 0.079179434884421029 0.00059689677526476306 0 0.079692297138696758 0.00040957773465197131 0 0.079239009514977421 -6.2413540908124308e-05 0 0.079179434884421029 0.00059689677526476306 0 0.079239009514977421 -6.2413540908124308e-05 0 0.07862330705214042 0.00027307972868831414 0 0.079239009514977421 -6.2413540908124308e-05 0 0.078304543287265202 -0.00047956833557881537 0 0.07862330705214042 0.00027307972868831414 0 0.078304543287265202 -0.00047956833557881537 0 0.07862330705214042 0.00027307972868831414 0 0.07776477194842088 0.00015512627969938248 0 0.076966243221732539 0.0009502759651248624 0 0.077148761812358302 0.00075940407881419615 0 0.077382813407028336 9.4343384083537925e-05 0 0.077791516284189247 -8.6855611680500326e-06 0 0.07641158615375479 0.0017046177293825759 0 0.078304543287265202 -0.00047956833557881537 0 0.077382813407028336 9.4343384083537925e-05 0 0.07776477194842088 0.00015512627969938248 0 0.077382813407028336 9.4343384083537925e-05 0 0.077717396040302755 3.6443118589519826e-05 0 0.077791516284189247 -8.6855611680500326e-06 0 0.077382813407028336 9.4343384083537925e-05 0 0.07776477194842088 0.00015512627969938248 0 0.077717396040302755 3.6443118589519826e-05 0 0.07776477194842088 0.00015512627969938248 0 0.077717396040302755 3.6443118589519826e-05 0 0.077730117691383174 5.5089015317840672e-05 0 0.077717396040302755 3.6443118589519826e-05 0 0.077730117691383174 5.5089015317840672e-05 0 0.077798654619664051 3.8357475624219743e-05 0 0.077730117691383174 5.5089015317840672e-05 0 0.077798654619664051 3.8357475624219743e-05 0 0.077626858478781396 -5.3969349393994366e-05 0 0.07862330705214042 0.00027307972868831414 0 0.07776477194842088 0.00015512627969938248 0 0.07870124535716698 0.001120481971840693 0 0.079179434884421029 0.00059689677526476306 0 0.07862330705214042 0.00027307972868831414 0 0.07870124535716698 0.001120481971840693 0 0.07776477194842088 0.00015512627969938248 0 0.077730117691383174 5.5089015317840672e-05 0 0.077568053446853844 3.4523385796094108e-05 0 0.081751500994527382 -0.0014782192825492249 0 0.08321215903014767 -0.0010570059302915165 0 0.077730117691383174 5.5089015317840672e-05 0 0.077568053446853844 3.4523385796094108e-05 0 0.077626858478781396 -5.3969349393994366e-05 0 0.077626858478781396 -5.3969349393994366e-05 0 0.077653882074273289 -0.00023274819076862043 0 0.077426035656842765 -9.917659772909166e-05 0 0.090015641416175407 0.00059093954981414394 0 0.088963380103871045 0.0011169100820526824 0 0.077798654619664051 3.8357475624219743e-05 0 0.077626858478781396 -5.3969349393994366e-05 0 0.077653882074273289 -0.00023274819076862043 0 0.077798654619664051 3.8357475624219743e-05 0 0.077653882074273289 -0.00023274819076862043 0 0.078297846485749889 -0.00054246472067133878 0 0.090015641416175407 0.00059093954981414394 0 0.091057349501667717 0.00013287839695403327 0 0.10226381315179349 0.0012561984655937886 0 0.10328521225209243 -0.00016310685607813334 0 0.10410144099479285 0.00074171449577662069 0 0.10226381315179349 0.0012561984655937886 0 0.10096352131895445 0.00094708593141381756 0 0.10176325894984979 -6.4152886638488898e-05 0 0.10226381315179349 0.0012561984655937886 0 0.10176325894984979 -6.4152886638488898e-05 0 0.10328521225209243 -0.00016310685607813334 0 0.10096352131895445 0.00094708593141381756 0 0.10010820824721769 0.00018762454302919778 0 0.10176325894984979 -6.4152886638488898e-05 0 0.10096352131895445 0.00094708593141381756 0 0.10036384093535709 0.0017108182353583986 0 0.10010820824721769 0.00018762454302919778 0 0.088963380103871045 0.0011169100820526824 0 0.094588319605531462 0.00048370296782350984 0 0.094588319605531462 0.00048370296782350984 0 0.098052467641146571 7.6275836630902066e-06 0 0.077568053446853844 3.4523385796094108e-05 0 0.077626858478781396 -5.3969349393994366e-05 0 0.077426035656842765 -9.917659772909166e-05 0 0.10226381315179349 0.0012561984655937886 0 0.10096352131895445 0.00094708593141381756 0 0.10036384093535709 0.0017108182353583986 0 0.088282692949001207 0.0010771125635063129 0 0.088963380103871045 0.0011169100820526824 0 0.08321215903014767 -0.0010570059302915165 0 0.088963380103871045 0.0011169100820526824 0 0.088786083633105542 0.00022813190247093304 0 0.089578245305169682 5.3970710528601504e-05 0 0.089690447082210065 0.0010374100269985515 0 0.087395174251412619 0.0014957645761593599 0 0.090765640540304671 0.0012410303647555406 0 0.089064174432783985 0.0015095236653940665 0 0.08895857472725939 0.0015325572838045922 0 0.088983112147460713 0.001706276015290007 0 0.086172843700952823 0.0020855929642148874 0 0.087395174251412619 0.0014957645761593599 0 0.080138068509832877 0.0013761994080797096 0 0.079752056562075707 0.0020441536962732994 0 0.080619235417778032 0.0018500642041545104 0 0.088963380103871045 0.0011169100820526824 0 0.087395174251412619 0.0014957645761593599 0 0.088963380103871045 0.0011169100820526824 0 0.090765640540304671 0.0012410303647555406 0 0.091018696062563881 0.00078252858604629515 0 0.091570356735193162 0.0017884090608563279 0 0.091256586054265593 0.0021519540820978608 0 0.091985946432798463 0.0016450079361399492 0 0.091570356735193162 0.0017884090608563279 0 0.092007801971049658 0.0018367509829738309 0 0.092022524542311149 0.0016250630418374106 0 0.090765640540304671 0.0012410303647555406 0 0.091772042685963631 0.0033092426810210473 0 0.090790978265358244 0.0024304676758084786 0 0.090850222694222355 0.0029577616950712455 0 0.090765640540304671 0.0012410303647555406 0 0.091851564872670474 0.0011977027512025096 0 0.091018696062563881 0.00078252858604629515 0 0.091985946432798463 0.0016450079361399492 0 0.091570356735193162 0.0017884090608563279 0 0.094588319605531462 0.00048370296782350984 0 0.092882563728627091 0.0011273494481653247 0 0.091570356735193162 0.0017884090608563279 0 0.091256586054265593 0.0021519540820978608 0 0.092028484808138064 0.002019033139453924 0 0.092022524542311149 0.0016250630418374106 0 0.092882563728627091 0.0011273494481653247 0 0.091772042685963631 0.0033092426810210473 0 0.090906515124057397 0.0034582948944971124 0 0.090850222694222355 0.0029577616950712455 0 0.092882563728627091 0.0011273494481653247 0 0.091851564872670474 0.0011977027512025096 0 0.091570356735193162 0.0017884090608563279 0 0.092028484808138064 0.002019033139453924 0 0.092007801971049658 0.0018367509829738309 0 0.10435284188894672 0.0019799977021768638 0 0.1045963756202168 0.0022814763259015468 0 0.10456166711467223 0.0015929301809902924 0 0.092882563728627091 0.0011273494481653247 0 0.094008331750043944 0.0016244348613218607 0 0.10461065566760747 0.0023118699820846261 0 0.10456166711467223 0.0015929301809902924 0 0.10508165471734751 0.0013189863272095798 0 0.094588319605531462 0.00048370296782350984 0 0.096987066506816322 -0.00048713220984741504 0 0.095341144287981142 0.00011460351302573787 0 0.095498868398238221 8.7898522435474538e-05 0 0.095380327490119945 0.00037756336823496057 0 0.092882563728627091 0.0011273494481653247 0 0.096987066506816322 -0.00048713220984741504 0 0.1003125690417844 0.00018440332566003266 0 0.10077978663133956 -0.00052637025432791882 0 0.10015410567128213 -0.0010856111376205953 0 0.10077978663133956 -0.00052637025432791882 0 0.10114037726294521 -0.0011989863190823506 0 0.10176325894984979 -6.4152886638488898e-05 0 0.1003125690417844 0.00018440332566003266 0 0.10077978663133956 -0.00052637025432791882 0 0.10176325894984979 -6.4152886638488898e-05 0 0.10077978663133956 -0.00052637025432791882 0 0.10114037726294521 -0.0011989863190823506 0 0.10015410567128213 -0.0010856111376205953 0 0.10114037726294521 -0.0011989863190823506 0 0.1004678264150333 -0.0019190746344844667 0 0.10015410567128213 -0.0010856111376205953 0 0.10114037726294521 -0.0011989863190823506 0 0.1004678264150333 -0.0019190746344844667 0 0.10127937744326843 -0.0020926393083664277 0 0.096987066506816322 -0.00048713220984741504 0 0.10084789221658022 -0.00062899799520617188 0 0.1004678264150333 -0.0019190746344844667 0 0.10015252484228267 -0.0010806181027436961 0 0.099992975647576185 -0.0024228850348637521 0 0.10508165471734751 0.0013189863272095798 0 0.10467078499046535 0.00088733007298262936 0 0.10499015088039203 0.00039303938738162111 0 0.10456166711467223 0.0015929301809902924 0 0.10508165471734751 0.0013189863272095798 0 0.10467078499046535 0.00088733007298262936 0 0.097358269237610789 -0.00093695028100269906 0 0.096987066506816322 -0.00048713220984741504 0 0.10467078499046535 0.00088733007298262936 0 0.10462002670889194 0.00044580765788370953 0 0.10499015088039203 0.00039303938738162111 0 0.099992975647576185 -0.0024228850348637521 0 0.10088598900326839 -0.0028307999401964894 0 0.099829296078443236 -0.0037577179728903866 0 0.10462002670889194 0.00044580765788370953 0 0.10499015088039203 0.00039303938738162111 0 0.10486860530516762 3.7236697069975222e-05 0 0.1004678264150333 -0.0019190746344844667 0 0.099992975647576185 -0.0024228850348637521 0 0.10088598900326839 -0.0028307999401964894 0 0.1004678264150333 -0.0019190746344844667 0 0.10127937744326843 -0.0020926393083664277 0 0.10088598900326839 -0.0028307999401964894 0 0.10127937744326843 -0.0020926393083664277 0 0.10088598900326839 -0.0028307999401964894 0 0.10185966626776524 -0.0028743854693519177 0 0.10088598900326839 -0.0028307999401964894 0 0.10115946069221532 -0.0039113579944422047 0 0.10185966626776524 -0.0028743854693519177 0 0.1049969377244777 -1.1128742474539618e-05 0 0.10499998192806273 8.8764719916536366e-10 0 0.10500080383980043 -1.0013982907828406e-06 0 0.10088598900326839 -0.0028307999401964894 0 0.10115946069221532 -0.0039113579944422047 0 0.099829296078443236 -0.0037577179728903866 0 0.10348772120789738 -0.001590658961053214 0 0.10414359550367321 -0.00046272328925837459 0 0.10499998192806273 8.8764719916536366e-10 0 0.10500001332615087 -3.250235516627004e-09 0 0.10500080383980043 -1.0013982907828406e-06 0 0.10499015088039203 0.00039303938738162111 0 0.10495127353778025 -4.7864207254991924e-05 0 0.10486860530516762 3.7236697069975222e-05 0 0.10084789221658022 -0.00062899799520617188 0 0.10414359550367321 -0.00046272328925837459 0 0.10494612211949522 1.4037674157083446e-05 0 0.10499974431866993 -1.573543754622847e-07 0 0.10495127353778025 -4.7864207254991924e-05 0 0.1049923185600684 -1.6874661459107297e-06 0 0.10414359550367321 -0.00046272328925837459 0 0.10494612211949522 1.4037674157083446e-05 0 0.10495127353778025 -4.7864207254991924e-05 0 0.10486860530516762 3.7236697069975222e-05 0 0.10349207333232026 -0.0026455558685433873 0 0.10403331646590407 -0.0015265891293565555 0 0.10249629463967093 -0.0040633284134274422 0 0.10185966626776524 -0.0028743854693519177 0 0.10322481217055121 -0.0027244146069800301 0 0.10499994835650921 6.9919609403086533e-09 0 0.10496123446908459 -1.3869467640794822e-06 0 0.10497361652653496 2.9587596803869177e-06 0 0.10499994835650921 6.9919609403086533e-09 0 0.10500321729868087 -1.7094085805319732e-06 0 0.10496123446908459 -1.3869467640794822e-06 0 0.10499371062138958 -2.0981615420051628e-05 0 0.10349207333232026 -0.0026455558685433873 0 0.10348772120789738 -0.001590658961053214 0 0.10349207333232026 -0.0026455558685433873 0 0.10115946069221532 -0.0039113579944422047 0 0.10249629463967093 -0.0040633284134274422 0 0.10185966626776524 -0.0028743854693519177 0 0.1049969377244777 -1.1128742474539618e-05 0 0.10499998192806273 8.8764719916536366e-10 0 0.10485091200761198 -2.4962409275524324e-09 0 0.10127937744326843 -0.0020926393083664277 0 0.10185966626776524 -0.0028743854693519177 0 0.10204490522182584 -0.001637411388903678 0 0.10185966626776524 -0.0028743854693519177 0 0.10322481217055121 -0.0027244146069800301 0 0.10204490522182584 -0.001637411388903678 0 0.10322481217055121 -0.0027244146069800301 0 0.10297531962914988 -0.0012403938630318821 0 0.10396039429405578 -0.0013693073191001894 0 0.10322481217055121 -0.0027244146069800301 0 0.10297531962914988 -0.0012403938630318821 0 0.10204490522182584 -0.001637411388903678 0 0.10114037726294521 -0.0011989863190823506 0 0.10127937744326843 -0.0020926393083664277 0 0.10204490522182584 -0.001637411388903678 0 0.10114037726294521 -0.0011989863190823506 0 0.10204490522182584 -0.001637411388903678 0 0.10176325894984979 -6.4152886638488898e-05 0 0.10297531962914988 -0.0012403938630318821 0 0.10204490522182584 -0.001637411388903678 0 0.10176325894984979 -6.4152886638488898e-05 0 0.10297531962914988 -0.0012403938630318821 0 0.10176325894984979 -6.4152886638488898e-05 0 0.10328521225209243 -0.00016310685607813334 0 0.10297531962914988 -0.0012403938630318821 0 0.10328521225209243 -0.00016310685607813334 0 0.10396039429405578 -0.0013693073191001894 0 0.10452541520298395 -0.00048395356648111984 0 0.10436914356349913 -0.0008183655869508082 0 0.10328521225209243 -0.00016310685607813334 0 0.10465376935049699 3.2575020205482733e-05 0 0.10396039429405578 -0.0013693073191001894 0 0.10465376935049699 3.2575020205482733e-05 0 0.1049041917226505 5.7050914052390266e-05 0 0.10500724220758342 0.00010255065055942472 0 0.10465376935049699 3.2575020205482733e-05 0 0.10487124320675442 1.9050214571854573e-05 0 0.1049041917226505 5.7050914052390266e-05 0 0.10465376935049699 3.2575020205482733e-05 0 0.10487124320675442 1.9050214571854573e-05 0 0.1048650063119622 8.1738649015894818e-06 0 0.10487124320675442 1.9050214571854573e-05 0 0.1048650063119622 8.1738649015894818e-06 0 0.10493271134290953 3.7005049987444065e-06 0 0.10403331646590407 -0.0015265891293565555 0 0.10436914356349913 -0.0008183655869508082 0 0.10496123446908459 -1.3869467640794822e-06 0 0.10493271134290953 3.7005049987444065e-06 0 0.10497361652653496 2.9587596803869177e-06 0 0.10496123446908459 -1.3869467640794822e-06 0 0.1048650063119622 8.1738649015894818e-06 0 0.10493271134290953 3.7005049987444065e-06 0 0.10487124320675442 1.9050214571854573e-05 0 0.10493271134290953 3.7005049987444065e-06 0 0.10494482267992776 6.2433132281181019e-06 0 0.1049999235119977 4.1970211488817895e-09 0 0.10499993658536161 3.1249390391070437e-09 0 0.10494482267992776 6.2433132281181019e-06 0 0.10493271134290953 3.7005049987444065e-06 0 0.1049999235119977 4.1970211488817895e-09 0 0.10494482267992776 6.2433132281181019e-06 0 0.10493271134290953 3.7005049987444065e-06 0 0.1049999235119977 4.1970211488817895e-09 0 0.10497361652653496 2.9587596803869177e-06 0 0.10499994835650921 6.9919609403086533e-09 0 0.1049999235119977 4.1970211488817895e-09 0 0.10497361652653496 2.9587596803869177e-06 0 0.10498241434353432 8.9252467778275159e-06 0 0.10499995288753751 -1.1868391926730212e-08 0 0.10497165034177713 4.0878446044808272e-06 0 0.10499995288753751 -1.1868391926730212e-08 0 0.10497165034177713 4.0878446044808272e-06 0 0.10499993658536161 3.1249390391070437e-09 0 0.10497165034177713 4.0878446044808272e-06 0 0.10499993658536161 3.1249390391070437e-09 0 0.10494482267992776 6.2433132281181019e-06 0 0.10497165034177713 4.0878446044808272e-06 0 0.10494482267992776 6.2433132281181019e-06 0 0.10493108069468464 2.4556761916241016e-05 0 0.10487124320675442 1.9050214571854573e-05 0 0.10494482267992776 6.2433132281181019e-06 0 0.10493108069468464 2.4556761916241016e-05 0 0.10498241434353432 8.9252467778275159e-06 0 0.10497165034177713 4.0878446044808272e-06 0 0.10493108069468464 2.4556761916241016e-05 0 0.10498027738389294 6.3999483459762399e-05 0 0.10493108069468464 2.4556761916241016e-05 0 0.10486377090218946 0.00010781752485638642 0 0.10487124320675442 1.9050214571854573e-05 0 0.10493108069468464 2.4556761916241016e-05 0 0.10486377090218946 0.00010781752485638642 0 0.10487124320675442 1.9050214571854573e-05 0 0.1049041917226505 5.7050914052390266e-05 0 0.10486377090218946 0.00010781752485638642 0 0.1049041917226505 5.7050914052390266e-05 0 0.10486377090218946 0.00010781752485638642 0 0.10500724220758342 0.00010255065055942472 0 0.10421312410860438 0.00022432438557004914 0 0.10451190132598938 0.00015406070993442817 0 0.10486377090218946 0.00010781752485638642 0 0.10451012075258558 -0.00019734239927422052 0 0.10500724220758342 0.00010255065055942472 0 0.10376748526215429 0.00067580802497471204 0 0.10486377090218946 0.00010781752485638642 0 0.10451012075258558 -0.00019734239927422052 0 0.080419076055287864 -0.0011386783074747234 0 0.080302890602614918 -4.8632915623349104e-05 0 0.079716259053792302 -0.0003519814051166926 0 0.080302890602614918 -4.8632915623349104e-05 0 0.079716259053792302 -0.0003519814051166926 0 0.079461392400067457 0.00056727799149020248 0 0.079716259053792302 -0.0003519814051166926 0 0.079127564872884026 -0.00028164611190566961 0 0.079461392400067457 0.00056727799149020248 0 0.079716259053792302 -0.0003519814051166926 0 0.079288452690186306 -0.00085183795707577164 0 0.079127564872884026 -0.00028164611190566961 0 0.092276427831313124 -0.00053495896683299906 0 0.091862405874590339 -0.00025860077723769678 0 0.080419076055287864 -0.0011386783074747234 0 0.079716259053792302 -0.0003519814051166926 0 0.079288452690186306 -0.00085183795707577164 0 0.10465376935049699 3.2575020205482733e-05 0 0.10500724220758342 0.00010255065055942472 0 0.10410144099479285 0.00074171449577662069 0 0.079288452690186306 -0.00085183795707577164 0 0.078297846485749889 -0.00054246472067133878 0 0.079127564872884026 -0.00028164611190566961 0 0.091862405874590339 -0.00025860077723769678 0 0.091057349501667717 0.00013287839695403327 0 0.10328521225209243 -0.00016310685607813334 0 0.10465376935049699 3.2575020205482733e-05 0 0.10410144099479285 0.00074171449577662069 0 0.077798654619664051 3.8357475624219743e-05 0 0.078297846485749889 -0.00054246472067133878 0 0.078636412907759717 0.0002499935762043549 0 0.075736001027612576 -2.0988842664352385e-05 0 0.074291835250704888 0.001069954060160647 0 0.078297846485749889 -0.00054246472067133878 0 0.079127564872884026 -0.00028164611190566961 0 0.078636412907759717 0.0002499935762043549 0 0.079127564872884026 -0.00028164611190566961 0 0.078547221275526102 0.00040743639620816383 0 0.079461392400067457 0.00056727799149020248 0 0.065991283991595165 0.00055143731218188299 0 0.066201697752931249 0.0018828373391504604 0 0.067578239450632863 0.00081544456486812224 0 0.074291835250704888 0.001069954060160647 0 0.073939966905939347 0.00097840290850156322 0 0.077717396040302755 3.6443118589519826e-05 0 0.077798654619664051 3.8357475624219743e-05 0 0.077690165864973362 4.3724138530131881e-05 0 0.074291835250704888 0.001069954060160647 0 0.0723035134376704 0.0019094548303215347 0 0.076418497851886258 0.0010889744842912247 0 0.074291835250704888 0.001069954060160647 0 0.077717396040302755 3.6443118589519826e-05 0 0.077690165864973362 4.3724138530131881e-05 0 0.077791516284189247 -8.6855611680500326e-06 0 0.064891388688066765 0.0019601391513735266 0 0.066201697752931249 0.0018828373391504604 0 0.064981930164733748 0.0031334552695845377 0 0.065991283991595165 0.00055143731218188299 0 0.064891388688066765 0.0019601391513735266 0 0.066201697752931249 0.0018828373391504604 0 0.066201697752931249 0.0018828373391504604 0 0.067223448701001179 0.0018723088238065562 0 0.067578239450632863 0.00081544456486812224 0 0.066201697752931249 0.0018828373391504604 0 0.067223448701001179 0.0018723088238065562 0 0.067079233337695013 0.0029047474198289703 0 0.067223448701001179 0.0018723088238065562 0 0.068037435322193557 0.0018802920005457854 0 0.067079233337695013 0.0029047474198289703 0 0.068037435322193557 0.0018802920005457854 0 0.069233243657241261 0.0025863624915414634 0 0.067079233337695013 0.0029047474198289703 0 0.067223448701001179 0.0018723088238065562 0 0.068037435322193557 0.0018802920005457854 0 0.067578239450632863 0.00081544456486812224 0 0.068037435322193557 0.0018802920005457854 0 0.069201526017202364 0.0010899022440125489 0 0.069233243657241261 0.0025863624915414634 0 0.074414020745827619 0.0011170703836626147 0 0.073939966905939347 0.00097840290850156322 0 0.080302890602614918 -4.8632915623349104e-05 0 0.080358344719101138 0.00072693499146733536 0 0.079461392400067457 0.00056727799149020248 0 0.068037435322193557 0.0018802920005457854 0 0.069201526017202364 0.0010899022440125489 0 0.067578239450632863 0.00081544456486812224 0 0.066131846306287018 0.0034795953664120277 0 0.065970105573620791 0.0039886013152833329 0 0.06569563725473257 0.0037728093146677313 0 0.066131846306287018 0.0034795953664120277 0 0.065970105573620791 0.0039886013152833329 0 0.066451264597790577 0.0039002002022224752 0 0.066451264597790577 0.0039002002022224752 0 0.066884474945418021 0.0036181586187822045 0 0.066751662543737544 0.0041209017498461606 0 0.067369723435764736 0.0042391222305119963 0 0.066884474945418021 0.0036181586187822045 0 0.066751662543737544 0.0041209017498461606 0 0.066131846306287018 0.0034795953664120277 0 0.066451264597790577 0.0039002002022224752 0 0.066884474945418021 0.0036181586187822045 0 0.067380632789272088 0.003561440172693566 0 0.068495679919398728 0.0030594172267571842 0 0.066131846306287018 0.0034795953664120277 0 0.066884474945418021 0.0036181586187822045 0 0.066964533521729749 0.0028432871801687652 0 0.068495679919398728 0.0030594172267571842 0 0.0667617607283678 0.0031295643667458178 0 0.066131846306287018 0.0034795953664120277 0 0.066937187307490792 0.0028825343656082259 0 0.065927857716073818 0.0030451950159849691 0 0.0667617607283678 0.0031295643667458178 0 0.065922870157291646 0.0031993610185360711 0 0.066201697752931249 0.0018828373391504604 0 0.067079233337695013 0.0029047474198289703 0 0.064981930164733748 0.0031334552695845377 0 0.066131846306287018 0.0034795953664120277 0 0.065927857716073818 0.0030451950159849691 0 0.065559878290280316 0.0034311481239711517 0 0.065927857716073818 0.0030451950159849691 0 0.064981930164733748 0.0031334552695845377 0 0.065559878290280316 0.0034311481239711517 0 0.064981930164733748 0.0031334552695845377 0 0.065171249190978262 0.0035301532167990842 0 0.065559878290280316 0.0034311481239711517 0 0.064981930164733748 0.0031334552695845377 0 0.065171249190978262 0.0035301532167990842 0 0.064655955934745268 0.003485259718898031 0 0.065171249190978262 0.0035301532167990842 0 0.06477992495827721 0.0037937880879636075 0 0.064655955934745268 0.003485259718898031 0 0.065171249190978262 0.0035301532167990842 0 0.065089125803896655 0.0038820488954477376 0 0.065417013335035606 0.0036759629155702456 0 0.065089125803896655 0.0038820488954477376 0 0.065428768019620387 0.0039385797624532717 0 0.06528480918565048 0.0042115665243791971 0 0.065089125803896655 0.0038820488954477376 0 0.065417013335035606 0.0036759629155702456 0 0.065428768019620387 0.0039385797624532717 0 0.065089125803896655 0.0038820488954477376 0 0.064893328524509769 0.0039923749195030188 0 0.064999141885495493 0.0041950792778437931 0 0.065171249190978262 0.0035301532167990842 0 0.065089125803896655 0.0038820488954477376 0 0.06477992495827721 0.0037937880879636075 0 0.065089125803896655 0.0038820488954477376 0 0.064893328524509769 0.0039923749195030188 0 0.06477992495827721 0.0037937880879636075 0 0.064893328524509769 0.0039923749195030188 0 0.06477992495827721 0.0037937880879636075 0 0.064703795007227588 0.0040967251041200883 0 0.066131846306287018 0.0034795953664120277 0 0.065559878290280316 0.0034311481239711517 0 0.06569563725473257 0.0037728093146677313 0 0.065171249190978262 0.0035301532167990842 0 0.065559878290280316 0.0034311481239711517 0 0.065417013335035606 0.0036759629155702456 0 0.065559878290280316 0.0034311481239711517 0 0.065417013335035606 0.0036759629155702456 0 0.06569563725473257 0.0037728093146677313 0 0.065417013335035606 0.0036759629155702456 0 0.065428768019620387 0.0039385797624532717 0 0.06569563725473257 0.0037728093146677313 0 0.065428768019620387 0.0039385797624532717 0 0.06569563725473257 0.0037728093146677313 0 0.065639972929959059 0.0041446360419297845 0 0.065970105573620791 0.0039886013152833329 0 0.06569563725473257 0.0037728093146677313 0 0.065639972929959059 0.0041446360419297845 0 0.065970105573620791 0.0039886013152833329 0 0.065639972929959059 0.0041446360419297845 0 0.065988837923171673 0.0044590712200461178 0 0.065639972929959059 0.0041446360419297845 0 0.065452382308743853 0.0044799333104642864 0 0.06528480918565048 0.0042115665243791971 0 0.065428768019620387 0.0039385797624532717 0 0.065639972929959059 0.0041446360419297845 0 0.06528480918565048 0.0042115665243791971 0 0.065452382308743853 0.0044799333104642864 0 0.065719647798760605 0.0047896609405552459 0 0.065988837923171673 0.0044590712200461178 0 0.065639972929959059 0.0041446360419297845 0 0.065452382308743853 0.0044799333104642864 0 0.065988837923171673 0.0044590712200461178 0 0.06483251759705079 0.0043099820675756052 0 0.064703795007227588 0.0040967251041200883 0 0.064574359725779268 0.004416622956723514 0 0.06483251759705079 0.0043099820675756052 0 0.064703795007227588 0.0040967251041200883 0 0.064999141885495493 0.0041950792778437931 0 0.064893328524509769 0.0039923749195030188 0 0.064703795007227588 0.0040967251041200883 0 0.064999141885495493 0.0041950792778437931 0 0.06483251759705079 0.0043099820675756052 0 0.064999141885495493 0.0041950792778437931 0 0.064958706585990969 0.004429324425342553 0 0.064999141885495493 0.0041950792778437931 0 0.06528480918565048 0.0042115665243791971 0 0.064958706585990969 0.004429324425342553 0 0.065089125803896655 0.0038820488954477376 0 0.064999141885495493 0.0041950792778437931 0 0.06528480918565048 0.0042115665243791971 0 0.065452382308743853 0.0044799333104642864 0 0.064958706585990969 0.004429324425342553 0 0.065043204384850811 0.004857040258458665 0 0.065452382308743853 0.0044799333104642864 0 0.06528480918565048 0.0042115665243791971 0 0.064958706585990969 0.004429324425342553 0 0.06483251759705079 0.0043099820675756052 0 0.064958706585990969 0.004429324425342553 0 0.064574359725779268 0.004416622956723514 0 0.064958706585990969 0.004429324425342553 0 0.065043204384850811 0.004857040258458665 0 0.064493888562165369 0.0045138755933391804 0 0.045824481832158412 0.0043525731583465488 0 0.046511152978837761 0.0039414046131960884 0 0.046578838832263221 0.0048664347751562606 0 0.045824481832158412 0.0043525731583465488 0 0.045108168717895331 0.0038502064503689076 0 0.045896290772276326 0.0033908093384137634 0 0.045824481832158412 0.0043525731583465488 0 0.045896290772276326 0.0033908093384137634 0 0.046511152978837761 0.0039414046131960884 0 0.055875402436939899 0.0049148606066930535 0 0.058998531651501283 0.0050559057359686856 0 0.065452382308743853 0.0044799333104642864 0 0.065043204384850811 0.004857040258458665 0 0.065719647798760605 0.0047896609405552459 0 0.065043204384850811 0.004857040258458665 0 0.065719647798760605 0.0047896609405552459 0 0.065567542670047441 0.0052107132735319563 0 0.055875402436939899 0.0049148606066930535 0 0.053250751661143285 0.0051163454981425554 0 0.053250751661143285 0.0051163454981425554 0 0.056242851058065445 0.0050792777194885799 0 0.065719647798760605 0.0047896609405552459 0 0.065567542670047441 0.0052107132735319563 0 0.066113171499115275 0.0049117254972589853 0 0.051477587165262108 0.0053588225650620224 0 0.050422666769000153 0.0059376114691742626 0 0.050730795330957826 0.0047162533523611291 0 0.066113171499115275 0.0049117254972589853 0 0.065988837923171673 0.0044590712200461178 0 0.066647205469866758 0.0046144716404547433 0 0.052533388887207856 0.004784811964286091 0 0.051477587165262108 0.0053588225650620224 0 0.051577915760063944 0.0041291939822917173 0 0.056242851058065445 0.0050792777194885799 0 0.05717410451453174 0.0058478632551655372 0 0.065719647798760605 0.0047896609405552459 0 0.066113171499115275 0.0049117254972589853 0 0.065988837923171673 0.0044590712200461178 0 0.065988837923171673 0.0044590712200461178 0 0.066398934546756633 0.004228244641202362 0 0.066647205469866758 0.0046144716404547433 0 0.065970105573620791 0.0039886013152833329 0 0.066451264597790577 0.0039002002022224752 0 0.066398934546756633 0.004228244641202362 0 0.065970105573620791 0.0039886013152833329 0 0.065988837923171673 0.0044590712200461178 0 0.066398934546756633 0.004228244641202362 0 0.067369723435764736 0.0042391222305119963 0 0.066751662543737544 0.0041209017498461606 0 0.066657517516316198 0.0046207745529805782 0 0.062374807854068501 0.0049778074637566319 0 0.05717410451453174 0.0058478632551655372 0 0.066451264597790577 0.0039002002022224752 0 0.066398934546756633 0.004228244641202362 0 0.066751662543737544 0.0041209017498461606 0 0.066398934546756633 0.004228244641202362 0 0.066751662543737544 0.0041209017498461606 0 0.066657517516316198 0.0046207745529805782 0 0.058068554230316594 0.006264943710265993 0 0.05717410451453174 0.0058478632551655372 0 0.052260591550482093 0.0056501406983020591 0 0.05717410451453174 0.0058478632551655372 0 0.04955346776577671 0.0046824978880106102 0 0.050422666769000153 0.0059376114691742626 0 0.050730795330957826 0.0047162533523611291 0 0.058520472852982779 0.0078345057587710688 0 0.057665512978531036 0.0099452936088297132 0 0.055790450954184174 0.0071964885874071464 0 0.04955346776577671 0.0046824978880106102 0 0.050730795330957826 0.0047162533523611291 0 0.050619560205396659 0.0034696111388116779 0 0.044241682156255048 0.0033839579350818405 0 0.043540332017040821 0.0029009125826440383 0 0.044818631311438248 0.0029240047457232631 0 0.050730795330957826 0.0047162533523611291 0 0.051577915760063944 0.0041291939822917173 0 0.050619560205396659 0.0034696111388116779 0 0.051477587165262108 0.0053588225650620224 0 0.050730795330957826 0.0047162533523611291 0 0.051577915760063944 0.0041291939822917173 0 0.048057727669891963 0.0040666345095568476 0 0.04306127487315458 0.0031931482292190472 0 0.023240404477375267 0.002495227444351164 0 0.023710183197567174 0.0016738603565203444 0 0.02430574440609895 0.0023614375179505437 0 0.04306127487315458 0.0031931482292190472 0 0.043776754965486192 0.0031500082126619438 0 0.043319793219046804 0.0029016644909796948 0 0.044818631311438248 0.0029240047457232631 0 0.044517570625031755 0.0022936529669170922 0 0.042809605526815779 0.0025485344142673256 0 0.043319793219046804 0.0029016644909796948 0 0.044517570625031755 0.0022936529669170922 0 0.037056858880995171 0.0018473845211788244 0 0.035024520588440369 0.002406662742750395 0 0.04521505755222676 0.0024482708055911778 0 0.04306127487315458 0.0031931482292190472 0 0.044131738025866736 0.001983870586457681 0 0.040381451812821434 0.0029986540631548931 0 0.038756295925640713 0.0018969832673184073 0 0.037056858880995171 0.0018473845211788244 0 0.04306127487315458 0.0031931482292190472 0 0.023240404477375267 0.002495227444351164 0 0.02309740040869564 0.0018123682372407557 0 0.023710183197567174 0.0016738603565203444 0 0.02309740040869564 0.0018123682372407557 0 0.023710183197567174 0.0016738603565203444 0 0.02308589048270945 0.00121684864265208 0 0.023710183197567174 0.0016738603565203444 0 0.02463813481127251 0.0014319318128731338 0 0.02430574440609895 0.0023614375179505437 0 0.027771310337989463 0.00018457256827776884 0 0.025245918994013163 -0.00018904742240045139 0 0.023710183197567174 0.0016738603565203444 0 0.02463813481127251 0.0014319318128731338 0 0.023822282846548349 0.00072443317970546602 0 0.023710183197567174 0.0016738603565203444 0 0.02308589048270945 0.00121684864265208 0 0.023822282846548349 0.00072443317970546602 0 0.02395025333809863 0.0015477857701864525 0 0.024964800479182356 0.0013807163977103275 0 0.024283347512029665 0.00061905441316384782 0 0.02463813481127251 0.0014319318128731338 0 0.025448688276557604 0.0021915804833568457 0 0.02430574440609895 0.0023614375179505437 0 0.027771310337989463 0.00018457256827776884 0 0.035262906608127927 0.0026993574519628572 0 0.02395025333809863 0.0015477857701864525 0 0.024643370320484796 0.0022486103109943482 0 0.024964800479182356 0.0013807163977103275 0 0.046067426033973187 0.0020838183794442103 0 0.044818631311438248 0.0029240047457232631 0 0.045896290772276326 0.0033908093384137634 0 0.046067426033973187 0.0020838183794442103 0 0.044818631311438248 0.0029240047457232631 0 0.044517570625031755 0.0022936529669170922 0 0.035262906608127927 0.0026993574519628572 0 0.035024520588440369 0.002406662742750395 0 0.044966512324709544 0.0038922234348312988 0 0.044818631311438248 0.0029240047457232631 0 0.045896290772276326 0.0033908093384137634 0 0.044966512324709544 0.0038922234348312988 0 0.044241682156255048 0.0033839579350818405 0 0.044818631311438248 0.0029240047457232631 0 0.053250751661143285 0.0051163454981425554 0 0.048057727669891963 0.0040666345095568476 0 0.053250751661143285 0.0051163454981425554 0 0.050881161743594056 0.0057003054915043642 0 0.045896290772276326 0.0033908093384137634 0 0.047086114670566656 0.0031339831750219291 0 0.046511152978837761 0.0039414046131960884 0 0.047086114670566656 0.0031339831750219291 0 0.047332851675045765 0.0039121777346430376 0 0.046511152978837761 0.0039414046131960884 0 0.073663812092631412 0.0078589009286081438 0 0.07359776759219766 0.0063727923741231582 0 0.074909299185024397 0.0063207878266988435 0 0.05748533903980968 0.0037313006613474129 0 0.059058407226243143 0.0041871663648917418 0 0.047086114670566656 0.0031339831750219291 0 0.048102563088027878 0.0029479347985533273 0 0.047332851675045765 0.0039121777346430376 0 0.047086114670566656 0.0031339831750219291 0 0.047370535533895967 0.0019194238306861557 0 0.048102563088027878 0.0029479347985533273 0 0.047370535533895967 0.0019194238306861557 0 0.048102563088027878 0.0029479347985533273 0 0.048221122069612626 0.0022042837759088476 0 0.046067426033973187 0.0020838183794442103 0 0.045896290772276326 0.0033908093384137634 0 0.047086114670566656 0.0031339831750219291 0 0.035262906608127927 0.0026993574519628572 0 0.040319904630929375 0.0050499985807412684 0 0.046015504558544397 0.0021333329845937862 0 0.047086114670566656 0.0031339831750219291 0 0.047370535533895967 0.0019194238306861557 0 0.024643370320484796 0.0022486103109943482 0 0.025570164614648918 0.002116091792576632 0 0.024964800479182356 0.0013807163977103275 0 0.035262906608127927 0.0026993574519628572 0 0.03860784167224654 0.0027152920658803947 0 0.025570164614648918 0.002116091792576632 0 0.024964800479182356 0.0013807163977103275 0 0.025986148598218416 0.0012387720308579357 0 0.029756431905945877 0.0058775411804137334 0 0.030934604127522369 0.0052547876915711523 0 0.030473413893571666 0.0063780755712062581 0 0.029756431905945877 0.0058775411804137334 0 0.030934604127522369 0.0052547876915711523 0 0.029763039224804458 0.0046744581782710232 0 0.03589208583877436 -7.1306644897890797e-05 0 0.047710866674060715 0.0023177467938878321 0 0.029756431905945877 0.0058775411804137334 0 0.028083030594672851 0.0051680946257596436 0 0.029763039224804458 0.0046744581782710232 0 0.029756431905945877 0.0058775411804137334 0 0.028083030594672851 0.0051680946257596436 0 0.029355670423663143 0.0069106316403554253 0 0.03860784167224654 0.0027152920658803947 0 0.047710866674060715 0.0023177467938878321 0 0.047370535533895967 0.0019194238306861557 0 0.048681224452641697 0.0017166075391463586 0 0.048221122069612626 0.0022042837759088476 0 0.025570164614648918 0.002116091792576632 0 0.025986148598218416 0.0012387720308579357 0 0.026553687432057892 0.0019722247277311239 0 0.048681224452641697 0.0017166075391463586 0 0.048868240560721164 0.0019841235881032648 0 0.048221122069612626 0.0022042837759088476 0 0.047710866674060715 0.0023177467938878321 0 0.053327641580728537 0.0037556254396912021 0 0.055649966671746619 0.0037567851860096954 0 0.055605993342693623 0.0038070539462973433 0 0.055593369623772405 0.0036679503296274474 0 0.052657607303990578 0.0026219686579852896 0 0.058874523649368862 0.0056092176061239771 0 0.07321907603675451 0.00091827013825411812 0 0.073371631235368953 0.0018181260568233635 0 0.073697260912367626 0.0013922080306609827 0 0.058964670882615047 0.0054386158919737509 0 0.055003613420862157 -0.00029935574592765527 0 0.049102021133842329 0.0071125939465440527 0 0.053327641580728537 0.0037556254396912021 0 0.052657607303990578 0.0026219686579852896 0 0.029756431905945877 0.0058775411804137334 0 0.029355670423663143 0.0069106316403554253 0 0.030163995610624432 0.0067699058103256474 0 0.029756431905945877 0.0058775411804137334 0 0.030163995610624432 0.0067699058103256474 0 0.030473413893571666 0.0063780755712062581 0 0.047710866674060715 0.0023177467938878321 0 0.052657607303990578 0.0026219686579852896 0 0.052657607303990578 0.0026219686579852896 0 0.052048096078388909 0.0031098738632959694 0 0.07321907603675451 0.00091827013825411812 0 0.073697260912367626 0.0013922080306609827 0 0.073883545919715118 0.0011892251635655983 0 0.073371631235368953 0.0018181260568233635 0 0.073748322772376237 0.0016870663430057782 0 0.073697260912367626 0.0013922080306609827 0 0.053327641580728537 0.0037556254396912021 0 0.058874523649368862 0.0056092176061239771 0 0.073593011213100329 0.0021309296614088666 0 0.073371631235368953 0.0018181260568233635 0 0.073748322772376237 0.0016870663430057782 0 0.059375884602257137 0.0058020599252863589 0 0.058874523649368862 0.0056092176061239771 0 0.053327641580728537 0.0037556254396912021 0 0.05748533903980968 0.0037313006613474129 0 0.048868240560721164 0.0019841235881032648 0 0.048102563088027878 0.0029479347985533273 0 0.048221122069612626 0.0022042837759088476 0 0.071752526751511614 0.0083873149317377077 0 0.073663812092631412 0.0078589009286081438 0 0.072478041217572814 0.0072600661182464559 0 0.072413289621351393 0.009369215295445649 0 0.071752526751511614 0.0083873149317377077 0 0.073663812092631412 0.0078589009286081438 0 0.073663812092631412 0.0078589009286081438 0 0.072478041217572814 0.0072600661182464559 0 0.07359776759219766 0.0063727923741231582 0 0.058874523649368862 0.0056092176061239771 0 0.066985845264675326 0.0051360998834030242 0 0.071752526751511614 0.0083873149317377077 0 0.072478041217572814 0.0072600661182464559 0 0.071527783024786282 0.006340559660286486 0 0.073593011213100329 0.0021309296614088666 0 0.073346414772601676 0.0017983499835177012 0 0.073559408771159102 0.0031505284291514909 0 0.072478041217572814 0.0072600661182464559 0 0.071527783024786282 0.006340559660286486 0 0.072744571207600112 0.0054466507860243298 0 0.071527783024786282 0.006340559660286486 0 0.072744571207600112 0.0054466507860243298 0 0.071245354637862954 0.0042560257418114249 0 0.066985845264675326 0.0051360998834030242 0 0.072023807863630218 0.0041860907978926772 0 0.07249778729104181 0.0041964977920396166 0 0.072744571207600112 0.0054466507860243298 0 0.071245354637862954 0.0042560257418114249 0 0.07249778729104181 0.0041964977920396166 0 0.07209868867430301 0.0032589597855882625 0 0.071245354637862954 0.0042560257418114249 0 0.073387080547825237 0.004317866551576191 0 0.072744571207600112 0.0054466507860243298 0 0.074192850334348082 0.0049788954646368573 0 0.073387080547825237 0.004317866551576191 0 0.074192850334348082 0.0049788954646368573 0 0.074060693698769969 0.0039659229584226722 0 0.073387080547825237 0.004317866551576191 0 0.073034817634188287 0.003619952364343179 0 0.07363759102594207 0.0036912773847698204 0 0.073387080547825237 0.004317866551576191 0 0.074060693698769969 0.0039659229584226722 0 0.07363759102594207 0.0036912773847698204 0 0.07249778729104181 0.0041964977920396166 0 0.073387080547825237 0.004317866551576191 0 0.073034817634188287 0.003619952364343179 0 0.07249778729104181 0.0041964977920396166 0 0.073387080547825237 0.004317866551576191 0 0.072744571207600112 0.0054466507860243298 0 0.07359776759219766 0.0063727923741231582 0 0.072744571207600112 0.0054466507860243298 0 0.074192850334348082 0.0049788954646368573 0 0.072478041217572814 0.0072600661182464559 0 0.07359776759219766 0.0063727923741231582 0 0.072744571207600112 0.0054466507860243298 0 0.074909299185024397 0.0063207878266988435 0 0.076075719757457694 0.0048187957935789056 0 0.074192850334348082 0.0049788954646368573 0 0.07359776759219766 0.0063727923741231582 0 0.074909299185024397 0.0063207878266988435 0 0.074192850334348082 0.0049788954646368573 0 0.059058407226243143 0.0041871663648917418 0 0.058998531651501283 0.0050559057359686856 0 0.047332851675045765 0.0039121777346430376 0 0.046511152978837761 0.0039414046131960884 0 0.046578838832263221 0.0048664347751562606 0 0.064574359725779268 0.004416622956723514 0 0.064486402616873675 0.0045259755388515673 0 0.064330321240640337 0.0038918349378210572 0 0.064486402616873675 0.0045259755388515673 0 0.063561111724862299 0.0039263865191217912 0 0.064330321240640337 0.0038918349378210572 0 0.064958706585990969 0.004429324425342553 0 0.064574359725779268 0.004416622956723514 0 0.064493888562165369 0.0045138755933391804 0 0.059054062030542531 0.0050137825483039791 0 0.058998531651501283 0.0050559057359686856 0 0.064703795007227588 0.0040967251041200883 0 0.064574359725779268 0.004416622956723514 0 0.064330321240640337 0.0038918349378210572 0 0.058998531651501283 0.0050559057359686856 0 0.069401449591887349 0.0049047462245558884 0 0.076075719757457694 0.0048187957935789056 0 0.074192850334348082 0.0049788954646368573 0 0.074350154431586879 0.0035870592228725768 0 0.074192850334348082 0.0049788954646368573 0 0.074060693698769969 0.0039659229584226722 0 0.074350154431586879 0.0035870592228725768 0 0.063561111724862299 0.0039263865191217912 0 0.064330321240640337 0.0038918349378210572 0 0.064126222769692001 0.0031472206254786138 0 0.074060693698769969 0.0039659229584226722 0 0.074165381515977125 0.0033206817583230205 0 0.074463415747666142 0.0035595373851382314 0 0.074643611689510322 0.003653824443418273 0 0.074728605178472116 0.0024355036087606477 0 0.07641158615375479 0.0017046177293825759 0 0.069401449591887349 0.0049047462245558884 0 0.070843239534514199 0.0030897149027337414 0 0.069579632517770579 0.0047579340222983681 0 0.069401449591887349 0.0049047462245558884 0 0.069521596295033475 0.0049404937142407237 0 0.069401449591887349 0.0049047462245558884 0 0.074165381515977125 0.0033206817583230205 0 0.074728605178472116 0.0024355036087606477 0 0.073816624895719274 0.0025820129051835391 0 0.074165381515977125 0.0033206817583230205 0 0.074643611689510322 0.003653824443418273 0 0.074728605178472116 0.0024355036087606477 0 0.064330321240640337 0.0038918349378210572 0 0.064655955934745268 0.003485259718898031 0 0.064126222769692001 0.0031472206254786138 0 0.06477992495827721 0.0037937880879636075 0 0.064703795007227588 0.0040967251041200883 0 0.064330321240640337 0.0038918349378210572 0 0.06477992495827721 0.0037937880879636075 0 0.064330321240640337 0.0038918349378210572 0 0.064655955934745268 0.003485259718898031 0 0.064891388688066765 0.0019601391513735266 0 0.064981930164733748 0.0031334552695845377 0 0.064126222769692001 0.0031472206254786138 0 0.064981930164733748 0.0031334552695845377 0 0.064655955934745268 0.003485259718898031 0 0.064126222769692001 0.0031472206254786138 0 0.07507530689649819 0.00059340858378295201 0 0.077382813407028336 9.4343384083537925e-05 0 0.07641158615375479 0.0017046177293825759 0 0.0723035134376704 0.0019094548303215347 0 0.070843239534514199 0.0030897149027337414 0 0.074728605178472116 0.0024355036087606477 0 0.075224053181370251 0.0016079118634830301 0 0.074171113406107145 0.0017714134501855467 0 0.074728605178472116 0.0024355036087606477 0 0.074171113406107145 0.0017714134501855467 0 0.073816624895719274 0.0025820129051835391 0 0.074728605178472116 0.0024355036087606477 0 0.07641158615375479 0.0017046177293825759 0 0.075224053181370251 0.0016079118634830301 0 0.07507530689649819 0.00059340858378295201 0 0.07641158615375479 0.0017046177293825759 0 0.075224053181370251 0.0016079118634830301 0 0.07507530689649819 0.00059340858378295201 0 0.075224053181370251 0.0016079118634830301 0 0.074171113406107145 0.0017714134501855467 0 0.07507530689649819 0.00059340858378295201 0 0.074171113406107145 0.0017714134501855467 0 0.072832624896465956 0.0013285869831133371 0 0.076966243221732539 0.0009502759651248624 0 0.076767735587588273 0.0015225135596425895 0 0.074171113406107145 0.0017714134501855467 0 0.073279551978911478 0.0020863827586163749 0 0.073816624895719274 0.0025820129051835391 0 0.074171113406107145 0.0017714134501855467 0 0.073279551978911478 0.0020863827586163749 0 0.072832624896465956 0.0013285869831133371 0 0.072747946759599086 0.0020603001627243853 0 0.073279551978911478 0.0020863827586163749 0 0.072949148227031829 0.0027056006014371803 0 0.072747946759599086 0.0020603001627243853 0 0.073279551978911478 0.0020863827586163749 0 0.072832624896465956 0.0013285869831133371 0 0.076767735587588273 0.0015225135596425895 0 0.076746447404538953 0.0026364280100995008 0 0.079761073260030985 -0.00096137774729759058 0 0.080325083309431222 -0.00081576889622338286 0 0.081306417101628739 -0.0014225442111309146 0 0.072832624896465956 0.0013285869831133371 0 0.072079916885043643 0.0021871850238182082 0 0.070903195191881319 0.001992147633883772 0 0.081502141597797548 -6.3080429549427724e-05 0 0.080325083309431222 -0.00081576889622338286 0 0.081306417101628739 -0.0014225442111309146 0 0.079930712310129104 -0.00019294401996324573 0 0.079761073260030985 -0.00096137774729759058 0 0.080325083309431222 -0.00081576889622338286 0 0.072747946759599086 0.0020603001627243853 0 0.072079916885043643 0.0021871850238182082 0 0.072949148227031829 0.0027056006014371803 0 0.072747946759599086 0.0020603001627243853 0 0.072832624896465956 0.0013285869831133371 0 0.072079916885043643 0.0021871850238182082 0 0.072079916885043643 0.0021871850238182082 0 0.07209868867430301 0.0032589597855882625 0 0.072949148227031829 0.0027056006014371803 0 0.07209868867430301 0.0032589597855882625 0 0.070903195191881319 0.001992147633883772 0 0.071245354637862954 0.0042560257418114249 0 0.072079916885043643 0.0021871850238182082 0 0.07209868867430301 0.0032589597855882625 0 0.070903195191881319 0.001992147633883772 0 0.07249778729104181 0.0041964977920396166 0 0.07209868867430301 0.0032589597855882625 0 0.073034817634188287 0.003619952364343179 0 0.07209868867430301 0.0032589597855882625 0 0.073034817634188287 0.003619952364343179 0 0.072949148227031829 0.0027056006014371803 0 0.073034817634188287 0.003619952364343179 0 0.073542653740267985 0.0031809527192024844 0 0.072949148227031829 0.0027056006014371803 0 0.073034817634188287 0.003619952364343179 0 0.07363759102594207 0.0036912773847698204 0 0.073542653740267985 0.0031809527192024844 0 0.074060693698769969 0.0039659229584226722 0 0.074165381515977125 0.0033206817583230205 0 0.07363759102594207 0.0036912773847698204 0 0.074165381515977125 0.0033206817583230205 0 0.07363759102594207 0.0036912773847698204 0 0.073542653740267985 0.0031809527192024844 0 0.073542653740267985 0.0031809527192024844 0 0.073816624895719274 0.0025820129051835391 0 0.072949148227031829 0.0027056006014371803 0 0.074165381515977125 0.0033206817583230205 0 0.073542653740267985 0.0031809527192024844 0 0.073816624895719274 0.0025820129051835391 0 0.073279551978911478 0.0020863827586163749 0 0.073816624895719274 0.0025820129051835391 0 0.072949148227031829 0.0027056006014371803 0 0.077168165492783644 0.0025882236750256514 0 0.076639972500973597 0.0029080026878220274 0 0.075013307683145888 0.0055081470160994652 0 0.073929389676172158 0.005826644000426478 0 0.073750921328168711 0.0044939972774818409 0 0.076746447404538953 0.0026364280100995008 0 0.072023807863630218 0.0041860907978926772 0 0.079971761975461686 0.0024120843366703133 0 0.079588000393494548 0.002525903651690471 0 0.080051914673882604 0.0031040039961342321 0 0.079588000393494548 0.002525903651690471 0 0.079285096626085017 0.0033321651660205703 0 0.080051914673882604 0.0031040039961342321 0 0.077168165492783644 0.0025882236750256514 0 0.076746447404538953 0.0026364280100995008 0 0.08019644719759686 0.0019611822904715601 0 0.076746447404538953 0.0026364280100995008 0 0.075151319642671383 0.00045855838028168274 0 0.0740084996470734 0.00054584430586366022 0 0.074421226296762441 -0.00054169590226896334 0 0.079692538797634618 0.0023900628877529615 0 0.077168165492783644 0.0025882236750256514 0 0.075407800096430805 0.00013123257471889287 0 0.076248434362068018 -0.00024864720434850183 0 0.075901471029475601 -0.00050449072746856381 0 0.075151319642671383 0.00045855838028168274 0 0.074421226296762441 -0.00054169590226896334 0 0.075414193901644458 -0.00083374820845729834 0 0.075866991244407864 0.000787024970419355 0 0.076335894409723493 0.0011476240384548902 0 0.076248434362068018 -0.00024864720434850183 0 0.075901471029475601 -0.00050449072746856381 0 0.076205911942059959 -0.00028769031113213943 0 0.076335894409723493 0.0011476240384548902 0 0.076480822554771455 0.00069518303132877967 0 0.076719846847707232 0.0017081863994114843 0 0.07667499510256795 0.0017191588330949734 0 0.076703151937519476 0.0017545403098576417 0 0.077168165492783644 0.0025882236750256514 0 0.076335894409723493 0.0011476240384548902 0 0.07667499510256795 0.0017191588330949734 0 0.076662122386358084 0.0017682330858600497 0 0.076703151937519476 0.0017545403098576417 0 0.076335894409723493 0.0011476240384548902 0 0.076542615511028769 0.0011406756546962506 0 0.076662122386358084 0.0017682330858600497 0 0.076688540623938067 0.0018123534458351321 0 0.076703151937519476 0.0017545403098576417 0 0.077527141713362474 -0.00055416233705499641 0 0.077293647683519887 0.00054365228620835632 0 0.076205911942059959 -0.00028769031113213943 0 0.077293647683519887 0.00054365228620835632 0 0.076399245152071249 0.00102989531730384 0 0.076205911942059959 -0.00028769031113213943 0 0.077293647683519887 0.00054365228620835632 0 0.076636367897896587 0.0018346078864944254 0 0.076399245152071249 0.00102989531730384 0 0.076542615511028769 0.0011406756546962506 0 0.07655987826796018 0.0012971457175623442 0 0.076636367897896587 0.0018346078864944254 0 0.076347278914990643 0.00199410392574185 0 0.076399245152071249 0.00102989531730384 0 0.075861903397917166 0.0032745819786500359 0 0.075147103483627978 0.0035646157013585946 0 0.075425545441629355 0.0044002160232252925 0 0.076662122386358084 0.0017682330858600497 0 0.076688540623938067 0.0018123534458351321 0 0.076636367897896587 0.0018346078864944254 0 0.076542095463763546 0.002620462855988979 0 0.076639972500973597 0.0029080026878220274 0 0.075861903397917166 0.0032745819786500359 0 0.075147103483627978 0.0035646157013585946 0 0.075223474876492086 0.0027972971688602511 0 0.074618718313911689 0.0032409276260242366 0 0.075147103483627978 0.0035646157013585946 0 0.075223474876492086 0.0027972971688602511 0 0.074618718313911689 0.0032409276260242366 0 0.075147103483627978 0.0035646157013585946 0 0.074610762682568846 0.0040874373357714412 0 0.075013307683145888 0.0055081470160994652 0 0.074610762682568846 0.0040874373357714412 0 0.075425545441629355 0.0044002160232252925 0 0.075147103483627978 0.0035646157013585946 0 0.074610762682568846 0.0040874373357714412 0 0.075425545441629355 0.0044002160232252925 0 0.075013307683145888 0.0055081470160994652 0 0.074610762682568846 0.0040874373357714412 0 0.073750921328168711 0.0044939972774818409 0 0.073559408771159102 0.0031505284291514909 0 0.074610762682568846 0.0040874373357714412 0 0.073750921328168711 0.0044939972774818409 0 0.073559408771159102 0.0031505284291514909 0 0.074618718313911689 0.0032409276260242366 0 0.074610762682568846 0.0040874373357714412 0 0.073593011213100329 0.0021309296614088666 0 0.073559408771159102 0.0031505284291514909 0 0.074088546907159325 0.0026865592036156337 0 0.073559408771159102 0.0031505284291514909 0 0.074618718313911689 0.0032409276260242366 0 0.074088546907159325 0.0026865592036156337 0 0.074618718313911689 0.0032409276260242366 0 0.074088546907159325 0.0026865592036156337 0 0.074676344355566887 0.002696993428076588 0 0.074088546907159325 0.0026865592036156337 0 0.07435251278635685 0.0022299207463662451 0 0.074676344355566887 0.002696993428076588 0 0.073593011213100329 0.0021309296614088666 0 0.074088546907159325 0.0026865592036156337 0 0.07435251278635685 0.0022299207463662451 0 0.074618718313911689 0.0032409276260242366 0 0.075223474876492086 0.0027972971688602511 0 0.074676344355566887 0.002696993428076588 0 0.075223474876492086 0.0027972971688602511 0 0.074676344355566887 0.002696993428076588 0 0.075154090084140285 0.0021434888277753229 0 0.07435251278635685 0.0022299207463662451 0 0.074676344355566887 0.002696993428076588 0 0.075154090084140285 0.0021434888277753229 0 0.075223474876492086 0.0027972971688602511 0 0.075154090084140285 0.0021434888277753229 0 0.075644506962137051 0.0022278952622668759 0 0.075154090084140285 0.0021434888277753229 0 0.075443118215443319 0.0018307240600153611 0 0.075109189074097346 0.0016258248692305243 0 0.075154090084140285 0.0021434888277753229 0 0.075443118215443319 0.0018307240600153611 0 0.075644506962137051 0.0022278952622668759 0 0.075154090084140285 0.0021434888277753229 0 0.074852673783664697 0.0018653927992014333 0 0.075109189074097346 0.0016258248692305243 0 0.07435251278635685 0.0022299207463662451 0 0.075154090084140285 0.0021434888277753229 0 0.074852673783664697 0.0018653927992014333 0 0.074852673783664697 0.0018653927992014333 0 0.074763721857085727 0.0015009135151264571 0 0.075109189074097346 0.0016258248692305243 0 0.075443118215443319 0.0018307240600153611 0 0.075109189074097346 0.0016258248692305243 0 0.075508544094799707 0.0014460506004803861 0 0.07435251278635685 0.0022299207463662451 0 0.074852673783664697 0.0018653927992014333 0 0.074763721857085727 0.0015009135151264571 0 0.07435251278635685 0.0022299207463662451 0 0.074441831640057868 0.0014356520638266182 0 0.074075057164147431 0.0017524707887047917 0 0.061024833649718613 -1.598065943644164e-05 0 0.059380014235319092 0.00036262463304032717 0 0.073593011213100329 0.0021309296614088666 0 0.07435251278635685 0.0022299207463662451 0 0.074075057164147431 0.0017524707887047917 0 0.073593011213100329 0.0021309296614088666 0 0.074075057164147431 0.0017524707887047917 0 0.073748322772376237 0.0016870663430057782 0 0.074441831640057868 0.0014356520638266182 0 0.074068574383300362 0.0014281052153387712 0 0.074075057164147431 0.0017524707887047917 0 0.074068574383300362 0.0014281052153387712 0 0.074075057164147431 0.0017524707887047917 0 0.073748322772376237 0.0016870663430057782 0 0.074068574383300362 0.0014281052153387712 0 0.073748322772376237 0.0016870663430057782 0 0.073697260912367626 0.0013922080306609827 0 0.052657607303990578 0.0026219686579852896 0 0.053759339011016948 0.0027022423103546466 0 0.07321907603675451 0.00091827013825411812 0 0.073883545919715118 0.0011892251635655983 0 0.074114164999426468 0.00098530206875362667 0 0.07321907603675451 0.00091827013825411812 0 0.074114164999426468 0.00098530206875362667 0 0.074624370014911318 0.00069863741140604009 0 0.030176571995883982 0.0067589376415178298 0 0.030473413893571666 0.0063780755712062581 0 0.032839474653414025 0.0063027854277106724 0 0.074068574383300362 0.0014281052153387712 0 0.073697260912367626 0.0013922080306609827 0 0.073883545919715118 0.0011892251635655983 0 0.074114164999426468 0.00098530206875362667 0 0.074256596585428103 0.0011821499753931926 0 0.074624370014911318 0.00069863741140604009 0 0.074441831640057868 0.0014356520638266182 0 0.074068574383300362 0.0014281052153387712 0 0.074256596585428103 0.0011821499753931926 0 0.073883545919715118 0.0011892251635655983 0 0.074114164999426468 0.00098530206875362667 0 0.074256596585428103 0.0011821499753931926 0 0.074068574383300362 0.0014281052153387712 0 0.073883545919715118 0.0011892251635655983 0 0.074256596585428103 0.0011821499753931926 0 0.074441831640057868 0.0014356520638266182 0 0.074256596585428103 0.0011821499753931926 0 0.074624370014911318 0.00069863741140604009 0 0.074763721857085727 0.0015009135151264571 0 0.074899427934989674 0.0013752445514061094 0 0.074891198818110349 0.0011596959033562128 0 0.074763721857085727 0.0015009135151264571 0 0.075109189074097346 0.0016258248692305243 0 0.074899427934989674 0.0013752445514061094 0 0.059380014235319092 0.00036262463304032717 0 0.053759339011016948 0.0027022423103546466 0 0.075109189074097346 0.0016258248692305243 0 0.074899427934989674 0.0013752445514061094 0 0.07525527443936729 0.001359506586217901 0 0.075109189074097346 0.0016258248692305243 0 0.07525527443936729 0.001359506586217901 0 0.075508544094799707 0.0014460506004803861 0 0.07525527443936729 0.001359506586217901 0 0.075505675467000349 0.0009962062868947841 0 0.075508544094799707 0.0014460506004803861 0 0.074899427934989674 0.0013752445514061094 0 0.07525527443936729 0.001359506586217901 0 0.075505675467000349 0.0009962062868947841 0 0.074899427934989674 0.0013752445514061094 0 0.074891198818110349 0.0011596959033562128 0 0.075056693307472555 0.0011331661108814847 0 0.061091969414974058 -0.00033443586329443052 0 0.056625119616411257 0.0022175491510119058 0 0.032839474653414025 0.0063027854277106724 0 0.03196989660968981 0.0046468040712433229 0 0.033375447871586007 0.0042934550592555222 0 0.03344153874258611 0.0051209753526602446 0 0.034209414799079518 0.0042659976942589052 0 0.033746612812041984 0.0038090338245787016 0 0.053759339011016948 0.0027022423103546466 0 0.04517866537002517 0.0053709239823189047 0 0.053759339011016948 0.0027022423103546466 0 0.056625119616411257 0.0022175491510119058 0 0.03344153874258611 0.0051209753526602446 0 0.034209414799079518 0.0042659976942589052 0 0.034107433438007283 0.0050094342852804782 0 0.030934604127522369 0.0052547876915711523 0 0.032839474653414025 0.0063027854277106724 0 0.03196989660968981 0.0046468040712433229 0 0.030934604127522369 0.0052547876915711523 0 0.030473413893571666 0.0063780755712062581 0 0.032839474653414025 0.0063027854277106724 0 0.060703986187549942 0.0017626513462579059 0 0.058353977470054309 0.0022677259507051825 0 0.076080321723358879 0.001085500315176932 0 0.076299997878033654 0.0013792204303125851 0 0.076431053710249955 0.0011383084021982189 0 0.055225521094515791 0.0016821830081616854 0 0.054544739955893581 0.0018053535426232076 0 0.055109706535419134 0.0023773837228249594 0 0.058353977470054309 0.0022677259507051825 0 0.050552541668598898 0.0014181870247388854 0 0.060703986187549942 0.0017626513462579059 0 0.056625119616411257 0.0022175491510119058 0 0.055225521094515791 0.0016821830081616854 0 0.055909703087628299 0.0015603447013823513 0 0.055109706535419134 0.0023773837228249594 0 0.056625119616411257 0.0022175491510119058 0 0.050552541668598898 0.0014181870247388854 0 0.034209414799079518 0.0042659976942589052 0 0.034107433438007283 0.0050094342852804782 0 0.035404539775221358 0.003743830643004706 0 0.076080321723358879 0.001085500315176932 0 0.075505675467000349 0.0009962062868947841 0 0.075942315566824209 0.0013624048560682658 0 0.075505675467000349 0.0009962062868947841 0 0.075508544094799707 0.0014460506004803861 0 0.075942315566824209 0.0013624048560682658 0 0.075508544094799707 0.0014460506004803861 0 0.075942315566824209 0.0013624048560682658 0 0.075891379921042806 0.0017071259669830233 0 0.075942315566824209 0.0013624048560682658 0 0.076299997878033654 0.0013792204303125851 0 0.076205313997762744 0.0016623463800187848 0 0.076080321723358879 0.001085500315176932 0 0.075942315566824209 0.0013624048560682658 0 0.076299997878033654 0.0013792204303125851 0 0.076299997878033654 0.0013792204303125851 0 0.076205313997762744 0.0016623463800187848 0 0.076399884402524126 0.001671242699221672 0 0.076205313997762744 0.0016623463800187848 0 0.076356213288848118 0.0019214594540695655 0 0.076399884402524126 0.001671242699221672 0 0.076205313997762744 0.0016623463800187848 0 0.076356213288848118 0.0019214594540695655 0 0.076295819158835987 0.0019868522400612845 0 0.075443118215443319 0.0018307240600153611 0 0.075508544094799707 0.0014460506004803861 0 0.075891379921042806 0.0017071259669830233 0 0.075942315566824209 0.0013624048560682658 0 0.076205313997762744 0.0016623463800187848 0 0.075891379921042806 0.0017071259669830233 0 0.076205313997762744 0.0016623463800187848 0 0.075891379921042806 0.0017071259669830233 0 0.076295819158835987 0.0019868522400612845 0 0.075891379921042806 0.0017071259669830233 0 0.076295819158835987 0.0019868522400612845 0 0.075644506962137051 0.0022278952622668759 0 0.075443118215443319 0.0018307240600153611 0 0.075891379921042806 0.0017071259669830233 0 0.075644506962137051 0.0022278952622668759 0 0.075861903397917166 0.0032745819786500359 0 0.076295819158835987 0.0019868522400612845 0 0.075644506962137051 0.0022278952622668759 0 0.076688540623938067 0.0018123534458351321 0 0.076295819158835987 0.0019868522400612845 0 0.076636367897896587 0.0018346078864944254 0 0.076542095463763546 0.002620462855988979 0 0.076551559638747851 0.0024029805076608264 0 0.075861903397917166 0.0032745819786500359 0 0.075223474876492086 0.0027972971688602511 0 0.075644506962137051 0.0022278952622668759 0 0.076356213288848118 0.0019214594540695655 0 0.076636367897896587 0.0018346078864944254 0 0.076347278914990643 0.00199410392574185 0 0.076356213288848118 0.0019214594540695655 0 0.076295819158835987 0.0019868522400612845 0 0.076636367897896587 0.0018346078864944254 0 0.076356213288848118 0.0019214594540695655 0 0.076347278914990643 0.00199410392574185 0 0.076535690752117566 0.0018192742510668161 0 0.074723251780827601 0.0011450708671676933 0 0.073159865017043579 0.00096467764093592873 0 0.076347278914990643 0.00199410392574185 0 0.076689719059482311 0.0019429826511714234 0 0.076535690752117566 0.0018192742510668161 0 0.076347278914990643 0.00199410392574185 0 0.07451614609308245 0.002729461724896581 0 0.075343878422686264 0.00088463071714313542 0 0.076689719059482311 0.0019429826511714234 0 0.076535690752117566 0.0018192742510668161 0 0.07679404702952225 0.0017360619224179583 0 0.076535690752117566 0.0018192742510668161 0 0.076647521106847943 0.001483066152688704 0 0.07679404702952225 0.0017360619224179583 0 0.076535690752117566 0.0018192742510668161 0 0.076399884402524126 0.001671242699221672 0 0.076647521106847943 0.001483066152688704 0 0.076356213288848118 0.0019214594540695655 0 0.076535690752117566 0.0018192742510668161 0 0.076399884402524126 0.001671242699221672 0 0.076299997878033654 0.0013792204303125851 0 0.076399884402524126 0.001671242699221672 0 0.076647521106847943 0.001483066152688704 0 0.076299997878033654 0.0013792204303125851 0 0.076647521106847943 0.001483066152688704 0 0.076431053710249955 0.0011383084021982189 0 0.062244859740369321 0.001799404840549411 0 0.058353977470054309 0.0022677259507051825 0 0.062244859740369321 0.001799404840549411 0 0.064653931618000926 0.0012003734610954344 0 0.052065132004258718 -0.00020228994563133672 0 0.051641998268242041 -0.00095281539419398602 0 0.051359549586301317 -0.00073845730169203147 0 0.052065132004258718 -0.00020228994563133672 0 0.051641998268242041 -0.00095281539419398602 0 0.05429215418700338 -0.00061512518412989515 0 0.055144556042729338 0.0020923998963226589 0 0.058353977470054309 0.0022677259507051825 0 0.051641998268242041 -0.00095281539419398602 0 0.05052504300321882 -0.00073749149781618091 0 0.050594129146037656 -0.0011216707625830466 0 0.05266747695067648 -1.2280842273321894e-06 0 0.05429215418700338 -0.00061512518412989515 0 0.051394336933112322 -0.00080435437071707842 0 0.05266747695067648 -1.2280842273321894e-06 0 0.05429215418700338 -0.00061512518412989515 0 0.058181254401127244 -2.4462386285809739e-06 0 0.051641998268242041 -0.00095281539419398602 0 0.05429215418700338 -0.00061512518412989515 0 0.051394336933112322 -0.00080435437071707842 0 0.052065132004258718 -0.00020228994563133672 0 0.05429215418700338 -0.00061512518412989515 0 0.054804603196583118 0.00073064248065716261 0 0.05429215418700338 -0.00061512518412989515 0 0.058181254401127244 -2.4462386285809739e-06 0 0.058040467583959171 0.00019852562560140354 0 0.058181254401127244 -2.4462386285809739e-06 0 0.058040467583959171 0.00019852562560140354 0 0.063688021662065303 7.1879463271439891e-06 0 0.05429215418700338 -0.00061512518412989515 0 0.058040467583959171 0.00019852562560140354 0 0.054804603196583118 0.00073064248065716261 0 0.058040467583959171 0.00019852562560140354 0 0.054804603196583118 0.00073064248065716261 0 0.059353501432154156 0.0018591298311707079 0 0.064653931618000926 0.0012003734610954344 0 0.066266857699883247 0.00030108136280922193 0 0.073159865017043579 0.00096467764093592873 0 0.066266857699883247 0.00030108136280922193 0 0.07451614609308245 0.002729461724896581 0 0.070043507272092936 0.0036328795421626523 0 0.070807594253266937 0.00091693869498376765 0 0.076689719059482311 0.0019429826511714234 0 0.07679404702952225 0.0017360619224179583 0 0.07692333605945044 0.0019114611596299195 0 0.063701046109618603 1.7399334965472964e-06 0 0.066266857699883247 0.00030108136280922193 0 0.058040467583959171 0.00019852562560140354 0 0.063688021662065303 7.1879463271439891e-06 0 0.059353501432154156 0.0018591298311707079 0 0.070043507272092936 0.0036328795421626523 0 0.066146916642951276 7.8377667558102789e-06 0 0.070807594253266937 0.00091693869498376765 0 0.063703175611580787 -9.5079136787053072e-10 0 0.063826467158508787 -1.495694272109736e-06 0 0.066131050162840044 -2.5803027338707535e-09 0 0.066266857699883247 0.00030108136280922193 0 0.066137874574610567 5.6273643989590058e-07 0 0.070807594253266937 0.00091693869498376765 0 0.069879608341985644 -2.8861230342487678e-06 0 0.072973671784506977 0.00036385544286948946 0 0.066146916642951276 7.8377667558102789e-06 0 0.070807594253266937 0.00091693869498376765 0 0.069879608341985644 -2.8861230342487678e-06 0 0.069879608341985644 -2.8861230342487678e-06 0 0.073502166852474876 -0.00036644461550483439 0 0.072973671784506977 0.00036385544286948946 0 0.069879608341985644 -2.8861230342487678e-06 0 0.073502166852474876 -0.00036644461550483439 0 0.073617468613562553 -6.4179045737182655e-07 0 0.073502166852474876 -0.00036644461550483439 0 0.072973671784506977 0.00036385544286948946 0 0.074615573244983538 -3.8314254922583218e-05 0 0.073502166852474876 -0.00036644461550483439 0 0.074615573244983538 -3.8314254922583218e-05 0 0.075511409609498259 -0.00044421157865021668 0 0.07451614609308245 0.002729461724896581 0 0.070807594253266937 0.00091693869498376765 0 0.072973671784506977 0.00036385544286948946 0 0.07451614609308245 0.002729461724896581 0 0.072973671784506977 0.00036385544286948946 0 0.075343878422686264 0.00088463071714313542 0 0.076347278914990643 0.00199410392574185 0 0.075343878422686264 0.00088463071714313542 0 0.076399245152071249 0.00102989531730384 0 0.075343878422686264 0.00088463071714313542 0 0.076399245152071249 0.00102989531730384 0 0.076205911942059959 -0.00028769031113213943 0 0.075343878422686264 0.00088463071714313542 0 0.076205911942059959 -0.00028769031113213943 0 0.074615573244983538 -3.8314254922583218e-05 0 0.072973671784506977 0.00036385544286948946 0 0.075343878422686264 0.00088463071714313542 0 0.074615573244983538 -3.8314254922583218e-05 0 0.075511409609498259 -0.00044421157865021668 0 0.076465273928020119 -0.00040681699531147885 0 0.076590412244964545 -0.00038881303591548636 0 0.076205911942059959 -0.00028769031113213943 0 0.075511409609498259 -0.00044421157865021668 0 0.076465273928020119 -0.00040681699531147885 0 0.076205911942059959 -0.00028769031113213943 0 0.074615573244983538 -3.8314254922583218e-05 0 0.075511409609498259 -0.00044421157865021668 0 0.076248434362068018 -0.00024864720434850183 0 0.076205911942059959 -0.00028769031113213943 0 0.076465273928020119 -0.00040681699531147885 0 0.076248434362068018 -0.00024864720434850183 0 0.076465273928020119 -0.00040681699531147885 0 0.076990624723507317 -0.00019964953933130234 0 0.077571317379407451 -0.00012657991087377412 0 0.076990624723507317 -0.00019964953933130234 0 0.076590412244964545 -0.00038881303591548636 0 0.076465273928020119 -0.00040681699531147885 0 0.076990624723507317 -0.00019964953933130234 0 0.076590412244964545 -0.00038881303591548636 0 0.07624342838804124 -0.00037271348735031792 0 0.076119055284493073 -0.00051357359052668064 0 0.07487885089249971 -0.0002779417128810248 0 0.077571317379407451 -0.00012657991087377412 0 0.076590412244964545 -0.00038881303591548636 0 0.07624342838804124 -0.00037271348735031792 0 0.077399500421478529 -9.2971699527100472e-05 0 0.077571317379407451 -0.00012657991087377412 0 0.07624342838804124 -0.00037271348735031792 0 0.075511409609498259 -0.00044421157865021668 0 0.076590412244964545 -0.00038881303591548636 0 0.07624342838804124 -0.00037271348735031792 0 0.077399500421478529 -9.2971699527100472e-05 0 0.07624342838804124 -0.00037271348735031792 0 0.076119055284493073 -0.00051357359052668064 0 0.076119055284493073 -0.00051357359052668064 0 0.073617468613562553 -6.4179045737182655e-07 0 0.07487885089249971 -0.0002779417128810248 0 0.079359828575176414 2.562461198995882e-07 0 0.079981054798457712 0.0003581823501355632 0 0.07362317860804328 1.5363257502844729e-06 0 0.077224174207665239 -0.00047713437024711854 0 0.073627599793306964 3.4978444261353928e-08 0 0.073502166852474876 -0.00036644461550483439 0 0.073617468613562553 -6.4179045737182655e-07 0 0.07487885089249971 -0.0002779417128810248 0 0.073502166852474876 -0.00036644461550483439 0 0.075511409609498259 -0.00044421157865021668 0 0.07487885089249971 -0.0002779417128810248 0 0.075511409609498259 -0.00044421157865021668 0 0.07624342838804124 -0.00037271348735031792 0 0.07487885089249971 -0.0002779417128810248 0 0.026602911899076015 0.00034680758461385144 0 0.025742130475765054 0.00082976224099126465 0 0.024681612258079952 0.00035847735402911777 0 0.026602911899076015 0.00034680758461385144 0 0.025742130475765054 0.00082976224099126465 0 0.028686935356261937 0.00060941870866587471 0 0.025742130475765054 0.00082976224099126465 0 0.024681612258079952 0.00035847735402911777 0 0.023948078568883643 0.00095648494809132708 0 0.025742130475765054 0.00082976224099126465 0 0.023948078568883643 0.00095648494809132708 0 0.02565891669512502 0.0021516101170944275 0 0.025742130475765054 0.00082976224099126465 0 0.028686935356261937 0.00060941870866587471 0 0.02565891669512502 0.0021516101170944275 0 0.026602911899076015 0.00034680758461385144 0 0.028686935356261937 0.00060941870866587471 0 0.028987353967434768 -2.2530626065300217e-06 0 0.028686935356261937 0.00060941870866587471 0 0.028987353967434768 -2.2530626065300217e-06 0 0.034916290000868738 8.3583733447612905e-06 0 0.026602911899076015 0.00034680758461385144 0 0.028987353967434768 -2.2530626065300217e-06 0 0.024405683100935743 -5.1170410651114319e-06 0 0.028987353967434768 -2.2530626065300217e-06 0 0.024405683100935743 -5.1170410651114319e-06 0 0.023287630697614178 -1.3610578873945704e-05 0 0.026602911899076015 0.00034680758461385144 0 0.024405683100935743 -5.1170410651114319e-06 0 0.024681612258079952 0.00035847735402911777 0 0.024405683100935743 -5.1170410651114319e-06 0 0.024681612258079952 0.00035847735402911777 0 0.023425237218931631 0.00027245700620916039 0 0.024405683100935743 -5.1170410651114319e-06 0 0.023425237218931631 0.00027245700620916039 0 0.022784594828958751 4.9272570198008416e-05 0 0.023425237218931631 0.00027245700620916039 0 0.022593328560491774 0.00074286311349898958 0 0.022469655939537786 0.00027944586460281921 0 0.023425237218931631 0.00027245700620916039 0 0.022593328560491774 0.00074286311349898958 0 0.023948078568883643 0.00095648494809132708 0 0.024681612258079952 0.00035847735402911777 0 0.023425237218931631 0.00027245700620916039 0 0.023948078568883643 0.00095648494809132708 0 0.022593328560491774 0.00074286311349898958 0 0.02143210260800972 0.0011646415457816693 0 0.021511850096281163 0.00070937676684369874 0 0.022593328560491774 0.00074286311349898958 0 0.021511850096281163 0.00070937676684369874 0 0.022469655939537786 0.00027944586460281921 0 0.030991114891820763 -0.0009879003810421567 0 0.028522692021525499 -0.0024298004324984739 0 0.022593328560491774 0.00074286311349898958 0 0.023139861199212221 0.0016217538271335239 0 0.02143210260800972 0.0011646415457816693 0 0.03157804179376468 -0.001829101936535855 0 0.031228439209562153 -0.0019982855059526789 0 0.031311565945224669 -0.0024017110733677389 0 0.03190099496899311 -0.0020905856107809972 0 0.03157804179376468 -0.001829101936535855 0 0.031311565945224669 -0.0024017110733677389 0 0.030991114891820763 -0.0009879003810421567 0 0.032738789210570808 -0.0013719589501014113 0 0.030323466958723809 -0.00055835168208087128 0 0.030991114891820763 -0.0009879003810421567 0 0.022593328560491774 0.00074286311349898958 0 0.023948078568883643 0.00095648494809132708 0 0.023139861199212221 0.0016217538271335239 0 0.023948078568883643 0.00095648494809132708 0 0.023185653914315443 0.0015858462487284314 0 0.02565891669512502 0.0021516101170944275 0 0.037313423569070532 4.7375286062819164e-05 0 0.037269661061527758 1.7237376962948769e-05 0 0.037208771057312892 3.1383016066764416e-05 0 0.030991114891820763 -0.0009879003810421567 0 0.032548945557370326 -0.00050176670044072035 0 0.037307965745322164 6.7594969989542975e-06 0 0.037368370967894776 1.4028202844327115e-06 0 0.037241208333671658 -4.0817222145554406e-05 0 0.037368370967894776 1.4028202844327115e-06 0 0.037604526285278259 0.00021461594672298343 0 0.037845815908170079 8.9717102043606036e-05 0 0.03687948522481755 -3.8850437460374134e-05 0 0.036525187173004917 -5.0125129705372499e-05 0 0.037269661061527758 1.7237376962948769e-05 0 0.037307965745322164 6.7594969989542975e-06 0 0.037241208333671658 -4.0817222145554406e-05 0 0.037313423569070532 4.7375286062819164e-05 0 0.037269661061527758 1.7237376962948769e-05 0 0.037307965745322164 6.7594969989542975e-06 0 0.037313423569070532 4.7375286062819164e-05 0 0.037307965745322164 6.7594969989542975e-06 0 0.037336904294572794 -1.9871759279650624e-05 0 0.037336904294572794 -1.9871759279650624e-05 0 0.037368370967894776 1.4028202844327115e-06 0 0.037165660602716873 5.4245180583653086e-05 0 0.037307965745322164 6.7594969989542975e-06 0 0.037336904294572794 -1.9871759279650624e-05 0 0.037368370967894776 1.4028202844327115e-06 0 0.032738789210570808 -0.0013719589501014113 0 0.033609979604351595 -0.0014116005694079638 0 0.037368370967894776 1.4028202844327115e-06 0 0.037257627804764708 0.00035356655823288693 0 0.037165660602716873 5.4245180583653086e-05 0 0.035367850268654591 4.9208702965658239e-05 0 0.033609979604351595 -0.0014116005694079638 0 0.037257627804764708 0.00035356655823288693 0 0.035994755168960633 -0.00023524278729877637 0 0.035903961261201565 -0.0016566744445321634 0 0.037368370967894776 1.4028202844327115e-06 0 0.037604526285278259 0.00021461594672298343 0 0.037257627804764708 0.00035356655823288693 0 0.037604526285278259 0.00021461594672298343 0 0.037863572144220967 0.00027190106399485169 0 0.037845815908170079 8.9717102043606036e-05 0 0.037604526285278259 0.00021461594672298343 0 0.037720604304044877 0.00040694092184835585 0 0.037257627804764708 0.00035356655823288693 0 0.037604526285278259 0.00021461594672298343 0 0.037863572144220967 0.00027190106399485169 0 0.037720604304044877 0.00040694092184835585 0 0.037863572144220967 0.00027190106399485169 0 0.038072481428305112 0.00040462028508701602 0 0.037720604304044877 0.00040694092184835585 0 0.038021440658691251 0.00032186682939624789 0 0.037863572144220967 0.00027190106399485169 0 0.038072481428305112 0.00040462028508701602 0 0.038021440658691251 0.00032186682939624789 0 0.037863572144220967 0.00027190106399485169 0 0.037845815908170079 8.9717102043606036e-05 0 0.036525187173004917 -5.0125129705372499e-05 0 0.034921655423149539 -0.00010926465954889944 0 0.037241208333671658 -4.0817222145554406e-05 0 0.037208771057312892 3.1383016066764416e-05 0 0.037038016011890842 -4.3136398423584918e-05 0 0.038021440658691251 0.00032186682939624789 0 0.037845815908170079 8.9717102043606036e-05 0 0.038130192914072415 0.00059048183012343474 0 0.028686935356261937 0.00060941870866587471 0 0.02565891669512502 0.0021516101170944275 0 0.030130209262888504 0.0023489776226688582 0 0.032548945557370326 -0.00050176670044072035 0 0.034921655423149539 -0.00010926465954889944 0 0.037269661061527758 1.7237376962948769e-05 0 0.037241208333671658 -4.0817222145554406e-05 0 0.037208771057312892 3.1383016066764416e-05 0 0.028686935356261937 0.00060941870866587471 0 0.030130209262888504 0.0023489776226688582 0 0.034916290000868738 8.3583733447612905e-06 0 0.034921655423149539 -0.00010926465954889944 0 0.036123639974107079 5.6123465449294294e-07 0 0.034898667975437336 -2.1111341459627089e-06 0 0.034932486937327353 1.905863064272365e-09 0 0.03611926094948599 -3.9920467977685995e-09 0 0.034921655423149539 -0.00010926465954889944 0 0.034924425353193192 -3.9196757401751709e-07 0 0.038130192914072415 0.00059048183012343474 0 0.037762523364360624 0.00022311604757005809 0 0.036134838125778425 4.583161953664571e-06 0 0.037762523364360624 0.00022311604757005809 0 0.036134838125778425 4.583161953664571e-06 0 0.041640803269602213 -7.3783738033003804e-07 0 0.038021440658691251 0.00032186682939624789 0 0.037762523364360624 0.00022311604757005809 0 0.038072481428305112 0.00040462028508701602 0 0.041958029578245917 0.00078272428396762193 0 0.042775843542076385 0.00079866054940260975 0 0.038021440658691251 0.00032186682939624789 0 0.038130192914072415 0.00059048183012343474 0 0.037762523364360624 0.00022311604757005809 0 0.037762523364360624 0.00022311604757005809 0 0.041640803269602213 -7.3783738033003804e-07 0 0.044818347883150512 0.00097661913810133351 0 0.041640803269602213 -7.3783738033003804e-07 0 0.044818347883150512 0.00097661913810133351 0 0.046781386694285575 -0.00039983780672577299 0 0.042775843542076385 0.00079866054940260975 0 0.044123096625909138 0.0011880002115454856 0 0.044818347883150512 0.00097661913810133351 0 0.046781386694285575 -0.00039983780672577299 0 0.049056521356214473 0.00011797032555928442 0 0.041640803269602213 -7.3783738033003804e-07 0 0.046781386694285575 -0.00039983780672577299 0 0.047155557310646704 -1.582694464514273e-06 0 0.047155557310646704 -1.582694464514273e-06 0 0.049172819986348391 -0.00074039813956205622 0 0.051394336933112322 -0.00080435437071707842 0 0.046781386694285575 -0.00039983780672577299 0 0.047155557310646704 -1.582694464514273e-06 0 0.049172819986348391 -0.00074039813956205622 0 0.046781386694285575 -0.00039983780672577299 0 0.049172819986348391 -0.00074039813956205622 0 0.049600014251624955 -0.00077439562283611611 0 0.051641998268242041 -0.00095281539419398602 0 0.051394336933112322 -0.00080435437071707842 0 0.050405541261426767 -0.0011327064677001096 0 0.049172819986348391 -0.00074039813956205622 0 0.051394336933112322 -0.00080435437071707842 0 0.050405541261426767 -0.0011327064677001096 0 0.05266747695067648 -1.2280842273321894e-06 0 0.047155557310646704 -1.582694464514273e-06 0 0.051394336933112322 -0.00080435437071707842 0 0.050594129146037656 -0.0011216707625830466 0 0.050559887503608819 -0.0009521773951388341 0 0.050454399247190182 -0.0010809342476413761 0 0.050594129146037656 -0.0011216707625830466 0 0.050405541261426767 -0.0011327064677001096 0 0.050559887503608819 -0.0009521773951388341 0 0.05052504300321882 -0.00073749149781618091 0 0.050594129146037656 -0.0011216707625830466 0 0.050454399247190182 -0.0010809342476413761 0 0.051641998268242041 -0.00095281539419398602 0 0.050594129146037656 -0.0011216707625830466 0 0.050405541261426767 -0.0011327064677001096 0 0.049172819986348391 -0.00074039813956205622 0 0.050405541261426767 -0.0011327064677001096 0 0.049600014251624955 -0.00077439562283611611 0 0.050405541261426767 -0.0011327064677001096 0 0.049600014251624955 -0.00077439562283611611 0 0.050559887503608819 -0.0009521773951388341 0 0.049600014251624955 -0.00077439562283611611 0 0.050559887503608819 -0.0009521773951388341 0 0.049056521356214473 0.00011797032555928442 0 0.036722530964831065 0.0025090791181203234 0 0.036760245761078621 0.0012700597411399704 0 0.036062837387811707 0.0017317079065014903 0 0.036722530964831065 0.0025090791181203234 0 0.036760245761078621 0.0012700597411399704 0 0.037730602644437214 0.0012000884713822026 0 0.045955439879427948 0.0018442199149135033 0 0.044123096625909138 0.0011880002115454856 0 0.046781386694285575 -0.00039983780672577299 0 0.049600014251624955 -0.00077439562283611611 0 0.049056521356214473 0.00011797032555928442 0 0.038072481428305112 0.00040462028508701602 0 0.037730602644437214 0.0012000884713822026 0 0.037720604304044877 0.00040694092184835585 0 0.037730602644437214 0.0012000884713822026 0 0.037720604304044877 0.00040694092184835585 0 0.037257627804764708 0.00035356655823288693 0 0.036760245761078621 0.0012700597411399704 0 0.037257627804764708 0.00035356655823288693 0 0.035994755168960633 -0.00023524278729877637 0 0.036760245761078621 0.0012700597411399704 0 0.037730602644437214 0.0012000884713822026 0 0.037257627804764708 0.00035356655823288693 0 0.035208736366543078 5.3475502245705371e-05 0 0.035507867206084169 0.00098632829221771863 0 0.035994755168960633 -0.00023524278729877637 0 0.036760245761078621 0.0012700597411399704 0 0.035507867206084169 0.00098632829221771863 0 0.035994755168960633 -0.00023524278729877637 0 0.035208736366543078 5.3475502245705371e-05 0 0.034613687160242712 0.00037452823526180922 0 0.035507867206084169 0.00098632829221771863 0 0.034613687160242712 0.00037452823526180922 0 0.033379936314261761 0.00011323993701561967 0 0.034686367002221101 -0.00070172209057868128 0 0.033708760261076019 -0.00091785827717498123 0 0.033921743726226215 -0.0012203153308927794 0 0.035208736366543078 5.3475502245705371e-05 0 0.034613687160242712 0.00037452823526180922 0 0.034686367002221101 -0.00070172209057868128 0 0.034613687160242712 0.00037452823526180922 0 0.034556867852204257 0.001202439591648009 0 0.035507867206084169 0.00098632829221771863 0 0.034613687160242712 0.00037452823526180922 0 0.034556867852204257 0.001202439591648009 0 0.033379936314261761 0.00011323993701561967 0 0.034556867852204257 0.001202439591648009 0 0.035239887704070424 0.0021423349258154309 0 0.03392524533505209 0.0023301658585690422 0 0.034556867852204257 0.001202439591648009 0 0.03392524533505209 0.0023301658585690422 0 0.033379936314261761 0.00011323993701561967 0 0.036760245761078621 0.0012700597411399704 0 0.035507867206084169 0.00098632829221771863 0 0.036062837387811707 0.0017317079065014903 0 0.034556867852204257 0.001202439591648009 0 0.035507867206084169 0.00098632829221771863 0 0.035239887704070424 0.0021423349258154309 0 0.035507867206084169 0.00098632829221771863 0 0.036062837387811707 0.0017317079065014903 0 0.035239887704070424 0.0021423349258154309 0 0.045955439879427948 0.0018442199149135033 0 0.050552541668598898 0.0014181870247388854 0 0.036722530964831065 0.0025090791181203234 0 0.03545532679121443 0.0029688817553362203 0 0.035465425352709537 0.0037991351183596692 0 0.036722530964831065 0.0025090791181203234 0 0.036062837387811707 0.0017317079065014903 0 0.035239887704070424 0.0021423349258154309 0 0.036722530964831065 0.0025090791181203234 0 0.03545532679121443 0.0029688817553362203 0 0.035239887704070424 0.0021423349258154309 0 0.03545532679121443 0.0029688817553362203 0 0.035239887704070424 0.0021423349258154309 0 0.034697672971960976 0.0029058358853528664 0 0.03545532679121443 0.0029688817553362203 0 0.034697672971960976 0.0029058358853528664 0 0.035167948420618038 0.0035051045960676212 0 0.035239887704070424 0.0021423349258154309 0 0.03392524533505209 0.0023301658585690422 0 0.034697672971960976 0.0029058358853528664 0 0.03392524533505209 0.0023301658585690422 0 0.034697672971960976 0.0029058358853528664 0 0.03442614743208959 0.0036306728523503697 0 0.034209414799079518 0.0042659976942589052 0 0.03442614743208959 0.0036306728523503697 0 0.035404539775221358 0.003743830643004706 0 0.03442614743208959 0.0036306728523503697 0 0.035404539775221358 0.003743830643004706 0 0.035167948420618038 0.0035051045960676212 0 0.03392524533505209 0.0023301658585690422 0 0.03442614743208959 0.0036306728523503697 0 0.033746612812041984 0.0038090338245787016 0 0.034697672971960976 0.0029058358853528664 0 0.03442614743208959 0.0036306728523503697 0 0.035167948420618038 0.0035051045960676212 0 0.034209414799079518 0.0042659976942589052 0 0.03442614743208959 0.0036306728523503697 0 0.033746612812041984 0.0038090338245787016 0 0.03545532679121443 0.0029688817553362203 0 0.035465425352709537 0.0037991351183596692 0 0.035167948420618038 0.0035051045960676212 0 0.050552541668598898 0.0014181870247388854 0 0.050158876065124071 0.0012240300181614089 0 0.030934604127522369 0.0052547876915711523 0 0.03196989660968981 0.0046468040712433229 0 0.030802806061981235 0.0036909104577654843 0 0.032163891358729844 0.00363112086941256 0 0.03196989660968981 0.0046468040712433229 0 0.030802806061981235 0.0036909104577654843 0 0.032163891358729844 0.00363112086941256 0 0.03196989660968981 0.0046468040712433229 0 0.033375447871586007 0.0042934550592555222 0 0.042977767760922284 0.0051390123904425768 0 0.04517866537002517 0.0053709239823189047 0 0.03392524533505209 0.0023301658585690422 0 0.032163891358729844 0.00363112086941256 0 0.031443550712727315 0.0023745234506860257 0 0.03392524533505209 0.0023301658585690422 0 0.032163891358729844 0.00363112086941256 0 0.033375447871586007 0.0042934550592555222 0 0.032163891358729844 0.00363112086941256 0 0.031443550712727315 0.0023745234506860257 0 0.030802806061981235 0.0036909104577654843 0 0.031443550712727315 0.0023745234506860257 0 0.032054640900577323 0.00098456900463955049 0 0.030159771262454733 0.00049978437658166632 0 0.03392524533505209 0.0023301658585690422 0 0.031443550712727315 0.0023745234506860257 0 0.032054640900577323 0.00098456900463955049 0 0.03392524533505209 0.0023301658585690422 0 0.032054640900577323 0.00098456900463955049 0 0.033379936314261761 0.00011323993701561967 0 0.032054640900577323 0.00098456900463955049 0 0.033379936314261761 0.00011323993701561967 0 0.031614033854444931 -0.00055908678325680813 0 0.032054640900577323 0.00098456900463955049 0 0.031614033854444931 -0.00055908678325680813 0 0.030159771262454733 0.00049978437658166632 0 0.031614033854444931 -0.00055908678325680813 0 0.031688751574287334 -0.0027623016064076073 0 0.032834588679007286 -0.0015177839020767243 0 0.031614033854444931 -0.00055908678325680813 0 0.031688751574287334 -0.0027623016064076073 0 0.030453849314657565 -0.0017281907145997779 0 0.031688751574287334 -0.0027623016064076073 0 0.033342594582581674 -0.0026787394808199111 0 0.032488651339867843 -0.0043707532883033714 0 0.031688751574287334 -0.0027623016064076073 0 0.033342594582581674 -0.0026787394808199111 0 0.032834588679007286 -0.0015177839020767243 0 0.033379936314261761 0.00011323993701561967 0 0.032834588679007286 -0.0015177839020767243 0 0.033772015639754779 -0.0013937890998400736 0 0.033379936314261761 0.00011323993701561967 0 0.031614033854444931 -0.00055908678325680813 0 0.032834588679007286 -0.0015177839020767243 0 0.033342594582581674 -0.0026787394808199111 0 0.032834588679007286 -0.0015177839020767243 0 0.033772015639754779 -0.0013937890998400736 0 0.033379936314261761 0.00011323993701561967 0 0.034650269168629975 -0.0010169265809972274 0 0.033772015639754779 -0.0013937890998400736 0 0.034650269168629975 -0.0010169265809972274 0 0.034640892739245595 -0.0018632689727470252 0 0.033772015639754779 -0.0013937890998400736 0 0.035208736366543078 5.3475502245705371e-05 0 0.034686367002221101 -0.00070172209057868128 0 0.035994755168960633 -0.00023524278729877637 0 0.034686367002221101 -0.00070172209057868128 0 0.035994755168960633 -0.00023524278729877637 0 0.035903961261201565 -0.0016566744445321634 0 0.033921743726226215 -0.0012203153308927794 0 0.033609979604351595 -0.0014116005694079638 0 0.034650269168629975 -0.0010169265809972274 0 0.034640892739245595 -0.0018632689727470252 0 0.035941270650587033 -0.002087759206610155 0 0.03157804179376468 -0.001829101936535855 0 0.031255042735338162 -0.0015654332428459022 0 0.031228439209562153 -0.0019982855059526789 0 0.031255042735338162 -0.0015654332428459022 0 0.030768275595558021 -0.0021973152788351633 0 0.031228439209562153 -0.0019982855059526789 0 0.033609979604351595 -0.0014116005694079638 0 0.03205316447697406 -0.0033144694767146053 0 0.034640892739245595 -0.0018632689727470252 0 0.035941270650587033 -0.002087759206610155 0 0.034428932306773172 -0.0040470649735484003 0 0.032662056767539971 -0.0027825588705178198 0 0.03205316447697406 -0.0033144694767146053 0 0.033342594582581674 -0.0026787394808199111 0 0.034640892739245595 -0.0018632689727470252 0 0.034397886533912479 -0.0041795491788558523 0 0.033342594582581674 -0.0026787394808199111 0 0.034640892739245595 -0.0018632689727470252 0 0.033772015639754779 -0.0013937890998400736 0 0.030768275595558021 -0.0021973152788351633 0 0.031228439209562153 -0.0019982855059526789 0 0.031311565945224669 -0.0024017110733677389 0 0.028522692021525499 -0.0024298004324984739 0 0.029368949013421818 -0.0036763336239126229 0 0.030768275595558021 -0.0021973152788351633 0 0.031311565945224669 -0.0024017110733677389 0 0.03071758991676064 -0.0027141115510635632 0 0.02143210260800972 0.0011646415457816693 0 0.020648126064280972 0.00090525071592144997 0 0.021511850096281163 0.00070937676684369874 0 0.034373299811817824 -0.0041107488830675323 0 0.034219547795352613 -0.0058643204375893581 0 0.03296028587641963 -0.0059652891998014492 0 0.03205316447697406 -0.0033144694767146053 0 0.032174612984564456 -0.0039951356626897758 0 0.03205316447697406 -0.0033144694767146053 0 0.029368949013421818 -0.0036763336239126229 0 0.034397886533912479 -0.0041795491788558523 0 0.03296028587641963 -0.0059652891998014492 0 0.032488651339867843 -0.0043707532883033714 0 0.03296028587641963 -0.0059652891998014492 0 0.031678716698347598 -0.0058071804605744331 0 0.032488651339867843 -0.0043707532883033714 0 0.03083979136563841 -0.0047774678164886229 0 0.031678716698347598 -0.0058071804605744331 0 0.030267594293415825 -0.0065520580238176166 0 0.03083979136563841 -0.0047774678164886229 0 0.031678716698347598 -0.0058071804605744331 0 0.032488651339867843 -0.0043707532883033714 0 0.031688751574287334 -0.0027623016064076073 0 0.03083979136563841 -0.0047774678164886229 0 0.029758466269597991 -0.0032506340373444948 0 0.031688751574287334 -0.0027623016064076073 0 0.03083979136563841 -0.0047774678164886229 0 0.032488651339867843 -0.0043707532883033714 0 0.033342594582581674 -0.0026787394808199111 0 0.034397886533912479 -0.0041795491788558523 0 0.032488651339867843 -0.0043707532883033714 0 0.029212355059484944 -0.0050630688309894999 0 0.02749611007248827 -0.0053215901372148577 0 0.027494937677293663 -0.0036215650434774211 0 0.029212355059484944 -0.0050630688309894999 0 0.027494937677293663 -0.0036215650434774211 0 0.029758466269597991 -0.0032506340373444948 0 0.03083979136563841 -0.0047774678164886229 0 0.029212355059484944 -0.0050630688309894999 0 0.029758466269597991 -0.0032506340373444948 0 0.03083979136563841 -0.0047774678164886229 0 0.029212355059484944 -0.0050630688309894999 0 0.030267594293415825 -0.0065520580238176166 0 0.029212355059484944 -0.0050630688309894999 0 0.02749611007248827 -0.0053215901372148577 0 0.02853348722320909 -0.006759771104482561 0 0.02749611007248827 -0.0053215901372148577 0 0.02590744329639335 -0.0059629010262962877 0 0.027115355501995741 -0.006726397334220661 0 0.02749611007248827 -0.0053215901372148577 0 0.02590744329639335 -0.0059629010262962877 0 0.025452509959926081 -0.0038672912524135433 0 0.02590744329639335 -0.0059629010262962877 0 0.025452509959926081 -0.0038672912524135433 0 0.024519388397417682 -0.0054767133815085342 0 0.02749611007248827 -0.0053215901372148577 0 0.025452509959926081 -0.0038672912524135433 0 0.027494937677293663 -0.0036215650434774211 0 0.027494937677293663 -0.0036215650434774211 0 0.02619827236389366 -0.0021925076877995523 0 0.028660118012791849 -0.001840499338716503 0 0.025452509959926081 -0.0038672912524135433 0 0.02619827236389366 -0.0021925076877995523 0 0.024011833126208009 -0.0022586986760673158 0 0.025452509959926081 -0.0038672912524135433 0 0.027494937677293663 -0.0036215650434774211 0 0.02619827236389366 -0.0021925076877995523 0 0.02619827236389366 -0.0021925076877995523 0 0.026797412498589582 -0.00054415376651708875 0 0.02446852564399711 -0.00044408912298905486 0 0.02619827236389366 -0.0021925076877995523 0 0.028660118012791849 -0.001840499338716503 0 0.026797412498589582 -0.00054415376651708875 0 0.027494937677293663 -0.0036215650434774211 0 0.028814516680124809 -0.0015214457779872477 0 0.029758466269597991 -0.0032506340373444948 0 0.028299620817055546 -0.0024791212704217054 0 0.028911871659659184 -0.0014980944391569299 0 0.028814516680124809 -0.0015214457779872477 0 0.029758466269597991 -0.0032506340373444948 0 0.030453849314657565 -0.0017281907145997779 0 0.031688751574287334 -0.0027623016064076073 0 0.029758466269597991 -0.0032506340373444948 0 0.030453849314657565 -0.0017281907145997779 0 0.031614033854444931 -0.00055908678325680813 0 0.030453849314657565 -0.0017281907145997779 0 0.030159771262454733 0.00049978437658166632 0 0.028814516680124809 -0.0015214457779872477 0 0.030453849314657565 -0.0017281907145997779 0 0.030159771262454733 0.00049978437658166632 0 0.028911871659659184 -0.0014980944391569299 0 0.029959288204668689 0.00016330668407363755 0 0.028660118012791849 -0.001840499338716503 0 0.028373547411481941 0.00027578345678300756 0 0.026797412498589582 -0.00054415376651708875 0 0.028660118012791849 -0.001840499338716503 0 0.030056338605375377 0.00012816608032127047 0 0.028373547411481941 0.00027578345678300756 0 0.030056338605375377 0.00012816608032127047 0 0.028373547411481941 0.00027578345678300756 0 0.029040214526518025 0.0024874374890998439 0 0.028373547411481941 0.00027578345678300756 0 0.029040214526518025 0.0024874374890998439 0 0.02732072189280893 0.001338138251400404 0 0.030587292405056494 0.001167660527996053 0 0.029959288204668689 0.00016330668407363755 0 0.031443550712727315 0.0023745234506860257 0 0.030056338605375377 0.00012816608032127047 0 0.029040214526518025 0.0024874374890998439 0 0.031443550712727315 0.0023745234506860257 0 0.029040214526518025 0.0024874374890998439 0 0.030802806061981235 0.0036909104577654843 0 0.028083030594672851 0.0051680946257596436 0 0.029040214526518025 0.0024874374890998439 0 0.029763039224804458 0.0046744581782710232 0 0.029040214526518025 0.0024874374890998439 0 0.029763039224804458 0.0046744581782710232 0 0.030802806061981235 0.0036909104577654843 0 0.030934604127522369 0.0052547876915711523 0 0.029763039224804458 0.0046744581782710232 0 0.030802806061981235 0.0036909104577654843 0 0.024964800479182356 0.0013807163977103275 0 0.025418090573753445 0.00055895240145982939 0 0.024283347512029665 0.00061905441316384782 0 0.028083030594672851 0.0051680946257596436 0 0.029040214526518025 0.0024874374890998439 0 0.026807488587260463 0.0033809066646332251 0 0.03589208583877436 -7.1306644897890797e-05 0 0.030605371987079629 -0.00031127132462073688 0 0.024964800479182356 0.0013807163977103275 0 0.025986148598218416 0.0012387720308579357 0 0.025418090573753445 0.00055895240145982939 0 0.026807488587260463 0.0033809066646332251 0 0.025598233425993041 0.0015260251066852887 0 0.02732072189280893 0.001338138251400404 0 0.029040214526518025 0.0024874374890998439 0 0.026807488587260463 0.0033809066646332251 0 0.02732072189280893 0.001338138251400404 0 0.025418090573753445 0.00055895240145982939 0 0.024873076306808659 -3.8988442538857928e-05 0 0.024283347512029665 0.00061905441316384782 0 0.030605371987079629 -0.00031127132462073688 0 0.028038087944660318 -0.00059765761564272173 0 0.025598233425993041 0.0015260251066852887 0 0.02732072189280893 0.001338138251400404 0 0.026797412498589582 -0.00054415376651708875 0 0.028373547411481941 0.00027578345678300756 0 0.02732072189280893 0.001338138251400404 0 0.026797412498589582 -0.00054415376651708875 0 0.025598233425993041 0.0015260251066852887 0 0.026797412498589582 -0.00054415376651708875 0 0.02446852564399711 -0.00044408912298905486 0 0.02446852564399711 -0.00044408912298905486 0 0.023221664181763371 -0.00049379778628382053 0 0.023413965663573771 -0.001250174208561288 0 0.02446852564399711 -0.00044408912298905486 0 0.024067756963807901 -1.4165279045480179e-05 0 0.023221664181763371 -0.00049379778628382053 0 0.024873076306808659 -3.8988442538857928e-05 0 0.02446852564399711 -0.00044408912298905486 0 0.024067756963807901 -1.4165279045480179e-05 0 0.028038087944660318 -0.00059765761564272173 0 0.027160698641115949 -0.00087882110847406492 0 0.024873076306808659 -3.8988442538857928e-05 0 0.024067756963807901 -1.4165279045480179e-05 0 0.024283347512029665 0.00061905441316384782 0 0.024067756963807901 -1.4165279045480179e-05 0 0.024283347512029665 0.00061905441316384782 0 0.023346029225402846 0.00012772272041477442 0 0.02395025333809863 0.0015477857701864525 0 0.024283347512029665 0.00061905441316384782 0 0.023295930533228867 0.0008255938956241932 0 0.024283347512029665 0.00061905441316384782 0 0.023295930533228867 0.0008255938956241932 0 0.023346029225402846 0.00012772272041477442 0 0.02308589048270945 0.00121684864265208 0 0.022984963571560213 0.00062845007887177284 0 0.023822282846548349 0.00072443317970546602 0 0.022984963571560213 0.00062845007887177284 0 0.023822282846548349 0.00072443317970546602 0 0.022923796331177318 0.0001376977959210464 0 0.025245918994013163 -0.00018904742240045139 0 0.024500679973383763 -0.00033353096138037663 0 0.023295930533228867 0.0008255938956241932 0 0.023346029225402846 0.00012772272041477442 0 0.022923796331177318 0.0001376977959210464 0 0.023346029225402846 0.00012772272041477442 0 0.022923796331177318 0.0001376977959210464 0 0.02278941843434483 -0.00025784414084896028 0 0.023221664181763371 -0.00049379778628382053 0 0.022432826196768094 -0.001121675394112645 0 0.022204961513810056 -0.00059051687768318917 0 0.02285691007399725 -0.00052430735059082255 0 0.022478065029555832 -0.00043616638403681557 0 0.023346029225402846 0.00012772272041477442 0 0.023221664181763371 -0.00049379778628382053 0 0.02278941843434483 -0.00025784414084896028 0 0.024067756963807901 -1.4165279045480179e-05 0 0.023346029225402846 0.00012772272041477442 0 0.023221664181763371 -0.00049379778628382053 0 0.023221664181763371 -0.00049379778628382053 0 0.022432826196768094 -0.001121675394112645 0 0.023413965663573771 -0.001250174208561288 0 0.022432826196768094 -0.001121675394112645 0 0.022457032317311106 -0.0020373231199273794 0 0.021763324015438849 -0.0014402567486877231 0 0.022432826196768094 -0.001121675394112645 0 0.022457032317311106 -0.0020373231199273794 0 0.023413965663573771 -0.001250174208561288 0 0.022457032317311106 -0.0020373231199273794 0 0.024011833126208009 -0.0022586986760673158 0 0.023093487524094646 -0.0028295718765010925 0 0.022457032317311106 -0.0020373231199273794 0 0.023413965663573771 -0.001250174208561288 0 0.024011833126208009 -0.0022586986760673158 0 0.02446852564399711 -0.00044408912298905486 0 0.023413965663573771 -0.001250174208561288 0 0.024011833126208009 -0.0022586986760673158 0 0.02619827236389366 -0.0021925076877995523 0 0.02446852564399711 -0.00044408912298905486 0 0.024011833126208009 -0.0022586986760673158 0 0.022358154211157114 -0.0025023318322691334 0 0.021335004026166362 -0.0033893361612698778 0 0.025452509959926081 -0.0038672912524135433 0 0.024011833126208009 -0.0022586986760673158 0 0.022717789498299664 -0.0046138856312895925 0 0.025452509959926081 -0.0038672912524135433 0 0.022717789498299664 -0.0046138856312895925 0 0.024519388397417682 -0.0054767133815085342 0 0.02590744329639335 -0.0059629010262962877 0 0.024519388397417682 -0.0054767133815085342 0 0.024841847112785573 -0.0067432052924018878 0 0.022717789498299664 -0.0046138856312895925 0 0.024519388397417682 -0.0054767133815085342 0 0.023551149348646355 -0.006484903518858616 0 0.022717789498299664 -0.0046138856312895925 0 0.022548926741745103 -0.0065379586304713079 0 0.023551149348646355 -0.006484903518858616 0 0.022717789498299664 -0.0046138856312895925 0 0.021476353452831162 -0.0069014950491417867 0 0.022548926741745103 -0.0065379586304713079 0 0.021335004026166362 -0.0033893361612698778 0 0.017985079398457105 -0.0060565933894331453 0 0.021781648688943236 -0.0030429966833062142 0 0.022338032527132429 -0.0027265781032168343 0 0.022330402130164906 -0.0036411751415531984 0 0.023093487524094646 -0.0028295718765010925 0 0.022338032527132429 -0.0027265781032168343 0 0.022330402130164906 -0.0036411751415531984 0 0.021781648688943236 -0.0030429966833062142 0 0.0218278554721195 -0.0026125725630529797 0 0.022338032527132429 -0.0027265781032168343 0 0.021781648688943236 -0.0030429966833062142 0 0.0218278554721195 -0.0026125725630529797 0 0.021455626171883343 -0.002920647208467647 0 0.022457032317311106 -0.0020373231199273794 0 0.0218278554721195 -0.0026125725630529797 0 0.022338032527132429 -0.0027265781032168343 0 0.022457032317311106 -0.0020373231199273794 0 0.023093487524094646 -0.0028295718765010925 0 0.022338032527132429 -0.0027265781032168343 0 0.015690054690635717 -0.0075064559659944194 0 0.016005007385346357 -0.0071941417434376207 0 0.015690675960681039 -0.0061174576012159882 0 0.016267276513794792 -0.0067729351560574984 0 0.01609340691046332 -0.0076260505805802173 0 0.01727902501771442 -0.0061520457417843892 0 0.016216662900146308 -0.0081125441954772656 0 0.01609340691046332 -0.0076260505805802173 0 0.01727902501771442 -0.0061520457417843892 0 0.016267276513794792 -0.0067729351560574984 0 0.015690675960681039 -0.0061174576012159882 0 0.01727902501771442 -0.0061520457417843892 0 0.016005007385346357 -0.0071941417434376207 0 0.016267276513794792 -0.0067729351560574984 0 0.01609340691046332 -0.0076260505805802173 0 0.016224630013501037 -0.0072550931251466576 0 0.016217597191326132 -0.0072569627102140356 0 0.015690054690635717 -0.0075064559659944194 0 0.016005007385346357 -0.0071941417434376207 0 0.01609340691046332 -0.0076260505805802173 0 0.016005007385346357 -0.0071941417434376207 0 0.016267276513794792 -0.0067729351560574984 0 0.015690675960681039 -0.0061174576012159882 0 0.017985079398457105 -0.0060565933894331453 0 0.018928261492666128 -0.0044052216644363132 0 0.021317759981813754 -0.0028681138847763414 0 0.021358661300081742 -0.0029136509975761418 0 0.021045366017423073 -0.0027577739710965849 0 0.021317759981813754 -0.0028681138847763414 0 0.021524186362838371 -0.002954874917856145 0 0.021358661300081742 -0.0029136509975761418 0 0.021781648688943236 -0.0030429966833062142 0 0.021524186362838371 -0.002954874917856145 0 0.021455626171883343 -0.002920647208467647 0 0.021317759981813754 -0.0028681138847763414 0 0.021524186362838371 -0.002954874917856145 0 0.021455626171883343 -0.002920647208467647 0 0.021781648688943236 -0.0030429966833062142 0 0.021524186362838371 -0.002954874917856145 0 0.021358661300081742 -0.0029136509975761418 0 0.018434114165381113 -0.0057540442464508465 0 0.017985079398457105 -0.0060565933894331453 0 0.022025859981454184 -0.0075384367732617081 0 0.021476353452831162 -0.0069014950491417867 0 0.022548926741745103 -0.0065379586304713079 0 0.015694403019098666 -0.0075041426239916883 0 0.016216662900146308 -0.0081125441954772656 0 0.01609340691046332 -0.0076260505805802173 0 0.016224630013501037 -0.0072550931251466576 0 0.017985079398457105 -0.0060565933894331453 0 0.022025859981454184 -0.0075384367732617081 0 0.023551149348646355 -0.006484903518858616 0 0.024367677290991565 -0.0082420764783652806 0 0.022025859981454184 -0.0075384367732617081 0 0.022548926741745103 -0.0065379586304713079 0 0.023551149348646355 -0.006484903518858616 0 0.023551149348646355 -0.006484903518858616 0 0.024841847112785573 -0.0067432052924018878 0 0.024367677290991565 -0.0082420764783652806 0 0.024519388397417682 -0.0054767133815085342 0 0.023551149348646355 -0.006484903518858616 0 0.024841847112785573 -0.0067432052924018878 0 0.024841847112785573 -0.0067432052924018878 0 0.024367677290991565 -0.0082420764783652806 0 0.025858460676274526 -0.0075491190296712359 0 0.015690054690635717 -0.0075064559659944194 0 0.014207489456899607 -0.0057966656539334954 0 0.015690675960681039 -0.0061174576012159882 0 0.0079540663576854759 -0.0097241972358838979 0 0.0058968704969055898 -0.0090970028983113852 0 0.0065859955536733128 -0.0081940130172981508 0 0.016224630013501037 -0.0072550931251466576 0 0.015560292377152313 -0.0077939995975618284 0 0.016224630013501037 -0.0072550931251466576 0 0.011541368150771154 -0.0063086101640233054 0 0.014207489456899607 -0.0057966656539334954 0 0.015030657416966556 -0.0050291227840252089 0 0.015690675960681039 -0.0061174576012159882 0 0.014207489456899607 -0.0057966656539334954 0 0.013816839368808061 -0.0044391128109609306 0 0.014297286032268965 -0.0048800642179904694 0 0.014207489456899607 -0.0057966656539334954 0 0.015030657416966556 -0.0050291227840252089 0 0.014297286032268965 -0.0048800642179904694 0 0.0065859955536733128 -0.0081940130172981508 0 0.0052759205904729951 -0.0081475937942945952 0 0.005430778035429025 -0.0077079322126618072 0 0.011541368150771154 -0.0063086101640233054 0 0.0079352090688845165 -0.00536530552503711 0 0.0058968704969055898 -0.0090970028983113852 0 0.0065859955536733128 -0.0081940130172981508 0 0.0052759205904729951 -0.0081475937942945952 0 0.0065859955536733128 -0.0081940130172981508 0 0.005430778035429025 -0.0077079322126618072 0 0.0052614561261397699 -0.0069281780624490053 0 0.0065859955536733128 -0.0081940130172981508 0 0.0052657603902584067 -0.0068206684844091961 0 0.0052614561261397699 -0.0069281780624490053 0 0.014207489456899607 -0.0057966656539334954 0 0.013816839368808061 -0.0044391128109609306 0 0.012736221085744468 -0.0040844244536044462 0 0.013816839368808061 -0.0044391128109609306 0 0.013967519576692747 -0.0037321434040655829 0 0.013434829881401475 -0.0037142260538076195 0 0.013816839368808061 -0.0044391128109609306 0 0.013434829881401475 -0.0037142260538076195 0 0.012736221085744468 -0.0040844244536044462 0 0.0079352090688845165 -0.00536530552503711 0 0.0079323884194780481 -0.0053715151544038078 0 0.015030657416966556 -0.0050291227840252089 0 0.014417824191420892 -0.0042717395649712643 0 0.015369786353943002 -0.0040113172330592979 0 0.015030657416966556 -0.0050291227840252089 0 0.014297286032268965 -0.0048800642179904694 0 0.014417824191420892 -0.0042717395649712643 0 0.013816839368808061 -0.0044391128109609306 0 0.014297286032268965 -0.0048800642179904694 0 0.014417824191420892 -0.0042717395649712643 0 0.013967519576692747 -0.0037321434040655829 0 0.014417824191420892 -0.0042717395649712643 0 0.014551238723600682 -0.0033575855696370118 0 0.013816839368808061 -0.0044391128109609306 0 0.013967519576692747 -0.0037321434040655829 0 0.014417824191420892 -0.0042717395649712643 0 0.014417824191420892 -0.0042717395649712643 0 0.015369786353943002 -0.0040113172330592979 0 0.014551238723600682 -0.0033575855696370118 0 0.015030657416966556 -0.0050291227840252089 0 0.016372293140483947 -0.0048459426770918641 0 0.015369786353943002 -0.0040113172330592979 0 0.016372293140483947 -0.0048459426770918641 0 0.015369786353943002 -0.0040113172330592979 0 0.016558638325034573 -0.0033836969603394398 0 0.015030657416966556 -0.0050291227840252089 0 0.016372293140483947 -0.0048459426770918641 0 0.015690675960681039 -0.0061174576012159882 0 0.016372293140483947 -0.0048459426770918641 0 0.015690675960681039 -0.0061174576012159882 0 0.01727902501771442 -0.0061520457417843892 0 0.018928261492666128 -0.0044052216644363132 0 0.019446655266764638 -0.0032791323603468094 0 0.016372293140483947 -0.0048459426770918641 0 0.01727902501771442 -0.0061520457417843892 0 0.018378159213098454 -0.0041973133209698621 0 0.016372293140483947 -0.0048459426770918641 0 0.016558638325034573 -0.0033836969603394398 0 0.018378159213098454 -0.0041973133209698621 0 0.017610023026509325 -0.0022898590370001252 0 0.016558638325034573 -0.0033836969603394398 0 0.018378159213098454 -0.0041973133209698621 0 0.017610023026509325 -0.0022898590370001252 0 0.016558638325034573 -0.0033836969603394398 0 0.016152544989160581 -0.0018147534972693257 0 0.015472862730873333 -0.0029766956874435172 0 0.016558638325034573 -0.0033836969603394398 0 0.016152544989160581 -0.0018147534972693257 0 0.015472862730873333 -0.0029766956874435172 0 0.016152544989160581 -0.0018147534972693257 0 0.014583901950772502 -0.002049266731505872 0 0.015369786353943002 -0.0040113172330592979 0 0.015472862730873333 -0.0029766956874435172 0 0.016558638325034573 -0.0033836969603394398 0 0.016152544989160581 -0.0018147534972693257 0 0.017291153009587518 -0.00070519453522909891 0 0.016147718935601182 -0.00047151771912646391 0 0.016152544989160581 -0.0018147534972693257 0 0.016147718935601182 -0.00047151771912646391 0 0.015235263661474685 -0.00092837170939904633 0 0.017610023026509325 -0.0022898590370001252 0 0.016152544989160581 -0.0018147534972693257 0 0.017291153009587518 -0.00070519453522909891 0 0.017610023026509325 -0.0022898590370001252 0 0.017291153009587518 -0.00070519453522909891 0 0.018401436575424694 -0.0011166694758764867 0 0.017291153009587518 -0.00070519453522909891 0 0.017074807274122132 -0.00015795314316269899 0 0.017922917054331716 -0.0002161272909157458 0 0.013818215747030198 -0.0010150785196379477 0 0.015355819901195852 -0.0010002266948789544 0 0.017291153009587518 -0.00070519453522909891 0 0.016147718935601182 -0.00047151771912646391 0 0.016867773662926674 0.00041031215566882285 0 0.014108126557356554 -0.0010819333619376604 0 0.013818215747030198 -0.0010150785196379477 0 0.016147718935601182 -0.00047151771912646391 0 0.014967810218370485 0.00065889107455010848 0 0.015235263661474685 -0.00092837170939904633 0 0.016147718935601182 -0.00047151771912646391 0 0.016867773662926674 0.00041031215566882285 0 0.014967810218370485 0.00065889107455010848 0 0.011223529730693425 -0.0026333652735301303 0 0.012783048969098629 -0.0041397002310203075 0 0.010317361154657496 -0.0038309911625949273 0 0.013818215747030198 -0.0010150785196379477 0 0.011991874744073216 -0.0012659217008452574 0 0.013738684481990291 0.0021318842901033707 0 0.013589532748124385 0.00028593599883572742 0 0.012721965128004123 0.0031638994158778759 0 0.011223529730693425 -0.0026333652735301303 0 0.012783048969098629 -0.0041397002310203075 0 0.011742063232079847 -0.0012997195709470544 0 0.013818215747030198 -0.0010150785196379477 0 0.012411714364647424 0.0011948284964194893 0 0.015713191764667633 0.0011183250416828424 0 0.013589532748124385 0.00028593599883572742 0 0.017922917054331716 -0.0002161272909157458 0 0.013738684481990291 0.0021318842901033707 0 0.015713191764667633 0.0011183250416828424 0 0.014101232478872898 0.002796715599408953 0 0.013738684481990291 0.0021318842901033707 0 0.015713191764667633 0.0011183250416828424 0 0.013589532748124385 0.00028593599883572742 0 0.0078125409093158429 -0.0035028537502569093 0 0.010317361154657496 -0.0038309911625949273 0 0.0090622576592941581 -0.0020529753753679532 0 0.0086597425795060922 -0.0012189380455896214 0 0.011991874744073216 -0.0012659217008452574 0 0.010317361154657496 -0.0038309911625949273 0 0.010277259438359261 -0.002217360354895068 0 0.0090622576592941581 -0.0020529753753679532 0 0.011223529730693425 -0.0026333652735301303 0 0.010317361154657496 -0.0038309911625949273 0 0.010277259438359261 -0.002217360354895068 0 0.013072021084490352 0.00090135625353779598 0 0.014967810218370485 0.00065889107455010848 0 0.014153966957736196 -0.00059968672192685054 0 0.014967810218370485 0.00065889107455010848 0 0.015235263661474685 -0.00092837170939904633 0 0.014153966957736196 -0.00059968672192685054 0 0.013072021084490352 0.00090135625353779598 0 0.014153966957736196 -0.00059968672192685054 0 0.012910973749455764 -0.0015827993290683103 0 0.0086597425795060922 -0.0012189380455896214 0 0.0085783562158046056 -0.0032362889857355738 0 0.014153966957736196 -0.00059968672192685054 0 0.012910973749455764 -0.0015827993290683103 0 0.014583901950772502 -0.002049266731505872 0 0.012910973749455764 -0.0015827993290683103 0 0.014583901950772502 -0.002049266731505872 0 0.013618424592506001 -0.0028824428929674329 0 0.015235263661474685 -0.00092837170939904633 0 0.014153966957736196 -0.00059968672192685054 0 0.014583901950772502 -0.002049266731505872 0 0.016152544989160581 -0.0018147534972693257 0 0.015235263661474685 -0.00092837170939904633 0 0.014583901950772502 -0.002049266731505872 0 0.015472862730873333 -0.0029766956874435172 0 0.014583901950772502 -0.002049266731505872 0 0.014551238723600682 -0.0033575855696370118 0 0.014583901950772502 -0.002049266731505872 0 0.014551238723600682 -0.0033575855696370118 0 0.013618424592506001 -0.0028824428929674329 0 0.013967519576692747 -0.0037321434040655829 0 0.014551238723600682 -0.0033575855696370118 0 0.013618424592506001 -0.0028824428929674329 0 0.015369786353943002 -0.0040113172330592979 0 0.015472862730873333 -0.0029766956874435172 0 0.014551238723600682 -0.0033575855696370118 0 0.0079352090688845165 -0.00536530552503711 0 0.0085783562158046056 -0.0032362889857355738 0 0.012736221085744468 -0.0040844244536044462 0 0.012910973749455764 -0.0015827993290683103 0 0.013618424592506001 -0.0028824428929674329 0 0.013967519576692747 -0.0037321434040655829 0 0.013434829881401475 -0.0037142260538076195 0 0.013618424592506001 -0.0028824428929674329 0 0.013434829881401475 -0.0037142260538076195 0 0.012736221085744468 -0.0040844244536044462 0 0.013618424592506001 -0.0028824428929674329 0 0.0054836312430189722 -0.0072742586308847459 0 0.0056386359703126969 -0.0049364952761852803 0 0.0044913627376341938 -0.0061329384761155048 0 0.0079352090688845165 -0.00536530552503711 0 0.0063847571689030535 -0.0050067603761422318 0 0.003447030717505311 -0.0062851863232847843 0 0.0029345389712063042 -0.0063488765418765443 0 0.0030632685385810544 -0.0068666248985133739 0 0.0043940708393480953 -0.0059294409388931137 0 0.003447030717505311 -0.0062851863232847843 0 0.0042800126567623231 -0.0068510196119460571 0 0.0043940708393480953 -0.0059294409388931137 0 0.003447030717505311 -0.0062851863232847843 0 0.0033270031085048113 -0.0056765219846322875 0 0.0043940708393480953 -0.0059294409388931137 0 0.0033270031085048113 -0.0056765219846322875 0 0.0034932760974673437 -0.0049780334403689711 0 0.003447030717505311 -0.0062851863232847843 0 0.0033270031085048113 -0.0056765219846322875 0 0.0028101102254992354 -0.0058950578986134913 0 0.0033270031085048113 -0.0056765219846322875 0 0.0034932760974673437 -0.0049780334403689711 0 0.0026297769805803356 -0.0054379414397392493 0 0.0044913627376341938 -0.0061329384761155048 0 0.0034932760974673437 -0.0049780334403689711 0 0.004502443911049544 -0.0049790704557948953 0 0.0063847571689030535 -0.0050067603761422318 0 0.0057797608566562764 -0.0047436913118330546 0 0.0034932760974673437 -0.0049780334403689711 0 0.004502443911049544 -0.0049790704557948953 0 0.0033878044519619322 -0.0038715907693875696 0 0.0034932760974673437 -0.0049780334403689711 0 0.0033878044519619322 -0.0038715907693875696 0 0.0027208512513247078 -0.0046183312558322797 0 0.0056386359703126969 -0.0049364952761852803 0 0.0044913627376341938 -0.0061329384761155048 0 0.004502443911049544 -0.0049790704557948953 0 0.0056386359703126969 -0.0049364952761852803 0 0.004502443911049544 -0.0049790704557948953 0 0.0046150478237040014 -0.0037501843460603901 0 0.0058201143659711062 -0.0025276181482974136 0 0.0056386359703126969 -0.0049364952761852803 0 0.0046150478237040014 -0.0037501843460603901 0 0.0046150478237040014 -0.0037501843460603901 0 0.0033878044519619322 -0.0038715907693875696 0 0.0035716890217669622 -0.0022226760231847434 0 0.004502443911049544 -0.0049790704557948953 0 0.0046150478237040014 -0.0037501843460603901 0 0.0033878044519619322 -0.0038715907693875696 0 0.0035716890217669622 -0.0022226760231847434 0 0.0024612410099631803 -0.0023961085864512639 0 0.00269705442293803 -0.00085489279424621036 0 0.0033878044519619322 -0.0038715907693875696 0 0.0035716890217669622 -0.0022226760231847434 0 0.0024612410099631803 -0.0023961085864512639 0 0.0062903804521485113 -0.002580029710026683 0 0.0035716890217669622 -0.0022226760231847434 0 0.0047185797922865095 -0.00070936729539571703 0 0.0086597425795060922 -0.0012189380455896214 0 0.0059261109670941886 -0.0012772719096382592 0 0.0058201143659711062 -0.0025276181482974136 0 0.0046150478237040014 -0.0037501843460603901 0 0.0035716890217669622 -0.0022226760231847434 0 0.00034066128936122392 -0.0022863739846552354 0 -0.00095455494802417558 -0.0027540735723243235 0 0.00054593516040077458 -0.00089226871668033345 0 0.00034066128936122392 -0.0022863739846552354 0 0.0014442082997640337 -0.0039658798050963935 0 -0.00095455494802417558 -0.0027540735723243235 0 0.00061476571111458538 -0.0028716421432372023 0 0.00076138735597971671 -0.00233345411341364 0 0.0024612410099631803 -0.0023961085864512639 0 0.0018603937033781443 -0.0034284960852557504 0 0.0014265691559785319 -0.001331934335512007 0 0.0018902518812885581 -0.0038294814435566198 0 0.0017968156553376546 -0.0028150007348300625 0 0.00034066128936122392 -0.0022863739846552354 0 0.0014442082997640337 -0.0039658798050963935 0 0.0014265691559785319 -0.001331934335512007 0 0.0033878044519619322 -0.0038715907693875696 0 0.0018603937033781443 -0.0034284960852557504 0 0.0027208512513247078 -0.0046183312558322797 0 0.0033878044519619322 -0.0038715907693875696 0 0.0024612410099631803 -0.0023961085864512639 0 0.0018603937033781443 -0.0034284960852557504 0 0.0014442082997640337 -0.0039658798050963935 0 -0.00048620010364102914 -0.0055525233111407895 0 -0.00095455494802417558 -0.0027540735723243235 0 0.0014442082997640337 -0.0039658798050963935 0 -0.00048620010364102914 -0.0055525233111407895 0 0.0015129374690396077 -0.006534860552238733 0 0.0029857293996181705 -0.0077700061862883392 0 0.0028092368735087316 -0.007302449028792353 0 0.0033404782418788074 -0.0070365134611215501 0 0.0017931673896264208 -0.0048739612544528976 0 0.0021155954566790518 -0.0054812009946138239 0 0.0029857293996181705 -0.0077700061862883392 0 0.0023735847798234612 -0.0073949128702254863 0 0.0028092368735087316 -0.007302449028792353 0 0.0018902518812885581 -0.0038294814435566198 0 0.0021155954566790518 -0.0054812009946138239 0 0.0018603937033781443 -0.0034284960852557504 0 0.0027208512513247078 -0.0046183312558322797 0 0.0021536932099897321 -0.0052490743598927825 0 0.0021155954566790518 -0.0054812009946138239 0 0.0021299171226338131 -0.0054839768290386622 0 0.0034932760974673437 -0.0049780334403689711 0 0.0027208512513247078 -0.0046183312558322797 0 0.0026297769805803356 -0.0054379414397392493 0 0.0027208512513247078 -0.0046183312558322797 0 0.0021536932099897321 -0.0052490743598927825 0 0.0026297769805803356 -0.0054379414397392493 0 0.0022865427670181473 -0.0052629757883409954 0 0.0028101102254992354 -0.0058950578986134913 0 0.002428900489906008 -0.0063456920268855355 0 0.0023735847798234612 -0.0073949128702254863 0 0.0025114814226941547 -0.0069574589569887726 0 0.002550126978339094 -0.0071408093744719306 0 0.0021155954566790518 -0.0054812009946138239 0 0.0022255784333699686 -0.006268593363406464 0 0.0022865427670181473 -0.0052629757883409954 0 0.0026297769805803356 -0.0054379414397392493 0 0.0028101102254992354 -0.0058950578986134913 0 0.0033270031085048113 -0.0056765219846322875 0 0.0026297769805803356 -0.0054379414397392493 0 0.0028101102254992354 -0.0058950578986134913 0 0.0025114814226941547 -0.0069574589569887726 0 0.002550126978339094 -0.0071408093744719306 0 0.002501132532280181 -0.0069568133357469772 0 0.003447030717505311 -0.0062851863232847843 0 0.0028101102254992354 -0.0058950578986134913 0 0.0029345389712063042 -0.0063488765418765443 0 0.0028101102254992354 -0.0058950578986134913 0 0.002428900489906008 -0.0063456920268855355 0 0.0029345389712063042 -0.0063488765418765443 0 0.0028092368735087316 -0.007302449028792353 0 0.0027083403491277944 -0.0070763455184316782 0 0.0029474887327212776 -0.0069269095494998009 0 0.0028092368735087316 -0.007302449028792353 0 0.0029474887327212776 -0.0069269095494998009 0 0.0033404782418788074 -0.0070365134611215501 0 0.0023735847798234612 -0.0073949128702254863 0 0.0028092368735087316 -0.007302449028792353 0 0.002550126978339094 -0.0071408093744719306 0 0.0028092368735087316 -0.007302449028792353 0 0.002550126978339094 -0.0071408093744719306 0 0.0027083403491277944 -0.0070763455184316782 0 0.0027083403491277944 -0.0070763455184316782 0 0.002501132532280181 -0.0069568133357469772 0 0.0029474887327212776 -0.0069269095494998009 0 0.002550126978339094 -0.0071408093744719306 0 0.0027083403491277944 -0.0070763455184316782 0 0.002501132532280181 -0.0069568133357469772 0 0.002501132532280181 -0.0069568133357469772 0 0.0029474887327212776 -0.0069269095494998009 0 0.0033981615079149903 -0.0061989458273374607 0 0.002501132532280181 -0.0069568133357469772 0 0.0024072533693365013 -0.007255993582743538 0 0.0018355875209153923 -0.0073768325345433504 0 0.0024072533693365013 -0.007255993582743538 0 0.0024974029288349631 -0.0077214704583184416 0 0.0018355875209153923 -0.0073768325345433504 0 0.007291076362207367 -0.0084092167215816752 0 0.0138124794318094 -0.005376966892234037 0 0.029017953831621944 -0.0096075712790503424 0 0.030798879351217966 -0.009143819030666217 0 0.031278404897248341 -0.010252583365670028 0 0.015686407331376981 -0.0073592105303890085 0 0.0138124794318094 -0.005376966892234037 0 0.029753595794748226 -0.0088125797409664072 0 0.029017953831621944 -0.0096075712790503424 0 0.030798879351217966 -0.009143819030666217 0 0.0024974029288349631 -0.0077214704583184416 0 0.002615368035498999 -0.0074055800127554652 0 0.0034213842305981877 -0.0076523253494195616 0 0.029017953831621944 -0.0096075712790503424 0 0.026698712807568213 -0.0089358616120687306 0 0.028510915311206232 -0.0086774554409607164 0 0.029753595794748226 -0.0088125797409664072 0 0.029017953831621944 -0.0096075712790503424 0 0.028510915311206232 -0.0086774554409607164 0 0.0025114814226941547 -0.0069574589569887726 0 0.0024072533693365013 -0.007255993582743538 0 0.002615368035498999 -0.0074055800127554652 0 0.002615368035498999 -0.0074055800127554652 0 0.0030632685385810544 -0.0068666248985133739 0 0.0034213842305981877 -0.0076523253494195616 0 0.002428900489906008 -0.0063456920268855355 0 0.002615368035498999 -0.0074055800127554652 0 0.0030632685385810544 -0.0068666248985133739 0 0.0022255784333699686 -0.006268593363406464 0 0.0022673054185808417 -0.006570498789911461 0 0.0024072533693365013 -0.007255993582743538 0 0.0024974029288349631 -0.0077214704583184416 0 0.002615368035498999 -0.0074055800127554652 0 0.0025114814226941547 -0.0069574589569887726 0 0.002501132532280181 -0.0069568133357469772 0 0.0024072533693365013 -0.007255993582743538 0 0.002428900489906008 -0.0063456920268855355 0 0.0029345389712063042 -0.0063488765418765443 0 0.0030632685385810544 -0.0068666248985133739 0 0.0042800126567623231 -0.0068510196119460571 0 0.0046277979342119252 -0.0075615324986027174 0 0.0034213842305981877 -0.0076523253494195616 0 0.0030632685385810544 -0.0068666248985133739 0 0.0042800126567623231 -0.0068510196119460571 0 0.0034213842305981877 -0.0076523253494195616 0 0.003447030717505311 -0.0062851863232847843 0 0.0030632685385810544 -0.0068666248985133739 0 0.0042800126567623231 -0.0068510196119460571 0 0.0052645389016952853 -0.006831518643851695 0 0.0052614561261397699 -0.0069281780624490053 0 0.0042800126567623231 -0.0068510196119460571 0 0.0052645389016952853 -0.006831518643851695 0 0.0043940708393480953 -0.0059294409388931137 0 0.0042800126567623231 -0.0068510196119460571 0 0.005430778035429025 -0.0077079322126618072 0 0.0052614561261397699 -0.0069281780624490053 0 0.0046277979342119252 -0.0075615324986027174 0 0.0052614561261397699 -0.0069281780624490053 0 0.0042800126567623231 -0.0068510196119460571 0 0.0046277979342119252 -0.0075615324986027174 0 0.0052759205904729951 -0.0081475937942945952 0 0.0046277979342119252 -0.0075615324986027174 0 0.0040087180714910003 -0.008427179751600393 0 0.0058968704969055898 -0.0090970028983113852 0 0.0052759205904729951 -0.0081475937942945952 0 0.0040087180714910003 -0.008427179751600393 0 0.0052759205904729951 -0.0081475937942945952 0 0.005430778035429025 -0.0077079322126618072 0 0.0046277979342119252 -0.0075615324986027174 0 0.015686407331376981 -0.0073592105303890085 0 0.015619789150583313 -0.0078734017037329716 0 0.0046277979342119252 -0.0075615324986027174 0 0.0040087180714910003 -0.008427179751600393 0 0.0034213842305981877 -0.0076523253494195616 0 0.0024974029288349631 -0.0077214704583184416 0 0.0040087180714910003 -0.008427179751600393 0 0.0034213842305981877 -0.0076523253494195616 0 0.026698712807568213 -0.0089358616120687306 0 0.027701779332786777 -0.0078500301895398656 0 0.028510915311206232 -0.0086774554409607164 0 0.026698712807568213 -0.0089358616120687306 0 0.027701779332786777 -0.0078500301895398656 0 0.025858460676274526 -0.0075491190296712359 0 0.015560292377152313 -0.0077939995975618284 0 0.015619789150583313 -0.0078734017037329716 0 0.024367677290991565 -0.0082420764783652806 0 0.026698712807568213 -0.0089358616120687306 0 0.025858460676274526 -0.0075491190296712359 0 0.02590744329639335 -0.0059629010262962877 0 0.024841847112785573 -0.0067432052924018878 0 0.025858460676274526 -0.0075491190296712359 0 0.02590744329639335 -0.0059629010262962877 0 0.025858460676274526 -0.0075491190296712359 0 0.027115355501995741 -0.006726397334220661 0 0.02749611007248827 -0.0053215901372148577 0 0.027115355501995741 -0.006726397334220661 0 0.02853348722320909 -0.006759771104482561 0 0.027701779332786777 -0.0078500301895398656 0 0.025858460676274526 -0.0075491190296712359 0 0.027115355501995741 -0.006726397334220661 0 0.027701779332786777 -0.0078500301895398656 0 0.027115355501995741 -0.006726397334220661 0 0.02853348722320909 -0.006759771104482561 0 0.02853348722320909 -0.006759771104482561 0 0.030267594293415825 -0.0065520580238176166 0 0.029289809210038983 -0.0079939476546239518 0 0.029212355059484944 -0.0050630688309894999 0 0.02853348722320909 -0.006759771104482561 0 0.030267594293415825 -0.0065520580238176166 0 0.030267594293415825 -0.0065520580238176166 0 0.029289809210038983 -0.0079939476546239518 0 0.030580945696983042 -0.0082318304526822483 0 0.029753595794748226 -0.0088125797409664072 0 0.030580945696983042 -0.0082318304526822483 0 0.030798879351217966 -0.009143819030666217 0 0.029753595794748226 -0.0088125797409664072 0 0.029289809210038983 -0.0079939476546239518 0 0.030580945696983042 -0.0082318304526822483 0 0.027701779332786777 -0.0078500301895398656 0 0.029289809210038983 -0.0079939476546239518 0 0.028510915311206232 -0.0086774554409607164 0 0.029753595794748226 -0.0088125797409664072 0 0.029289809210038983 -0.0079939476546239518 0 0.028510915311206232 -0.0086774554409607164 0 0.027701779332786777 -0.0078500301895398656 0 0.02853348722320909 -0.006759771104482561 0 0.029289809210038983 -0.0079939476546239518 0 0.032522206577251231 -0.0081379905215898628 0 0.031719717547261002 -0.0070951241740277969 0 0.033037917794400129 -0.0071989190552355972 0 0.032522206577251231 -0.0081379905215898628 0 0.03164440341090359 -0.0086413145055345419 0 0.031719717547261002 -0.0070951241740277969 0 0.032522206577251231 -0.0081379905215898628 0 0.033037917794400129 -0.0071989190552355972 0 0.033634506760594193 -0.008398007376267046 0 0.032522206577251231 -0.0081379905215898628 0 0.033634506760594193 -0.008398007376267046 0 0.032479843866260565 -0.0093201510123188773 0 0.032522206577251231 -0.0081379905215898628 0 0.03164440341090359 -0.0086413145055345419 0 0.032479843866260565 -0.0093201510123188773 0 0.030580945696983042 -0.0082318304526822483 0 0.03164440341090359 -0.0086413145055345419 0 0.031719717547261002 -0.0070951241740277969 0 0.030580945696983042 -0.0082318304526822483 0 0.03164440341090359 -0.0086413145055345419 0 0.030798879351217966 -0.009143819030666217 0 0.030267594293415825 -0.0065520580238176166 0 0.030580945696983042 -0.0082318304526822483 0 0.031719717547261002 -0.0070951241740277969 0 0.031678716698347598 -0.0058071804605744331 0 0.030267594293415825 -0.0065520580238176166 0 0.031719717547261002 -0.0070951241740277969 0 0.03296028587641963 -0.0059652891998014492 0 0.031678716698347598 -0.0058071804605744331 0 0.031719717547261002 -0.0070951241740277969 0 0.029368949013421818 -0.0036763336239126229 0 0.030833417080565403 -0.0042729611184300726 0 0.034219547795352613 -0.0058643204375893581 0 0.03296028587641963 -0.0059652891998014492 0 0.031719717547261002 -0.0070951241740277969 0 0.033837939040232919 -0.0059866643532615381 0 0.031719717547261002 -0.0070951241740277969 0 0.033037917794400129 -0.0071989190552355972 0 0.033837939040232919 -0.0059866643532615381 0 0.033037917794400129 -0.0071989190552355972 0 0.033634506760594193 -0.008398007376267046 0 0.020648126064280972 0.00090525071592144997 0 0.020839754638755811 0.00073512775165061959 0 0.020619973791501 0.00055122361823849186 0 0.029368949013421818 -0.0036763336239126229 0 0.022342292258096568 -0.001954270622948776 0 0.020648126064280972 0.00090525071592144997 0 0.020839754638755811 0.00073512775165061959 0 0.021511850096281163 0.00070937676684369874 0 0.020839754638755811 0.00073512775165061959 0 0.018944800206775331 -0.00033447546491429466 0 0.020729700994423506 -0.00036513282740692629 0 0.020839754638755811 0.00073512775165061959 0 0.020729700994423506 -0.00036513282740692629 0 0.021423311434243451 9.0683404032888295e-05 0 0.021611057139609903 -0.0016444431903119578 0 0.022342292258096568 -0.001954270622948776 0 0.020839754638755811 0.00073512775165061959 0 0.018944800206775331 -0.00033447546491429466 0 0.01693206066264592 0.00013027510605033294 0 0.018944800206775331 -0.00033447546491429466 0 0.01693206066264592 0.00013027510605033294 0 0.016436569394007554 -0.00078160462906961083 0 0.022342292258096568 -0.001954270622948776 0 0.022225496208329993 -0.001896078655991756 0 0.018944800206775331 -0.00033447546491429466 0 0.016436569394007554 -0.00078160462906961083 0 0.019375082316272701 -0.0020240507686266705 0 0.016436569394007554 -0.00078160462906961083 0 0.015978959799448328 -0.001395482832649432 0 0.019375082316272701 -0.0020240507686266705 0 0.014504634816796133 -0.00098365587132299937 0 0.014697752514819171 -0.0010401344194595134 0 0.015978959799448328 -0.001395482832649432 0 0.019375082316272701 -0.0020240507686266705 0 0.014334294043551571 -0.0017841963585106797 0 0.016524046790669055 0.00025188281278307748 0 0.016436569394007554 -0.00078160462906961083 0 0.014618317862325198 -0.0014800852015284867 0 0.018944800206775331 -0.00033447546491429466 0 0.020729700994423506 -0.00036513282740692629 0 0.019375082316272701 -0.0020240507686266705 0 0.0062424739291902804 -0.0019917612683224648 0 0.0062134169382553981 -0.00067592782137226978 0 0.0061574828866789817 -0.00052413394990441238 0 0.0062424739291902804 -0.0019917612683224648 0 0.0062134169382553981 -0.00067592782137226978 0 0.0068554181886612735 -0.00054955847933216035 0 0.0062134169382553981 -0.00067592782137226978 0 0.0061574828866789817 -0.00052413394990441238 0 0.0056949925134757917 -0.00016382905409164161 0 0.0062424739291902804 -0.0019917612683224648 0 0.0061574828866789817 -0.00052413394990441238 0 0.0073760758768645794 -0.00074349510736060895 0 0.0062424739291902804 -0.0019917612683224648 0 0.0073760758768645794 -0.00074349510736060895 0 0.0099510920006941426 -0.00090726327707111448 0 0.0061574828866789817 -0.00052413394990441238 0 0.0068822901840701559 -0.00017334526083242363 0 0.0059589567775603603 0.00048951060613991384 0 0.0061574828866789817 -0.00052413394990441238 0 0.0073760758768645794 -0.00074349510736060895 0 0.0068822901840701559 -0.00017334526083242363 0 0.0073760758768645794 -0.00074349510736060895 0 0.0068822901840701559 -0.00017334526083242363 0 0.008420479668387099 0.00016436981990072659 0 0.0070541104026238654 0.00056383351079292913 0 0.0070691990069046634 0.0021659807461007052 0 0.008420479668387099 0.00016436981990072659 0 0.0068822901840701559 -0.00017334526083242363 0 0.0070541104026238654 0.00056383351079292913 0 0.0059589567775603603 0.00048951060613991384 0 0.0068822901840701559 -0.00017334526083242363 0 0.0070541104026238654 0.00056383351079292913 0 0.008420479668387099 0.00016436981990072659 0 0.0070541104026238654 0.00056383351079292913 0 0.0070691990069046634 0.0021659807461007052 0 0.0059589567775603603 0.00048951060613991384 0 0.0063177201747405603 -0.0036385984172566613 0 0.0063615574898502293 -0.0035556412128966825 0 0.0059589567775603603 0.00048951060613991384 0 0.0055035918089960095 0.00017094606659220289 0 0.0049448130629643969 0.00026902271594269131 0 0.0058010391485425125 0.00049805365390263086 0 0.0059589567775603603 0.00048951060613991384 0 0.0049448130629643969 0.00026902271594269131 0 0.0063177201747405603 -0.0036385984172566613 0 0.0062556621283924628 -0.0035817225371405606 0 0.0061574828866789817 -0.00052413394990441238 0 0.0059589567775603603 0.00048951060613991384 0 0.0055035918089960095 0.00017094606659220289 0 0.0061574828866789817 -0.00052413394990441238 0 0.0055035918089960095 0.00017094606659220289 0 0.0056949925134757917 -0.00016382905409164161 0 0.0055035918089960095 0.00017094606659220289 0 0.0052390018843457573 1.1419333685339504e-05 0 0.0049448130629643969 0.00026902271594269131 0 0.0055035918089960095 0.00017094606659220289 0 0.0052390018843457573 1.1419333685339504e-05 0 0.0056949925134757917 -0.00016382905409164161 0 0.0070691990069046634 0.0021659807461007052 0 0.008420479668387099 0.00016436981990072659 0 0.014112481535355846 -0.00069454508211069213 0 0.0099510920006941426 -0.00090726327707111448 0 0.008420479668387099 0.00016436981990072659 0 0.014112481535355846 -0.00069454508211069213 0 0.0049488885128940669 -0.0066541597321875248 0 0.0041694465967560216 -0.0064264499568634182 0 0.0043271546360185509 -0.0068507439783317345 0 0.0063177201747405603 -0.0036385984172566613 0 0.0092218225886613082 -0.0041423434945643866 0 0.0062424739291902804 -0.0019917612683224648 0 0.0099510920006941426 -0.00090726327707111448 0 0.014334294043551571 -0.0017841963585106797 0 0.0099510920006941426 -0.00090726327707111448 0 0.014112481535355846 -0.00069454508211069213 0 0.014334294043551571 -0.0017841963585106797 0 0.0073760758768645794 -0.00074349510736060895 0 0.0099510920006941426 -0.00090726327707111448 0 0.008420479668387099 0.00016436981990072659 0 0.0041694465967560216 -0.0064264499568634182 0 0.0036990596541230272 -0.0066464799658421583 0 0.0033981615079149903 -0.0061989458273374607 0 0.014112481535355846 -0.00069454508211069213 0 0.014334294043551571 -0.0017841963585106797 0 0.015355618940681152 -0.0017274090666119634 0 0.0092218225886613082 -0.0041423434945643866 0 0.0138124794318094 -0.005376966892234037 0 0.0041694465967560216 -0.0064264499568634182 0 0.0036990596541230272 -0.0066464799658421583 0 0.0038843069833003783 -0.006925837990759273 0 0.014334294043551571 -0.0017841963585106797 0 0.014618317862325198 -0.0014800852015284867 0 0.015355618940681152 -0.0017274090666119634 0 0.015978959799448328 -0.001395482832649432 0 0.014334294043551571 -0.0017841963585106797 0 0.014618317862325198 -0.0014800852015284867 0 0.022342292258096568 -0.001954270622948776 0 0.019512052958124113 -0.0032593186956310885 0 0.016436569394007554 -0.00078160462906961083 0 0.015978959799448328 -0.001395482832649432 0 0.014618317862325198 -0.0014800852015284867 0 0.032479843866260565 -0.0093201510123188773 0 0.030798879351217966 -0.009143819030666217 0 0.031278404897248341 -0.010252583365670028 0 0.03164440341090359 -0.0086413145055345419 0 0.032479843866260565 -0.0093201510123188773 0 0.030798879351217966 -0.009143819030666217 0 0.019512052958124113 -0.0032593186956310885 0 0.0138124794318094 -0.005376966892234037 0 0.0036990596541230272 -0.0066464799658421583 0 0.0033981615079149903 -0.0061989458273374607 0 0.0033404782418788074 -0.0070365134611215501 0 0.0029474887327212776 -0.0069269095494998009 0 0.0033981615079149903 -0.0061989458273374607 0 0.0033404782418788074 -0.0070365134611215501 0 0.0036990596541230272 -0.0066464799658421583 0 0.0033404782418788074 -0.0070365134611215501 0 0.0038843069833003783 -0.006925837990759273 0 0.0033404782418788074 -0.0070365134611215501 0 0.0038843069833003783 -0.006925837990759273 0 0.0036654434574040899 -0.0074749346047376366 0 0.0038843069833003783 -0.006925837990759273 0 0.0036654434574040899 -0.0074749346047376366 0 0.0043057491183888241 -0.0073951665509330413 0 0.0041694465967560216 -0.0064264499568634182 0 0.0038843069833003783 -0.006925837990759273 0 0.0043271546360185509 -0.0068507439783317345 0 0.0038843069833003783 -0.006925837990759273 0 0.0043057491183888241 -0.0073951665509330413 0 0.0043271546360185509 -0.0068507439783317345 0 0.001273360307642633 -0.0034566431744547585 0 0.0035229843935528056 -0.0038930434119271171 0 0.0036654434574040899 -0.0074749346047376366 0 0.0036676372008626751 -0.0081135131659705664 0 0.0043057491183888241 -0.0073951665509330413 0 0.0029857293996181705 -0.0077700061862883392 0 0.0033404782418788074 -0.0070365134611215501 0 0.0036654434574040899 -0.0074749346047376366 0 0.0029857293996181705 -0.0077700061862883392 0 0.0036654434574040899 -0.0074749346047376366 0 0.0036676372008626751 -0.0081135131659705664 0 0.0017931673896264208 -0.0048739612544528976 0 0.001273360307642633 -0.0034566431744547585 0 -0.00048620010364102914 -0.0055525233111407895 0 -0.0024858462431749662 -0.004562528910677364 0 -0.00095455494802417558 -0.0027540735723243235 0 0.001273360307642633 -0.0034566431744547585 0 0.00061476571111458538 -0.0028716421432372023 0 0.001273360307642633 -0.0034566431744547585 0 0.0004079180492543641 -0.0023616509947795906 0 0.0021229983087905397 -0.0011949126877717172 0 0.0021730387824236415 -0.0012424979954065232 0 0.0022583846576508105 -0.0010952930454146323 0 -0.0016978769746872656 -0.0014332568263277111 0 -0.0016822148616059338 -0.0011227748110906972 0 -0.0018328343653142691 -0.0014742491097322196 0 -0.0015949609635870768 -0.001728213397944359 0 -0.0016978769746872656 -0.0014332568263277111 0 -0.0016822148616059338 -0.0011227748110906972 0 -0.0015949609635870768 -0.001728213397944359 0 -0.0016978769746872656 -0.0014332568263277111 0 -0.000936447531222889 -0.0016420201135775409 0 -0.0016978769746872656 -0.0014332568263277111 0 -0.000936447531222889 -0.0016420201135775409 0 -0.00076439901704676734 -0.00099596190763686721 0 0.00026218144036811638 -0.0021040360793218851 0 0.0004079180492543641 -0.0023616509947795906 0 -0.00010126498300655639 -0.0012014186171182652 0 0.0021730387824236415 -0.0012424979954065232 0 0.0021329917295754689 -0.0013908187152149127 0 -0.00010126498300655639 -0.0012014186171182652 0 -0.0016822148616059338 -0.0011227748110906972 0 -0.0018328343653142691 -0.0014742491097322196 0 0.0021730387824236415 -0.0012424979954065232 0 0.0021329917295754689 -0.0013908187152149127 0 0.0022583846576508105 -0.0010952930454146323 0 -0.00010126498300655639 -0.0012014186171182652 0 0.0021329917295754689 -0.0013908187152149127 0 0.0022149653679053331 -0.0012327365387300065 0 0.0021329917295754689 -0.0013908187152149127 0 0.0031330506565111047 -0.0010398221550175296 0 0.0022149653679053331 -0.0012327365387300065 0 0.0031330506565111047 -0.0010398221550175296 0 0.0041569877591918778 -0.00065741871344406652 0 0.003519260133471393 -0.00093034221839128912 0 0.0021329917295754689 -0.0013908187152149127 0 0.0031330506565111047 -0.0010398221550175296 0 0.0022583846576508105 -0.0010952930454146323 0 0.0031330506565111047 -0.0010398221550175296 0 0.0022583846576508105 -0.0010952930454146323 0 0.0034854565417994231 -0.00053604467256675257 0 0.0049488885128940669 -0.0066541597321875248 0 0.0043057491183888241 -0.0073951665509330413 0 0.0043271546360185509 -0.0068507439783317345 0 0.0039014817471796324 0.00047616078594080494 0 0.0022583846576508105 -0.0010952930454146323 0 0.0034854565417994231 -0.00053604467256675257 0 0.0063177201747405603 -0.0036385984172566613 0 0.0035229843935528056 -0.0038930434119271171 0 0.004308364713746177 -0.00038381532051488495 0 0.0050280112787093227 -0.0003006023487304123 0 0.0041569877591918778 -0.00065741871344406652 0 0.0031330506565111047 -0.0010398221550175296 0 0.004308364713746177 -0.00038381532051488495 0 0.0041569877591918778 -0.00065741871344406652 0 0.0031330506565111047 -0.0010398221550175296 0 0.004308364713746177 -0.00038381532051488495 0 0.0034854565417994231 -0.00053604467256675257 0 0.004308364713746177 -0.00038381532051488495 0 0.0034854565417994231 -0.00053604467256675257 0 0.0049448130629643969 0.00026902271594269131 0 0.0039014817471796324 0.00047616078594080494 0 0.0034854565417994231 -0.00053604467256675257 0 0.0049448130629643969 0.00026902271594269131 0 0.0052390018843457573 1.1419333685339504e-05 0 0.004308364713746177 -0.00038381532051488495 0 0.0049448130629643969 0.00026902271594269131 0 0.0052390018843457573 1.1419333685339504e-05 0 0.004308364713746177 -0.00038381532051488495 0 0.0050280112787093227 -0.0003006023487304123 0 0.0052390018843457573 1.1419333685339504e-05 0 0.0050280112787093227 -0.0003006023487304123 0 0.0056357048112916763 -0.00018478382178101471 0 0.0050280112787093227 -0.0003006023487304123 0 0.0057915208172616677 -0.00027055680276351086 0 0.0056357048112916763 -0.00018478382178101471 0 0.0050280112787093227 -0.0003006023487304123 0 0.0057915208172616677 -0.00027055680276351086 0 0.00474430773850222 -0.00059207544475487763 0 0.0050280112787093227 -0.0003006023487304123 0 0.00474430773850222 -0.00059207544475487763 0 0.0041569877591918778 -0.00065741871344406652 0 0.0057915208172616677 -0.00027055680276351086 0 0.0056464640254397062 -0.00057432085522935805 0 0.0070332696224793484 -0.00024155487866083501 0 0.0057915208172616677 -0.00027055680276351086 0 0.00474430773850222 -0.00059207544475487763 0 0.0056464640254397062 -0.00057432085522935805 0 0.0056464640254397062 -0.00057432085522935805 0 0.0038898430973965171 -0.00096097379292643074 0 0.0068176805123648021 -0.00069391585251755408 0 0.00474430773850222 -0.00059207544475487763 0 0.0056464640254397062 -0.00057432085522935805 0 0.0038898430973965171 -0.00096097379292643074 0 0.0038898430973965171 -0.00096097379292643074 0 0.003519260133471393 -0.00093034221839128912 0 0.0022149653679053331 -0.0012327365387300065 0 0.00474430773850222 -0.00059207544475487763 0 0.0041569877591918778 -0.00065741871344406652 0 0.003519260133471393 -0.00093034221839128912 0 0.00474430773850222 -0.00059207544475487763 0 0.0038898430973965171 -0.00096097379292643074 0 0.003519260133471393 -0.00093034221839128912 0 0.0031330506565111047 -0.0010398221550175296 0 0.003519260133471393 -0.00093034221839128912 0 0.0022149653679053331 -0.0012327365387300065 0 0.0038898430973965171 -0.00096097379292643074 0 0.0022149653679053331 -0.0012327365387300065 0 0.001592872833859229 -0.0011581040607097552 0 -0.00010126498300655639 -0.0012014186171182652 0 0.0022149653679053331 -0.0012327365387300065 0 0.001592872833859229 -0.0011581040607097552 0 0.0038898430973965171 -0.00096097379292643074 0 0.001592872833859229 -0.0011581040607097552 0 0.0033530237046289998 -0.00070392143432847253 0 0.001592872833859229 -0.0011581040607097552 0 0.0004754923240926048 -0.001178408876710769 0 -0.0010650332876087451 -0.00138995024230232 0 0.001592872833859229 -0.0011581040607097552 0 0.0004754923240926048 -0.001178408876710769 0 0.0033530237046289998 -0.00070392143432847253 0 -0.00010126498300655639 -0.0012014186171182652 0 0.001592872833859229 -0.0011581040607097552 0 -0.0010650332876087451 -0.00138995024230232 0 0.0004754923240926048 -0.001178408876710769 0 0.0033530237046289998 -0.00070392143432847253 0 -0.001853531994694106 -0.001004673561149496 0 0.0033530237046289998 -0.00070392143432847253 0 0.0044985120987055668 -1.3482792423015509e-06 0 -0.001853531994694106 -0.001004673561149496 0 0.0044985120987055668 -1.3482792423015509e-06 0 -0.001853531994694106 -0.001004673561149496 0 -0.0018065945147355848 -1.3097014402786144e-06 0 0.0033530237046289998 -0.00070392143432847253 0 0.0044985120987055668 -1.3482792423015509e-06 0 0.0068176805123648021 -0.00069391585251755408 0 0.0044985120987055668 -1.3482792423015509e-06 0 0.0068176805123648021 -0.00069391585251755408 0 0.010806052544992008 -3.5077880467070448e-06 0 0.0038898430973965171 -0.00096097379292643074 0 0.0033530237046289998 -0.00070392143432847253 0 0.0068176805123648021 -0.00069391585251755408 0 0.0068176805123648021 -0.00069391585251755408 0 0.010079694200150232 -0.00033363023067942886 0 0.0070332696224793484 -0.00024155487866083501 0 0.0056464640254397062 -0.00057432085522935805 0 0.0068176805123648021 -0.00069391585251755408 0 0.0070332696224793484 -0.00024155487866083501 0 0.0068176805123648021 -0.00069391585251755408 0 0.010806052544992008 -3.5077880467070448e-06 0 0.010079694200150232 -0.00033363023067942886 0 0.010806052544992008 -3.5077880467070448e-06 0 0.017101306757969205 7.3240158965363706e-06 0 0.010079694200150232 -0.00033363023067942886 0 0.017101306757969205 7.3240158965363706e-06 0 0.008765031314197088 0.00195149231281981 0 0.010079694200150232 -0.00033363023067942886 0 0.017123056584512131 -2.4146698994831372e-07 0 0.020616908755637736 -0.0018561681470773699 0 0.021389649373522206 -0.0003200820993962064 0 0.017110265604762902 -1.8240473856982056e-07 0 0.014480170300245386 0.00013022529710906972 0 0.008765031314197088 0.00195149231281981 0 0.008010073632369356 0.00058472177250836073 0 0.010079694200150232 -0.00033363023067942886 0 0.008010073632369356 0.00058472177250836073 0 0.010079694200150232 -0.00033363023067942886 0 0.0070332696224793484 -0.00024155487866083501 0 0.0070332696224793484 -0.00024155487866083501 0 0.00737594163141881 0.00014253250446119619 0 0.0065974476899094935 -0.00013013898271442055 0 0.0057915208172616677 -0.00027055680276351086 0 0.0070332696224793484 -0.00024155487866083501 0 0.0065974476899094935 -0.00013013898271442055 0 0.00737594163141881 0.00014253250446119619 0 0.0065974476899094935 -0.00013013898271442055 0 0.0073258541643741607 -0.00025654199296128687 0 0.008010073632369356 0.00058472177250836073 0 0.0070332696224793484 -0.00024155487866083501 0 0.00737594163141881 0.00014253250446119619 0 0.008010073632369356 0.00058472177250836073 0 0.00737594163141881 0.00014253250446119619 0 0.0080937748616225838 0.00033109585805883362 0 0.0056949925134757917 -0.00016382905409164161 0 0.0056357048112916763 -0.00018478382178101471 0 0.006279829588764288 -0.00029637275883183839 0 0.0052390018843457573 1.1419333685339504e-05 0 0.0056949925134757917 -0.00016382905409164161 0 0.0056357048112916763 -0.00018478382178101471 0 0.0057915208172616677 -0.00027055680276351086 0 0.0056357048112916763 -0.00018478382178101471 0 0.006279829588764288 -0.00029637275883183839 0 0.0057915208172616677 -0.00027055680276351086 0 0.0065974476899094935 -0.00013013898271442055 0 0.006279829588764288 -0.00029637275883183839 0 0.0065974476899094935 -0.00013013898271442055 0 0.006279829588764288 -0.00029637275883183839 0 0.0073258541643741607 -0.00025654199296128687 0 0.006279829588764288 -0.00029637275883183839 0 0.0066579662338046618 -0.00046369615510053044 0 0.0073258541643741607 -0.00025654199296128687 0 0.0062134169382553981 -0.00067592782137226978 0 0.0056949925134757917 -0.00016382905409164161 0 0.006279829588764288 -0.00029637275883183839 0 0.0062134169382553981 -0.00067592782137226978 0 0.006279829588764288 -0.00029637275883183839 0 0.0066579662338046618 -0.00046369615510053044 0 0.020729700994423506 -0.00036513282740692629 0 0.019375082316272701 -0.0020240507686266705 0 0.02239345671682974 -0.00024917982649827009 0 0.014504634816796133 -0.00098365587132299937 0 0.015403639892717102 -0.00040251013269293988 0 0.0062424739291902804 -0.0019917612683224648 0 0.0068554181886612735 -0.00054955847933216035 0 0.0077057835973077232 0.0012770093214406312 0 0.0068554181886612735 -0.00054955847933216035 0 0.0066579662338046618 -0.00046369615510053044 0 0.0073258541643741607 -0.00025654199296128687 0 0.0062134169382553981 -0.00067592782137226978 0 0.0068554181886612735 -0.00054955847933216035 0 0.0066579662338046618 -0.00046369615510053044 0 0.0068554181886612735 -0.00054955847933216035 0 0.0073258541643741607 -0.00025654199296128687 0 0.0076135938339725335 -0.00017820111678381914 0 0.0073258541643741607 -0.00025654199296128687 0 0.007969948444697391 -0.00026503998347067914 0 0.0076135938339725335 -0.00017820111678381914 0 0.0068554181886612735 -0.00054955847933216035 0 0.0076135938339725335 -0.00017820111678381914 0 0.0077057835973077232 0.0012770093214406312 0 0.007969948444697391 -0.00026503998347067914 0 0.0076135938339725335 -0.00017820111678381914 0 0.0087788333451268765 -0.0005962473196330615 0 0.0076135938339725335 -0.00017820111678381914 0 0.0087788333451268765 -0.0005962473196330615 0 0.0077057835973077232 0.0012770093214406312 0 0.008765031314197088 0.00195149231281981 0 0.008010073632369356 0.00058472177250836073 0 0.0080937748616225838 0.00033109585805883362 0 0.014480170300245386 0.00013022529710906972 0 0.01269474246835238 0.00023045050602341365 0 0.020616908755637736 -0.0018561681470773699 0 0.0087788333451268765 -0.0005962473196330615 0 0.015022098806079678 -7.1084924413021525e-05 0 0.008765031314197088 0.00195149231281981 0 0.0080937748616225838 0.00033109585805883362 0 0.0087788333451268765 -0.0005962473196330615 0 0.0073258541643741607 -0.00025654199296128687 0 0.007969948444697391 -0.00026503998347067914 0 0.0080937748616225838 0.00033109585805883362 0 0.00737594163141881 0.00014253250446119619 0 0.0073258541643741607 -0.00025654199296128687 0 0.0080937748616225838 0.00033109585805883362 0 0.0087788333451268765 -0.0005962473196330615 0 0.015022098806079678 -7.1084924413021525e-05 0 0.0077057835973077232 0.0012770093214406312 0 0.007969948444697391 -0.00026503998347067914 0 0.0080937748616225838 0.00033109585805883362 0 0.0087788333451268765 -0.0005962473196330615 0 0.015022098806079678 -7.1084924413021525e-05 0 0.0077057835973077232 0.0012770093214406312 0 0.021198637983739763 0.0010432275893698236 0 0.015403639892717102 -0.00040251013269293988 0 0.016735426653046146 8.3515116343755406e-05 0 0.02234252861034438 0.0001970909939285741 0 0.02239345671682974 -0.00024917982649827009 0 0.021198637983739763 0.0010432275893698236 0 0.020839754638755811 0.00073512775165061959 0 0.021892212930940774 0.00027241133588246346 0 0.021423311434243451 9.0683404032888295e-05 0 0.020729700994423506 -0.00036513282740692629 0 0.02239345671682974 -0.00024917982649827009 0 0.021423311434243451 9.0683404032888295e-05 0 0.02234252861034438 0.0001970909939285741 0 0.02239345671682974 -0.00024917982649827009 0 0.021892212930940774 0.00027241133588246346 0 0.02239345671682974 -0.00024917982649827009 0 0.021892212930940774 0.00027241133588246346 0 0.021423311434243451 9.0683404032888295e-05 0 0.020839754638755811 0.00073512775165061959 0 0.021892212930940774 0.00027241133588246346 0 0.021511850096281163 0.00070937676684369874 0 0.021892212930940774 0.00027241133588246346 0 0.021511850096281163 0.00070937676684369874 0 0.022469655939537786 0.00027944586460281921 0 0.02234252861034438 0.0001970909939285741 0 0.022784594828958751 4.9272570198008416e-05 0 0.021198637983739763 0.0010432275893698236 0 0.02234252861034438 0.0001970909939285741 0 0.022469655939537786 0.00027944586460281921 0 0.022784594828958751 4.9272570198008416e-05 0 0.02234252861034438 0.0001970909939285741 0 0.021892212930940774 0.00027241133588246346 0 0.022469655939537786 0.00027944586460281921 0 0.023425237218931631 0.00027245700620916039 0 0.022469655939537786 0.00027944586460281921 0 0.022784594828958751 4.9272570198008416e-05 0 0.024405683100935743 -5.1170410651114319e-06 0 0.022784594828958751 4.9272570198008416e-05 0 0.023287630697614178 -1.3610578873945704e-05 0 0.022784594828958751 4.9272570198008416e-05 0 0.023287630697614178 -1.3610578873945704e-05 0 0.021198637983739763 0.0010432275893698236 0 0.028987353967434768 -2.2530626065300217e-06 0 0.023048290551586643 -4.3383377269808542e-07 0 0.023287630697614178 -1.3610578873945704e-05 0 0.023048290551586643 -4.3383377269808542e-07 0 0.023287630697614178 -1.3610578873945704e-05 0 0.021389649373522206 -0.0003200820993962064 0 0.017123056584512131 -2.4146698994831372e-07 0 0.023048290551586643 -4.3383377269808542e-07 0 0.021389649373522206 -0.0003200820993962064 0 0.020616908755637736 -0.0018561681470773699 0 0.015022098806079678 -7.1084924413021525e-05 0 0.021198637983739763 0.0010432275893698236 0 0.020616908755637736 -0.0018561681470773699 0 0.021389649373522206 -0.0003200820993962064 0 0.021198637983739763 0.0010432275893698236 0 0.023287630697614178 -1.3610578873945704e-05 0 0.021389649373522206 -0.0003200820993962064 0 0.021198637983739763 0.0010432275893698236 0 0.032054149189151025 -0.0060558162267701715 0 0.031968881467266771 -0.0075421390017631693 0 0.030992150467165937 -0.0058918004307404589 0 0.03118446847622711 -0.0070255046014928912 0 0.032316974569467083 -0.0076626973980865876 0 0.031294536034094683 -0.005711733816630561 0 0.031886777108992341 -0.0073262068772094267 0 0.031118441895656528 -0.0058074112797957345 0 0.032054149189151025 -0.0060558162267701715 0 0.032579415638930131 -0.0067992381457065119 0 0.031968881467266771 -0.0075421390017631693 0 0.032054149189151025 -0.0060558162267701715 0 0.032952871615146581 -0.0059745744411949129 0 0.032579415638930131 -0.0067992381457065119 0 0.032579415638930131 -0.0067992381457065119 0 0.032919621201568841 -0.0077549355472280104 0 0.031968881467266771 -0.0075421390017631693 0 0.032579415638930131 -0.0067992381457065119 0 0.032919621201568841 -0.0077549355472280104 0 0.034102831935963834 -0.0078097489004965021 0 0.032919621201568841 -0.0077549355472280104 0 0.031968881467266771 -0.0075421390017631693 0 0.033107359472855591 -0.0092936804698945628 0 0.032919621201568841 -0.0077549355472280104 0 0.034102831935963834 -0.0078097489004965021 0 0.033552167306161125 -0.0082823953460778466 0 0.03118446847622711 -0.0070255046014928912 0 0.032296469619631257 -0.0081433765151401848 0 0.029901389095182616 -0.0074161697026846945 0 0.03118446847622711 -0.0070255046014928912 0 0.032296469619631257 -0.0081433765151401848 0 0.032316974569467083 -0.0076626973980865876 0 0.032296469619631257 -0.0081433765151401848 0 0.029901389095182616 -0.0074161697026846945 0 0.029868655588077702 -0.0093124280707521274 0 0.029901389095182616 -0.0074161697026846945 0 0.028406102979540673 -0.006401075604919375 0 0.028071065258106404 -0.0076626468679980037 0 0.029901389095182616 -0.0074161697026846945 0 0.029868655588077702 -0.0093124280707521274 0 0.028071065258106404 -0.0076626468679980037 0 0.028406102979540673 -0.006401075604919375 0 0.030135260028265897 -0.0061767083770193449 0 0.029089547628938481 -0.005509015931062353 0 0.029901389095182616 -0.0074161697026846945 0 0.028406102979540673 -0.006401075604919375 0 0.030135260028265897 -0.0061767083770193449 0 0.03118446847622711 -0.0070255046014928912 0 0.029901389095182616 -0.0074161697026846945 0 0.030135260028265897 -0.0061767083770193449 0 0.03118446847622711 -0.0070255046014928912 0 0.030135260028265897 -0.0061767083770193449 0 0.031294536034094683 -0.005711733816630561 0 0.030135260028265897 -0.0061767083770193449 0 0.030275904104561564 -0.003905302398978155 0 0.031294536034094683 -0.005711733816630561 0 0.030135260028265897 -0.0061767083770193449 0 0.029089547628938481 -0.005509015931062353 0 0.030275904104561564 -0.003905302398978155 0 0.030344690894011737 -0.0043017773427822953 0 0.031118441895656528 -0.0058074112797957345 0 0.029089547628938481 -0.005509015931062353 0 0.029057297405365026 -0.0043858189432043294 0 0.027138940930916417 -0.0056051576442127677 0 0.029089547628938481 -0.005509015931062353 0 0.029057297405365026 -0.0043858189432043294 0 0.030275904104561564 -0.003905302398978155 0 0.029057297405365026 -0.0043858189432043294 0 0.028983960053579789 -0.0033568302651753481 0 0.028301931852100087 -0.003580389234770076 0 0.029057297405365026 -0.0043858189432043294 0 0.028983960053579789 -0.0033568302651753481 0 0.030275904104561564 -0.003905302398978155 0 0.029978458481508683 -0.0041864725846952966 0 0.030939170644126584 -0.0036413154673517094 0 0.031452647884783101 -0.0047416518880845611 0 0.030939170644126584 -0.0036413154673517094 0 0.031452647884783101 -0.0047416518880845611 0 0.031889911401845689 -0.0036482862796685051 0 0.032054149189151025 -0.0060558162267701715 0 0.031452647884783101 -0.0047416518880845611 0 0.030992150467165937 -0.0058918004307404589 0 0.029978458481508683 -0.0041864725846952966 0 0.031452647884783101 -0.0047416518880845611 0 0.030992150467165937 -0.0058918004307404589 0 0.032054149189151025 -0.0060558162267701715 0 0.031452647884783101 -0.0047416518880845611 0 0.032381467161528024 -0.0052530328400406433 0 0.032952871615146581 -0.0059745744411949129 0 0.032381467161528024 -0.0052530328400406433 0 0.033297132169195415 -0.0052228735407953818 0 0.032054149189151025 -0.0060558162267701715 0 0.032952871615146581 -0.0059745744411949129 0 0.032381467161528024 -0.0052530328400406433 0 0.031452647884783101 -0.0047416518880845611 0 0.032381467161528024 -0.0052530328400406433 0 0.032490364829438866 -0.0044069985892252602 0 0.032381467161528024 -0.0052530328400406433 0 0.032490364829438866 -0.0044069985892252602 0 0.033297132169195415 -0.0052228735407953818 0 0.031452647884783101 -0.0047416518880845611 0 0.032490364829438866 -0.0044069985892252602 0 0.031889911401845689 -0.0036482862796685051 0 0.032490364829438866 -0.0044069985892252602 0 0.031889911401845689 -0.0036482862796685051 0 0.032763213772563998 -0.0034943686982615409 0 0.032490364829438866 -0.0044069985892252602 0 0.032763213772563998 -0.0034943686982615409 0 0.033408690256591475 -0.0040599468325394523 0 0.033408690256591475 -0.0040599468325394523 0 0.03336873043722708 -0.0030681181789139486 0 0.033946486975101227 -0.0034352990343895994 0 0.032763213772563998 -0.0034943686982615409 0 0.033408690256591475 -0.0040599468325394523 0 0.03336873043722708 -0.0030681181789139486 0 0.032490364829438866 -0.0044069985892252602 0 0.033408690256591475 -0.0040599468325394523 0 0.033297132169195415 -0.0052228735407953818 0 0.033408690256591475 -0.0040599468325394523 0 0.034499459911437151 -0.0039570187327390028 0 0.034178307728448348 -0.0049334306182051146 0 0.033408690256591475 -0.0040599468325394523 0 0.034499459911437151 -0.0039570187327390028 0 0.033946486975101227 -0.0034352990343895994 0 0.034499459911437151 -0.0039570187327390028 0 0.035134308504085346 -0.0048089838461426336 0 0.035737578174890462 -0.0033419193497505029 0 0.034499459911437151 -0.0039570187327390028 0 0.035737578174890462 -0.0033419193497505029 0 0.034650187220682575 -0.0031278848330244585 0 0.034499459911437151 -0.0039570187327390028 0 0.034650187220682575 -0.0031278848330244585 0 0.033946486975101227 -0.0034352990343895994 0 0.034499459911437151 -0.0039570187327390028 0 0.035134308504085346 -0.0048089838461426336 0 0.034178307728448348 -0.0049334306182051146 0 0.035134308504085346 -0.0048089838461426336 0 0.035970213590281387 -0.0055794194233148471 0 0.034357388825354919 -0.0064808471982685072 0 0.035134308504085346 -0.0048089838461426336 0 0.034178307728448348 -0.0049334306182051146 0 0.034357388825354919 -0.0064808471982685072 0 0.032952871615146581 -0.0059745744411949129 0 0.033297132169195415 -0.0052228735407953818 0 0.034357388825354919 -0.0064808471982685072 0 0.033297132169195415 -0.0052228735407953818 0 0.034178307728448348 -0.0049334306182051146 0 0.034357388825354919 -0.0064808471982685072 0 0.033408690256591475 -0.0040599468325394523 0 0.033297132169195415 -0.0052228735407953818 0 0.034178307728448348 -0.0049334306182051146 0 0.038199189221959202 -0.0031989643380076161 0 0.036657228488907671 -0.0038771013009980511 0 0.035737578174890462 -0.0033419193497505029 0 0.038199189221959202 -0.0031989643380076161 0 0.037506545650576893 -0.0040082821930043314 0 0.036657228488907671 -0.0038771013009980511 0 0.038183483892337555 -0.0044400795424792729 0 0.037506545650576893 -0.0040082821930043314 0 0.037000822774905483 -0.0045164685185038926 0 0.038199189221959202 -0.0031989643380076161 0 0.038183483892337555 -0.0044400795424792729 0 0.037506545650576893 -0.0040082821930043314 0 0.037506545650576893 -0.0040082821930043314 0 0.037000822774905483 -0.0045164685185038926 0 0.036657228488907671 -0.0038771013009980511 0 0.035134308504085346 -0.0048089838461426336 0 0.036090221868943166 -0.0046059578205360869 0 0.035737578174890462 -0.0033419193497505029 0 0.037000822774905483 -0.0045164685185038926 0 0.036090221868943166 -0.0046059578205360869 0 0.036657228488907671 -0.0038771013009980511 0 0.036090221868943166 -0.0046059578205360869 0 0.036657228488907671 -0.0038771013009980511 0 0.035737578174890462 -0.0033419193497505029 0 0.035134308504085346 -0.0048089838461426336 0 0.036090221868943166 -0.0046059578205360869 0 0.035970213590281387 -0.0055794194233148471 0 0.035970213590281387 -0.0055794194233148471 0 0.036557309362342888 -0.0056524341682876005 0 0.03665468001514214 -0.005203971038468461 0 0.035970213590281387 -0.0055794194233148471 0 0.036523983042668295 -0.0061857413561481178 0 0.036548841867266875 -0.0060644912597529283 0 0.035970213590281387 -0.0055794194233148471 0 0.036557309362342888 -0.0056524341682876005 0 0.036548841867266875 -0.0060644912597529283 0 0.036746533454024635 -0.0058658440121242316 0 0.036557309362342888 -0.0056524341682876005 0 0.036548841867266875 -0.0060644912597529283 0 0.037000822774905483 -0.0045164685185038926 0 0.036090221868943166 -0.0046059578205360869 0 0.03665468001514214 -0.005203971038468461 0 0.036090221868943166 -0.0046059578205360869 0 0.035970213590281387 -0.0055794194233148471 0 0.03665468001514214 -0.005203971038468461 0 0.038629118847367874 -0.00594677541173275 0 0.038183483892337555 -0.0044400795424792729 0 0.037480319948119192 -0.0051708238444328888 0 0.038836636941111002 -0.0061438416886756197 0 0.037156671808105585 -0.0064914232141000021 0 0.038629118847367874 -0.00594677541173275 0 0.037092050181294293 -0.005669501647014249 0 0.036521873435670801 -0.0062073330713920283 0 0.038629118847367874 -0.00594677541173275 0 0.037092050181294293 -0.005669501647014249 0 0.037480319948119192 -0.0051708238444328888 0 0.037000822774905483 -0.0045164685185038926 0 0.03665468001514214 -0.005203971038468461 0 0.037480319948119192 -0.0051708238444328888 0 0.03665468001514214 -0.005203971038468461 0 0.037092050181294293 -0.005669501647014249 0 0.037480319948119192 -0.0051708238444328888 0 0.036557309362342888 -0.0056524341682876005 0 0.03665468001514214 -0.005203971038468461 0 0.037092050181294293 -0.005669501647014249 0 0.036746533454024635 -0.0058658440121242316 0 0.037092050181294293 -0.005669501647014249 0 0.036521873435670801 -0.0062073330713920283 0 0.036746533454024635 -0.0058658440121242316 0 0.036557309362342888 -0.0056524341682876005 0 0.037092050181294293 -0.005669501647014249 0 0.038183483892337555 -0.0044400795424792729 0 0.037000822774905483 -0.0045164685185038926 0 0.037480319948119192 -0.0051708238444328888 0 0.039289304439623633 -0.0063503223717394849 0 0.038636640230277478 -0.0073138298998956996 0 0.038206002558505731 -0.0068686364888019494 0 0.038636640230277478 -0.0073138298998956996 0 0.038206002558505731 -0.0068686364888019494 0 0.038384011767252278 -0.0073541965010256007 0 0.037215310159280479 -0.0058890117123806453 0 0.036232356633363737 -0.0068918139271050994 0 0.036826100498955634 -0.007963991082827181 0 0.037215310159280479 -0.0058890117123806453 0 0.036232356633363737 -0.0068918139271050994 0 0.035047558398556528 -0.0062904648563137698 0 0.035970213590281387 -0.0055794194233148471 0 0.036523983042668295 -0.0061857413561481178 0 0.034357388825354919 -0.0064808471982685072 0 0.037156671808105585 -0.0064914232141000021 0 0.03724579211303982 -0.0079189423228798496 0 0.036746533454024635 -0.0058658440121242316 0 0.036521873435670801 -0.0062073330713920283 0 0.036548841867266875 -0.0060644912597529283 0 0.037156671808105585 -0.0064914232141000021 0 0.037156180015637232 -0.0064901682761043713 0 0.038206002558505731 -0.0068686364888019494 0 0.038267049574793911 -0.0076779595362857188 0 0.038384011767252278 -0.0073541965010256007 0 0.036232356633363737 -0.0068918139271050994 0 0.036826100498955634 -0.007963991082827181 0 0.035642014393330229 -0.0077581574896608361 0 0.038267049574793911 -0.0076779595362857188 0 0.03843924521167992 -0.0075348311195049759 0 0.038620137543076839 -0.0077133426800912244 0 0.038267049574793911 -0.0076779595362857188 0 0.038384011767252278 -0.0073541965010256007 0 0.03843924521167992 -0.0075348311195049759 0 0.039463617432371076 -0.0082305023916651853 0 0.038636640230277478 -0.0073138298998956996 0 0.038765735702933755 -0.0095355796668175046 0 0.039822983119256451 -0.0082708160465272875 0 0.040302099312612596 -0.0091042324514330024 0 0.038636640230277478 -0.0073138298998956996 0 0.038620137543076839 -0.0077133426800912244 0 0.038911752157620029 -0.0078699587998772511 0 0.038636640230277478 -0.0073138298998956996 0 0.03843924521167992 -0.0075348311195049759 0 0.038620137543076839 -0.0077133426800912244 0 0.038636640230277478 -0.0073138298998956996 0 0.038384011767252278 -0.0073541965010256007 0 0.03843924521167992 -0.0075348311195049759 0 0.032579415638930131 -0.0067992381457065119 0 0.035047558398556528 -0.0062904648563137698 0 0.034102831935963834 -0.0078097489004965021 0 0.032952871615146581 -0.0059745744411949129 0 0.032579415638930131 -0.0067992381457065119 0 0.034357388825354919 -0.0064808471982685072 0 0.033896247467751224 -0.0067785448508096971 0 0.035024237324070479 -0.0066342082547960644 0 0.037156671808105585 -0.0064914232141000021 0 0.035024237324070479 -0.0066342082547960644 0 0.036232356633363737 -0.0068918139271050994 0 0.035047558398556528 -0.0062904648563137698 0 0.035642014393330229 -0.0077581574896608361 0 0.035642014393330229 -0.0077581574896608361 0 0.034102831935963834 -0.0078097489004965021 0 0.0350084905081465 -0.0088114494612306221 0 0.035047558398556528 -0.0062904648563137698 0 0.035642014393330229 -0.0077581574896608361 0 0.034102831935963834 -0.0078097489004965021 0 0.036826100498955634 -0.007963991082827181 0 0.035642014393330229 -0.0077581574896608361 0 0.03586846267855847 -0.0088287484918125828 0 0.03398468362794179 -0.0089139692537121961 0 0.034340006023134528 -0.0098292984222048182 0 0.033107359472855591 -0.0092936804698945628 0 0.034102831935963834 -0.0078097489004965021 0 0.03398468362794179 -0.0089139692537121961 0 0.033552167306161125 -0.0082823953460778466 0 0.03398468362794179 -0.0089139692537121961 0 0.0350084905081465 -0.0088114494612306221 0 0.034340006023134528 -0.0098292984222048182 0 0.034102831935963834 -0.0078097489004965021 0 0.03398468362794179 -0.0089139692537121961 0 0.0350084905081465 -0.0088114494612306221 0 0.035642014393330229 -0.0077581574896608361 0 0.0350084905081465 -0.0088114494612306221 0 0.03586846267855847 -0.0088287484918125828 0 0.0350084905081465 -0.0088114494612306221 0 0.03586846267855847 -0.0088287484918125828 0 0.035410594748641423 -0.0096517427802220897 0 0.035410594748641423 -0.0096517427802220897 0 0.036448933031847111 -0.0099085196497155671 0 0.035265124833479711 -0.01066573720376679 0 0.03586846267855847 -0.0088287484918125828 0 0.035410594748641423 -0.0096517427802220897 0 0.036448933031847111 -0.0099085196497155671 0 0.035410594748641423 -0.0096517427802220897 0 0.034340006023134528 -0.0098292984222048182 0 0.035265124833479711 -0.01066573720376679 0 0.034340006023134528 -0.0098292984222048182 0 0.034141285588364455 -0.011073157429476599 0 0.033161888323309151 -0.010453498434326886 0 0.0350084905081465 -0.0088114494612306221 0 0.035410594748641423 -0.0096517427802220897 0 0.034340006023134528 -0.0098292984222048182 0 0.040288466149752726 -0.0094266492397800956 0 0.038882803181024078 -0.0087532832356937013 0 0.03987464457905604 -0.0081945900293537519 0 0.038620137543076839 -0.0077133426800912244 0 0.038882803181024078 -0.0087532832356937013 0 0.03987464457905604 -0.0081945900293537519 0 0.039776207147942319 -0.0087698442316172763 0 0.040302099312612596 -0.0091042324514330024 0 0.03724579211303982 -0.0079189423228798496 0 0.037105728326010695 -0.0097249368785266473 0 0.038267049574793911 -0.0076779595362857188 0 0.038620137543076839 -0.0077133426800912244 0 0.038882803181024078 -0.0087532832356937013 0 0.038267049574793911 -0.0076779595362857188 0 0.038882803181024078 -0.0087532832356937013 0 0.038007438514479283 -0.0093474994162213096 0 0.036826100498955634 -0.007963991082827181 0 0.03586846267855847 -0.0088287484918125828 0 0.036448933031847111 -0.0099085196497155671 0 0.038882803181024078 -0.0087532832356937013 0 0.038007438514479283 -0.0093474994162213096 0 0.039469381881939498 -0.0098317673594127096 0 0.040288466149752726 -0.0094266492397800956 0 0.038882803181024078 -0.0087532832356937013 0 0.039469381881939498 -0.0098317673594127096 0 0.040625918169390603 -0.010630980865417814 0 0.039469381881939498 -0.0098317673594127096 0 0.039412875911869136 -0.010936207775204826 0 0.04159039859046957 -0.011507807961819966 0 0.040968508232360645 -0.011496144827528525 0 0.038007438514479283 -0.0093474994162213096 0 0.039469381881939498 -0.0098317673594127096 0 0.039412875911869136 -0.010936207775204826 0 0.037105728326010695 -0.0097249368785266473 0 0.036858003542917787 -0.011766477335441726 0 0.038007438514479283 -0.0093474994162213096 0 0.039412875911869136 -0.010936207775204826 0 0.037543732336055048 -0.011452992826565775 0 0.039412875911869136 -0.010936207775204826 0 0.038620356798677091 -0.012751231864216488 0 0.037543732336055048 -0.011452992826565775 0 0.036969526719959747 -0.014087614152191306 0 0.038620356798677091 -0.012751231864216488 0 0.037543732336055048 -0.011452992826565775 0 0.039412875911869136 -0.010936207775204826 0 0.038620356798677091 -0.012751231864216488 0 0.040376356441860883 -0.012524754403564813 0 0.041632336304433248 -0.010411700366646919 0 0.039412875911869136 -0.010936207775204826 0 0.040376356441860883 -0.012524754403564813 0 0.034340006023134528 -0.0098292984222048182 0 0.034141285588364455 -0.011073157429476599 0 0.035265124833479711 -0.01066573720376679 0 0.034141285588364455 -0.011073157429476599 0 0.035265124833479711 -0.01066573720376679 0 0.03507805262586354 -0.011978479721500982 0 0.035265124833479711 -0.01066573720376679 0 0.036268443075892408 -0.011723272021377417 0 0.03507805262586354 -0.011978479721500982 0 0.036448933031847111 -0.0099085196497155671 0 0.035265124833479711 -0.01066573720376679 0 0.036268443075892408 -0.011723272021377417 0 0.036569231760856927 -0.013913058245337015 0 0.036858003542917787 -0.011766477335441726 0 0.036303831659632364 -0.013813840028049003 0 0.036268443075892408 -0.011723272021377417 0 0.03507805262586354 -0.011978479721500982 0 0.034607052995688579 -0.012903085449006804 0 0.03507805262586354 -0.011978479721500982 0 0.034042832742501958 -0.012028488766782383 0 0.034141285588364455 -0.011073157429476599 0 0.03507805262586354 -0.011978479721500982 0 0.034042832742501958 -0.012028488766782383 0 0.034607052995688579 -0.012903085449006804 0 0.034042832742501958 -0.012028488766782383 0 0.033690629745704699 -0.012590795034275815 0 0.034141285588364455 -0.011073157429476599 0 0.034042832742501958 -0.012028488766782383 0 0.033006437424532228 -0.011830856394207152 0 0.034042832742501958 -0.012028488766782383 0 0.033690629745704699 -0.012590795034275815 0 0.033006437424532228 -0.011830856394207152 0 0.033051615943716958 -0.012659762177634443 0 0.033006437424532228 -0.011830856394207152 0 0.032657545259406777 -0.012454478177706391 0 0.033051615943716958 -0.012659762177634443 0 0.033690629745704699 -0.012590795034275815 0 0.033006437424532228 -0.011830856394207152 0 0.033006437424532228 -0.011830856394207152 0 0.032097825455058952 -0.012098243136365953 0 0.03235127806214029 -0.011073190591521832 0 0.032267048349825127 -0.012662859750342471 0 0.032097825455058952 -0.012098243136365953 0 0.032657545259406777 -0.012454478177706391 0 0.033006437424532228 -0.011830856394207152 0 0.032097825455058952 -0.012098243136365953 0 0.032657545259406777 -0.012454478177706391 0 0.034141285588364455 -0.011073157429476599 0 0.033006437424532228 -0.011830856394207152 0 0.033161888323309151 -0.010453498434326886 0 0.033006437424532228 -0.011830856394207152 0 0.03235127806214029 -0.011073190591521832 0 0.033161888323309151 -0.010453498434326886 0 0.034340006023134528 -0.0098292984222048182 0 0.033161888323309151 -0.010453498434326886 0 0.033107359472855591 -0.0092936804698945628 0 0.033161888323309151 -0.010453498434326886 0 0.032163847112126102 -0.0095901651472999495 0 0.033107359472855591 -0.0092936804698945628 0 0.03235127806214029 -0.011073190591521832 0 0.033161888323309151 -0.010453498434326886 0 0.032163847112126102 -0.0095901651472999495 0 0.03235127806214029 -0.011073190591521832 0 0.032163847112126102 -0.0095901651472999495 0 0.031378048131507574 -0.010359324017005379 0 0.032296469619631257 -0.0081433765151401848 0 0.032163847112126102 -0.0095901651472999495 0 0.033107359472855591 -0.0092936804698945628 0 0.032296469619631257 -0.0081433765151401848 0 0.032163847112126102 -0.0095901651472999495 0 0.030860386457542695 -0.0091449890262137821 0 0.031886777108992341 -0.0073262068772094267 0 0.032289458940177866 -0.0081407304528798435 0 0.032296469619631257 -0.0081433765151401848 0 0.032316974569467083 -0.0076626973980865876 0 0.033107359472855591 -0.0092936804698945628 0 0.032919621201568841 -0.0077549355472280104 0 0.033552167306161125 -0.0082823953460778466 0 0.033107359472855591 -0.0092936804698945628 0 0.03398468362794179 -0.0089139692537121961 0 0.033552167306161125 -0.0082823953460778466 0 0.033107359472855591 -0.0092936804698945628 0 0.030860386457542695 -0.0091449890262137821 0 0.031378048131507574 -0.010359324017005379 0 0.028782140724229244 -0.010094046540792519 0 0.029868655588077702 -0.0093124280707521274 0 0.028259268971060833 -0.0090674951916598062 0 0.028071065258106404 -0.0076626468679980037 0 0.031303264798122898 -0.0086434677563231952 0 0.030218393238225068 -0.0092392373617142896 0 0.032163847112126102 -0.0095901651472999495 0 0.030860386457542695 -0.0091449890262137821 0 0.031378048131507574 -0.010359324017005379 0 0.030218393238225068 -0.0092392373617142896 0 0.028383315471424812 -0.01022871174997369 0 0.029868655588077702 -0.0093124280707521274 0 0.028259268971060833 -0.0090674951916598062 0 0.027840685726211869 -0.010317957690926314 0 0.031378048131507574 -0.010359324017005379 0 0.030971927864652898 -0.011602427091116592 0 0.028782140724229244 -0.010094046540792519 0 0.032097825455058952 -0.012098243136365953 0 0.03235127806214029 -0.011073190591521832 0 0.030971927864652898 -0.011602427091116592 0 0.03235127806214029 -0.011073190591521832 0 0.031378048131507574 -0.010359324017005379 0 0.030971927864652898 -0.011602427091116592 0 0.031465795683022837 -0.012717780805073891 0 0.032097825455058952 -0.012098243136365953 0 0.030971927864652898 -0.011602427091116592 0 0.031465795683022837 -0.012717780805073891 0 0.030971927864652898 -0.011602427091116592 0 0.030654121546173026 -0.012366390414919767 0 0.030971927864652898 -0.011602427091116592 0 0.030654121546173026 -0.012366390414919767 0 0.03018619794403302 -0.01207005273971986 0 0.030100045346916834 -0.010709322913866941 0 0.029782828074817944 -0.010335984766274394 0 0.030168915615337837 -0.012495742063433147 0 0.030654121546173026 -0.012366390414919767 0 0.03018619794403302 -0.01207005273971986 0 0.030971927864652898 -0.011602427091116592 0 0.02835295776695412 -0.012334436995183584 0 0.028782140724229244 -0.010094046540792519 0 0.02835295776695412 -0.012334436995183584 0 0.026073168831689669 -0.011435577323591333 0 0.028782140724229244 -0.010094046540792519 0 0.027214824729959761 -0.010869009187717091 0 0.028383315471424812 -0.01022871174997369 0 0.029962931876780289 -0.012453080491927317 0 0.03018619794403302 -0.01207005273971986 0 0.029677030779951406 -0.012259339520442315 0 0.02835295776695412 -0.012334436995183584 0 0.025496858777923515 -0.0129022712224396 0 0.026073168831689669 -0.011435577323591333 0 0.029962931876780289 -0.012453080491927317 0 0.030168915615337837 -0.012495742063433147 0 0.03018619794403302 -0.01207005273971986 0 0.029782828074817944 -0.010335984766274394 0 0.033336113180839975 -0.0078100182345571482 0 0.029651472488672708 -0.0044828697296928569 0 0.030461755840942961 -0.0049800363099755957 0 0.029877614077510745 -0.0055668007712371056 0 0.029651472488672708 -0.0044828697296928569 0 0.030801588185406525 -0.0042213162097593671 0 0.030461755840942961 -0.0049800363099755957 0 0.033336113180839975 -0.0078100182345571482 0 0.035408924816438599 -0.0043899447946324057 0 0.030461755840942961 -0.0049800363099755957 0 0.030721170270307952 -0.0057612935391216933 0 0.029877614077510745 -0.0055668007712371056 0 0.025496858777923515 -0.0129022712224396 0 0.025169642306884888 -0.010985852680479033 0 0.026073168831689669 -0.011435577323591333 0 0.025169642306884888 -0.010985852680479033 0 0.026073168831689669 -0.011435577323591333 0 0.026192343708885464 -0.0099705042662520151 0 0.033336113180839975 -0.0078100182345571482 0 0.029816387400062219 -0.0073789935379318964 0 0.025169642306884888 -0.010985852680479033 0 0.024812251326126813 -0.0094391448314118907 0 0.026192343708885464 -0.0099705042662520151 0 0.024812251326126813 -0.0094391448314118907 0 0.026192343708885464 -0.0099705042662520151 0 0.025972554413435749 -0.0075881303403267757 0 0.029816387400062219 -0.0073789935379318964 0 0.027046188310882319 -0.0059289546366024177 0 0.030721170270307952 -0.0057612935391216933 0 0.029877614077510745 -0.0055668007712371056 0 0.030102334202235868 -0.0066519103491094345 0 0.027851464278655518 -0.0045503732549223349 0 0.027046188310882319 -0.0059289546366024177 0 0.020443032653935701 -0.00042218003673312991 0 0.020000347442516019 -0.0010853464352672288 0 0.020707088907639472 -0.00096864663806569043 0 0.027046188310882319 -0.0059289546366024177 0 0.023263821769015758 -0.0038708344377743177 0 0.020000347442516019 -0.0010853464352672288 0 0.020795027365819122 -0.0016070380433443638 0 0.020236271594128632 -0.0021716361942384311 0 0.020000347442516019 -0.0010853464352672288 0 0.020707088907639472 -0.00096864663806569043 0 0.020795027365819122 -0.0016070380433443638 0 0.027046188310882319 -0.0059289546366024177 0 0.026508701111289265 -0.0065239953336685124 0 0.02728105827465608 -0.0089384505233593373 0 0.026192343708885464 -0.0099705042662520151 0 0.025972554413435749 -0.0075881303403267757 0 0.028259268971060833 -0.0090674951916598062 0 0.02728105827465608 -0.0089384505233593373 0 0.028071065258106404 -0.0076626468679980037 0 0.028259268971060833 -0.0090674951916598062 0 0.02728105827465608 -0.0089384505233593373 0 0.027840685726211869 -0.010317957690926314 0 0.026073168831689669 -0.011435577323591333 0 0.027840685726211869 -0.010317957690926314 0 0.026192343708885464 -0.0099705042662520151 0 0.02728105827465608 -0.0089384505233593373 0 0.027840685726211869 -0.010317957690926314 0 0.026192343708885464 -0.0099705042662520151 0 0.022520903857902466 0.00030086319144578968 0 0.02203801474554647 -0.00017039119539596855 0 0.02278941843434483 -0.00025784414084896028 0 0.022923796331177318 0.0001376977959210464 0 0.022520903857902466 0.00030086319144578968 0 0.02278941843434483 -0.00025784414084896028 0 0.022984963571560213 0.00062845007887177284 0 0.022923796331177318 0.0001376977959210464 0 0.022520903857902466 0.00030086319144578968 0 0.022984963571560213 0.00062845007887177284 0 0.022520903857902466 0.00030086319144578968 0 0.02267373766878493 0.00082316884382256617 0 0.02308589048270945 0.00121684864265208 0 0.022984963571560213 0.00062845007887177284 0 0.02267373766878493 0.00082316884382256617 0 0.0224068504746151 0.00097537501619166921 0 0.02267373766878493 0.00082316884382256617 0 0.022355313152263655 0.00070805572920648271 0 0.022520903857902466 0.00030086319144578968 0 0.02267373766878493 0.00082316884382256617 0 0.022355313152263655 0.00070805572920648271 0 0.022520903857902466 0.00030086319144578968 0 0.022355313152263655 0.00070805572920648271 0 0.022028868279686028 0.00051639565696602098 0 0.022355313152263655 0.00070805572920648271 0 0.022144963402062699 0.0009139392253735987 0 0.022028868279686028 0.00051639565696602098 0 0.0224068504746151 0.00097537501619166921 0 0.022355313152263655 0.00070805572920648271 0 0.022144963402062699 0.0009139392253735987 0 0.022144963402062699 0.0009139392253735987 0 0.02187387675277612 0.00087533273803033155 0 0.022028868279686028 0.00051639565696602098 0 0.02187387675277612 0.00087533273803033155 0 0.022028868279686028 0.00051639565696602098 0 0.021547228596397756 0.00063823359128719855 0 0.022028868279686028 0.00051639565696602098 0 0.02203801474554647 -0.00017039119539596855 0 0.021594950263202205 0.00023654889000934809 0 0.022520903857902466 0.00030086319144578968 0 0.022028868279686028 0.00051639565696602098 0 0.02203801474554647 -0.00017039119539596855 0 0.0216496938341178 -0.00051829703373085961 0 0.020977086714410089 -9.1350733915320997e-05 0 0.021159155228980556 -0.00079668558688515093 0 0.02203801474554647 -0.00017039119539596855 0 0.021594950263202205 0.00023654889000934809 0 0.020977086714410089 -9.1350733915320997e-05 0 0.021828215849816521 -0.0002790903379373971 0 0.021411367591250622 -0.00016737697331887697 0 0.021594950263202205 0.00023654889000934809 0 0.021249832416140452 0.0002630019454469524 0 0.020977086714410089 -9.1350733915320997e-05 0 0.033065384680362124 -0.0023326151372844751 0 0.029529912030357361 -0.0036408948522398039 0 0.022028868279686028 0.00051639565696602098 0 0.021594950263202205 0.00023654889000934809 0 0.021547228596397756 0.00063823359128719855 0 0.0214434059074044 0.0010848519691257158 0 0.021547228596397756 0.00063823359128719855 0 0.020929816204426608 0.00035206323985969141 0 0.021684245321571208 0.001130673685899129 0 0.02187387675277612 0.00087533273803033155 0 0.021547228596397756 0.00063823359128719855 0 0.021547228596397756 0.00063823359128719855 0 0.021249832416140452 0.0002630019454469524 0 0.020929816204426608 0.00035206323985969141 0 0.021594950263202205 0.00023654889000934809 0 0.021547228596397756 0.00063823359128719855 0 0.021249832416140452 0.0002630019454469524 0 0.031961947468152417 -0.0039576795870511052 0 0.030801588185406525 -0.0042213162097593671 0 0.031341617650425174 -0.0048651633636337451 0 0.030801588185406525 -0.0042213162097593671 0 0.030461755840942961 -0.0049800363099755957 0 0.031341617650425174 -0.0048651633636337451 0 0.027851464278655518 -0.0045503732549223349 0 0.029529912030357361 -0.0036408948522398039 0 0.020443032653935701 -0.00042218003673312991 0 0.020929816204426608 0.00035206323985969141 0 0.020977086714410089 -9.1350733915320997e-05 0 0.030461755840942961 -0.0049800363099755957 0 0.030721170270307952 -0.0057612935391216933 0 0.031341617650425174 -0.0048651633636337451 0 0.021249832416140452 0.0002630019454469524 0 0.020929816204426608 0.00035206323985969141 0 0.020977086714410089 -9.1350733915320997e-05 0 0.020443032653935701 -0.00042218003673312991 0 0.020977086714410089 -9.1350733915320997e-05 0 0.020823412625323192 -0.0005768296229108832 0 0.020977086714410089 -9.1350733915320997e-05 0 0.020823412625323192 -0.0005768296229108832 0 0.021159155228980556 -0.00079668558688515093 0 0.020443032653935701 -0.00042218003673312991 0 0.020823412625323192 -0.0005768296229108832 0 0.020707088907639472 -0.00096864663806569043 0 0.020823412625323192 -0.0005768296229108832 0 0.020707088907639472 -0.00096864663806569043 0 0.021159155228980556 -0.00079668558688515093 0 0.020707088907639472 -0.00096864663806569043 0 0.021113287078907805 -0.0012436161494463365 0 0.021159155228980556 -0.00079668558688515093 0 0.020707088907639472 -0.00096864663806569043 0 0.020795027365819122 -0.0016070380433443638 0 0.021113287078907805 -0.0012436161494463365 0 0.020795027365819122 -0.0016070380433443638 0 0.021113287078907805 -0.0012436161494463365 0 0.021273674009011884 -0.0016956889343201968 0 0.021113287078907805 -0.0012436161494463365 0 0.021482778925177873 -0.0011944715670338269 0 0.021159155228980556 -0.00079668558688515093 0 0.021113287078907805 -0.0012436161494463365 0 0.021482778925177873 -0.0011944715670338269 0 0.021273674009011884 -0.0016956889343201968 0 0.021482778925177873 -0.0011944715670338269 0 0.021457657831304152 -0.0016421966411628965 0 0.021273674009011884 -0.0016956889343201968 0 0.0216496938341178 -0.00051829703373085961 0 0.021482778925177873 -0.0011944715670338269 0 0.021159155228980556 -0.00079668558688515093 0 0.0216496938341178 -0.00051829703373085961 0 0.021482778925177873 -0.0011944715670338269 0 0.021850890639784522 -0.00093757096329060102 0 0.021482778925177873 -0.0011944715670338269 0 0.021763324015438849 -0.0014402567486877231 0 0.021457657831304152 -0.0016421966411628965 0 0.021482778925177873 -0.0011944715670338269 0 0.021850890639784522 -0.00093757096329060102 0 0.021763324015438849 -0.0014402567486877231 0 0.022432826196768094 -0.001121675394112645 0 0.021850890639784522 -0.00093757096329060102 0 0.021763324015438849 -0.0014402567486877231 0 0.022432826196768094 -0.001121675394112645 0 0.021850890639784522 -0.00093757096329060102 0 0.022204961513810056 -0.00059051687768318917 0 0.021828215849816521 -0.0002790903379373971 0 0.022478065029555832 -0.00043616638403681557 0 0.0216496938341178 -0.00051829703373085961 0 0.021850890639784522 -0.00093757096329060102 0 0.022204961513810056 -0.00059051687768318917 0 0.022457032317311106 -0.0020373231199273794 0 0.021763324015438849 -0.0014402567486877231 0 0.02149306434902409 -0.0022025279296212425 0 0.022457032317311106 -0.0020373231199273794 0 0.0218278554721195 -0.0026125725630529797 0 0.02149306434902409 -0.0022025279296212425 0 0.021575801556067069 -0.0018806800315289537 0 0.021522426014680924 -0.0021597277805660187 0 0.021763324015438849 -0.0014402567486877231 0 0.021457657831304152 -0.0016421966411628965 0 0.021657317982668886 -0.0021160642067322871 0 0.021657317982668886 -0.0021160642067322871 0 0.021335769361706763 -0.0019890310287219706 0 0.021261031555747156 -0.0024078286332824129 0 0.021457657831304152 -0.0016421966411628965 0 0.021657317982668886 -0.0021160642067322871 0 0.021335769361706763 -0.0019890310287219706 0 0.021335769361706763 -0.0019890310287219706 0 0.021057293076754833 -0.0021951564390959221 0 0.021261031555747156 -0.0024078286332824129 0 0.021335769361706763 -0.0019890310287219706 0 0.021273674009011884 -0.0016956889343201968 0 0.021057293076754833 -0.0021951564390959221 0 0.021457657831304152 -0.0016421966411628965 0 0.021335769361706763 -0.0019890310287219706 0 0.021273674009011884 -0.0016956889343201968 0 0.021273674009011884 -0.0016956889343201968 0 0.020873102826611541 -0.0025868570969553063 0 0.021130669112517351 -0.0037094337710240053 0 0.020795027365819122 -0.0016070380433443638 0 0.021273674009011884 -0.0016956889343201968 0 0.020873102826611541 -0.0025868570969553063 0 0.020795027365819122 -0.0016070380433443638 0 0.020873102826611541 -0.0025868570969553063 0 0.020127203497622832 -0.0025881084675004012 0 0.020873102826611541 -0.0025868570969553063 0 0.020850810527403806 -0.0032503271836261914 0 0.020127203497622832 -0.0025881084675004012 0 0.021209312383720154 -0.0023459883186223462 0 0.021142383587124169 -0.0027162765603015045 0 0.020873102826611541 -0.0025868570969553063 0 0.020850810527403806 -0.0032503271836261914 0 0.021130669112517351 -0.0037094337710240053 0 0.020850810527403806 -0.0032503271836261914 0 0.021130669112517351 -0.0037094337710240053 0 0.020956224164686964 -0.0038182162316021521 0 0.021130669112517351 -0.0037094337710240053 0 0.020995128273984049 -0.0033719247124623509 0 0.020956224164686964 -0.0038182162316021521 0 0.021057293076754833 -0.0021951564390959221 0 0.021073851439607005 -0.0026824759502587208 0 0.021261031555747156 -0.0024078286332824129 0 0.021142383587124169 -0.0027162765603015045 0 0.021155957531102429 -0.0028102185470215936 0 0.021073851439607005 -0.0026824759502587208 0 0.021261031555747156 -0.0024078286332824129 0 0.021194278281770788 -0.0026769083756215664 0 0.021657317982668886 -0.0021160642067322871 0 0.021261031555747156 -0.0024078286332824129 0 0.021448091520009194 -0.0025565690523255804 0 0.021522426014680924 -0.0021597277805660187 0 0.02143213294837288 -0.0025269353386668282 0 0.021261031555747156 -0.0024078286332824129 0 0.021448091520009194 -0.0025565690523255804 0 0.021194278281770788 -0.0026769083756215664 0 0.0218278554721195 -0.0026125725630529797 0 0.021344291102185012 -0.0027997896853723301 0 0.021455626171883343 -0.002920647208467647 0 0.0218278554721195 -0.0026125725630529797 0 0.02149306434902409 -0.0022025279296212425 0 0.021344291102185012 -0.0027997896853723301 0 0.026449511857923148 -0.0061568388246715615 0 0.026303228683318886 -0.0050585732889231339 0 0.027322455323936966 -0.0049390252262256594 0 0.028071065258106404 -0.0076626468679980037 0 0.025972554413435749 -0.0075881303403267757 0 0.027138940930916417 -0.0056051576442127677 0 0.026508701111289265 -0.0065239953336685124 0 0.02726047649215986 -0.0053102271947956352 0 0.028406102979540673 -0.006401075604919375 0 0.029089547628938481 -0.005509015931062353 0 0.027138940930916417 -0.0056051576442127677 0 0.028406102979540673 -0.006401075604919375 0 0.028071065258106404 -0.0076626468679980037 0 0.027138940930916417 -0.0056051576442127677 0 0.02728105827465608 -0.0089384505233593373 0 0.028071065258106404 -0.0076626468679980037 0 0.025972554413435749 -0.0075881303403267757 0 0.02563518957606838 -0.0073394720883987524 0 0.026449511857923148 -0.0061568388246715615 0 0.025341808687026787 -0.0060230035649303792 0 0.022795880351339483 -0.003665828486528579 0 0.023263821769015758 -0.0038708344377743177 0 0.020850810527403806 -0.0032503271836261914 0 0.020127203497622832 -0.0025881084675004012 0 0.020956224164686964 -0.0038182162316021521 0 0.023263821769015758 -0.0038708344377743177 0 0.022861996129351581 -0.0035908777467059368 0 0.021121151715632253 -0.0046003650072011923 0 0.020956224164686964 -0.0038182162316021521 0 0.02187446860684595 -0.0040752157512786904 0 0.026449511857923148 -0.0061568388246715615 0 0.025341808687026787 -0.0060230035649303792 0 0.026303228683318886 -0.0050585732889231339 0 0.023263821769015758 -0.0038708344377743177 0 0.024051485662441686 -0.0041181561445644988 0 0.02187446860684595 -0.0040752157512786904 0 0.021477806781742815 -0.003644369865367533 0 0.022027318938764633 -0.0036752231470241086 0 0.020956224164686964 -0.0038182162316021521 0 0.02187446860684595 -0.0040752157512786904 0 0.021477806781742815 -0.003644369865367533 0 0.020995128273984049 -0.0033719247124623509 0 0.020956224164686964 -0.0038182162316021521 0 0.021477806781742815 -0.003644369865367533 0 0.020995128273984049 -0.0033719247124623509 0 0.021477806781742815 -0.003644369865367533 0 0.021681632767852864 -0.0032163988840656741 0 0.021477806781742815 -0.003644369865367533 0 0.022027318938764633 -0.0036752231470241086 0 0.021681632767852864 -0.0032163988840656741 0 0.022027318938764633 -0.0036752231470241086 0 0.022252305431924413 -0.0032643038795588737 0 0.021681632767852864 -0.0032163988840656741 0 0.022027318938764633 -0.0036752231470241086 0 0.022833324987350731 -0.0039554601300810068 0 0.022252305431924413 -0.0032643038795588737 0 0.024051485662441686 -0.0041181561445644988 0 0.02526632862733609 -0.0035743384882547307 0 0.026303228683318886 -0.0050585732889231339 0 0.027331369452619381 -0.0040090353896745064 0 0.027322455323936966 -0.0049390252262256594 0 0.02187446860684595 -0.0040752157512786904 0 0.022027318938764633 -0.0036752231470241086 0 0.022833324987350731 -0.0039554601300810068 0 0.027813518201768604 -0.0044546586423389253 0 0.02726047649215986 -0.0053102271947956352 0 0.029057297405365026 -0.0043858189432043294 0 0.028301931852100087 -0.003580389234770076 0 0.027138940930916417 -0.0056051576442127677 0 0.02526632862733609 -0.0035743384882547307 0 0.026753903026742479 -0.0025644867028664889 0 0.028301931852100087 -0.003580389234770076 0 0.027331369452619381 -0.0040090353896745064 0 0.028460711986997327 -0.0028273102763128424 0 0.028301931852100087 -0.003580389234770076 0 0.027331369452619381 -0.0040090353896745064 0 0.027322455323936966 -0.0049390252262256594 0 0.022833324987350731 -0.0039554601300810068 0 0.023796517330559777 -0.0030780478566546717 0 0.022826984036058005 -0.0028531052170615934 0 0.022833324987350731 -0.0039554601300810068 0 0.023796517330559777 -0.0030780478566546717 0 0.024852570375715595 -0.0035241555068161387 0 0.023796517330559777 -0.0030780478566546717 0 0.023962928741605039 -0.0021307902147114973 0 0.022826984036058005 -0.0028531052170615934 0 0.023796517330559777 -0.0030780478566546717 0 0.023962928741605039 -0.0021307902147114973 0 0.024991462126916109 -0.0022415942417718655 0 0.023962928741605039 -0.0021307902147114973 0 0.022525604922054365 -0.0016073495067487151 0 0.025764585697156471 -0.00043929214677154471 0 0.023962928741605039 -0.0021307902147114973 0 0.022826984036058005 -0.0028531052170615934 0 0.022525604922054365 -0.0016073495067487151 0 0.022029017927624704 -0.0025458254766267652 0 0.021961575449402432 -0.0020060044077498613 0 0.022525604922054365 -0.0016073495067487151 0 0.022826984036058005 -0.0028531052170615934 0 0.022029017927624704 -0.0025458254766267652 0 0.022525604922054365 -0.0016073495067487151 0 0.022833324987350731 -0.0039554601300810068 0 0.022826984036058005 -0.0028531052170615934 0 0.022252305431924413 -0.0032643038795588737 0 0.022826984036058005 -0.0028531052170615934 0 0.022252305431924413 -0.0032643038795588737 0 0.022029017927624704 -0.0025458254766267652 0 0.021681632767852864 -0.0032163988840656741 0 0.021312625576415476 -0.0023155375892124903 0 0.022029017927624704 -0.0025458254766267652 0 0.022252305431924413 -0.0032643038795588737 0 0.021681632767852864 -0.0032163988840656741 0 0.022029017927624704 -0.0025458254766267652 0 0.020995128273984049 -0.0033719247124623509 0 0.021681632767852864 -0.0032163988840656741 0 0.021312625576415476 -0.0023155375892124903 0 0.021312625576415476 -0.0023155375892124903 0 0.022029017927624704 -0.0025458254766267652 0 0.021961575449402432 -0.0020060044077498613 0 0.021961575449402432 -0.0020060044077498613 0 0.021632509112867609 -0.0019884772941930716 0 0.022056124781505166 -0.0018658990962786735 0 0.021312625576415476 -0.0023155375892124903 0 0.021961575449402432 -0.0020060044077498613 0 0.021632509112867609 -0.0019884772941930716 0 0.021293427570150361 -0.002505530669524956 0 0.021396462041384016 -0.0022532757212473369 0 0.021632509112867609 -0.0019884772941930716 0 0.022056124781505166 -0.0018658990962786735 0 0.021952378535100531 -0.0017185206008164412 0 0.022056124781505166 -0.0018658990962786735 0 0.022148211189242505 -0.0018025294044825854 0 0.021952378535100531 -0.0017185206008164412 0 0.022056124781505166 -0.0018658990962786735 0 0.022148211189242505 -0.0018025294044825854 0 0.022213314144504708 -0.0018393945702578074 0 0.022056124781505166 -0.0018658990962786735 0 0.022213314144504708 -0.0018393945702578074 0 0.022250702441296157 -0.0018176225698245967 0 0.022213314144504708 -0.0018393945702578074 0 0.022240258582205658 -0.0018638029870313554 0 0.022254181382742679 -0.00181340152719532 0 0.022148211189242505 -0.0018025294044825854 0 0.022213314144504708 -0.0018393945702578074 0 0.022240258582205658 -0.0018638029870313554 0 0.022148211189242505 -0.0018025294044825854 0 0.022240258582205658 -0.0018638029870313554 0 0.022095229546947509 -0.0016805511675414483 0 0.0084278743380289747 -0.0072235645567861112 0 0.011215416135171805 -0.0064106246928879989 0 0.021889970444487424 -0.0022950168776344078 0 0.021935414101261982 -0.0017447265985589919 0 0.021754278381337925 -0.0020861184666096889 0 0.021889970444487424 -0.0022950168776344078 0 0.021817294199331823 -0.0023453660091595605 0 0.021754278381337925 -0.0020861184666096889 0 0.021935414101261982 -0.0017447265985589919 0 0.022525604922054365 -0.0016073495067487151 0 0.021609927169322786 -0.0015579196387372194 0 0.022240258582205658 -0.0018638029870313554 0 0.022254181382742679 -0.00181340152719532 0 0.021935414101261982 -0.0017447265985589919 0 0.022643456794533525 -0.0023209763550115043 0 0.021839691298702522 -0.0025467928350052004 0 0.022254181382742679 -0.00181340152719532 0 0.021935414101261982 -0.0017447265985589919 0 0.022525604922054365 -0.0016073495067487151 0 0.021961575449402432 -0.0020060044077498613 0 0.022525604922054365 -0.0016073495067487151 0 0.022250702441296157 -0.0018176225698245967 0 0.021961575449402432 -0.0020060044077498613 0 0.022056124781505166 -0.0018658990962786735 0 0.022250702441296157 -0.0018176225698245967 0 0.022213314144504708 -0.0018393945702578074 0 0.022254181382742679 -0.00181340152719532 0 0.022250702441296157 -0.0018176225698245967 0 0.022254181382742679 -0.00181340152719532 0 0.022525604922054365 -0.0016073495067487151 0 0.022250702441296157 -0.0018176225698245967 0 0.021317759981813754 -0.0028681138847763414 0 0.021160818417784038 -0.0028048787612734941 0 0.020909552814532224 -0.0027105878937739567 0 0.021317759981813754 -0.0028681138847763414 0 0.021045366017423073 -0.0027577739710965849 0 0.020909552814532224 -0.0027105878937739567 0 0.021344291102185012 -0.0027997896853723301 0 0.021455626171883343 -0.002920647208467647 0 0.021160818417784038 -0.0028048787612734941 0 0.021317759981813754 -0.0028681138847763414 0 0.021455626171883343 -0.002920647208467647 0 0.021160818417784038 -0.0028048787612734941 0 0.02143213294837288 -0.0025269353386668282 0 0.021381987904935302 -0.0026660801140180076 0 0.021448091520009194 -0.0025565690523255804 0 0.021160818417784038 -0.0028048787612734941 0 0.021194278281770788 -0.0026769083756215664 0 0.021160818417784038 -0.0028048787612734941 0 0.021098440346697528 -0.0027394456250586733 0 0.020909552814532224 -0.0027105878937739567 0 0.021160818417784038 -0.0028048787612734941 0 0.021098440346697528 -0.0027394456250586733 0 0.021194278281770788 -0.0026769083756215664 0 0.021073851439607005 -0.0026824759502587208 0 0.021098440346697528 -0.0027394456250586733 0 0.021194278281770788 -0.0026769083756215664 0 0.021155957531102429 -0.0028102185470215936 0 0.021293427570150361 -0.002505530669524956 0 0.021073851439607005 -0.0026824759502587208 0 0.021313561200699823 -0.0027046209029990423 0 0.021098440346697528 -0.0027394456250586733 0 0.021313561200699823 -0.0027046209029990423 0 0.021632509112867609 -0.0019884772941930716 0 0.020909506290822749 -0.0024636656576129054 0 0.021632509112867609 -0.0019884772941930716 0 0.020909506290822749 -0.0024636656576129054 0 0.021311328873773294 -0.0018755917283747228 0 0.021313561200699823 -0.0027046209029990423 0 0.021098440346697528 -0.0027394456250586733 0 0.020909506290822749 -0.0024636656576129054 0 0.020909506290822749 -0.0024636656576129054 0 0.020518013966647802 -0.002121426719330871 0 0.021311328873773294 -0.0018755917283747228 0 0.021098440346697528 -0.0027394456250586733 0 0.020909506290822749 -0.0024636656576129054 0 0.020909552814532224 -0.0027105878937739567 0 0.020909506290822749 -0.0024636656576129054 0 0.020443582012182337 -0.0025008145343427251 0 0.020909552814532224 -0.0027105878937739567 0 0.020909506290822749 -0.0024636656576129054 0 0.020443582012182337 -0.0025008145343427251 0 0.020518013966647802 -0.002121426719330871 0 0.021045366017423073 -0.0027577739710965849 0 0.020443582012182337 -0.0025008145343427251 0 0.020909552814532224 -0.0027105878937739567 0 0.018401436575424694 -0.0011166694758764867 0 0.019667804381219376 -0.0019885722593478848 0 0.019500018478227306 -0.00071946401080932052 0 0.017610023026509325 -0.0022898590370001252 0 0.018401436575424694 -0.0011166694758764867 0 0.019667804381219376 -0.0019885722593478848 0 0.017610023026509325 -0.0022898590370001252 0 0.018378159213098454 -0.0041973133209698621 0 0.019667804381219376 -0.0019885722593478848 0 0.019446655266764638 -0.0032791323603468094 0 0.0197037922360223 -0.0026629337476146973 0 0.020443582012182337 -0.0025008145343427251 0 0.019667804381219376 -0.0019885722593478848 0 0.020518013966647802 -0.002121426719330871 0 0.019667804381219376 -0.0019885722593478848 0 0.020499149109320325 -0.0013608526857957289 0 0.019500018478227306 -0.00071946401080932052 0 0.019667804381219376 -0.0019885722593478848 0 0.020499149109320325 -0.0013608526857957289 0 0.020518013966647802 -0.002121426719330871 0 0.020499149109320325 -0.0013608526857957289 0 0.020518013966647802 -0.002121426719330871 0 0.021031060327150519 -0.0015695377560295317 0 0.020499149109320325 -0.0013608526857957289 0 0.021031060327150519 -0.0015695377560295317 0 0.021186234962253095 -0.0010829354560041285 0 0.020518013966647802 -0.002121426719330871 0 0.021311328873773294 -0.0018755917283747228 0 0.021031060327150519 -0.0015695377560295317 0 0.021311328873773294 -0.0018755917283747228 0 0.021474834322986434 -0.0013862344636920571 0 0.021031060327150519 -0.0015695377560295317 0 0.021474834322986434 -0.0013862344636920571 0 0.021186234962253095 -0.0010829354560041285 0 0.021654786599220488 -0.0010080167252851972 0 0.021474834322986434 -0.0013862344636920571 0 0.021031060327150519 -0.0015695377560295317 0 0.021186234962253095 -0.0010829354560041285 0 0.014904774726907998 -0.0016527170264076939 0 0.012457674796501807 -0.0048015979268242704 0 0.021186234962253095 -0.0010829354560041285 0 0.020938829296677283 -0.00022040264101138695 0 0.021654786599220488 -0.0010080167252851972 0 0.012648750519423567 0.0021229064929826165 0 0.011926650703814518 0.0022253770313211563 0 0.012923622614565486 0.0017075867610392137 0 0.012648750519423567 0.0021229064929826165 0 0.012950246111040713 0.002411987363345908 0 0.012970007826639988 0.0018671670870627341 0 0.012648750519423567 0.0021229064929826165 0 0.012950246111040713 0.002411987363345908 0 0.01198393669538695 0.0024482671592377866 0 0.012950246111040713 0.002411987363345908 0 0.01198393669538695 0.0024482671592377866 0 0.011169831223797881 0.0032385925351979643 0 0.012648750519423567 0.0021229064929826165 0 0.01198393669538695 0.0024482671592377866 0 0.011926650703814518 0.0022253770313211563 0 0.011792874318561686 0.0027842079081038056 0 0.011926650703814518 0.0022253770313211563 0 0.012304135055978268 0.0031439753429884703 0 0.01198393669538695 0.0024482671592377866 0 0.011792874318561686 0.0027842079081038056 0 0.011926650703814518 0.0022253770313211563 0 0.01198393669538695 0.0024482671592377866 0 0.011792874318561686 0.0027842079081038056 0 0.011169831223797881 0.0032385925351979643 0 0.020499149109320325 -0.0013608526857957289 0 0.020938829296677283 -0.00022040264101138695 0 0.019500018478227306 -0.00071946401080932052 0 0.020499149109320325 -0.0013608526857957289 0 0.021186234962253095 -0.0010829354560041285 0 0.020938829296677283 -0.00022040264101138695 0 0.020938829296677283 -0.00022040264101138695 0 0.019500018478227306 -0.00071946401080932052 0 0.019134148478331146 0.001178225260254227 0 0.014904774726907998 -0.0016527170264076939 0 0.014964434041367061 0.0002332541087711912 0 0.011792874318561686 0.0027842079081038056 0 0.012304135055978268 0.0031439753429884703 0 0.01202049055439741 0.0027686583273296168 0 0.012304135055978268 0.0031439753429884703 0 0.013411411314879182 0.0027377949370913078 0 0.014101232478872898 0.002796715599408953 0 0.014964434041367061 0.0002332541087711912 0 0.014529992647646917 0.00095125052296414253 0 0.015713191764667633 0.0011183250416828424 0 0.019134148478331146 0.001178225260254227 0 0.017922917054331716 -0.0002161272909157458 0 0.015713191764667633 0.0011183250416828424 0 0.019134148478331146 0.001178225260254227 0 0.014101232478872898 0.002796715599408953 0 0.019500018478227306 -0.00071946401080932052 0 0.019134148478331146 0.001178225260254227 0 0.017922917054331716 -0.0002161272909157458 0 0.017291153009587518 -0.00070519453522909891 0 0.018401436575424694 -0.0011166694758764867 0 0.017922917054331716 -0.0002161272909157458 0 0.018401436575424694 -0.0011166694758764867 0 0.019500018478227306 -0.00071946401080932052 0 0.017922917054331716 -0.0002161272909157458 0 -0.024141174329263528 -0.032541866626273307 0 -0.024279039301386942 -0.026398903321189989 0 -0.019762366269254872 -0.022484811987074391 0 -0.024141174329263528 -0.032541866626273307 0 -0.024279039301386942 -0.026398903321189989 0 -0.027668604274066099 -0.025251398595724246 0 -0.023655927970450609 -0.033750977093008054 0 -0.026333562250362846 -0.030804576454456209 0 -0.02750330401548462 -0.025886112958977189 0 -0.007723635327577757 -0.0067830304300104368 0 -0.0069533315648467545 -0.0064993538330231403 0 -0.0067763110549935134 -0.0045848505748565787 0 -0.0030427005855719162 -0.0086674543898667428 0 -0.0099146086358849195 -0.014344419392013129 0 -0.0030427005855719162 -0.0086674543898667428 0 -0.018809109701729096 -0.011752787239144696 0 -0.0030427005855719162 -0.0086674543898667428 0 -0.00054940647782342699 -0.0084731062989198969 0 0.022166003758007324 -0.0015093527165539941 0 0.022017836925191877 -0.0015449198257488964 0 0.022040527844825162 -0.0013622256877242748 0 -0.023655927970450609 -0.033750977093008054 0 -0.026333562250362846 -0.030804576454456209 0 -0.028203392410222072 -0.03009014661975323 0 -0.026333562250362846 -0.030804576454456209 0 -0.028220358531078637 -0.030107767462958679 0 -0.02750330401548462 -0.025886112958977189 0 -0.0010617845356401894 -0.0085039023897217035 0 -0.00054940647782342699 -0.0084731062989198969 0 -0.0061170804521821671 -0.0061170468771351415 0 -0.0069533315648467545 -0.0064993538330231403 0 -0.0067763110549935134 -0.0045848505748565787 0 -0.0061170804521821671 -0.0061170468771351415 0 -0.0058733644455029087 -0.0052705422709191868 0 -0.0054505837423892345 -0.0058420260009551164 0 -0.0061170804521821671 -0.0061170468771351415 0 -0.0062742406453256882 -0.0070901895121108591 0 -0.0050530820701667001 -0.0070162929529008619 0 -0.0061170804521821671 -0.0061170468771351415 0 -0.0069533315648467545 -0.0064993538330231403 0 -0.0062742406453256882 -0.0070901895121108591 0 -0.007723635327577757 -0.0067830304300104368 0 -0.0069533315648467545 -0.0064993538330231403 0 -0.0062742406453256882 -0.0070901895121108591 0 0.021889970444487424 -0.0022950168776344078 0 0.021802267428491531 -0.0024500806846353596 0 0.021817294199331823 -0.0023453660091595605 0 -0.0030427005855719162 -0.0086674543898667428 0 0.0050290670128463931 -0.0070967200573416218 0 -0.007723635327577757 -0.0067830304300104368 0 -0.0062742406453256882 -0.0070901895121108591 0 -0.0059109022168932993 -0.0084901062744721367 0 -0.0062742406453256882 -0.0070901895121108591 0 -0.0059109022168932993 -0.0084901062744721367 0 -0.0050530820701667001 -0.0070162929529008619 0 0.022240258582205658 -0.0018638029870313554 0 0.022115192182087167 -0.0015822800099448931 0 0.022095229546947509 -0.0016805511675414483 0 0.0084278743380289747 -0.0072235645567861112 0 -0.0030427005855719162 -0.0086674543898667428 0 -0.0030427005855719162 -0.0086674543898667428 0 -0.0010910410300086493 -0.006504515915056814 0 0.022166003758007324 -0.0015093527165539941 0 0.022095229546947509 -0.0016805511675414483 0 0.022017836925191877 -0.0015449198257488964 0 0.022148211189242505 -0.0018025294044825854 0 0.022095229546947509 -0.0016805511675414483 0 0.021952378535100531 -0.0017185206008164412 0 0.021952378535100531 -0.0017185206008164412 0 0.021676045855304447 -0.0016303506070895401 0 0.021891592051188055 -0.001510449882334325 0 0.022095229546947509 -0.0016805511675414483 0 0.021952378535100531 -0.0017185206008164412 0 0.022017836925191877 -0.0015449198257488964 0 0.021952378535100531 -0.0017185206008164412 0 0.022017836925191877 -0.0015449198257488964 0 0.021891592051188055 -0.001510449882334325 0 0.021632509112867609 -0.0019884772941930716 0 0.021311328873773294 -0.0018755917283747228 0 0.021676045855304447 -0.0016303506070895401 0 0.021632509112867609 -0.0019884772941930716 0 0.021952378535100531 -0.0017185206008164412 0 0.021676045855304447 -0.0016303506070895401 0 0.021311328873773294 -0.0018755917283747228 0 0.021474834322986434 -0.0013862344636920571 0 0.021676045855304447 -0.0016303506070895401 0 0.021474834322986434 -0.0013862344636920571 0 0.021676045855304447 -0.0016303506070895401 0 0.021765018404684838 -0.001374272842942422 0 0.021676045855304447 -0.0016303506070895401 0 0.021765018404684838 -0.001374272842942422 0 0.021891592051188055 -0.001510449882334325 0 0.021474834322986434 -0.0013862344636920571 0 0.021765018404684838 -0.001374272842942422 0 0.021654786599220488 -0.0010080167252851972 0 0.021765018404684838 -0.001374272842942422 0 0.022040527844825162 -0.0013622256877242748 0 0.021654786599220488 -0.0010080167252851972 0 -0.00054940647782342699 -0.0084731062989198969 0 0.012457674796501807 -0.0048015979268242704 0 0.021765018404684838 -0.001374272842942422 0 0.021891592051188055 -0.001510449882334325 0 0.022040527844825162 -0.0013622256877242748 0 0.022017836925191877 -0.0015449198257488964 0 0.021891592051188055 -0.001510449882334325 0 0.022040527844825162 -0.0013622256877242748 0 -0.037711064725431301 -0.021828836169780229 0 -0.031400717705981768 -0.017922530210577915 0 -0.02750330401548462 -0.025886112958977189 0 -0.012838621849954648 -0.014326935118906856 0 -0.0099146086358849195 -0.014344419392013129 0 -0.00054940647782342699 -0.0084731062989198969 0 -0.0096095723503282805 -0.0068430056506452131 0 -0.028220358531078637 -0.030107767462958679 0 -0.037711064725431301 -0.021828836169780229 0 -0.02750330401548462 -0.025886112958977189 0 0.012648750519423567 0.0021229064929826165 0 0.012970007826639988 0.0018671670870627341 0 0.012923622614565486 0.0017075867610392137 0 0.013124882642149945 0.0015289420042488996 0 0.012970007826639988 0.0018671670870627341 0 0.012923622614565486 0.0017075867610392137 0 -0.037711064725431301 -0.021828836169780229 0 -0.031400717705981768 -0.017922530210577915 0 -0.038375159755377343 -0.012589318665673605 0 -0.047359664299584173 -0.013586669461673641 0 -0.037711064725431301 -0.021828836169780229 0 -0.038375159755377343 -0.012589318665673605 0 -0.016728857677487913 -0.003525039246076785 0 -0.0096095723503282805 -0.0068430056506452131 0 -0.031400717705981768 -0.017922530210577915 0 -0.02790851279239169 -0.012042462283086542 0 -0.038375159755377343 -0.012589318665673605 0 -0.025140842761861529 -0.019871183199186921 0 -0.018604730767757469 -0.020026435098402014 0 -0.02790851279239169 -0.012042462283086542 0 -0.042100649944059446 -0.016635096275179746 0 -0.049052162469091269 -0.010819529634853262 0 -0.044257574433863849 -0.0074986868463545221 0 -0.031400717705981768 -0.017922530210577915 0 -0.025140842761861529 -0.019871183199186921 0 -0.02790851279239169 -0.012042462283086542 0 -0.021064348819553436 -0.011064855640696543 0 -0.034924070374051097 -0.0076519228271262575 0 -0.025140842761861529 -0.019871183199186921 0 -0.024595492628464766 -0.023276123793131376 0 -0.027668604274066099 -0.025251398595724246 0 -0.031400717705981768 -0.017922530210577915 0 -0.025140842761861529 -0.019871183199186921 0 -0.027668604274066099 -0.025251398595724246 0 -0.025140842761861529 -0.019871183199186921 0 -0.024595492628464766 -0.023276123793131376 0 -0.019714979806980216 -0.022512655841729332 0 -0.025140842761861529 -0.019871183199186921 0 -0.019714979806980216 -0.022512655841729332 0 -0.018604730767757469 -0.020026435098402014 0 -0.020655694808943623 -0.014054606864248398 0 -0.018809109701729096 -0.011752787239144696 0 -0.024595492628464766 -0.023276123793131376 0 -0.024279039301386942 -0.026398903321189989 0 -0.019714979806980216 -0.022512655841729332 0 -0.024595492628464766 -0.023276123793131376 0 -0.024279039301386942 -0.026398903321189989 0 -0.027668604274066099 -0.025251398595724246 0 -0.0058733644455029087 -0.0052705422709191868 0 -0.0063517428883980986 -0.0042175676331385088 0 -0.0046725389781332137 -0.0055941227613945672 0 -0.0061170804521821671 -0.0061170468771351415 0 -0.0058733644455029087 -0.0052705422709191868 0 -0.0067763110549935134 -0.0045848505748565787 0 -0.019551531489753617 -0.0096859545140299489 0 -0.021380653741606838 -0.013877896863115177 0 -0.022904661312036802 -0.012590806772427732 0 -0.018809109701729096 -0.011752787239144696 0 -0.021064348819553436 -0.011064855640696543 0 -0.018809109701729096 -0.011752787239144696 0 -0.019279094040307063 -0.010856803298831392 0 -0.021064348819553436 -0.011064855640696543 0 -0.019279094040307063 -0.010856803298831392 0 -0.0058733644455029087 -0.0052705422709191868 0 -0.0067763110549935134 -0.0045848505748565787 0 -0.0063517428883980986 -0.0042175676331385088 0 -0.019877076030399714 -0.0057582637897348838 0 -0.019925462480220743 -0.0057169380334499481 0 -0.020257743504147462 -0.0060014945200607631 0 -0.019877076030399714 -0.0057582637897348838 0 -0.020257743504147462 -0.0060014945200607631 0 -0.020120562456512583 -0.0063182687709202236 0 -0.019279094040307063 -0.010856803298831392 0 -0.016636612166387996 -0.0029340776495067823 0 -0.021064348819553436 -0.011064855640696543 0 -0.022237212074356638 -0.0060959985141232397 0 0.0014202622943882467 0.0088159161154419928 0 0.002601500906356055 0.0089223248144498449 0 0.0021421100737099583 0.0068387427557352479 0 -0.0064903176731695824 -0.0041341227319866246 0 -0.0050398373525586742 -0.0028772959005898754 0 -0.0051146552716730053 -0.004310057920024403 0 0.002601500906356055 0.0089223248144498449 0 0.0033049342045029244 0.0080136361500092613 0 0.0044569992165446864 0.0096099096323452472 0 0.0014202622943882467 0.0088159161154419928 0 0.002601500906356055 0.0089223248144498449 0 0.0028360697101130618 0.0099338867094146306 0 0.002601500906356055 0.0089223248144498449 0 0.0033049342045029244 0.0080136361500092613 0 0.0021421100737099583 0.0068387427557352479 0 0.0033049342045029244 0.0080136361500092613 0 0.0035636944086398625 0.0068074628942701382 0 0.0021421100737099583 0.0068387427557352479 0 -0.0050398373525586742 -0.0028772959005898754 0 -0.0040294679153867969 -0.005142785803429222 0 -0.0051146552716730053 -0.004310057920024403 0 -0.0064903176731695824 -0.0041341227319866246 0 -0.0051146552716730053 -0.004310057920024403 0 -0.0046725389781332137 -0.0055941227613945672 0 -0.0040294679153867969 -0.005142785803429222 0 -0.0051146552716730053 -0.004310057920024403 0 -0.0046725389781332137 -0.0055941227613945672 0 -0.016636612166387996 -0.0029340776495067823 0 -0.0073657358652157367 -0.0020122455813969794 0 -0.019279094040307063 -0.010856803298831392 0 -0.014863650882999332 -0.011402730969745796 0 0.0068197464962126818 0.0092210887094353843 0 0.0051619448093108795 0.0084679609476547325 0 0.0066427738338807199 0.0077393246043258824 0 0.0068197464962126818 0.0092210887094353843 0 0.0051619448093108795 0.0084679609476547325 0 0.0052906688477632139 0.0098185528163715913 0 0.0033049342045029244 0.0080136361500092613 0 0.0051619448093108795 0.0084679609476547325 0 0.0052846822067066403 0.010352677721256915 0 -0.00085742210712491575 0.0099810765907373759 0 -0.0041219075217729748 0.0081870501400968954 0 -0.0031789072521182242 0.0086049074373955783 0 -0.0041219075217729748 0.0081870501400968954 0 0.0035636944086398625 0.0068074628942701382 0 0.0051619448093108795 0.0084679609476547325 0 0.0050146485059103388 0.0063278378766161939 0 0.0033049342045029244 0.0080136361500092613 0 0.0035636944086398625 0.0068074628942701382 0 0.0051619448093108795 0.0084679609476547325 0 0.0066427738338807199 0.0077393246043258824 0 0.0065476724347954315 0.0064631557652741374 0 0.0078337832234588838 0.0069171403542533086 0 0.0066427738338807199 0.0077393246043258824 0 0.0065476724347954315 0.0064631557652741374 0 0.0050146485059103388 0.0063278378766161939 0 0.0051619448093108795 0.0084679609476547325 0 0.0066427738338807199 0.0077393246043258824 0 0.0050146485059103388 0.0063278378766161939 0 0.0071434474447268645 0.0049805333302727559 0 0.0050146485059103388 0.0063278378766161939 0 0.0051018074378828254 0.0033601389456575197 0 0.0071434474447268645 0.0049805333302727559 0 0.0065476724347954315 0.0064631557652741374 0 0.0078337832234588838 0.0069171403542533086 0 0.0071434474447268645 0.0049805333302727559 0 0.0065476724347954315 0.0064631557652741374 0 0.0050146485059103388 0.0063278378766161939 0 0.0035636944086398625 0.0068074628942701382 0 0.0050146485059103388 0.0063278378766161939 0 0.0029347873239017322 0.0041873016683565993 0 0.0050146485059103388 0.0063278378766161939 0 0.0051018074378828254 0.0033601389456575197 0 0.0029347873239017322 0.0041873016683565993 0 0.0051018074378828254 0.0033601389456575197 0 0.0029347873239017322 0.0041873016683565993 0 0.0040234787918516637 0.00073654893450022 0 0.0071434474447268645 0.0049805333302727559 0 0.0051018074378828254 0.0033601389456575197 0 0.0076558235065030461 0.00220357984727327 0 -0.0046725389781332137 -0.0055941227613945672 0 -0.0030219351907472139 -0.0073083745586659124 0 -0.0050530820701667001 -0.0070162929529008619 0 -0.0061170804521821671 -0.0061170468771351415 0 -0.0054505837423892345 -0.0058420260009551164 0 -0.0050530820701667001 -0.0070162929529008619 0 -0.0058733644455029087 -0.0052705422709191868 0 -0.0054505837423892345 -0.0058420260009551164 0 -0.0046725389781332137 -0.0055941227613945672 0 -0.0054505837423892345 -0.0058420260009551164 0 -0.0046725389781332137 -0.0055941227613945672 0 -0.0050530820701667001 -0.0070162929529008619 0 0.0035636944086398625 0.0068074628942701382 0 0.0021421100737099583 0.0068387427557352479 0 0.0029347873239017322 0.0041873016683565993 0 -0.0073657358652157367 -0.0020122455813969794 0 -0.0014713676179577133 -0.0024254360141140381 0 -0.0040294679153867969 -0.005142785803429222 0 -0.0046725389781332137 -0.0055941227613945672 0 -0.0030219351907472139 -0.0073083745586659124 0 -0.0014713676179577133 -0.0024254360141140381 0 0.0036912541306220303 -0.0032971838413532982 0 -0.0030219351907472139 -0.0073083745586659124 0 -0.0040585439374267833 -0.0084983103611268093 0 -0.0019978236016428242 -0.0095002357261070418 0 -0.0059109022168932993 -0.0084901062744721367 0 -0.0040585439374267833 -0.0084983103611268093 0 -0.0050530820701667001 -0.0070162929529008619 0 -0.0030219351907472139 -0.0073083745586659124 0 -0.0040585439374267833 -0.0084983103611268093 0 -0.0050530820701667001 -0.0070162929529008619 0 -0.0059109022168932993 -0.0084901062744721367 0 -0.0040585439374267833 -0.0084983103611268093 0 -0.004117429171224686 -0.010091471798912515 0 0.0050290670128463931 -0.0070967200573416218 0 0.0096047935150240498 -0.0052865419905182981 0 0.021817294199331823 -0.0023453660091595605 0 0.021754278381337925 -0.0020861184666096889 0 0.021414241499034162 -0.0020553152927802985 0 0.021935414101261982 -0.0017447265985589919 0 0.021754278381337925 -0.0020861184666096889 0 0.021673611789828306 -0.0018880980692929877 0 0.021673611789828306 -0.0018880980692929877 0 0.021414241499034162 -0.0020553152927802985 0 0.021609927169322786 -0.0015579196387372194 0 0.021754278381337925 -0.0020861184666096889 0 0.021673611789828306 -0.0018880980692929877 0 0.021414241499034162 -0.0020553152927802985 0 0.021935414101261982 -0.0017447265985589919 0 0.021673611789828306 -0.0018880980692929877 0 0.021609927169322786 -0.0015579196387372194 0 -0.004117429171224686 -0.010091471798912515 0 -0.0019978236016428242 -0.0095002357261070418 0 -0.0022894874177062131 -0.011711960220934311 0 0.021414241499034162 -0.0020553152927802985 0 0.020800507227463211 -0.0015493427076608364 0 0.021609927169322786 -0.0015579196387372194 0 0.0096047935150240498 -0.0052865419905182981 0 0.015044022054003086 -0.0034183888635885848 0 -0.0040585439374267833 -0.0084983103611268093 0 -0.004117429171224686 -0.010091471798912515 0 -0.0019978236016428242 -0.0095002357261070418 0 0.0051018074378828254 0.0033601389456575197 0 0.0040234787918516637 0.00073654893450022 0 0.0076558235065030461 0.00220357984727327 0 0.0040234787918516637 0.00073654893450022 0 0.0076558235065030461 0.00220357984727327 0 0.0071041770531848122 -0.00053573021975515385 0 0.0076558235065030461 0.00220357984727327 0 0.0071041770531848122 -0.00053573021975515385 0 0.010031526981220897 0.00051914759297046805 0 0.0071041770531848122 -0.00053573021975515385 0 0.005564455884224365 -0.0030321547895129663 0 0.0083639282917864176 -0.003115851370710999 0 0.0040234787918516637 0.00073654893450022 0 0.0071041770531848122 -0.00053573021975515385 0 0.005564455884224365 -0.0030321547895129663 0 -0.0019978236016428242 -0.0095002357261070418 0 -0.0022894874177062131 -0.011711960220934311 0 -0.00097808035438718094 -0.011736953723472074 0 0.0036912541306220303 -0.0032971838413532982 0 0.010162360456436743 -0.0034591561162266192 0 0.014327984918473013 -0.0024665519098701167 0 0.014560407192396336 -0.0026352984730990368 0 0.014607381752852103 -0.0027248095140054007 0 0.014327984918473013 -0.0024665519098701167 0 0.014491138090638884 -0.0024711219579960767 0 0.014560407192396336 -0.0026352984730990368 0 0.015044022054003086 -0.0034183888635885848 0 0.010162360456436743 -0.0034591561162266192 0 0.030372361223947739 -0.00063824270476643252 0 0.03236134192731726 -0.0025781928768973937 0 0.030436420521670369 -0.0023331491003263792 0 0.015044022054003086 -0.0034183888635885848 0 0.018761375349020084 -0.0030855338815503025 0 0.010162360456436743 -0.0034591561162266192 0 0.01673302164575325 -0.00059636537750824977 0 0.01449316195633139 -0.0024932837401661729 0 0.014699460464144951 -0.0024932919537380633 0 0.014560407192396336 -0.0026352984730990368 0 0.032941679674931279 -0.0011704010133217124 0 0.032324688690189715 -0.0026460422835777112 0 0.033182954493087564 -0.0021524709046593852 0 0.014699460464144951 -0.0024932919537380633 0 0.014560407192396336 -0.0026352984730990368 0 0.014607381752852103 -0.0027248095140054007 0 0.01673302164575325 -0.00059636537750824977 0 0.018761375349020084 -0.0030855338815503025 0 0.010162360456436743 -0.0034591561162266192 0 0.010535772664772914 -0.0035482899280675582 0 0.032963666193731637 -0.0025571627113636346 0 0.032499119146328734 -0.002800146680402754 0 0.032324688690189715 -0.0026460422835777112 0 0.032963666193731637 -0.0025571627113636346 0 0.032324688690189715 -0.0026460422835777112 0 0.033182954493087564 -0.0021524709046593852 0 0.032963666193731637 -0.0025571627113636346 0 0.032499119146328734 -0.002800146680402754 0 0.032899530977767509 -0.0029791635399183032 0 0.018889602332692212 -0.0031556282911108617 0 0.018761375349020084 -0.0030855338815503025 0 0.020059501904616712 -0.0022804743578176976 0 0.018761375349020084 -0.0030855338815503025 0 0.031889911401845689 -0.0036482862796685051 0 0.03236134192731726 -0.0025781928768973937 0 0.031378922405708998 -0.0030675656469301834 0 0.031889911401845689 -0.0036482862796685051 0 0.032499119146328734 -0.002800146680402754 0 0.032316237886397321 -0.0026378529629889048 0 0.031889911401845689 -0.0036482862796685051 0 0.032763213772563998 -0.0034943686982615409 0 0.032499119146328734 -0.002800146680402754 0 0.032763213772563998 -0.0034943686982615409 0 0.032499119146328734 -0.002800146680402754 0 0.032899530977767509 -0.0029791635399183032 0 0.029978458481508683 -0.0041864725846952966 0 0.030939170644126584 -0.0036413154673517094 0 0.030436420521670369 -0.0023331491003263792 0 0.03236134192731726 -0.0025781928768973937 0 0.030436420521670369 -0.0023331491003263792 0 0.031378922405708998 -0.0030675656469301834 0 0.030939170644126584 -0.0036413154673517094 0 0.030436420521670369 -0.0023331491003263792 0 0.031378922405708998 -0.0030675656469301834 0 0.030939170644126584 -0.0036413154673517094 0 0.031889911401845689 -0.0036482862796685051 0 0.031378922405708998 -0.0030675656469301834 0 0.028983960053579789 -0.0033568302651753481 0 0.030275904104561564 -0.003905302398978155 0 0.028979507165202419 -0.0023003694174479825 0 0.029978458481508683 -0.0041864725846952966 0 0.030436420521670369 -0.0023331491003263792 0 0.028979507165202419 -0.0023003694174479825 0 0.030344690894011737 -0.0043017773427822953 0 0.029924493024623664 -0.0034826740657819969 0 0.030436420521670369 -0.0023331491003263792 0 0.028979507165202419 -0.0023003694174479825 0 0.029547027655121679 -0.0018791207999975896 0 0.028983960053579789 -0.0033568302651753481 0 0.028979507165202419 -0.0023003694174479825 0 0.028460711986997327 -0.0028273102763128424 0 0.028983960053579789 -0.0033568302651753481 0 0.028301931852100087 -0.003580389234770076 0 0.028460711986997327 -0.0028273102763128424 0 0.023796517330559777 -0.0030780478566546717 0 0.024852570375715595 -0.0035241555068161387 0 0.024991462126916109 -0.0022415942417718655 0 0.026140677258840797 -0.0018678932304822752 0 0.025764585697156471 -0.00043929214677154471 0 0.028955457156616529 -0.0011064058024513608 0 0.028979507165202419 -0.0023003694174479825 0 0.028460711986997327 -0.0028273102763128424 0 0.028955457156616529 -0.0011064058024513608 0 0.024852570375715595 -0.0035241555068161387 0 0.026140677258840797 -0.0018678932304822752 0 0.028955457156616529 -0.0011064058024513608 0 0.026753903026742479 -0.0025644867028664889 0 0.027811800518056436 -0.0016862637357314685 0 0.024852570375715595 -0.0035241555068161387 0 0.026140677258840797 -0.0018678932304822752 0 0.024991462126916109 -0.0022415942417718655 0 0.023962928741605039 -0.0021307902147114973 0 0.024991462126916109 -0.0022415942417718655 0 0.025764585697156471 -0.00043929214677154471 0 0.026140677258840797 -0.0018678932304822752 0 0.024991462126916109 -0.0022415942417718655 0 0.025764585697156471 -0.00043929214677154471 0 0.030372361223947739 -0.00063824270476643252 0 0.030436420521670369 -0.0023331491003263792 0 0.029547027655121679 -0.0018791207999975896 0 0.015044022054003086 -0.0034183888635885848 0 0.021839691298702522 -0.0025467928350052004 0 0.030372361223947739 -0.00063824270476643252 0 0.025764585697156471 -0.00043929214677154471 0 0.028955457156616529 -0.0011064058024513608 0 0.030372361223947739 -0.00063824270476643252 0 0.028955457156616529 -0.0011064058024513608 0 0.029547027655121679 -0.0018791207999975896 0 0.028979507165202419 -0.0023003694174479825 0 0.028955457156616529 -0.0011064058024513608 0 0.029547027655121679 -0.0018791207999975896 0 0.015967569934617416 0.002404072981610703 0 0.017184341923733297 0.0032369193832563667 0 0.016370797296111361 0.00027572070009985848 0 0.015967569934617416 0.002404072981610703 0 0.016370797296111361 0.00027572070009985848 0 0.014808405296533485 0.0023898393879995478 0 0.036464173838062656 -0.0025409647173726259 0 0.035121335775131997 -0.0026037709117936567 0 0.035245026190693286 -0.0016547459775076573 0 0.028075716807553448 -0.0012667586226121391 0 0.024611935356983885 -0.00031344560245598465 0 0.015967569934617416 0.002404072981610703 0 0.014808405296533485 0.0023898393879995478 0 0.015682237135654659 0.003536599328228258 0 0.015967569934617416 0.002404072981610703 0 0.017184341923733297 0.0032369193832563667 0 0.015682237135654659 0.003536599328228258 0 0.019330119283532596 0.0025359553103264289 0 0.017184341923733297 0.0032369193832563667 0 0.01859766606923292 0.0041272949759262869 0 0.019330119283532596 0.0025359553103264289 0 0.017184341923733297 0.0032369193832563667 0 0.016370797296111361 0.00027572070009985848 0 0.032901407322066013 -0.0027949563480264821 0 0.035300678856773189 -0.0029373896002409211 0 0.037584844431103812 -0.0033342629556549126 0 0.036464173838062656 -0.0025409647173726259 0 0.035737578174890462 -0.0033419193497505029 0 0.032901407322066013 -0.0027949563480264821 0 0.028075716807553448 -0.0012667586226121391 0 0.020639184853267788 -0.0041502553462568577 0 0.019330119283532596 0.0025359553103264289 0 0.016370797296111361 0.00027572070009985848 0 0.036464173838062656 -0.0025409647173726259 0 0.035737578174890462 -0.0033419193497505029 0 0.035121335775131997 -0.0026037709117936567 0 0.035737578174890462 -0.0033419193497505029 0 0.034650187220682575 -0.0031278848330244585 0 0.035121335775131997 -0.0026037709117936567 0 0.034650187220682575 -0.0031278848330244585 0 0.033946486975101227 -0.0034352990343895994 0 0.034104162025403714 -0.0027080049859257147 0 0.035121335775131997 -0.0026037709117936567 0 0.034104162025403714 -0.0027080049859257147 0 0.034631717408085065 -0.0020349277277978603 0 0.034650187220682575 -0.0031278848330244585 0 0.035121335775131997 -0.0026037709117936567 0 0.034104162025403714 -0.0027080049859257147 0 0.032763213772563998 -0.0034943686982615409 0 0.032899530977767509 -0.0029791635399183032 0 0.03336873043722708 -0.0030681181789139486 0 0.03336873043722708 -0.0030681181789139486 0 0.033946486975101227 -0.0034352990343895994 0 0.034104162025403714 -0.0027080049859257147 0 0.034104162025403714 -0.0027080049859257147 0 0.033576038933281059 -0.0025069525775963056 0 0.033916477887515784 -0.0019423699490655343 0 0.03336873043722708 -0.0030681181789139486 0 0.034104162025403714 -0.0027080049859257147 0 0.033576038933281059 -0.0025069525775963056 0 0.032963666193731637 -0.0025571627113636346 0 0.03336873043722708 -0.0030681181789139486 0 0.033576038933281059 -0.0025069525775963056 0 0.032963666193731637 -0.0025571627113636346 0 0.033576038933281059 -0.0025069525775963056 0 0.033182954493087564 -0.0021524709046593852 0 0.032963666193731637 -0.0025571627113636346 0 0.032899530977767509 -0.0029791635399183032 0 0.03336873043722708 -0.0030681181789139486 0 0.032941679674931279 -0.0011704010133217124 0 0.033916477887515784 -0.0019423699490655343 0 0.034590145423935591 -0.0011913474491372703 0 0.01673302164575325 -0.00059636537750824977 0 0.022843839986279552 9.5950899202144169e-05 0 0.033576038933281059 -0.0025069525775963056 0 0.033182954493087564 -0.0021524709046593852 0 0.033916477887515784 -0.0019423699490655343 0 0.032941679674931279 -0.0011704010133217124 0 0.033182954493087564 -0.0021524709046593852 0 0.033916477887515784 -0.0019423699490655343 0 0.035121335775131997 -0.0026037709117936567 0 0.034631717408085065 -0.0020349277277978603 0 0.035245026190693286 -0.0016547459775076573 0 0.033916477887515784 -0.0019423699490655343 0 0.034631717408085065 -0.0020349277277978603 0 0.034590145423935591 -0.0011913474491372703 0 0.034104162025403714 -0.0027080049859257147 0 0.033916477887515784 -0.0019423699490655343 0 0.034631717408085065 -0.0020349277277978603 0 0.014088623473804615 0.0030690812609626772 0 0.014808405296533485 0.0023898393879995478 0 0.014561421082083676 0.0037604738591487433 0 0.034631717408085065 -0.0020349277277978603 0 0.034590145423935591 -0.0011913474491372703 0 0.035245026190693286 -0.0016547459775076573 0 0.022843839986279552 9.5950899202144169e-05 0 0.024611935356983885 -0.00031344560245598465 0 0.014808405296533485 0.0023898393879995478 0 0.014561421082083676 0.0037604738591487433 0 0.015682237135654659 0.003536599328228258 0 0.014561421082083676 0.0037604738591487433 0 0.015082938636144436 0.0045092492734500863 0 0.015682237135654659 0.003536599328228258 0 0.014561421082083676 0.0037604738591487433 0 0.013961917866005804 0.0046275466821043927 0 0.013342545780310222 0.0036508661363703712 0 0.014088623473804615 0.0030690812609626772 0 0.014561421082083676 0.0037604738591487433 0 0.013342545780310222 0.0036508661363703712 0 0.022843839986279552 9.5950899202144169e-05 0 0.021657598208461748 0.00079918105281475587 0 0.014561421082083676 0.0037604738591487433 0 0.013961917866005804 0.0046275466821043927 0 0.015082938636144436 0.0045092492734500863 0 0.012075747319036146 0.0031100528978441231 0 0.013342545780310222 0.0036508661363703712 0 0.013020244349865765 0.0053315705550630779 0 0.012075747319036146 0.0031100528978441231 0 0.014155734252665031 0.0030917153395058745 0 0.013342545780310222 0.0036508661363703712 0 0.01673302164575325 -0.00059636537750824977 0 0.014647411103637726 0.0021133866474609751 0 0.0071041770531848122 -0.00053573021975515385 0 0.0083639282917864176 -0.003115851370710999 0 0.010031526981220897 0.00051914759297046805 0 0.013961917866005804 0.0046275466821043927 0 0.013342545780310222 0.0036508661363703712 0 0.013020244349865765 0.0053315705550630779 0 0.013961917866005804 0.0046275466821043927 0 0.013020244349865765 0.0053315705550630779 0 0.01459621791861573 0.0059755848494004553 0 0.013020244349865765 0.0053315705550630779 0 0.01459621791861573 0.0059755848494004553 0 0.013936196616361262 0.0074853239594188242 0 0.013961917866005804 0.0046275466821043927 0 0.015082938636144436 0.0045092492734500863 0 0.01459621791861573 0.0059755848494004553 0 0.015082938636144436 0.0045092492734500863 0 0.01459621791861573 0.0059755848494004553 0 0.015686632738362311 0.0056357389852195513 0 0.015686632738362311 0.0056357389852195513 0 0.016916061191171304 0.0050539535366436869 0 0.016150150213010368 0.0069292312152012371 0 0.01459621791861573 0.0059755848494004553 0 0.015686632738362311 0.0056357389852195513 0 0.016150150213010368 0.0069292312152012371 0 0.015082938636144436 0.0045092492734500863 0 0.015686632738362311 0.0056357389852195513 0 0.016916061191171304 0.0050539535366436869 0 0.015082938636144436 0.0045092492734500863 0 0.015682237135654659 0.003536599328228258 0 0.016916061191171304 0.0050539535366436869 0 0.017184341923733297 0.0032369193832563667 0 0.015682237135654659 0.003536599328228258 0 0.016916061191171304 0.0050539535366436869 0 0.017184341923733297 0.0032369193832563667 0 0.01859766606923292 0.0041272949759262869 0 0.016916061191171304 0.0050539535366436869 0 0.016916061191171304 0.0050539535366436869 0 0.01833063393592731 0.006016537283287886 0 0.016150150213010368 0.0069292312152012371 0 0.01859766606923292 0.0041272949759262869 0 0.016916061191171304 0.0050539535366436869 0 0.01833063393592731 0.006016537283287886 0 0.018319072536597591 0.0079343147067655224 0 0.01833063393592731 0.006016537283287886 0 0.016150150213010368 0.0069292312152012371 0 0.016150150213010368 0.0069292312152012371 0 0.015240834801750435 0.008206519582094297 0 0.013936196616361262 0.0074853239594188242 0 0.016150150213010368 0.0069292312152012371 0 0.016586636875202471 0.0090615151266588458 0 0.015240834801750435 0.008206519582094297 0 0.016586636875202471 0.0090615151266588458 0 0.015240834801750435 0.008206519582094297 0 0.014432948727123156 0.0094145207771591331 0 0.018319072536597591 0.0079343147067655224 0 0.016150150213010368 0.0069292312152012371 0 0.016586636875202471 0.0090615151266588458 0 0.018319072536597591 0.0079343147067655224 0 0.019027610634245695 0.0096857135103279538 0 0.016586636875202471 0.0090615151266588458 0 0.0076558235065030461 0.00220357984727327 0 0.010031526981220897 0.00051914759297046805 0 0.01216114660627704 0.0045015764490223507 0 0.0071434474447268645 0.0049805333302727559 0 0.0076558235065030461 0.00220357984727327 0 0.01216114660627704 0.0045015764490223507 0 0.014647411103637726 0.0021133866474609751 0 0.014524322754459789 0.0051370590427737371 0 0.01459621791861573 0.0059755848494004553 0 0.016150150213010368 0.0069292312152012371 0 0.013936196616361262 0.0074853239594188242 0 0.014524322754459789 0.0051370590427737371 0 0.014832654816477803 0.0068038411118922001 0 0.015240834801750435 0.008206519582094297 0 0.013936196616361262 0.0074853239594188242 0 0.014432948727123156 0.0094145207771591331 0 0.01216114660627704 0.0045015764490223507 0 0.01043900009466283 0.008999712896861408 0 0.014432948727123156 0.0094145207771591331 0 0.0085235474212278263 0.0067128715509361617 0 0.0094622414773177753 0.0078372627515858346 0 0.0071434474447268645 0.0049805333302727559 0 0.01216114660627704 0.0045015764490223507 0 0.01043900009466283 0.008999712896861408 0 0.0078337832234588838 0.0069171403542533086 0 0.0086462788629177514 0.0084165271190475878 0 0.0076729195824209069 0.0084777337538399153 0 0.0066427738338807199 0.0077393246043258824 0 0.0078337832234588838 0.0069171403542533086 0 0.0076729195824209069 0.0084777337538399153 0 0.0094622414773177753 0.0078372627515858346 0 0.011167617458756619 0.0097310991409898708 0 0.014432948727123156 0.0094145207771591331 0 0.013690302753171712 0.011840952615634798 0 0.015817190771446873 0.010304240068941661 0 0.01043900009466283 0.008999712896861408 0 0.014432948727123156 0.0094145207771591331 0 0.013690302753171712 0.011840952615634798 0 0.011167617458756619 0.0097310991409898708 0 0.012943925757284961 0.011529182913700371 0 0.0086462788629177514 0.0084165271190475878 0 0.0081901740475131633 0.0089843623083366384 0 0.0087493211354498831 0.0096661512203341342 0 0.0086462788629177514 0.0084165271190475878 0 0.0081901740475131633 0.0089843623083366384 0 0.0076729195824209069 0.0084777337538399153 0 0.0068197464962126818 0.0092210887094353843 0 0.0066427738338807199 0.0077393246043258824 0 0.0076729195824209069 0.0084777337538399153 0 0.0081901740475131633 0.0089843623083366384 0 0.0076729195824209069 0.0084777337538399153 0 0.0077072568767428276 0.009390074121297479 0 0.0068197464962126818 0.0092210887094353843 0 0.0076729195824209069 0.0084777337538399153 0 0.0077072568767428276 0.009390074121297479 0 0.019027610634245695 0.0096857135103279538 0 0.016586636875202471 0.0090615151266588458 0 0.017114118009881635 0.010907072281657696 0 0.016586636875202471 0.0090615151266588458 0 0.014432948727123156 0.0094145207771591331 0 0.015817190771446873 0.010304240068941661 0 0.016586636875202471 0.0090615151266588458 0 0.017114118009881635 0.010907072281657696 0 0.015817190771446873 0.010304240068941661 0 0.013690302753171712 0.011840952615634798 0 0.015817190771446873 0.010304240068941661 0 0.015699310153432056 0.011905117604191835 0 0.017114118009881635 0.010907072281657696 0 0.015817190771446873 0.010304240068941661 0 0.015699310153432056 0.011905117604191835 0 0.013690302753171712 0.011840952615634798 0 0.015699310153432056 0.011905117604191835 0 0.015542309652158118 0.013548786597324296 0 0.018523753553588741 0.011577532677888684 0 0.017114118009881635 0.010907072281657696 0 0.017121248506441221 0.012783446838258741 0 0.018523753553588741 0.011577532677888684 0 0.017121248506441221 0.012783446838258741 0 0.018760521527104897 0.013367699308893637 0 0.017114118009881635 0.010907072281657696 0 0.015699310153432056 0.011905117604191835 0 0.017121248506441221 0.012783446838258741 0 0.017121248506441221 0.012783446838258741 0 0.015542309652158118 0.013548786597324296 0 0.017124267360200323 0.015444712157863779 0 0.017121248506441221 0.012783446838258741 0 0.017124267360200323 0.015444712157863779 0 0.018760521527104897 0.013367699308893637 0 0.015699310153432056 0.011905117604191835 0 0.017121248506441221 0.012783446838258741 0 0.015542309652158118 0.013548786597324296 0 0.0099911956639994037 0.0099729293556886679 0 0.0097593398078771858 0.012154702156035589 0 0.0087598823331896877 0.011028628198235191 0 0.0097593398078771858 0.012154702156035589 0 0.011958959233529652 0.012297834851798715 0 0.010637092477744753 0.013977242903171806 0 0.0099911956639994037 0.0099729293556886679 0 0.0097593398078771858 0.012154702156035589 0 0.011958959233529652 0.012297834851798715 0 0.012943925757284961 0.011529182913700371 0 0.014661431528044664 0.013026499999461027 0 0.014661431528044664 0.013026499999461027 0 0.016969360316114346 0.012061757208705748 0 -0.0014991100055737545 0.0069366603059562298 0 0.0037565315786993393 0.0065543725152661016 0 0.0068197464962126818 0.0092210887094353843 0 0.0069826157634603446 0.010288406423922857 0 0.0077072568767428276 0.009390074121297479 0 0.0069826157634603446 0.010288406423922857 0 0.0077072568767428276 0.009390074121297479 0 0.0087493211354498831 0.0096661512203341342 0 0.0051082707387095439 0.010826114529222485 0 0.0087493211354498831 0.0096661512203341342 0 0.0073529936303925389 0.011138004714862908 0 0.0086462788629177514 0.0084165271190475878 0 0.0099911956639994037 0.0099729293556886679 0 0.0087493211354498831 0.0096661512203341342 0 0.0081901740475131633 0.0089843623083366384 0 0.0077072568767428276 0.009390074121297479 0 0.0087493211354498831 0.0096661512203341342 0 0.0087493211354498831 0.0096661512203341342 0 0.0087598823331896877 0.011028628198235191 0 0.0073529936303925389 0.011138004714862908 0 0.0099911956639994037 0.0099729293556886679 0 0.0087493211354498831 0.0096661512203341342 0 0.0087598823331896877 0.011028628198235191 0 0.0097593398078771858 0.012154702156035589 0 0.0087598823331896877 0.011028628198235191 0 0.0080803533806461415 0.012338324690020493 0 0.0097593398078771858 0.012154702156035589 0 0.0080803533806461415 0.012338324690020493 0 0.0085684925032743688 0.013962948073256782 0 0.0087598823331896877 0.011028628198235191 0 0.0080803533806461415 0.012338324690020493 0 0.0073529936303925389 0.011138004714862908 0 0.0080803533806461415 0.012338324690020493 0 0.0073529936303925389 0.011138004714862908 0 0.0061020361938424351 0.011802608672672521 0 0.0051082707387095439 0.010826114529222485 0 0.0073529936303925389 0.011138004714862908 0 0.0061020361938424351 0.011802608672672521 0 0.0051082707387095439 0.010826114529222485 0 0.0061020361938424351 0.011802608672672521 0 0.005406660378534032 0.012950607428310603 0 -0.0014991100055737545 0.0069366603059562298 0 -0.0036682237502319464 0.0074739568638364333 0 0.0061020361938424351 0.011802608672672521 0 0.005406660378534032 0.012950607428310603 0 0.0070405504215880002 0.013242053734463468 0 0.0080803533806461415 0.012338324690020493 0 0.0061020361938424351 0.011802608672672521 0 0.0070405504215880002 0.013242053734463468 0 0.005406660378534032 0.012950607428310603 0 0.0070405504215880002 0.013242053734463468 0 0.0070683954572587689 0.015150787921675041 0 -0.0036682237502319464 0.0074739568638364333 0 -0.0077147298256810019 0.0063764287704472615 0 -0.0070126694919707515 0.0058215206611669798 0 -0.0070987029359800124 0.0051451282448872039 0 -0.0066513811150599317 0.0059299619303884617 0 -0.012158269060013027 -0.0050691544134189659 0 -0.005131154539334634 0.0033672374773682746 0 -0.011011105826232645 0.0037650497087769303 0 -0.0036682237502319464 0.0074739568638364333 0 0.00022046341385766838 0.010680347435411949 0 0.0085684925032743688 0.013962948073256782 0 0.0070683954572587689 0.015150787921675041 0 0.0092258590573049866 0.015730114088170773 0 0.0070405504215880002 0.013242053734463468 0 0.0085684925032743688 0.013962948073256782 0 0.0070683954572587689 0.015150787921675041 0 0.0080803533806461415 0.012338324690020493 0 0.0070405504215880002 0.013242053734463468 0 0.0085684925032743688 0.013962948073256782 0 -0.0024722311198277823 0.011220220624006176 0 -0.005131154539334634 0.0033672374773682746 0 0.0022438711608350815 0.012100351613636842 0 0.00022046341385766838 0.010680347435411949 0 0.0042183340805511949 0.014942707268150918 0 0.0070683954572587689 0.015150787921675041 0 0.0092258590573049866 0.015730114088170773 0 0.0087238665504792094 0.017882636120737237 0 -0.0027500223996250735 0.011035703569568437 0 -0.011772684276171962 0.0032267635083187214 0 -0.010043654019553407 0.01652235506376008 0 -0.0077147298256810019 0.0063764287704472615 0 -0.0084698573529011171 0.014780774767555177 0 -0.0030509317926742333 0.010577118175903615 0 -0.0077147298256810019 0.0063764287704472615 0 -0.0024722311198277823 0.011220220624006176 0 -0.005131154539334634 0.0033672374773682746 0 -0.011011105826232645 0.0037650497087769303 0 -0.013769227422721094 0.0016036097954126873 0 -0.011864353422924757 0.014705979107541373 0 -0.018504566692775146 0.0085215668234993585 0 0.013605432827286677 0.013886981879815697 0 0.011254583424330163 0.013300990854869545 0 0.011662994490134158 0.015829473898790893 0 0.013605432827286677 0.013886981879815697 0 0.015166953182653284 0.0149962519519068 0 0.016190895927232461 0.014089709789435615 0 0.014661431528044664 0.013026499999461027 0 0.014956464885314933 0.013271895171891793 0 0.013456300131534362 0.010499413982843901 0 0.013605432827286677 0.013886981879815697 0 0.016190895927232461 0.014089709789435615 0 0.013456300131534362 0.010499413982843901 0 0.013605432827286677 0.013886981879815697 0 0.011254583424330163 0.013300990854869545 0 0.014661431528044664 0.013026499999461027 0 0.01303133240007695 0.01408392548467007 0 0.0097593398078771858 0.012154702156035589 0 0.0085684925032743688 0.013962948073256782 0 0.010637092477744753 0.013977242903171806 0 0.01303133240007695 0.01408392548467007 0 0.012308394559101342 0.014680878958154696 0 0.0085684925032743688 0.013962948073256782 0 0.010637092477744753 0.013977242903171806 0 0.0092258590573049866 0.015730114088170773 0 0.011254583424330163 0.013300990854869545 0 0.011662994490134158 0.015829473898790893 0 0.0092258590573049866 0.015730114088170773 0 0.0092258590573049866 0.015730114088170773 0 0.010298301025380934 0.017623558678813087 0 0.0087238665504792094 0.017882636120737237 0 0.011662994490134158 0.015829473898790893 0 0.010298301025380934 0.017623558678813087 0 0.011959448580559584 0.018086411654182406 0 0.011662994490134158 0.015829473898790893 0 0.0092258590573049866 0.015730114088170773 0 0.010298301025380934 0.017623558678813087 0 0.013941825034813855 0.016447922558681861 0 0.014658738061402084 0.020158486112722047 0 0.016667458764149268 0.015428158947247941 0 0.011662994490134158 0.015829473898790893 0 0.013941825034813855 0.016447922558681861 0 0.011959448580559584 0.018086411654182406 0 0.013605432827286677 0.013886981879815697 0 0.011662994490134158 0.015829473898790893 0 0.013941825034813855 0.016447922558681861 0 0.015166953182653284 0.0149962519519068 0 0.013941825034813855 0.016447922558681861 0 0.016667458764149268 0.015428158947247941 0 0.013605432827286677 0.013886981879815697 0 0.015166953182653284 0.0149962519519068 0 0.013941825034813855 0.016447922558681861 0 0.014658738061402084 0.020158486112722047 0 0.011959448580559584 0.018086411654182406 0 0.0098593095237605715 0.021847539509206721 0 0.013941825034813855 0.016447922558681861 0 0.014658738061402084 0.020158486112722047 0 0.011959448580559584 0.018086411654182406 0 0.0098693367438658832 0.01864976390762518 0 0.0026864200979887006 0.023088368076688855 0 0.015067372779219016 0.017954235636028576 0 0.013487957310588218 0.020766366245683739 0 0.016050081233752105 0.020418907260948586 0 0.014658738061402084 0.020158486112722047 0 0.0098593095237605715 0.021847539509206721 0 0.010660909897013278 0.031453532365145136 0 0.0047155600998030787 0.025165560524837299 0 0.0098593095237605715 0.021847539509206721 0 0.010660909897013278 0.031453532365145136 0 0.0047155600998030787 0.025165560524837299 0 0.0098593095237605715 0.021847539509206721 0 0.0065552560354085829 0.019411876616645868 0 0.0047155600998030787 0.025165560524837299 0 0.0065552560354085829 0.019411876616645868 0 0.0018218633689206891 0.022025841405568451 0 0.0098593095237605715 0.021847539509206721 0 0.0065552560354085829 0.019411876616645868 0 0.0022438711608350815 0.012100351613636842 0 0.010298301025380934 0.017623558678813087 0 0.011959448580559584 0.018086411654182406 0 0.0098593095237605715 0.021847539509206721 0 0.0063646183352996082 0.017470349643741098 0 0.0042183340805511949 0.014942707268150918 0 0.010298301025380934 0.017623558678813087 0 0.0098593095237605715 0.021847539509206721 0 0.0087238665504792094 0.017882636120737237 0 -0.0030509317926742333 0.010577118175903615 0 0.00036003251084428483 0.013600426665690599 0 -0.0027500223996250735 0.011035703569568437 0 0.0065552560354085829 0.019411876616645868 0 -0.0014726730054314887 0.018799370468142246 0 -0.0024722311198277823 0.011220220624006176 0 0.0065552560354085829 0.019411876616645868 0 0.0022438711608350815 0.012100351613636842 0 -0.0027500223996250735 0.011035703569568437 0 -0.0014726730054314887 0.018799370468142246 0 -0.010043654019553407 0.01652235506376008 0 -0.010043654019553407 0.01652235506376008 0 -0.0025616458650416537 0.024773744038928156 0 -0.0089059285532927784 0.029232233912703253 0 -0.0084698573529011171 0.014780774767555177 0 -0.0081943775006717724 0.020731987826455082 0 -0.011864353422924757 0.014705979107541373 0 -0.0089059285532927784 0.029232233912703253 0 -0.019624003656943566 0.024284992516746547 0 -0.0014726730054314887 0.018799370468142246 0 -0.010043654019553407 0.01652235506376008 0 -0.0025616458650416537 0.024773744038928156 0 -0.0014726730054314887 0.018799370468142246 0 0.0018218633689206891 0.022025841405568451 0 -0.0025616458650416537 0.024773744038928156 0 0.0065552560354085829 0.019411876616645868 0 -0.0014726730054314887 0.018799370468142246 0 0.0018218633689206891 0.022025841405568451 0 0.0047155600998030787 0.025165560524837299 0 -0.0025616458650416537 0.024773744038928156 0 0.0018546834540948136 0.030364641222324636 0 0.0047155600998030787 0.025165560524837299 0 0.0018218633689206891 0.022025841405568451 0 -0.0025616458650416537 0.024773744038928156 0 0.0018546834540948136 0.030364641222324636 0 -0.0035121719182677332 0.030493198493967005 0 -0.0017813674858937611 0.034872061438405669 0 -0.0025616458650416537 0.024773744038928156 0 0.0018546834540948136 0.030364641222324636 0 -0.0035121719182677332 0.030493198493967005 0 -0.0025616458650416537 0.024773744038928156 0 -0.0035121719182677332 0.030493198493967005 0 -0.0089059285532927784 0.029232233912703253 0 -0.0035121719182677332 0.030493198493967005 0 -0.0063293494327223655 0.033375977969267591 0 -0.0089059285532927784 0.029232233912703253 0 -0.0063293494327223655 0.033375977969267591 0 -0.0056957794295651384 0.036521653594640338 0 -0.0017813674858937611 0.034872061438405669 0 -0.0035121719182677332 0.030493198493967005 0 -0.0063293494327223655 0.033375977969267591 0 -0.0017813674858937611 0.034872061438405669 0 0.0018546834540948136 0.030364641222324636 0 -0.0017813674858937611 0.034872061438405669 0 0.0034485076497975725 0.035671011280201274 0 -0.0017813674858937611 0.034872061438405669 0 -0.00064580915008995371 0.038960827589451241 0 0.0034485076497975725 0.035671011280201274 0 -0.012588669524648094 0.031969668662881416 0 -0.014366385269782603 0.03621649451032305 0 -0.019624003656943566 0.024284992516746547 0 -0.012588669524648094 0.031969668662881416 0 -0.0089059285532927784 0.029232233912703253 0 -0.019624003656943566 0.024284992516746547 0 -0.012588669524648094 0.031969668662881416 0 -0.0089059285532927784 0.029232233912703253 0 -0.0096461815278403012 0.033566705334199066 0 -0.0063293494327223655 0.033375977969267591 0 -0.0089059285532927784 0.029232233912703253 0 -0.0096461815278403012 0.033566705334199066 0 -0.0063293494327223655 0.033375977969267591 0 -0.0078785138392502632 0.036069274372502978 0 -0.0096461815278403012 0.033566705334199066 0 -0.0063293494327223655 0.033375977969267591 0 -0.0056957794295651384 0.036521653594640338 0 -0.0078785138392502632 0.036069274372502978 0 -0.0078785138392502632 0.036069274372502978 0 -0.0096461815278403012 0.033566705334199066 0 -0.011456504953051422 0.036388308957844347 0 -0.012588669524648094 0.031969668662881416 0 -0.0096461815278403012 0.033566705334199066 0 -0.011456504953051422 0.036388308957844347 0 -0.012588669524648094 0.031969668662881416 0 -0.011456504953051422 0.036388308957844347 0 -0.014366385269782603 0.03621649451032305 0 -0.020736755080825623 0.032906622888977395 0 -0.023591191862188905 0.031311665107582917 0 -0.011456504953051422 0.036388308957844347 0 -0.014366385269782603 0.03621649451032305 0 -0.009789113023585972 0.04703504337220505 0 -0.017224555121395538 0.032155398436381794 0 -0.01913991329450334 0.037618474677342917 0 -0.014361339186501655 0.03990739241626292 0 -0.011456504953051422 0.036388308957844347 0 -0.0055196646419168275 0.040386017748678532 0 -0.009789113023585972 0.04703504337220505 0 -0.017004812440899825 0.033491175704494336 0 -0.018875845125961674 0.032290052309590866 0 -0.0078785138392502632 0.036069274372502978 0 -0.011456504953051422 0.036388308957844347 0 -0.005239928456972469 0.040132070942308792 0 -0.018875845125961674 0.032290052309590866 0 -0.023591191862188905 0.031311665107582917 0 -0.033111334344488548 0.021755168267899253 0 -0.031256673609595831 0.022983301642574207 0 -0.032648378919785545 0.023377834882833057 0 -0.00064580915008995371 0.038960827589451241 0 -0.0052425858705310345 0.040008664930349304 0 0.0041553828491971926 0.046228169686864537 0 -0.00064580915008995371 0.038960827589451241 0 0.0034485076497975725 0.035671011280201274 0 0.0041553828491971926 0.046228169686864537 0 -0.018875845125961674 0.032290052309590866 0 -0.011970252674524519 0.027223895932123935 0 -0.0056957794295651384 0.036521653594640338 0 -0.0017813674858937611 0.034872061438405669 0 -0.0044030329184415618 0.038767325267209558 0 -0.00064580915008995371 0.038960827589451241 0 -0.0044030329184415618 0.038767325267209558 0 -0.0052425858705310345 0.040008664930349304 0 -0.0017813674858937611 0.034872061438405669 0 -0.00064580915008995371 0.038960827589451241 0 -0.0044030329184415618 0.038767325267209558 0 -0.0056957794295651384 0.036521653594640338 0 -0.0078785138392502632 0.036069274372502978 0 -0.005239928456972469 0.040132070942308792 0 -0.0056957794295651384 0.036521653594640338 0 -0.0044030329184415618 0.038767325267209558 0 -0.005239928456972469 0.040132070942308792 0 -0.018826042578424747 0.032298186141933277 0 -0.018875845125961674 0.032290052309590866 0 -0.033111334344488548 0.021755168267899253 0 -0.032648378919785545 0.023377834882833057 0 -0.033947675065182294 0.023014742111039294 0 0.014505596016741293 0.022767274648536208 0 0.013487957310588218 0.020766366245683739 0 0.012033718736155982 0.023671867650816594 0 0.0026864200979887006 0.023088368076688855 0 -0.011970252674524519 0.027223895932123935 0 0.010660909897013278 0.031453532365145136 0 0.0034485076497975725 0.035671011280201274 0 0.0041553828491971926 0.046228169686864537 0 0.014505596016741293 0.022767274648536208 0 0.013487957310588218 0.020766366245683739 0 0.016050081233752105 0.020418907260948586 0 0.0047155600998030787 0.025165560524837299 0 0.0018546834540948136 0.030364641222324636 0 0.010660909897013278 0.031453532365145136 0 0.0018546834540948136 0.030364641222324636 0 0.010660909897013278 0.031453532365145136 0 0.0034485076497975725 0.035671011280201274 0 -0.038632614041473654 0.029120980079007926 0 -0.033005152939215923 0.036426815677047419 0 -0.032093928556248902 0.027162006383820051 0 -0.038792178700884264 0.027718365159961886 0 -0.044420306406932578 0.024254577610571953 0 -0.047758285450045235 0.032686286381510353 0 -0.04303363474641287 0.038309703469698538 0 -0.047758285450045235 0.032686286381510353 0 -0.046351071360570296 0.04584287516782419 0 -0.038792178700884264 0.027718365159961886 0 -0.04303363474641287 0.038309703469698538 0 -0.047758285450045235 0.032686286381510353 0 -0.038171249211159636 0.026994605666875175 0 -0.040114999326381753 0.031466369980931434 0 -0.038632614041473654 0.029120980079007926 0 -0.04303363474641287 0.038309703469698538 0 -0.033005152939215923 0.036426815677047419 0 -0.033005152939215923 0.036426815677047419 0 -0.026658914603764537 0.031794324188129303 0 -0.023761384882521476 0.039999580702530992 0 -0.02134851084589301 0.034027648714396973 0 -0.026658914603764537 0.031794324188129303 0 -0.023761384882521476 0.039999580702530992 0 -0.01913991329450334 0.037618474677342917 0 -0.02134851084589301 0.034027648714396973 0 -0.023761384882521476 0.039999580702530992 0 -0.017224555121395538 0.032155398436381794 0 -0.01913991329450334 0.037618474677342917 0 -0.02134851084589301 0.034027648714396973 0 -0.020736755080825623 0.032906622888977395 0 -0.020914501954354625 0.030849683537708204 0 -0.021526658768265216 0.029263511659547683 0 -0.026658914603764537 0.031794324188129303 0 -0.026725470275821752 0.023956726952388194 0 -0.017224555121395538 0.032155398436381794 0 -0.021526658768265216 0.029263511659547683 0 -0.019624003656943566 0.024284992516746547 0 -0.017224555121395538 0.032155398436381794 0 -0.02134851084589301 0.034027648714396973 0 -0.021526658768265216 0.029263511659547683 0 -0.02134851084589301 0.034027648714396973 0 -0.021526658768265216 0.029263511659547683 0 -0.026658914603764537 0.031794324188129303 0 -0.033005152939215923 0.036426815677047419 0 -0.032093928556248902 0.027162006383820051 0 -0.026658914603764537 0.031794324188129303 0 -0.032093928556248902 0.027162006383820051 0 -0.026658914603764537 0.031794324188129303 0 -0.026725470275821752 0.023956726952388194 0 -0.032093928556248902 0.027162006383820051 0 -0.026725470275821752 0.023956726952388194 0 -0.034572890723448921 0.019419343394223271 0 -0.026725470275821752 0.023956726952388194 0 -0.023930169912437623 0.014871068139316827 0 -0.034572890723448921 0.019419343394223271 0 -0.026725470275821752 0.023956726952388194 0 -0.019624003656943566 0.024284992516746547 0 -0.023930169912437623 0.014871068139316827 0 -0.021526658768265216 0.029263511659547683 0 -0.026725470275821752 0.023956726952388194 0 -0.019624003656943566 0.024284992516746547 0 -0.011864353422924757 0.014705979107541373 0 -0.019624003656943566 0.024284992516746547 0 -0.023930169912437623 0.014871068139316827 0 -0.011864353422924757 0.014705979107541373 0 -0.023930169912437623 0.014871068139316827 0 -0.018504566692775146 0.0085215668234993585 0 -0.023930169912437623 0.014871068139316827 0 -0.034572890723448921 0.019419343394223271 0 -0.030175430190704292 0.0094376346218327696 0 -0.038372578683694238 0.013125151225201902 0 -0.03644393139940752 0.0087165214491756893 0 -0.030600417663933035 0.0087597924370602306 0 -0.034618542748438633 0.018810692762705458 0 -0.031144816450825098 0.010894364944890142 0 -0.038372578683694238 0.013125151225201902 0 -0.034810605114630806 0.017865571440097303 0 -0.042362469751635955 0.018114494420676985 0 -0.038372578683694238 0.013125151225201902 0 -0.034810605114630806 0.017865571440097303 0 -0.030600417663933035 0.0087597924370602306 0 -0.038372578683694238 0.013125151225201902 0 -0.0398674387436974 0.010735203956887176 0 -0.03644393139940752 0.0087165214491756893 0 -0.038792178700884264 0.027718365159961886 0 -0.034810605114630806 0.017865571440097303 0 -0.042362469751635955 0.018114494420676985 0 -0.038171249211159636 0.026994605666875175 0 -0.034618542748438633 0.018810692762705458 0 -0.038632614041473654 0.029120980079007926 0 -0.032093928556248902 0.027162006383820051 0 -0.034572890723448921 0.019419343394223271 0 -0.038792178700884264 0.027718365159961886 0 -0.044420306406932578 0.024254577610571953 0 -0.042362469751635955 0.018114494420676985 0 -0.044420306406932578 0.024254577610571953 0 -0.042362469751635955 0.018114494420676985 0 -0.04903069641943196 0.018702083487502571 0 -0.042362469751635955 0.018114494420676985 0 -0.046028854938382463 0.013967847777675971 0 -0.04903069641943196 0.018702083487502571 0 -0.042362469751635955 0.018114494420676985 0 -0.046028854938382463 0.013967847777675971 0 -0.042211811797066949 0.012538871724428833 0 -0.038372578683694238 0.013125151225201902 0 -0.042362469751635955 0.018114494420676985 0 -0.042211811797066949 0.012538871724428833 0 -0.042211811797066949 0.012538871724428833 0 -0.0398674387436974 0.010735203956887176 0 -0.042483656733856075 0.0085373926125236841 0 -0.038372578683694238 0.013125151225201902 0 -0.042211811797066949 0.012538871724428833 0 -0.0398674387436974 0.010735203956887176 0 -0.046028854938382463 0.013967847777675971 0 -0.042211811797066949 0.012538871724428833 0 -0.042483656733856075 0.0085373926125236841 0 -0.039887419331187543 0.0066261126740515697 0 -0.034982285010814587 0.0039799112333703309 0 -0.037909556917805544 0.0034138170628692597 0 -0.042358216504495678 0.0078684898413153258 0 -0.039989227602788342 0.008937146522086761 0 -0.032579363292539416 0.0040458199196460546 0 -0.039887419331187543 0.0066261126740515697 0 -0.040169311456473809 0.004278718640955176 0 -0.037909556917805544 0.0034138170628692597 0 -0.041744898468353137 0.0076935624234855558 0 -0.03724941601329633 0.0060281724550038896 0 -0.039887419331187543 0.0066261126740515697 0 -0.032579363292539416 0.0040458199196460546 0 -0.034982285010814587 0.0039799112333703309 0 -0.042483656733856075 0.0085373926125236841 0 -0.03644393139940752 0.0087165214491756893 0 -0.03181756059030081 0.0044499887908954145 0 -0.0398674387436974 0.010735203956887176 0 -0.042483656733856075 0.0085373926125236841 0 -0.03644393139940752 0.0087165214491756893 0 -0.039989227602788342 0.008937146522086761 0 -0.032579363292539416 0.0040458199196460546 0 -0.03181756059030081 0.0044499887908954145 0 -0.042112866612602724 0.0095065270641551732 0 -0.037968956934746938 0.0074216407541875737 0 -0.03644393139940752 0.0087165214491756893 0 -0.030600417663933035 0.0087597924370602306 0 -0.03181756059030081 0.0044499887908954145 0 -0.034982285010814587 0.0039799112333703309 0 -0.035850160673857871 -0.00054830139889135642 0 -0.037909556917805544 0.0034138170628692597 0 -0.034982285010814587 0.0039799112333703309 0 -0.033577120295504588 0.0017024623942634019 0 -0.035850160673857871 -0.00054830139889135642 0 -0.032579363292539416 0.0040458199196460546 0 -0.034982285010814587 0.0039799112333703309 0 -0.033400156619532564 0.0031475927167183 0 -0.03241244133138959 0.0028207787572155692 0 -0.033577120295504588 0.0017024623942634019 0 -0.030955206504474184 0.0017088811402565995 0 -0.032579363292539416 0.0040458199196460546 0 -0.03241244133138959 0.0028207787572155692 0 -0.031028448396423852 0.0028154464099585728 0 -0.032579363292539416 0.0040458199196460546 0 -0.03241244133138959 0.0028207787572155692 0 -0.033400156619532564 0.0031475927167183 0 -0.034982285010814587 0.0039799112333703309 0 -0.033400156619532564 0.0031475927167183 0 -0.033577120295504588 0.0017024623942634019 0 -0.03241244133138959 0.0028207787572155692 0 -0.033400156619532564 0.0031475927167183 0 -0.033577120295504588 0.0017024623942634019 0 -0.033577120295504588 0.0017024623942634019 0 -0.030955206504474184 0.0017088811402565995 0 -0.031342612856327973 -0.00027680926956190441 0 -0.033577120295504588 0.0017024623942634019 0 -0.035850160673857871 -0.00054830139889135642 0 -0.031342612856327973 -0.00027680926956190441 0 -0.035850160673857871 -0.00054830139889135642 0 -0.037909556917805544 0.0034138170628692597 0 -0.041523285364306897 0.0022520747128959742 0 -0.032070353038105216 -0.00076030210786878576 0 -0.03665766525433848 -0.0023961300352149492 0 -0.039694408521306158 0.0020781486956550008 0 -0.028908790120834849 0.0039235619295877678 0 -0.037310178739611628 0.0047215488444838812 0 -0.040169311456473809 0.004278718640955176 0 -0.037909556917805544 0.0034138170628692597 0 -0.041523285364306897 0.0022520747128959742 0 -0.023930169912437623 0.014871068139316827 0 -0.024579460359499251 0.0030177973831255552 0 -0.018504566692775146 0.0085215668234993585 0 -0.018004006597490029 0.008136259406838247 0 -0.016965594921785215 0.0050828826156776663 0 -0.013769227422721094 0.0016036097954126873 0 -0.024579460359499251 0.0030177973831255552 0 -0.018504566692775146 0.0085215668234993585 0 -0.030600417663933035 0.0087597924370602306 0 -0.03181756059030081 0.0044499887908954145 0 -0.026751226335775733 0.0011458215633334897 0 -0.025415336619424564 0.005864730325100596 0 -0.030175430190704292 0.0094376346218327696 0 -0.026751226335775733 0.0011458215633334897 0 -0.031144816450825098 0.010894364944890142 0 -0.029384781370035053 0.0069115154353424817 0 -0.023930169912437623 0.014871068139316827 0 -0.025415336619424564 0.005864730325100596 0 -0.030175430190704292 0.0094376346218327696 0 -0.025415336619424564 0.005864730325100596 0 -0.026751226335775733 0.0011458215633334897 0 -0.02648479945568908 -0.0021648403845833781 0 -0.031028448396423852 0.0028154464099585728 0 -0.030955206504474184 0.0017088811402565995 0 -0.026751226335775733 0.0011458215633334897 0 -0.03181756059030081 0.0044499887908954145 0 -0.031028448396423852 0.0028154464099585728 0 -0.026751226335775733 0.0011458215633334897 0 -0.032579363292539416 0.0040458199196460546 0 -0.03181756059030081 0.0044499887908954145 0 -0.031028448396423852 0.0028154464099585728 0 -0.03241244133138959 0.0028207787572155692 0 -0.031028448396423852 0.0028154464099585728 0 -0.030955206504474184 0.0017088811402565995 0 -0.030955206504474184 0.0017088811402565995 0 -0.031342612856327973 -0.00027680926956190441 0 -0.029067809793348335 2.5459431121653575e-06 0 -0.031342612856327973 -0.00027680926956190441 0 -0.029067809793348335 2.5459431121653575e-06 0 -0.028961736269984169 -0.001594325813417704 0 -0.030955206504474184 0.0017088811402565995 0 -0.029067809793348335 2.5459431121653575e-06 0 -0.026751226335775733 0.0011458215633334897 0 -0.029067809793348335 2.5459431121653575e-06 0 -0.026751226335775733 0.0011458215633334897 0 -0.02648479945568908 -0.0021648403845833781 0 -0.029067809793348335 2.5459431121653575e-06 0 -0.02648479945568908 -0.0021648403845833781 0 -0.028961736269984169 -0.001594325813417704 0 -0.0070987029359800124 0.0051451282448872039 0 -0.0066513811150599317 0.0059299619303884617 0 -0.006280946373948269 0.0058603159071640163 0 -0.013769227422721094 0.0016036097954126873 0 -0.024579460359499251 0.0030177973831255552 0 -0.025372116858441571 -0.00842266439713589 0 -0.016965594921785215 0.0050828826156776663 0 -0.012743508246803112 0.0034744270520919184 0 -0.0077147298256810019 0.0063764287704472615 0 -0.012743508246803112 0.0034744270520919184 0 -0.0028132665611593703 0.008555447238094635 0 -0.0031381138489742473 0.0060808134544623133 0 -0.001514150551250824 0.0080513740603930118 0 -0.0014991100055737545 0.0069366603059562298 0 -0.0043444566035330022 0.0062908599249269052 0 -0.0036682237502319464 0.0074739568638364333 0 -0.0043444566035330022 0.0062908599249269052 0 -0.0070126694919707515 0.0058215206611669798 0 -0.0066138271681378379 0.0063108570388052346 0 -0.0066513811150599317 0.0059299619303884617 0 -0.0066513811150599317 0.0059299619303884617 0 -0.0062579352464909024 0.0061705723010614137 0 -0.006280946373948269 0.0058603159071640163 0 -0.0066138271681378379 0.0063108570388052346 0 -0.0066513811150599317 0.0059299619303884617 0 -0.0062579352464909024 0.0061705723010614137 0 -0.0043444566035330022 0.0062908599249269052 0 -0.010035607271309588 0.0044433425493280616 0 -0.013559871697326384 0.0033750153807591567 0 -0.014566882646471449 0.00054995200727740062 0 0.0044941524186207131 0.010792014824411686 0 0.0040671887036450053 0.010956072593755289 0 0.0040452220407525882 0.010237783668254761 0 -0.010035607271309588 0.0044433425493280616 0 -0.013559871697326384 0.0033750153807591567 0 -0.011189009174386035 0.0066727234091735251 0 -0.011444998707173333 0.0031336361855672313 0 -0.0085463047367927269 0.0056478224706941332 0 -0.010035607271309588 0.0044433425493280616 0 -0.012743508246803112 0.0034744270520919184 0 -0.02648479945568908 -0.0021648403845833781 0 -0.028961736269984169 -0.001594325813417704 0 -0.028886436238015619 -0.0039404208679495048 0 -0.012743508246803112 0.0034744270520919184 0 -0.013559871697326384 0.0033750153807591567 0 -0.031342612856327973 -0.00027680926956190441 0 -0.028961736269984169 -0.001594325813417704 0 -0.028886436238015619 -0.0039404208679495048 0 0.0040671887036450053 0.010956072593755289 0 0.0040452220407525882 0.010237783668254761 0 0.0028360697101130618 0.0099338867094146306 0 0.0044569992165446864 0.0096099096323452472 0 0.0040452220407525882 0.010237783668254761 0 0.0028360697101130618 0.0099338867094146306 0 -0.010035607271309588 0.0044433425493280616 0 -0.0041219075217729748 0.0081870501400968954 0 0.0044941524186207131 0.010792014824411686 0 0.0044569992165446864 0.0096099096323452472 0 0.0040452220407525882 0.010237783668254761 0 -0.00059106336731800529 0.0080281689569600915 0 -0.0014991100055737545 0.0069366603059562298 0 0.0068197464962126818 0.0092210887094353843 0 0.006977319208628755 0.010651474554553474 0 0.0063177125152620505 0.010071287165229512 0 -0.0093050495974445792 0.0041054101346183411 0 -0.007109078525465321 0.0032528295656936708 0 -0.0068264628514955565 0.0071175631505262975 0 0.0068197464962126818 0.0092210887094353843 0 0.0052906688477632139 0.0098185528163715913 0 0.0063177125152620505 0.010071287165229512 0 0.0062299909636263527 0.010936954792435605 0 0.0052906688477632139 0.0098185528163715913 0 0.0063177125152620505 0.010071287165229512 0 -0.0043444566035330022 0.0062908599249269052 0 -0.0041219075217729748 0.0081870501400968954 0 0.006977319208628755 0.010651474554553474 0 0.0062299909636263527 0.010936954792435605 0 0.0063177125152620505 0.010071287165229512 0 -0.033525033497176018 -0.0051896393332056577 0 -0.03696307904882333 -0.0059500795714762765 0 -0.03665766525433848 -0.0023961300352149492 0 -0.03696307904882333 -0.0059500795714762765 0 -0.03665766525433848 -0.0023961300352149492 0 -0.041543726951318714 -0.0021319467995087769 0 -0.032070353038105216 -0.00076030210786878576 0 -0.033525033497176018 -0.0051896393332056577 0 -0.03665766525433848 -0.0023961300352149492 0 -0.035850160673857871 -0.00054830139889135642 0 -0.031342612856327973 -0.00027680926956190441 0 -0.028886436238015619 -0.0039404208679495048 0 -0.02450758222828282 -0.0036692869733435138 0 -0.03001255303192249 -0.0046116706762679687 0 -0.030441367430476679 -0.0087708763864825564 0 -0.028908790120834849 0.0039235619295877678 0 -0.013559871697326384 0.0033750153807591567 0 -0.032070353038105216 -0.00076030210786878576 0 -0.02450758222828282 -0.0036692869733435138 0 -0.03001255303192249 -0.0046116706762679687 0 -0.032070353038105216 -0.00076030210786878576 0 -0.033525033497176018 -0.0051896393332056577 0 -0.03001255303192249 -0.0046116706762679687 0 -0.033525033497176018 -0.0051896393332056577 0 -0.03001255303192249 -0.0046116706762679687 0 -0.030441367430476679 -0.0087708763864825564 0 0.002601500906356055 0.0089223248144498449 0 0.0044569992165446864 0.0096099096323452472 0 0.0028360697101130618 0.0099338867094146306 0 -0.033525033497176018 -0.0051896393332056577 0 -0.030441367430476679 -0.0087708763864825564 0 -0.035010724220045114 -0.0085864300601764705 0 -0.016636612166387996 -0.0029340776495067823 0 -0.014566882646471449 0.00054995200727740062 0 -0.03628388105057849 -0.01379573993035353 0 -0.030441367430476679 -0.0087708763864825564 0 -0.035010724220045114 -0.0085864300601764705 0 -0.033525033497176018 -0.0051896393332056577 0 -0.03696307904882333 -0.0059500795714762765 0 -0.035010724220045114 -0.0085864300601764705 0 -0.023129766919474565 -0.0068081870084888124 0 -0.022237212074356638 -0.0060959985141232397 0 -0.03696307904882333 -0.0059500795714762765 0 -0.035010724220045114 -0.0085864300601764705 0 -0.038313603953826846 -0.0091528816374406852 0 -0.03628388105057849 -0.01379573993035353 0 -0.035010724220045114 -0.0085864300601764705 0 -0.038313603953826846 -0.0091528816374406852 0 -0.016636612166387996 -0.0029340776495067823 0 -0.022237212074356638 -0.0060959985141232397 0 -0.042100649944059446 -0.016635096275179746 0 -0.038675058027630174 -0.0087251158852127871 0 -0.044257574433863849 -0.0074986868463545221 0 -0.03696307904882333 -0.0059500795714762765 0 -0.03837331953728803 -0.0092344674151076962 0 -0.041543726951318714 -0.0021319467995087769 0 -0.022237212074356638 -0.0060959985141232397 0 -0.026501364432330341 -0.0030877900960321965 0 -0.038675058027630174 -0.0087251158852127871 0 -0.041543726951318714 -0.0021319467995087769 0 -0.044257574433863849 -0.0074986868463545221 0 -0.041543726951318714 -0.0021319467995087769 0 -0.048118473967494656 -0.0025405577082309068 0 -0.044161263864611944 0.00049407322626787297 0 -0.041543726951318714 -0.0021319467995087769 0 -0.048118473967494656 -0.0025405577082309068 0 -0.044257574433863849 -0.0074986868463545221 0 -0.048118473967494656 -0.0025405577082309068 0 -0.049052162469091269 -0.010819529634853262 0 -0.044257574433863849 -0.0074986868463545221 0 -0.02790851279239169 -0.012042462283086542 0 -0.038375159755377343 -0.012589318665673605 0 -0.037881947439112135 -0.0035501292045177421 0 -0.034924070374051097 -0.0076519228271262575 0 -0.045481580447405252 -0.0025623725332238317 0 -0.038375159755377343 -0.012589318665673605 0 -0.037881947439112135 -0.0035501292045177421 0 -0.047747144446052402 -0.0043156627411232813 0 -0.045481580447405252 -0.0025623725332238317 0 -0.055015070482373189 0.0035826496985569998 0 -0.048118473967494656 -0.0025405577082309068 0 -0.049052162469091269 -0.010819529634853262 0 -0.055946969024354629 -0.0049713973903870914 0 -0.048118473967494656 -0.0025405577082309068 0 -0.055946969024354629 -0.0049713973903870914 0 -0.054329424054344502 0.0012757110566732051 0 -0.048118473967494656 -0.0025405577082309068 0 -0.054329424054344502 0.0012757110566732051 0 -0.047167212731745456 0.004633623270715463 0 -0.055946969024354629 -0.0049713973903870914 0 -0.054329424054344502 0.0012757110566732051 0 -0.062751376617131177 0.0007925824307496598 0 -0.054329424054344502 0.0012757110566732051 0 -0.057660184790026124 0.0063094739558835523 0 -0.062751376617131177 0.0007925824307496598 0 -0.057660184790026124 0.0063094739558835523 0 -0.052497936564722791 0.0070301949337766966 0 -0.055681272167674309 0.013194068925786397 0 -0.054329424054344502 0.0012757110566732051 0 -0.057660184790026124 0.0063094739558835523 0 -0.052497936564722791 0.0070301949337766966 0 -0.054329424054344502 0.0012757110566732051 0 -0.052497936564722791 0.0070301949337766966 0 -0.047167212731745456 0.004633623270715463 0 -0.047167212731745456 0.004633623270715463 0 -0.044027904696923595 0.0065096114834793505 0 -0.047131600721298954 0.0097958206977738146 0 -0.052497936564722791 0.0070301949337766966 0 -0.047167212731745456 0.004633623270715463 0 -0.047131600721298954 0.0097958206977738146 0 -0.047167212731745456 0.004633623270715463 0 -0.044027904696923595 0.0065096114834793505 0 -0.042137042610502058 0.004930338477507794 0 -0.042358216504495678 0.0078684898413153258 0 -0.039989227602788342 0.008937146522086761 0 -0.047957466526220703 0.013068793282031975 0 -0.039887419331187543 0.0066261126740515697 0 -0.044027904696923595 0.0065096114834793505 0 -0.047131600721298954 0.0097958206977738146 0 -0.041744898468353137 0.0076935624234855558 0 -0.049531045183078493 0.010639497817427625 0 -0.039887419331187543 0.0066261126740515697 0 -0.040169311456473809 0.004278718640955176 0 -0.042137042610502058 0.004930338477507794 0 -0.039887419331187543 0.0066261126740515697 0 -0.044027904696923595 0.0065096114834793505 0 -0.042137042610502058 0.004930338477507794 0 -0.040896250093819739 0.0053991729522796898 0 -0.037310178739611628 0.0047215488444838812 0 -0.047167212731745456 0.004633623270715463 0 -0.039694408521306158 0.0020781486956550008 0 -0.044161263864611944 0.00049407322626787297 0 -0.047167212731745456 0.004633623270715463 0 -0.042137042610502058 0.004930338477507794 0 -0.041523285364306897 0.0022520747128959742 0 -0.040169311456473809 0.004278718640955176 0 -0.042137042610502058 0.004930338477507794 0 -0.041523285364306897 0.0022520747128959742 0 -0.03665766525433848 -0.0023961300352149492 0 -0.041543726951318714 -0.0021319467995087769 0 -0.039694408521306158 0.0020781486956550008 0 -0.041543726951318714 -0.0021319467995087769 0 -0.039694408521306158 0.0020781486956550008 0 -0.044161263864611944 0.00049407322626787297 0 -0.048118473967494656 -0.0025405577082309068 0 -0.047167212731745456 0.004633623270715463 0 -0.044161263864611944 0.00049407322626787297 0 0.0048132012452059879 0.0069956356908561787 0 0.0025315800702970593 0.011913149399311604 0 -0.0042575837674446648 0.012836554444241602 0 0.013058406853746787 0.0019866355331765043 0 0.012336202408389736 0.0018758019951075457 0 0.013307833566809495 0.0016769540651214473 0 0.012336202408389736 0.0018758019951075457 0 0.013307833566809495 0.0016769540651214473 0 0.013339541872551392 0.0013707193979805806 0 0.0070754067729169737 0.0041738635478171145 0 0.0026677855820292995 0.0059031819538839896 0 0.013058406853746787 0.0019866355331765043 0 0.012656995296536921 0.0024582519578252001 0 0.012336202408389736 0.0018758019951075457 0 0.013058406853746787 0.0019866355331765043 0 0.013204006877869037 0.0022384097917983359 0 0.012656995296536921 0.0024582519578252001 0 0.013204006877869037 0.0022384097917983359 0 0.013411411314879182 0.0027377949370913078 0 0.012656995296536921 0.0024582519578252001 0 0.012304135055978268 0.0031439753429884703 0 0.013411411314879182 0.0027377949370913078 0 0.012656995296536921 0.0024582519578252001 0 0.012656995296536921 0.0024582519578252001 0 0.01202049055439741 0.0027686583273296168 0 0.012336202408389736 0.0018758019951075457 0 0.01202049055439741 0.0027686583273296168 0 0.012336202408389736 0.0018758019951075457 0 0.011169831223797881 0.0032385925351979643 0 0.012304135055978268 0.0031439753429884703 0 0.012656995296536921 0.0024582519578252001 0 0.01202049055439741 0.0027686583273296168 0 -0.057349373069118595 -0.005121523229434129 0 -0.0578370384179233 0.0043490056742358073 0 -0.06759795645040316 0.0036105332877042016 0 0.0048132012452059879 0.0069956356908561787 0 0.0088795326885677279 0.0059899885972794697 0 0.0025315800702970593 0.011913149399311604 0 -0.024241558431494208 0.0017115582374496558 0 -0.03256620374664175 0.0084445634753207415 0 -0.047747144446052402 -0.0043156627411232813 0 -0.048222451967044735 0.0051711081048778371 0 -0.0578370384179233 0.0043490056742358073 0 -0.057349373069118595 -0.005121523229434129 0 -0.047747144446052402 -0.0043156627411232813 0 -0.0578370384179233 0.0043490056742358073 0 0.0070754067729169737 0.0041738635478171145 0 0.008884947657469975 0.003332391259414568 0 0.011792874318561686 0.0027842079081038056 0 0.01202049055439741 0.0027686583273296168 0 0.011169831223797881 0.0032385925351979643 0 -0.016728857677487913 -0.003525039246076785 0 -0.024241558431494208 0.0017115582374496558 0 0.012950246111040713 0.002411987363345908 0 0.0088795326885677279 0.0059899885972794697 0 0.011169831223797881 0.0032385925351979643 0 0.0048132012452059879 0.0069956356908561787 0 0.0088795326885677279 0.0059899885972794697 0 0.011169831223797881 0.0032385925351979643 0 -0.047359664299584173 -0.013586669461673641 0 -0.057349373069118595 -0.005121523229434129 0 -0.047747144446052402 -0.0043156627411232813 0 -0.047359664299584173 -0.013586669461673641 0 -0.038375159755377343 -0.012589318665673605 0 -0.047747144446052402 -0.0043156627411232813 0 -0.037881947439112135 -0.0035501292045177421 0 -0.047747144446052402 -0.0043156627411232813 0 -0.048222451967044735 0.0051711081048778371 0 -0.057660184790026124 0.0063094739558835523 0 -0.062751376617131177 0.0007925824307496598 0 -0.063095880196121529 0.0092647239225135004 0 -0.062751376617131177 0.0007925824307496598 0 -0.069609011819578709 0.0066324436978642968 0 -0.063095880196121529 0.0092647239225135004 0 -0.055015070482373189 0.0035826496985569998 0 -0.064233168594802145 0.010124510371263303 0 -0.048222451967044735 0.0051711081048778371 0 -0.058939685847366453 0.014086412003093237 0 -0.0578370384179233 0.0043490056742358073 0 -0.058939685847366453 0.014086412003093237 0 -0.0578370384179233 0.0043490056742358073 0 -0.06759795645040316 0.0036105332877042016 0 -0.058939685847366453 0.014086412003093237 0 -0.070114275166656304 0.014385994194163363 0 -0.06759795645040316 0.0036105332877042016 0 -0.058939685847366453 0.014086412003093237 0 -0.070114275166656304 0.014385994194163363 0 -0.069950938288040387 0.022914772336734009 0 -0.070114275166656304 0.014385994194163363 0 -0.06759795645040316 0.0036105332877042016 0 -0.07799271511508496 0.012625014642616348 0 -0.070114275166656304 0.014385994194163363 0 -0.07799271511508496 0.012625014642616348 0 -0.076130625564521479 0.018596178239553708 0 0.0025315800702970593 0.011913149399311604 0 -0.0042575837674446648 0.012836554444241602 0 -0.0056273919366215718 0.019521603634620213 0 -0.03256620374664175 0.0084445634753207415 0 -0.041048280352693367 0.015709619507759259 0 -0.076196001968028421 0.012592310629282493 0 -0.073440801408511683 0.019297673394373681 0 -0.081991998810716574 0.017934310960719756 0 -0.073234085123328144 0.016350443526800578 0 -0.081276394271144595 0.020754662770431732 0 -0.070114275166656304 0.014385994194163363 0 -0.069950938288040387 0.022914772336734009 0 -0.076130625564521479 0.018596178239553708 0 -0.069950938288040387 0.022914772336734009 0 -0.076130625564521479 0.018596178239553708 0 -0.076996675882765264 0.023808327992994479 0 -0.064233168594802145 0.010124510371263303 0 -0.073234085123328144 0.016350443526800578 0 -0.069609011819578709 0.0066324436978642968 0 -0.076196001968028421 0.012592310629282493 0 -0.070355458139609361 0.013959417885771111 0 -0.076196001968028421 0.012592310629282493 0 -0.070355458139609361 0.013959417885771111 0 -0.073440801408511683 0.019297673394373681 0 -0.06697932994013886 0.017388572322119749 0 -0.070020571347665567 0.021302464614808825 0 -0.073440801408511683 0.019297673394373681 0 -0.065039352074218362 0.016403452731070741 0 -0.069129425714686957 0.017842024148104672 0 -0.070355458139609361 0.013959417885771111 0 -0.064552993487281066 0.016401516950148794 0 -0.073440801408511683 0.019297673394373681 0 -0.070355458139609361 0.013959417885771111 0 -0.063095880196121529 0.0092647239225135004 0 -0.064552993487281066 0.016401516950148794 0 -0.069609011819578709 0.0066324436978642968 0 -0.070355458139609361 0.013959417885771111 0 -0.063095880196121529 0.0092647239225135004 0 -0.063095880196121529 0.0092647239225135004 0 -0.064552993487281066 0.016401516950148794 0 -0.055681272167674309 0.013194068925786397 0 -0.065039352074218362 0.016403452731070741 0 -0.057631668997196191 0.013693782670469336 0 -0.06697932994013886 0.017388572322119749 0 -0.06433130648221258 0.021703187965981224 0 -0.062053271106192145 0.019821160527770505 0 -0.06697932994013886 0.017388572322119749 0 -0.06433130648221258 0.021703187965981224 0 -0.06715006642484618 0.021769465020884612 0 -0.06433130648221258 0.021703187965981224 0 -0.066049691300210295 0.023740837668315001 0 -0.06715006642484618 0.021769465020884612 0 -0.06433130648221258 0.021703187965981224 0 -0.063685909926784481 0.024331085738128526 0 -0.066049691300210295 0.023740837668315001 0 -0.06433130648221258 0.021703187965981224 0 -0.063685909926784481 0.024331085738128526 0 -0.061491118046258363 0.022602047436956121 0 -0.079895922834815739 0.023176643373264409 0 -0.080718474369415927 0.023668190491818845 0 -0.063685909926784481 0.024331085738128526 0 -0.06452591711599133 0.025978274385694701 0 -0.061967389015314241 0.025682330705117551 0 -0.064761422987925629 0.026347747136335406 0 -0.06677423663385533 0.02597650295696334 0 -0.066311546839920285 0.029209413005929122 0 -0.063685909926784481 0.024331085738128526 0 -0.064761422987925629 0.026347747136335406 0 -0.06677423663385533 0.02597650295696334 0 -0.063685909926784481 0.024331085738128526 0 -0.06677423663385533 0.02597650295696334 0 -0.066049691300210295 0.023740837668315001 0 -0.06677423663385533 0.02597650295696334 0 -0.066049691300210295 0.023740837668315001 0 -0.068728779509165838 0.024736608889571826 0 -0.06677423663385533 0.02597650295696334 0 -0.068728779509165838 0.024736608889571826 0 -0.069114831719320688 0.027888040090369017 0 -0.068728779509165838 0.024736608889571826 0 -0.072395779880842184 0.028313760644242927 0 -0.069114831719320688 0.027888040090369017 0 -0.068728779509165838 0.024736608889571826 0 -0.070020571347665567 0.021302464614808825 0 -0.073157733355553742 0.023984495155965815 0 -0.06697932994013886 0.017388572322119749 0 -0.06715006642484618 0.021769465020884612 0 -0.070020571347665567 0.021302464614808825 0 -0.066049691300210295 0.023740837668315001 0 -0.068728779509165838 0.024736608889571826 0 -0.06715006642484618 0.021769465020884612 0 -0.068728779509165838 0.024736608889571826 0 -0.06715006642484618 0.021769465020884612 0 -0.070020571347665567 0.021302464614808825 0 -0.070020571347665567 0.021302464614808825 0 -0.073440801408511683 0.019297673394373681 0 -0.073157733355553742 0.023984495155965815 0 -0.068728779509165838 0.024736608889571826 0 -0.073157733355553742 0.023984495155965815 0 -0.072395779880842184 0.028313760644242927 0 -0.073157733355553742 0.023984495155965815 0 -0.072395779880842184 0.028313760644242927 0 -0.079442562984617285 0.025156767340224248 0 -0.073440801408511683 0.019297673394373681 0 -0.081991998810716574 0.017934310960719756 0 -0.079442562984617285 0.025156767340224248 0 -0.073440801408511683 0.019297673394373681 0 -0.073157733355553742 0.023984495155965815 0 -0.079442562984617285 0.025156767340224248 0 -0.053640296406048775 0.01858915189338075 0 -0.052031799618257199 0.0140095506669552 0 -0.057510441226486929 0.017693173591114643 0 -0.053640296406048775 0.01858915189338075 0 -0.057510441226486929 0.017693173591114643 0 -0.0555581619076791 0.021331270532126946 0 -0.053640296406048775 0.01858915189338075 0 -0.04903069641943196 0.018702083487502571 0 -0.052786957446657623 0.021523146666539414 0 -0.053640296406048775 0.01858915189338075 0 -0.04903069641943196 0.018702083487502571 0 -0.052031799618257199 0.0140095506669552 0 -0.046028854938382463 0.013967847777675971 0 -0.042483656733856075 0.0085373926125236841 0 -0.052031799618257199 0.0140095506669552 0 -0.042112866612602724 0.0095065270641551732 0 -0.049145342415474483 0.013143248702841007 0 -0.042358216504495678 0.0078684898413153258 0 -0.047957466526220703 0.013068793282031975 0 -0.051656840714723214 0.011419436138351769 0 -0.046028854938382463 0.013967847777675971 0 -0.04903069641943196 0.018702083487502571 0 -0.052031799618257199 0.0140095506669552 0 -0.049145342415474483 0.013143248702841007 0 -0.055247050492712516 0.016328107889488457 0 -0.047957466526220703 0.013068793282031975 0 -0.051656840714723214 0.011419436138351769 0 -0.055386452943573743 0.016724915158866347 0 -0.052497936564722791 0.0070301949337766966 0 -0.047131600721298954 0.0097958206977738146 0 -0.055681272167674309 0.013194068925786397 0 -0.051656840714723214 0.011419436138351769 0 -0.060004933605824914 0.014693277024447894 0 -0.055386452943573743 0.016724915158866347 0 -0.049531045183078493 0.010639497817427625 0 -0.057631668997196191 0.013693782670469336 0 -0.057660184790026124 0.0063094739558835523 0 -0.063095880196121529 0.0092647239225135004 0 -0.055681272167674309 0.013194068925786397 0 -0.060004933605824914 0.014693277024447894 0 -0.062053271106192145 0.019821160527770505 0 -0.055386452943573743 0.016724915158866347 0 -0.06697932994013886 0.017388572322119749 0 -0.060004933605824914 0.014693277024447894 0 -0.062053271106192145 0.019821160527770505 0 -0.062053271106192145 0.019821160527770505 0 -0.057510441226486929 0.017693173591114643 0 -0.058873949020631304 0.02190371849832231 0 -0.058250400371349577 0.017864713085087681 0 -0.055247050492712516 0.016328107889488457 0 -0.057510441226486929 0.017693173591114643 0 -0.058873949020631304 0.02190371849832231 0 -0.0555581619076791 0.021331270532126946 0 -0.058873949020631304 0.02190371849832231 0 -0.056542710966787417 0.023667572897489934 0 -0.0555581619076791 0.021331270532126946 0 -0.06433130648221258 0.021703187965981224 0 -0.062053271106192145 0.019821160527770505 0 -0.061491118046258363 0.022602047436956121 0 -0.062053271106192145 0.019821160527770505 0 -0.058873949020631304 0.02190371849832231 0 -0.061491118046258363 0.022602047436956121 0 -0.058873949020631304 0.02190371849832231 0 -0.061491118046258363 0.022602047436956121 0 -0.060321212799009469 0.024563056229062061 0 -0.063685909926784481 0.024331085738128526 0 -0.061866321436654409 0.024337720186187697 0 -0.061967389015314241 0.025682330705117551 0 -0.063685909926784481 0.024331085738128526 0 -0.061491118046258363 0.022602047436956121 0 -0.061866321436654409 0.024337720186187697 0 -0.061491118046258363 0.022602047436956121 0 -0.061866321436654409 0.024337720186187697 0 -0.060321212799009469 0.024563056229062061 0 -0.061866321436654409 0.024337720186187697 0 -0.060321212799009469 0.024563056229062061 0 -0.061967389015314241 0.025682330705117551 0 -0.060321212799009469 0.024563056229062061 0 -0.060082375608636177 0.026381554488268698 0 -0.061967389015314241 0.025682330705117551 0 -0.060082375608636177 0.026381554488268698 0 -0.061967389015314241 0.025682330705117551 0 -0.061197994488096971 0.028133064944845056 0 -0.06452591711599133 0.025978274385694701 0 -0.061967389015314241 0.025682330705117551 0 -0.061197994488096971 0.028133064944845056 0 -0.058873949020631304 0.02190371849832231 0 -0.060321212799009469 0.024563056229062061 0 -0.058041123803710959 0.025458379495619861 0 -0.058873949020631304 0.02190371849832231 0 -0.056542710966787417 0.023667572897489934 0 -0.058041123803710959 0.025458379495619861 0 -0.056542710966787417 0.023667572897489934 0 -0.058041123803710959 0.025458379495619861 0 -0.056164121782126181 0.026088876459303703 0 -0.060321212799009469 0.024563056229062061 0 -0.060082375608636177 0.026381554488268698 0 -0.058041123803710959 0.025458379495619861 0 -0.060082375608636177 0.026381554488268698 0 -0.058041123803710959 0.025458379495619861 0 -0.05845127749116056 0.027539612067736006 0 -0.058041123803710959 0.025458379495619861 0 -0.056164121782126181 0.026088876459303703 0 -0.05845127749116056 0.027539612067736006 0 -0.056164121782126181 0.026088876459303703 0 -0.053833494885275009 0.026588363768271076 0 -0.054125336660714833 0.024055682546551108 0 -0.056542710966787417 0.023667572897489934 0 -0.056164121782126181 0.026088876459303703 0 -0.054125336660714833 0.024055682546551108 0 -0.056542710966787417 0.023667572897489934 0 -0.054125336660714833 0.024055682546551108 0 -0.0555581619076791 0.021331270532126946 0 -0.054125336660714833 0.024055682546551108 0 -0.052786957446657623 0.021523146666539414 0 -0.0555581619076791 0.021331270532126946 0 -0.053640296406048775 0.01858915189338075 0 -0.052786957446657623 0.021523146666539414 0 -0.0555581619076791 0.021331270532126946 0 -0.052285665356064555 0.02398404672430679 0 -0.053094939637963766 0.02864230830277081 0 -0.044420306406932578 0.024254577610571953 0 -0.04903069641943196 0.018702083487502571 0 -0.047758285450045235 0.032686286381510353 0 -0.04903069641943196 0.018702083487502571 0 -0.052786957446657623 0.021523146666539414 0 -0.050336989673890831 0.024381753552418475 0 -0.054125336660714833 0.024055682546551108 0 -0.052786957446657623 0.021523146666539414 0 -0.050336989673890831 0.024381753552418475 0 -0.053833494885275009 0.026588363768271076 0 -0.054125336660714833 0.024055682546551108 0 -0.050336989673890831 0.024381753552418475 0 -0.053833494885275009 0.026588363768271076 0 -0.050336989673890831 0.024381753552418475 0 -0.052905049066540262 0.028548591359608036 0 -0.050336989673890831 0.024381753552418475 0 -0.052905049066540262 0.028548591359608036 0 -0.050834416830972312 0.02959932916947601 0 -0.053094939637963766 0.02864230830277081 0 -0.056660172638638318 0.034582487391985786 0 -0.052905049066540262 0.028548591359608036 0 -0.053720478821629253 0.031058888496147626 0 -0.050834416830972312 0.02959932916947601 0 -0.053720478821629253 0.031058888496147626 0 -0.050834416830972312 0.02959932916947601 0 -0.051115952132478083 0.034300037366360059 0 -0.053720478821629253 0.031058888496147626 0 -0.056596307716692745 0.031359448849987183 0 -0.055020845745851525 0.033684309706407074 0 -0.053720478821629253 0.031058888496147626 0 -0.056596307716692745 0.031359448849987183 0 -0.05600371799569788 0.029013347058700793 0 -0.053833494885275009 0.026588363768271076 0 -0.052905049066540262 0.028548591359608036 0 -0.05600371799569788 0.029013347058700793 0 -0.052905049066540262 0.028548591359608036 0 -0.053720478821629253 0.031058888496147626 0 -0.05600371799569788 0.029013347058700793 0 -0.056164121782126181 0.026088876459303703 0 -0.053833494885275009 0.026588363768271076 0 -0.05600371799569788 0.029013347058700793 0 -0.056164121782126181 0.026088876459303703 0 -0.05600371799569788 0.029013347058700793 0 -0.05845127749116056 0.027539612067736006 0 -0.05600371799569788 0.029013347058700793 0 -0.05845127749116056 0.027539612067736006 0 -0.059075021121846913 0.029747866121464454 0 -0.05845127749116056 0.027539612067736006 0 -0.059075021121846913 0.029747866121464454 0 -0.061197994488096971 0.028133064944845056 0 -0.06452591711599133 0.025978274385694701 0 -0.061197994488096971 0.028133064944845056 0 -0.061576775999506159 0.030298568355933225 0 -0.060082375608636177 0.026381554488268698 0 -0.05845127749116056 0.027539612067736006 0 -0.061197994488096971 0.028133064944845056 0 -0.059075021121846913 0.029747866121464454 0 -0.061197994488096971 0.028133064944845056 0 -0.061416731478455271 0.030022316714213963 0 -0.08076563958589035 0.023436876424819949 0 -0.081565463016220599 0.0229429495684534 0 -0.08345642682617084 0.019939302033293822 0 -0.084111086932206355 0.018896066174256869 0 -0.083304668653835692 0.019037135636618296 0 -0.081565463016220599 0.0229429495684534 0 -0.083844140614824411 0.020278058547631858 0 -0.059075021121846913 0.029747866121464454 0 -0.061416731478455271 0.030022316714213963 0 -0.059262748586884753 0.033127842693326338 0 -0.083647728801977267 0.021655201107504352 0 -0.083692974639961129 0.021923324042960858 0 -0.083828099956483604 0.021756080159282591 0 -0.081565463016220599 0.0229429495684534 0 -0.086590254048328777 0.018755868362085534 0 -0.056596307716692745 0.031359448849987183 0 -0.059075021121846913 0.029747866121464454 0 -0.059262748586884753 0.033127842693326338 0 -0.056596307716692745 0.031359448849987183 0 -0.05600371799569788 0.029013347058700793 0 -0.059075021121846913 0.029747866121464454 0 -0.056596307716692745 0.031359448849987183 0 -0.059262748586884753 0.033127842693326338 0 -0.055020845745851525 0.033684309706407074 0 -0.09350279265313656 0.016167312953900514 0 -0.096705250843655707 0.011299083789419087 0 -0.098207600713858395 0.015327401116976126 0 -0.083844140614824411 0.020278058547631858 0 -0.075984635992246183 0.023569561324735876 0 -0.083844140614824411 0.020278058547631858 0 -0.09423273112470848 0.01005658248076915 0 -0.098568166508924707 0.009886362034448563 0 -0.097598916747695053 0.010059131886746744 0 -0.098328945265449524 0.0088157829690763082 0 -0.086590254048328777 0.018755868362085534 0 -0.090976618170729842 0.012160360424962062 0 -0.097598916747695053 0.010059131886746744 0 -0.098328945265449524 0.0088157829690763082 0 -0.097373304256512375 0.0085028399892306764 0 -0.083844140614824411 0.020278058547631858 0 -0.086590254048328777 0.018755868362085534 0 -0.098328945265449524 0.0088157829690763082 0 -0.097373304256512375 0.0085028399892306764 0 -0.098424808050398688 0.0075384736112288691 0 -0.098568166508924707 0.009886362034448563 0 -0.098328945265449524 0.0088157829690763082 0 -0.099662323717649104 0.0081151235601744295 0 -0.098328945265449524 0.0088157829690763082 0 -0.099662323717649104 0.0081151235601744295 0 -0.098424808050398688 0.0075384736112288691 0 -0.096705250843655707 0.011299083789419087 0 -0.10058354223932185 0.011588659378726527 0 -0.098207600713858395 0.015327401116976126 0 -0.10058354223932185 0.011588659378726527 0 -0.10349014709316567 0.0091599378265534246 0 -0.10281279019343556 0.014442725638010218 0 -0.075984635992246183 0.023569561324735876 0 -0.066708761135584979 0.026572936403138465 0 -0.053720478821629253 0.031058888496147626 0 -0.055020845745851525 0.033684309706407074 0 -0.051115952132478083 0.034300037366360059 0 -0.10058354223932185 0.011588659378726527 0 -0.098207600713858395 0.015327401116976126 0 -0.10281279019343556 0.014442725638010218 0 -0.083093802372516262 0.022789978222588218 0 -0.083554511187460573 0.019346187153662993 0 -0.083093802372516262 0.022789978222588218 0 -0.082835317953834725 0.021955071920624892 0 -0.077196668080807107 0.031773044259750603 0 -0.072395779880842184 0.028313760644242927 0 -0.079442562984617285 0.025156767340224248 0 -0.077196668080807107 0.031773044259750603 0 -0.072395779880842184 0.028313760644242927 0 -0.071953802427049546 0.031676101602902136 0 -0.072395779880842184 0.028313760644242927 0 -0.071953802427049546 0.031676101602902136 0 -0.069147796097128039 0.030878717942282485 0 -0.077196668080807107 0.031773044259750603 0 -0.071953802427049546 0.031676101602902136 0 -0.075106897172564885 0.038354234018674424 0 -0.071953802427049546 0.031676101602902136 0 -0.069878761699404518 0.033959679796243723 0 -0.075106897172564885 0.038354234018674424 0 -0.085877733438932888 0.020448456626402461 0 -0.081735582419234218 0.022724082914187253 0 -0.069003762202572677 0.034090667256037453 0 -0.069147796097128039 0.030878717942282485 0 -0.066311546839920285 0.029209413005929122 0 -0.069878761699404518 0.033959679796243723 0 -0.069003762202572677 0.034090667256037453 0 -0.070121012097179164 0.032436829848899791 0 -0.085537415993417201 0.020553791055867004 0 -0.085877733438932888 0.020448456626402461 0 -0.069003762202572677 0.034090667256037453 0 -0.070121012097179164 0.032436829848899791 0 -0.069147796097128039 0.030878717942282485 0 -0.071953802427049546 0.031676101602902136 0 -0.069878761699404518 0.033959679796243723 0 -0.070121012097179164 0.032436829848899791 0 -0.071953802427049546 0.031676101602902136 0 -0.070121012097179164 0.032436829848899791 0 -0.069147796097128039 0.030878717942282485 0 -0.072395779880842184 0.028313760644242927 0 -0.069147796097128039 0.030878717942282485 0 -0.069114831719320688 0.027888040090369017 0 -0.06677423663385533 0.02597650295696334 0 -0.069114831719320688 0.027888040090369017 0 -0.066311546839920285 0.029209413005929122 0 -0.069147796097128039 0.030878717942282485 0 -0.069114831719320688 0.027888040090369017 0 -0.066311546839920285 0.029209413005929122 0 -0.083878059314444267 0.021304398085647963 0 -0.083983284045366605 0.021496161399216129 0 -0.083834769130037901 0.021591730054457071 0 -0.083878059314444267 0.021304398085647963 0 -0.083647728801977267 0.021655201107504352 0 -0.083834769130037901 0.021591730054457071 0 -0.080718474369415927 0.023668190491818845 0 -0.081565463016220599 0.0229429495684534 0 -0.080718474369415927 0.023668190491818845 0 -0.081735582419234218 0.022724082914187253 0 -0.083692974639961129 0.021923324042960858 0 -0.084195151551616554 0.021835478393389503 0 -0.083828099956483604 0.021756080159282591 0 -0.083647728801977267 0.021655201107504352 0 -0.083834769130037901 0.021591730054457071 0 -0.083828099956483604 0.021756080159282591 0 -0.084195151551616554 0.021835478393389503 0 -0.083834769130037901 0.021591730054457071 0 -0.083828099956483604 0.021756080159282591 0 -0.086590254048328777 0.018755868362085534 0 -0.085877733438932888 0.020448456626402461 0 -0.08416480784311374 0.021817880052240644 0 -0.083983284045366605 0.021496161399216129 0 -0.083834769130037901 0.021591730054457071 0 -0.085877733438932888 0.020448456626402461 0 -0.085241375820576892 0.020504395591752756 0 -0.098388043966507216 0.012727764808491322 0 -0.098023875978503344 0.010411890495275238 0 -0.096130129343583573 0.011193330104623899 0 -0.098388043966507216 0.012727764808491322 0 -0.095445453442541128 0.013237917398908641 0 -0.096130129343583573 0.011193330104623899 0 -0.098023875978503344 0.010411890495275238 0 -0.096015157119699185 0.0094353169776403758 0 -0.096130129343583573 0.011193330104623899 0 -0.096015157119699185 0.0094353169776403758 0 -0.094902067178600197 0.010037577823101249 0 -0.096130129343583573 0.011193330104623899 0 -0.094902067178600197 0.010037577823101249 0 -0.096130129343583573 0.011193330104623899 0 -0.094438174191557103 0.011304662375716127 0 -0.085877733438932888 0.020448456626402461 0 -0.08877694438966667 0.015828037020669906 0 -0.095445453442541128 0.013237917398908641 0 -0.096130129343583573 0.011193330104623899 0 -0.094438174191557103 0.011304662375716127 0 -0.085877733438932888 0.020448456626402461 0 -0.083554511187460573 0.019346187153662993 0 -0.096432313363542591 0.01577097785638485 0 -0.095117252677688585 0.013250776884188577 0 -0.09306601374787353 0.013353563863113297 0 -0.069878761699404518 0.033959679796243723 0 -0.069008926283153429 0.03408814067461309 0 -0.075106897172564885 0.038354234018674424 0 -0.095117252677688585 0.013250776884188577 0 -0.093252215314417727 0.012758812372965739 0 -0.09306601374787353 0.013353563863113297 0 -0.094902067178600197 0.010037577823101249 0 -0.094438174191557103 0.011304662375716127 0 -0.093463481533389084 0.0094156144453314099 0 -0.095117252677688585 0.013250776884188577 0 -0.093830994756859534 0.010657300650033057 0 -0.093252215314417727 0.012758812372965739 0 -0.08877694438966667 0.015828037020669906 0 -0.089776158281653418 0.012805957619412646 0 -0.083554511187460573 0.019346187153662993 0 -0.085995975900341373 0.017601828491519041 0 -0.092153326575418498 0.011430948930460115 0 -0.093059379151752289 0.013372258131849356 0 -0.089608823513117039 0.010939094257904987 0 -0.093252215314417727 0.012758812372965739 0 -0.092153326575418498 0.011430948930460115 0 -0.093059379151752289 0.013372258131849356 0 -0.093830994756859534 0.010657300650033057 0 -0.093252215314417727 0.012758812372965739 0 -0.092153326575418498 0.011430948930460115 0 -0.091387369393895856 0.016852916557761173 0 -0.092643520491793405 0.013285561870597831 0 -0.089794663124008633 0.014047657950270086 0 -0.083688653913007643 0.019104289083618928 0 -0.083554511187460573 0.019346187153662993 0 -0.092402495622153247 0.0077980973683563224 0 -0.093442277003832896 0.0053288768122554762 0 -0.090922133527320217 0.0065973005075230127 0 -0.092402495622153247 0.0077980973683563224 0 -0.091014825185580461 0.0079882736610835496 0 -0.090922133527320217 0.0065973005075230127 0 -0.092402495622153247 0.0077980973683563224 0 -0.091014825185580461 0.0079882736610835496 0 -0.091113744662574131 0.0094054898800156692 0 -0.093830994756859534 0.010657300650033057 0 -0.092153326575418498 0.011430948930460115 0 -0.091113744662574131 0.0094054898800156692 0 -0.089776158281653418 0.012805957619412646 0 -0.089868895605750329 0.011521581502915603 0 -0.092153326575418498 0.011430948930460115 0 -0.091113744662574131 0.0094054898800156692 0 -0.089608823513117039 0.010939094257904987 0 -0.093830994756859534 0.010657300650033057 0 -0.092402495622153247 0.0077980973683563224 0 -0.091113744662574131 0.0094054898800156692 0 -0.093463481533389084 0.0094156144453314099 0 -0.092402495622153247 0.0077980973683563224 0 -0.093788352526655572 0.0080383421316206505 0 -0.094902067178600197 0.010037577823101249 0 -0.093463481533389084 0.0094156144453314099 0 -0.094848606094262877 0.0086828881396924101 0 -0.093463481533389084 0.0094156144453314099 0 -0.093788352526655572 0.0080383421316206505 0 -0.094848606094262877 0.0086828881396924101 0 -0.093788352526655572 0.0080383421316206505 0 -0.094846251262644538 0.0070878464626894363 0 -0.094848606094262877 0.0086828881396924101 0 -0.092402495622153247 0.0077980973683563224 0 -0.093759564790115532 0.0068819920724093684 0 -0.093442277003832896 0.0053288768122554762 0 -0.093788352526655572 0.0080383421316206505 0 -0.093759564790115532 0.0068819920724093684 0 -0.094846251262644538 0.0070878464626894363 0 -0.092402495622153247 0.0077980973683563224 0 -0.093788352526655572 0.0080383421316206505 0 -0.093759564790115532 0.0068819920724093684 0 -0.093759564790115532 0.0068819920724093684 0 -0.094846251262644538 0.0070878464626894363 0 -0.094320076774123962 0.0056668215281962826 0 -0.096145270417381717 0.0066419400429255839 0 -0.094846251262644538 0.0070878464626894363 0 -0.095437447920162163 0.0053123537084406374 0 -0.094846251262644538 0.0070878464626894363 0 -0.095437447920162163 0.0053123537084406374 0 -0.094320076774123962 0.0056668215281962826 0 -0.096145270417381717 0.0066419400429255839 0 -0.094846251262644538 0.0070878464626894363 0 -0.096055641014765158 0.0079890611382202013 0 -0.094846251262644538 0.0070878464626894363 0 -0.094848606094262877 0.0086828881396924101 0 -0.096055641014765158 0.0079890611382202013 0 -0.096015157119699185 0.0094353169776403758 0 -0.094902067178600197 0.010037577823101249 0 -0.094848606094262877 0.0086828881396924101 0 -0.096015157119699185 0.0094353169776403758 0 -0.094848606094262877 0.0086828881396924101 0 -0.096055641014765158 0.0079890611382202013 0 -0.096015157119699185 0.0094353169776403758 0 -0.096055641014765158 0.0079890611382202013 0 -0.097665200084636958 0.0080347959084327986 0 -0.090976618170729842 0.012160360424962062 0 -0.093074221432977625 0.009082055154398961 0 -0.098023875978503344 0.010411890495275238 0 -0.096015157119699185 0.0094353169776403758 0 -0.097665200084636958 0.0080347959084327986 0 -0.096145270417381717 0.0066419400429255839 0 -0.097665200084636958 0.0080347959084327986 0 -0.097060176067191334 0.0054671324893763645 0 -0.093074221432977625 0.009082055154398961 0 -0.093644425738268477 0.007905009217811676 0 -0.096145270417381717 0.0066419400429255839 0 -0.096055641014765158 0.0079890611382202013 0 -0.097665200084636958 0.0080347959084327986 0 -0.097060176067191334 0.0054671324893763645 0 -0.097145919915877552 0.0037624941629713824 0 -0.096238795732964719 0.0044783607413211197 0 -0.097060176067191334 0.0054671324893763645 0 -0.097145919915877552 0.0037624941629713824 0 -0.098028550063453013 0.0046331029008140259 0 -0.097825345769805255 0.0031258209619636113 0 -0.09659369232528979 0.0031987972385810058 0 -0.09882139413262854 0.002754582053440445 0 -0.095210212491355195 0.0034056298743091996 0 -0.097832733723212925 0.0015101974440101761 0 -0.097145919915877552 0.0037624941629713824 0 -0.095210212491355195 0.0034056298743091996 0 -0.096238795732964719 0.0044783607413211197 0 -0.095210212491355195 0.0034056298743091996 0 -0.095658265820304567 0.0016677309430142941 0 -0.097832733723212925 0.0015101974440101761 0 -0.095210212491355195 0.0034056298743091996 0 -0.095437447920162163 0.0053123537084406374 0 -0.094576228111981492 0.0046690451400138479 0 -0.096145270417381717 0.0066419400429255839 0 -0.097060176067191334 0.0054671324893763645 0 -0.095437447920162163 0.0053123537084406374 0 -0.097060176067191334 0.0054671324893763645 0 -0.096238795732964719 0.0044783607413211197 0 -0.095437447920162163 0.0053123537084406374 0 -0.095210212491355195 0.0034056298743091996 0 -0.096238795732964719 0.0044783607413211197 0 -0.095437447920162163 0.0053123537084406374 0 -0.095437447920162163 0.0053123537084406374 0 -0.094320076774123962 0.0056668215281962826 0 -0.094576228111981492 0.0046690451400138479 0 -0.094320076774123962 0.0056668215281962826 0 -0.093442277003832896 0.0053288768122554762 0 -0.093719619568215021 0.0047161771380469942 0 -0.093759564790115532 0.0068819920724093684 0 -0.094320076774123962 0.0056668215281962826 0 -0.093442277003832896 0.0053288768122554762 0 -0.093719619568215021 0.0047161771380469942 0 -0.093151027510953333 0.0042721132343525947 0 -0.094469636656221059 0.0037987778119861308 0 -0.093719619568215021 0.0047161771380469942 0 -0.093151027510953333 0.0042721132343525947 0 -0.092892376885372246 0.0051908603637926152 0 -0.093442277003832896 0.0053288768122554762 0 -0.093719619568215021 0.0047161771380469942 0 -0.092892376885372246 0.0051908603637926152 0 -0.093719619568215021 0.0047161771380469942 0 -0.094576228111981492 0.0046690451400138479 0 -0.094469636656221059 0.0037987778119861308 0 -0.094320076774123962 0.0056668215281962826 0 -0.093719619568215021 0.0047161771380469942 0 -0.094576228111981492 0.0046690451400138479 0 -0.095210212491355195 0.0034056298743091996 0 -0.094576228111981492 0.0046690451400138479 0 -0.094469636656221059 0.0037987778119861308 0 -0.095210212491355195 0.0034056298743091996 0 -0.094469636656221059 0.0037987778119861308 0 -0.095658265820304567 0.0016677309430142941 0 -0.097467498118502346 0.0018688707813715609 0 -0.097442744635151179 0.00063194377122662081 0 -0.098167989737622308 0.0002035912290310868 0 -0.093151027510953333 0.0042721132343525947 0 -0.094469636656221059 0.0037987778119861308 0 -0.095658265820304567 0.0016677309430142941 0 -0.094782317715077169 0.0033007638515407428 0 -0.096485066651088122 0.0014885309058261691 0 -0.097442744635151179 0.00063194377122662081 0 -0.097183499260483877 0.001428358293671131 0 -0.097067735738422728 0.00075817346785264866 0 -0.097467498118502346 0.0018688707813715609 0 -0.097442744635151179 0.00063194377122662081 0 -0.097183499260483877 0.001428358293671131 0 -0.097467498118502346 0.0018688707813715609 0 -0.097195467197416147 0.0017526251303600943 0 -0.09719979591807848 0.0019444978935989085 0 -0.097195467197416147 0.0017526251303600943 0 -0.096665707882719124 0.0017252385536709021 0 -0.09719979591807848 0.0019444978935989085 0 -0.096665707882719124 0.0017252385536709021 0 -0.097183499260483877 0.001428358293671131 0 -0.09655829211054183 0.00090033501089292127 0 -0.097195467197416147 0.0017526251303600943 0 -0.096665707882719124 0.0017252385536709021 0 -0.097183499260483877 0.001428358293671131 0 -0.097467498118502346 0.0018688707813715609 0 -0.097195467197416147 0.0017526251303600943 0 -0.097183499260483877 0.001428358293671131 0 -0.09655829211054183 0.00090033501089292127 0 -0.097067735738422728 0.00075817346785264866 0 -0.09691694201923455 0.00017565459722584836 0 -0.097183499260483877 0.001428358293671131 0 -0.09655829211054183 0.00090033501089292127 0 -0.097067735738422728 0.00075817346785264866 0 -0.09655829211054183 0.00090033501089292127 0 -0.095750477403430873 0.0014180475410665002 0 -0.095660002052243384 3.6655993326719333e-06 0 -0.096665707882719124 0.0017252385536709021 0 -0.09655829211054183 0.00090033501089292127 0 -0.095750477403430873 0.0014180475410665002 0 -0.096665707882719124 0.0017252385536709021 0 -0.095353860583839767 0.0024212900601235628 0 -0.095750477403430873 0.0014180475410665002 0 -0.09719979591807848 0.0019444978935989085 0 -0.093723086849913359 0.0043848891293695545 0 -0.095075450517881438 0.004735910027309915 0 -0.097467498118502346 0.0018688707813715609 0 -0.09719979591807848 0.0019444978935989085 0 -0.095075450517881438 0.004735910027309915 0 -0.094782317715077169 0.0033007638515407428 0 -0.092284259668013513 0.0058275954209875101 0 -0.092458342729530796 0.005754215946366042 0 -0.092284259668013513 0.0058275954209875101 0 -0.093151027510953333 0.0042721132343525947 0 -0.092892376885372246 0.0051908603637926152 0 -0.091314189157590084 0.006446432539952026 0 -0.09719979591807848 0.0019444978935989085 0 -0.094844121826250516 0.0044766833285120452 0 -0.095353860583839767 0.0024212900601235628 0 -0.096665707882719124 0.0017252385536709021 0 -0.09719979591807848 0.0019444978935989085 0 -0.095353860583839767 0.0024212900601235628 0 -0.095460822707395906 0.0034452934995384435 0 -0.093685633493587453 0.004725950803564226 0 -0.093442277003832896 0.0053288768122554762 0 -0.092892376885372246 0.0051908603637926152 0 -0.091314189157590084 0.006446432539952026 0 -0.1006565287084645 0.0066496135290009858 0 -0.099495770150229909 0.0067574561230729895 0 -0.099984099194746531 0.0046099171356348678 0 -0.1006565287084645 0.0066496135290009858 0 -0.10195731881865613 0.0043300817772389914 0 -0.10364154985611528 0.0051562604784917646 0 -0.1006565287084645 0.0066496135290009858 0 -0.10364154985611528 0.0051562604784917646 0 -0.10349014709316567 0.0091599378265534246 0 -0.10058354223932185 0.011588659378726527 0 -0.1006565287084645 0.0066496135290009858 0 -0.10349014709316567 0.0091599378265534246 0 -0.09423273112470848 0.01005658248076915 0 -0.096835065102096843 0.0076878511053876985 0 -0.096705250843655707 0.011299083789419087 0 -0.10058354223932185 0.011588659378726527 0 -0.1006565287084645 0.0066496135290009858 0 -0.099662323717649104 0.0081151235601744295 0 -0.1006565287084645 0.0066496135290009858 0 -0.099495770150229909 0.0067574561230729895 0 -0.099662323717649104 0.0081151235601744295 0 -0.098424808050398688 0.0075384736112288691 0 -0.099495770150229909 0.0067574561230729895 0 -0.098424808050398688 0.0075384736112288691 0 -0.098553557004690415 0.0059499351482383903 0 -0.099495770150229909 0.0067574561230729895 0 -0.09717652702232768 0.0069394039504732767 0 -0.098424808050398688 0.0075384736112288691 0 -0.098553557004690415 0.0059499351482383903 0 -0.097373304256512375 0.0085028399892306764 0 -0.09717652702232768 0.0069394039504732767 0 -0.098424808050398688 0.0075384736112288691 0 -0.09717652702232768 0.0069394039504732767 0 -0.097060176067191334 0.0054671324893763645 0 -0.098553557004690415 0.0059499351482383903 0 -0.098553557004690415 0.0059499351482383903 0 -0.099495770150229909 0.0067574561230729895 0 -0.099984099194746531 0.0046099171356348678 0 -0.098028550063453013 0.0046331029008140259 0 -0.098894770290665929 0.0034747066796936414 0 -0.099984099194746531 0.0046099171356348678 0 -0.098553557004690415 0.0059499351482383903 0 -0.098028550063453013 0.0046331029008140259 0 -0.099984099194746531 0.0046099171356348678 0 -0.097060176067191334 0.0054671324893763645 0 -0.098553557004690415 0.0059499351482383903 0 -0.098028550063453013 0.0046331029008140259 0 -0.097825345769805255 0.0031258209619636113 0 -0.099617466384552891 0.0029833426884793963 0 -0.09882139413262854 0.002754582053440445 0 -0.10051087562773856 0.0022696188024130598 0 -0.099542303808176497 0.00099037892870216756 0 -0.097145919915877552 0.0037624941629713824 0 -0.098028550063453013 0.0046331029008140259 0 -0.098894770290665929 0.0034747066796936414 0 -0.099617466384552891 0.0029833426884793963 0 -0.10062964096983479 0.0029077258161950359 0 -0.10051087562773856 0.0022696188024130598 0 -0.1015257851455751 0.0026578187828343366 0 -0.10106864578702646 0.0015928582091421391 0 -0.099984099194746531 0.0046099171356348678 0 -0.10185419428530684 0.0034158772716904391 0 -0.1015257851455751 0.0026578187828343366 0 -0.098894770290665929 0.0034747066796936414 0 -0.099984099194746531 0.0046099171356348678 0 -0.1015257851455751 0.0026578187828343366 0 -0.1006565287084645 0.0066496135290009858 0 -0.099984099194746531 0.0046099171356348678 0 -0.10195731881865613 0.0043300817772389914 0 -0.10195731881865613 0.0043300817772389914 0 -0.10239025613877492 0.0025705708079174403 0 -0.10364154985611528 0.0051562604784917646 0 -0.099984099194746531 0.0046099171356348678 0 -0.10195731881865613 0.0043300817772389914 0 -0.10185419428530684 0.0034158772716904391 0 -0.10195731881865613 0.0043300817772389914 0 -0.10185419428530684 0.0034158772716904391 0 -0.10239025613877492 0.0025705708079174403 0 -0.10185419428530684 0.0034158772716904391 0 -0.1015257851455751 0.0026578187828343366 0 -0.10239025613877492 0.0025705708079174403 0 -0.081798012319292457 0.0089175210715834816 0 -0.081040825151232884 0.010040599578996284 0 -0.081228733099665065 0.0077989292602868828 0 -0.10219331039389842 0.0018344597910401822 0 -0.10278090536036918 0.0021762305759573312 0 -0.10286312041468125 0.0012999044927497622 0 -0.087929934541490659 0.007844898209714183 0 -0.090399612634985443 0.0066975854669353097 0 -0.081040825151232884 0.010040599578996284 0 -0.081965013261796574 0.0096753739307720837 0 -0.082293783128065207 0.010338214063488763 0 -0.081798012319292457 0.0089175210715834816 0 -0.081040825151232884 0.010040599578996284 0 -0.081965013261796574 0.0096753739307720837 0 -0.082322194212187796 0.0085281101325943177 0 -0.082677796180855245 0.0094480963046022371 0 -0.083206737916852319 0.0081464960431533624 0 -0.077428156093116943 0.012560127218154419 0 -0.083568956207792186 0.007174455754624668 0 -0.082322194212187796 0.0085281101325943177 0 -0.083206737916852319 0.0081464960431533624 0 -0.082816715054967766 0.0076578661300411811 0 -0.084464089298732573 0.0088876618471981986 0 -0.088003756565446595 0.0055212245105828893 0 -0.081798012319292457 0.0089175210715834816 0 -0.082761640667547029 0.009522339794514223 0 -0.082015622148336506 0.0076242583709347595 0 -0.084464089298732573 0.0088876618471981986 0 -0.089484295692600288 0.0059701415475992151 0 -0.081798012319292457 0.0089175210715834816 0 -0.081965013261796574 0.0096753739307720837 0 -0.082761640667547029 0.009522339794514223 0 -0.082293783128065207 0.010338214063488763 0 -0.082745434290315875 0.0095332236369932224 0 -0.083426587573849589 0.011258982590941345 0 -0.081965013261796574 0.0096753739307720837 0 -0.082293783128065207 0.010338214063488763 0 -0.082761640667547029 0.009522339794514223 0 -0.084363288941684253 0.0090166187603085163 0 -0.084464089298732573 0.0088876618471981986 0 -0.084464089298732573 0.0088876618471981986 0 -0.077428156093116943 0.012560127218154419 0 -0.082293783128065207 0.010338214063488763 0 -0.083426587573849589 0.011258982590941345 0 -0.081921941701399451 0.011743511140793524 0 -0.087929934541490659 0.007844898209714183 0 -0.084292394129739212 0.011318487728392418 0 -0.081040825151232884 0.010040599578996284 0 -0.080851711137839968 0.012271169423279783 0 -0.081921941701399451 0.011743511140793524 0 -0.10219331039389842 0.0018344597910401822 0 -0.10278090536036918 0.0021762305759573312 0 -0.10265431506811791 0.0030882358128700893 0 -0.092444992923710972 0.0068030658578617682 0 -0.084292394129739212 0.011318487728392418 0 -0.081040825151232884 0.010040599578996284 0 -0.082293783128065207 0.010338214063488763 0 -0.081921941701399451 0.011743511140793524 0 -0.075848036751747394 0.012886442949958714 0 -0.077942188178018942 0.017482391721400946 0 -0.07534112736176804 0.019014931154624166 0 -0.084292394129739212 0.011318487728392418 0 -0.072145833649693264 0.019393906206610322 0 -0.084292394129739212 0.011318487728392418 0 -0.07898761873472207 0.015451209638545304 0 -0.080851711137839968 0.012271169423279783 0 -0.081921941701399451 0.011743511140793524 0 -0.081995163909052024 0.014810366234212544 0 -0.083426587573849589 0.011258982590941345 0 -0.081921941701399451 0.011743511140793524 0 -0.081995163909052024 0.014810366234212544 0 -0.063550083355745482 0.018792269897605452 0 -0.063015851717625387 0.020063137204897236 0 -0.063973988733091638 0.020009002949385978 0 -0.077428156093116943 0.012560127218154419 0 -0.072145833649693264 0.019393906206610322 0 -0.065320181226317456 0.025523160727268845 0 -0.064565777978963498 0.02741526251849883 0 -0.06607362901132284 0.027202296821644555 0 -0.063015851717625387 0.020063137204897236 0 -0.063973988733091638 0.020009002949385978 0 -0.063289756260031457 0.020705795342455001 0 -0.072145833649693264 0.019393906206610322 0 -0.062576199639016089 0.025234568008023612 0 -0.077942188178018942 0.017482391721400946 0 -0.07534112736176804 0.019014931154624166 0 -0.076451465943662825 0.021216541981437388 0 -0.072145833649693264 0.019393906206610322 0 -0.069542877166187428 0.023262320286145843 0 -0.067680306497137036 0.012114635393286825 0 -0.06889370903319092 0.01274070250582696 0 -0.067937626849706001 0.014324980815204304 0 -0.067680306497137036 0.012114635393286825 0 -0.067937626849706001 0.014324980815204304 0 -0.066704460647393396 0.012882697108842277 0 -0.067680306497137036 0.012114635393286825 0 -0.06889370903319092 0.01274070250582696 0 -0.068142006841895489 0.010982088668824623 0 -0.065545700806884377 0.017243383981190321 0 -0.053716283132833768 0.024325063809172494 0 -0.063973988733091638 0.020009002949385978 0 -0.063289756260031457 0.020705795342455001 0 -0.063989771293042688 0.020992170498167116 0 -0.069643658283565169 0.014491811097821067 0 -0.06889370903319092 0.01274070250582696 0 -0.067937626849706001 0.014324980815204304 0 -0.077428156093116943 0.012560127218154419 0 -0.065545700806884377 0.017243383981190321 0 -0.075699968934459974 0.0091889653453251247 0 -0.069056564139907378 0.010865149445116106 0 -0.069643658283565169 0.014491811097821067 0 -0.067937626849706001 0.014324980815204304 0 -0.069160484450712864 0.015752058531667695 0 -0.075699968934459974 0.0091889653453251247 0 -0.083568956207792186 0.007174455754624668 0 -0.080765503568320185 0.0059635192636304504 0 -0.082402405283607691 0.0079398069173472786 0 -0.080710121905704826 0.0080663851647944183 0 -0.080765503568320185 0.0059635192636304504 0 -0.080710121905704826 0.0080663851647944183 0 -0.078984240328026464 0.0078465638754677686 0 -0.089437066839811646 0.0029592186469493396 0 -0.08478812892045498 0.0034532134810701938 0 -0.09967454035736939 0.00027394527102188586 0 -0.098718933484006205 0.00053267569902645936 0 -0.09900915453604546 -0.0015642567155101856 0 -0.096754559227610337 -0.00054340904238944451 0 -0.09685844580510565 -0.0013254530240333767 0 -0.098718933484006205 0.00053267569902645936 0 -0.09900915453604546 -0.0015642567155101856 0 -0.097205164892000553 -0.0012685102940360503 0 -0.09900915453604546 -0.0015642567155101856 0 -0.097205164892000553 -0.0012685102940360503 0 -0.097885285545860637 -0.0022336716769414985 0 -0.080765503568320185 0.0059635192636304504 0 -0.078984240328026464 0.0078465638754677686 0 -0.078156266545374956 0.0059549483536613821 0 -0.097251902918007588 -0.0028063997031617734 0 -0.097421351411697665 -0.0028119332589158085 0 -0.097311861976600939 -0.0028552799809441779 0 -0.097251902918007588 -0.0028063997031617734 0 -0.097418540776209983 -0.0027778556557296837 0 -0.097421351411697665 -0.0028119332589158085 0 -0.09739786269904642 -0.0027651612236226203 0 -0.097368261072662263 -0.0027728154236441259 0 -0.097278734590911631 -0.0028208703596966562 0 -0.097251902918007588 -0.0028063997031617734 0 -0.097368261072662263 -0.0027728154236441259 0 -0.097418540776209983 -0.0027778556557296837 0 -0.097251902918007588 -0.0028063997031617734 0 -0.097368261072662263 -0.0027728154236441259 0 -0.097278734590911631 -0.0028208703596966562 0 -0.097205164892000553 -0.0012685102940360503 0 -0.096711508697692655 -0.0025729302323686098 0 -0.097885285545860637 -0.0022336716769414985 0 -0.09685844580510565 -0.0013254530240333767 0 -0.096788279380852368 -0.0016762822890530405 0 -0.097278734590911631 -0.0028208703596966562 0 -0.09709326143135795 -0.0028042265257283813 0 -0.09684013428036313 -0.0026885996903067721 0 -0.097251902918007588 -0.0028063997031617734 0 -0.09709326143135795 -0.0028042265257283813 0 -0.097183855847256459 -0.0028380501478559176 0 -0.097251902918007588 -0.0028063997031617734 0 -0.097278734590911631 -0.0028208703596966562 0 -0.09709326143135795 -0.0028042265257283813 0 -0.09684013428036313 -0.0026885996903067721 0 -0.096711508697692655 -0.0025729302323686098 0 -0.097056593101065874 -0.002735739790758676 0 -0.096711508697692655 -0.0025729302323686098 0 -0.093340557961355167 -0.0051959276333485424 0 -0.088610905816574811 -0.0032334643811235213 0 -0.09298216178113923 -0.0007857713192198335 0 -0.088884966709920299 -0.00074881686916906367 0 -0.09709326143135795 -0.0028042265257283813 0 -0.09684013428036313 -0.0026885996903067721 0 -0.097097950697708352 -0.0027976225287791021 0 -0.097205164892000553 -0.0012685102940360503 0 -0.09684013428036313 -0.0026885996903067721 0 -0.096711508697692655 -0.0025729302323686098 0 -0.096711508697692655 -0.0025729302323686098 0 -0.096666449898586068 -0.0050894523796587076 0 -0.093340557961355167 -0.0051959276333485424 0 -0.096711508697692655 -0.0025729302323686098 0 -0.097885285545860637 -0.0022336716769414985 0 -0.098770039868475656 -0.0039485046956026955 0 -0.096711508697692655 -0.0025729302323686098 0 -0.096666449898586068 -0.0050894523796587076 0 -0.098770039868475656 -0.0039485046956026955 0 -0.096666449898586068 -0.0050894523796587076 0 -0.098770039868475656 -0.0039485046956026955 0 -0.097506354015102742 -0.0089612475787619727 0 -0.096666449898586068 -0.0050894523796587076 0 -0.093340557961355167 -0.0051959276333485424 0 -0.097506354015102742 -0.0089612475787619727 0 -0.093340557961355167 -0.0051959276333485424 0 -0.088610905816574811 -0.0032334643811235213 0 -0.089907417185434602 -0.0082894017746598658 0 -0.093340557961355167 -0.0051959276333485424 0 -0.097506354015102742 -0.0089612475787619727 0 -0.089907417185434602 -0.0082894017746598658 0 -0.080765503568320185 0.0059635192636304504 0 -0.078156266545374956 0.0059549483536613821 0 -0.079104942160443503 0.0039658861976918577 0 -0.08478812892045498 0.0034532134810701938 0 -0.078395471340468537 0.0043542785818752195 0 -0.09900915453604546 -0.0015642567155101856 0 -0.097885285545860637 -0.0022336716769414985 0 -0.098770039868475656 -0.0039485046956026955 0 -0.078156266545374956 0.0059549483536613821 0 -0.079104942160443503 0.0039658861976918577 0 -0.07730197475192109 0.0040394252079300709 0 -0.07730197475192109 0.0040394252079300709 0 -0.077403545518673789 0.0019167105536911351 0 -0.07644721271198178 0.0020798442482318331 0 -0.079104942160443503 0.0039658861976918577 0 -0.07730197475192109 0.0040394252079300709 0 -0.077403545518673789 0.0019167105536911351 0 -0.069056564139907378 0.010865149445116106 0 -0.058498880676405608 0.012792572082725264 0 -0.078395471340468537 0.0043542785818752195 0 -0.068380778709665413 0.0086044526834547462 0 -0.066704460647393396 0.012882697108842277 0 -0.066817472731623931 0.011193015424230006 0 -0.065473232002601939 0.011415467263011623 0 -0.067680306497137036 0.012114635393286825 0 -0.066704460647393396 0.012882697108842277 0 -0.066817472731623931 0.011193015424230006 0 -0.053807928285077439 0.019093425720148327 0 -0.058498880676405608 0.012792572082725264 0 -0.035374617479697938 0.029554279735081668 0 -0.032526358692997664 0.029981350800241845 0 -0.032426302017500006 0.027430805189311559 0 -0.058498880676405608 0.012792572082725264 0 -0.068380778709665413 0.0086044526834547462 0 -0.032526358692997664 0.029981350800241845 0 -0.032426302017500006 0.027430805189311559 0 -0.030324364891661681 0.02720303231697203 0 -0.035374617479697938 0.029554279735081668 0 -0.032426302017500006 0.027430805189311559 0 -0.034806421910958812 0.026846043090393998 0 -0.035374617479697938 0.029554279735081668 0 -0.034806421910958812 0.026846043090393998 0 -0.036631509808310779 0.027827010632305308 0 -0.034806421910958812 0.026846043090393998 0 -0.03683859832887143 0.025523801380375955 0 -0.036631509808310779 0.027827010632305308 0 -0.046418766458567698 0.0087778492104608197 0 -0.042440571313004931 0.0097284142052569342 0 -0.04250808480118904 0.01359034399318328 0 -0.068380778709665413 0.0086044526834547462 0 -0.066451950370077853 0.0040383749508292694 0 -0.050858027781629268 0.012217422816625976 0 -0.046418766458567698 0.0087778492104608197 0 -0.04250808480118904 0.01359034399318328 0 -0.053824489832702951 0.011779111999015044 0 -0.049586295051073356 0.0091971677147723117 0 -0.049077926380060706 0.0060081754433078099 0 -0.058498880676405608 0.012792572082725264 0 -0.04036557584914046 0.015062583552849576 0 -0.049586295051073356 0.0091971677147723117 0 -0.050858027781629268 0.012217422816625976 0 -0.046418766458567698 0.0087778492104608197 0 -0.067174603866199389 0.0080108064031953353 0 -0.068380778709665413 0.0086044526834547462 0 -0.053824489832702951 0.011779111999015044 0 -0.049586295051073356 0.0091971677147723117 0 -0.050872238832482576 0.012294107675697405 0 -0.032426302017500006 0.027430805189311559 0 -0.030324364891661681 0.02720303231697203 0 -0.03161135428775054 0.025738090088720442 0 -0.049586295051073356 0.0091971677147723117 0 -0.049077926380060706 0.0060081754433078099 0 -0.046418766458567698 0.0087778492104608197 0 -0.049077926380060706 0.0060081754433078099 0 -0.046418766458567698 0.0087778492104608197 0 -0.046014757984357543 0.0050697624957263604 0 -0.046418766458567698 0.0087778492104608197 0 -0.046014757984357543 0.0050697624957263604 0 -0.043474871013780891 0.006238437441371654 0 -0.046014757984357543 0.0050697624957263604 0 -0.043474871013780891 0.006238437441371654 0 -0.043940479337933346 0.0038785266622508494 0 -0.046418766458567698 0.0087778492104608197 0 -0.043474871013780891 0.006238437441371654 0 -0.042440571313004931 0.0097284142052569342 0 -0.04036557584914046 0.015062583552849576 0 -0.021194251963532466 0.0146950964485497 0 -0.046014757984357543 0.0050697624957263604 0 -0.044402789818065523 0.00035287675942405561 0 -0.043940479337933346 0.0038785266622508494 0 -0.044402789818065523 0.00035287675942405561 0 -0.043940479337933346 0.0038785266622508494 0 -0.041297018254901702 0.0050099620092190341 0 -0.049077926380060706 0.0060081754433078099 0 -0.046014757984357543 0.0050697624957263604 0 -0.044402789818065523 0.00035287675942405561 0 -0.030324364891661681 0.02720303231697203 0 -0.028316791306251598 0.024712425670718283 0 -0.030497628056905885 0.024866837861706126 0 -0.030324364891661681 0.02720303231697203 0 -0.030497628056905885 0.024866837861706126 0 -0.03161135428775054 0.025738090088720442 0 -0.030497628056905885 0.024866837861706126 0 -0.03161135428775054 0.025738090088720442 0 -0.031780587974268672 0.024088286337030813 0 -0.030497628056905885 0.024866837861706126 0 -0.031182347244451122 0.022825123540213363 0 -0.031780587974268672 0.024088286337030813 0 -0.028316791306251598 0.024712425670718283 0 -0.030497628056905885 0.024866837861706126 0 -0.031182347244451122 0.022825123540213363 0 0.014469063222612388 0.025306865258430598 0 0.012033718736155982 0.023671867650816594 0 0.013446541208428218 0.024278826831134099 0 -0.021194251963532466 0.0146950964485497 0 -0.011970252674524519 0.027223895932123935 0 0.014505596016741293 0.022767274648536208 0 0.012033718736155982 0.023671867650816594 0 0.013446541208428218 0.024278826831134099 0 -0.011970252674524519 0.027223895932123935 0 -0.013168683794390705 0.027632244966062397 0 0.014505596016741293 0.022767274648536208 0 0.013446541208428218 0.024278826831134099 0 0.015083971906653577 0.024885754812035896 0 -0.0081553339630846457 0.017195716187983524 0 -0.016791351839730202 0.014141791220099073 0 0.014469063222612388 0.025306865258430598 0 0.013446541208428218 0.024278826831134099 0 0.014850613182115309 0.024802693066509878 0 -0.021194251963532466 0.0146950964485497 0 -0.016791351839730202 0.014141791220099073 0 -0.034806421910958812 0.026846043090393998 0 -0.033536433878327387 0.024781815719427665 0 -0.03683859832887143 0.025523801380375955 0 -0.033536433878327387 0.024781815719427665 0 -0.034606498460071952 0.022165271577939055 0 -0.03683859832887143 0.025523801380375955 0 -0.032426302017500006 0.027430805189311559 0 -0.03161135428775054 0.025738090088720442 0 -0.033175004520497348 0.025111330696772811 0 -0.032426302017500006 0.027430805189311559 0 -0.034806421910958812 0.026846043090393998 0 -0.033536433878327387 0.024781815719427665 0 -0.028798839730921618 0.02601341661993118 0 -0.02792549857713374 0.026431225302803868 0 -0.03161135428775054 0.025738090088720442 0 -0.033175004520497348 0.025111330696772811 0 -0.031780587974268672 0.024088286337030813 0 -0.033175004520497348 0.025111330696772811 0 -0.032648378919785545 0.023377834882833057 0 -0.033947675065182294 0.023014742111039294 0 -0.033175004520497348 0.025111330696772811 0 -0.031780587974268672 0.024088286337030813 0 -0.032648378919785545 0.023377834882833057 0 -0.031256673609595831 0.022983301642574207 0 -0.031780587974268672 0.024088286337030813 0 -0.032648378919785545 0.023377834882833057 0 -0.014361339186501655 0.03990739241626292 0 -0.019486442690410687 0.041700436215997408 0 -0.020697563490621365 0.04915121929726575 0 -0.02792549857713374 0.026431225302803868 0 -0.023591191862188905 0.031311665107582917 0 -0.023591191862188905 0.031311665107582917 0 -0.035070334092396273 0.03230228372580915 0 -0.01913991329450334 0.037618474677342917 0 -0.014361339186501655 0.03990739241626292 0 -0.019486442690410687 0.041700436215997408 0 -0.019486442690410687 0.041700436215997408 0 -0.023761384882521476 0.039999580702530992 0 -0.020697563490621365 0.04915121929726575 0 -0.01913991329450334 0.037618474677342917 0 -0.019486442690410687 0.041700436215997408 0 -0.023761384882521476 0.039999580702530992 0 -0.023761384882521476 0.039999580702530992 0 -0.020697563490621365 0.04915121929726575 0 -0.027744993873548961 0.04865770329713489 0 -0.033005152939215923 0.036426815677047419 0 -0.023761384882521476 0.039999580702530992 0 -0.030590605890756305 0.043003477701360586 0 -0.028600712143607543 0.050208053814183411 0 -0.030590605890756305 0.043003477701360586 0 -0.036954367089751208 0.045412475610204742 0 -0.038257183787924816 0.039202347109745503 0 -0.042691103326859992 0.040221401631590388 0 -0.023761384882521476 0.039999580702530992 0 -0.028600712143607543 0.050208053814183411 0 -0.030590605890756305 0.043003477701360586 0 -0.04303363474641287 0.038309703469698538 0 -0.033005152939215923 0.036426815677047419 0 -0.036954367089751208 0.045412475610204742 0 -0.033005152939215923 0.036426815677047419 0 -0.030590605890756305 0.043003477701360586 0 -0.036954367089751208 0.045412475610204742 0 -0.04303363474641287 0.038309703469698538 0 -0.036954367089751208 0.045412475610204742 0 -0.046351071360570296 0.04584287516782419 0 -0.046351071360570296 0.04584287516782419 0 -0.041078242306249874 0.050655035554741747 0 -0.045308015715836793 0.058204926014624229 0 -0.056660172638638318 0.034582487391985786 0 -0.066708761135584979 0.026572936403138465 0 -0.036954367089751208 0.045412475610204742 0 -0.046351071360570296 0.04584287516782419 0 -0.041078242306249874 0.050655035554741747 0 -0.028600712143607543 0.050208053814183411 0 -0.036954367089751208 0.045412475610204742 0 -0.035670091463385414 0.053100207804321044 0 -0.036954367089751208 0.045412475610204742 0 -0.041078242306249874 0.050655035554741747 0 -0.035670091463385414 0.053100207804321044 0 -0.035670091463385414 0.053100207804321044 0 -0.033366916551132976 0.060265458199461434 0 -0.045308015715836793 0.058204926014624229 0 -0.052658727635143524 0.031517982931562064 0 -0.066708761135584979 0.026572936403138465 0 -0.028600712143607543 0.050208053814183411 0 -0.035670091463385414 0.053100207804321044 0 -0.033366916551132976 0.060265458199461434 0 -0.041078242306249874 0.050655035554741747 0 -0.035670091463385414 0.053100207804321044 0 -0.045308015715836793 0.058204926014624229 0 -0.066708761135584979 0.026572936403138465 0 -0.069542877166187428 0.023262320286145843 0 -0.066824809431305657 0.02887425912433874 0 -0.06376488636010201 0.029402138540670808 0 -0.064565777978963498 0.02741526251849883 0 -0.07898761873472207 0.015451209638545304 0 -0.066708761135584979 0.026572936403138465 0 -0.07534112736176804 0.019014931154624166 0 -0.07482815524130286 0.025178669997403102 0 -0.076451465943662825 0.021216541981437388 0 -0.066824809431305657 0.02887425912433874 0 -0.064565777978963498 0.02741526251849883 0 -0.06607362901132284 0.027202296821644555 0 -0.063555386830970242 0.021339585606065147 0 -0.063289756260031457 0.020705795342455001 0 -0.063989771293042688 0.020992170498167116 0 -0.052658727635143524 0.031517982931562064 0 -0.062576199639016089 0.025234568008023612 0 -0.063973988733091638 0.020009002949385978 0 -0.063989771293042688 0.020992170498167116 0 -0.064375242330141511 0.021189884044652427 0 -0.052658727635143524 0.031517982931562064 0 -0.049565908316802798 0.027505538256524218 0 -0.063555386830970242 0.021339585606065147 0 -0.063989771293042688 0.020992170498167116 0 -0.064134699923372784 0.021237014870257909 0 -0.063989771293042688 0.020992170498167116 0 -0.064131306564358156 0.021227836459193558 0 -0.064375242330141511 0.021189884044652427 0 -0.049565908316802798 0.027505538256524218 0 -0.053716283132833768 0.024325063809172494 0 -0.049871209705051968 0.027495729338543922 0 -0.049565908316802798 0.027505538256524218 0 -0.053807928285077439 0.019093425720148327 0 -0.053716283132833768 0.024325063809172494 0 -0.067680306497137036 0.012114635393286825 0 -0.066817472731623931 0.011193015424230006 0 -0.068142006841895489 0.010982088668824623 0 -0.035374617479697938 0.029554279735081668 0 -0.038271000722885522 0.029087483341584237 0 -0.036631509808310779 0.027827010632305308 0 -0.039124695342152536 0.02894241432145853 0 -0.038278518050565258 0.029093990093457204 0 -0.03787721137556057 0.028128260710535473 0 -0.03683859832887143 0.025523801380375955 0 -0.03787721137556057 0.028128260710535473 0 -0.036631509808310779 0.027827010632305308 0 -0.038271000722885522 0.029087483341584237 0 -0.03787721137556057 0.028128260710535473 0 -0.036631509808310779 0.027827010632305308 0 -0.03683859832887143 0.025523801380375955 0 -0.039124695342152536 0.02894241432145853 0 -0.03787721137556057 0.028128260710535473 0 -0.053716283132833768 0.024325063809172494 0 -0.053360157160180853 0.024301281131521666 0 -0.035070334092396273 0.03230228372580915 0 -0.049565908316802798 0.027505538256524218 0 -0.042691103326859992 0.040221401631590388 0 -0.052658727635143524 0.031517982931562064 0 -0.027744993873548961 0.04865770329713489 0 -0.031738242296403679 0.05712626845746132 0 -0.026645699613662303 0.058023544387934653 0 -0.020697563490621365 0.04915121929726575 0 -0.027744993873548961 0.04865770329713489 0 -0.026645699613662303 0.058023544387934653 0 -0.01388593576491952 0.00039521603833883449 0 -0.020727060053728784 -3.1565373199269146e-06 0 -0.017221894627888847 0.0031398671352700146 0 -0.020727060053728784 -3.1565373199269146e-06 0 -0.017221894627888847 0.0031398671352700146 0 -0.027019184462403818 1.3171426061423651e-05 0 -0.025050897288496219 0.0022908371510975637 0 -0.020702089624020675 0.0038561889586947872 0 -0.01388593576491952 0.00039521603833883449 0 -0.017221894627888847 0.0031398671352700146 0 -0.011501533684866193 0.0029224996760316394 0 -0.025050897288496219 0.0022908371510975637 0 -0.029011694859370763 0.0063185535798857932 0 -0.022824425682128602 0.0066194752764970003 0 -0.025289378543003563 0.0076979248247197552 0 -0.026042381354898038 0.0071180226881385903 0 -0.020702089624020675 0.0038561889586947872 0 -0.020416160672096208 0.0061137905984077418 0 -0.025289378543003563 0.0076979248247197552 0 -0.026042381354898038 0.0071180226881385903 0 -0.027756623133892166 0.0087688837333077547 0 -0.011501533684866193 0.0029224996760316394 0 -0.010076891875409041 0.0011250129192719581 0 -0.0089330261550039335 0.0019001834664144222 0 -0.01388593576491952 0.00039521603833883449 0 -0.011501533684866193 0.0029224996760316394 0 -0.010076891875409041 0.0011250129192719581 0 -0.01388593576491952 0.00039521603833883449 0 -0.0087165803236259123 0.00049632575993105595 0 -0.010098673257285836 -0.00018281372872517546 0 -0.01388593576491952 0.00039521603833883449 0 -0.010076891875409041 0.0011250129192719581 0 -0.0087165803236259123 0.00049632575993105595 0 -0.010076891875409041 0.0011250129192719581 0 -0.0087165803236259123 0.00049632575993105595 0 -0.0086470524373757438 0.0006820489164387453 0 -0.009313956880457927 0.0048404900359718924 0 -0.0097728140897007498 0.0059529533847924067 0 -0.0087165803236259123 0.00049632575993105595 0 -0.0053335009053936252 -0.00069049473357292901 0 -0.0040082325689608529 5.0977063606622577e-05 0 -0.0087165803236259123 0.00049632575993105595 0 -0.010098673257285836 -0.00018281372872517546 0 -0.0065836325592471831 -0.00084745363141391331 0 -0.01388593576491952 0.00039521603833883449 0 -0.010098673257285836 -0.00018281372872517546 0 -0.01441810744562722 -4.5985985339695806e-07 0 -0.01388593576491952 0.00039521603833883449 0 -0.020727060053728784 -3.1565373199269146e-06 0 -0.01441810744562722 -4.5985985339695806e-07 0 -0.01441810744562722 -4.5985985339695806e-07 0 -0.0072140999012001543 -0.00078962292563870742 0 -0.0081129045342445277 -1.6700904360530073e-06 0 -0.010098673257285836 -0.00018281372872517546 0 -0.01441810744562722 -4.5985985339695806e-07 0 -0.0072140999012001543 -0.00078962292563870742 0 -0.0081129045342445277 -1.6700904360530073e-06 0 -0.001853531994694106 -0.001004673561149496 0 -0.0018065945147355848 -1.3097014402786144e-06 0 -0.0072140999012001543 -0.00078962292563870742 0 -0.0081129045342445277 -1.6700904360530073e-06 0 -0.001853531994694106 -0.001004673561149496 0 -0.0072140999012001543 -0.00078962292563870742 0 -0.001853531994694106 -0.001004673561149496 0 -0.003959110319875685 -0.0013675635551955736 0 -0.00010126498300655639 -0.0012014186171182652 0 -0.0010650332876087451 -0.00138995024230232 0 -0.0015150119387773464 -0.001570990881452483 0 -0.0010650332876087451 -0.00138995024230232 0 -0.0027781843683388533 -0.0015437777946703975 0 -0.0015150119387773464 -0.001570990881452483 0 0.0004754923240926048 -0.001178408876710769 0 -0.001853531994694106 -0.001004673561149496 0 -0.0010650332876087451 -0.00138995024230232 0 -0.001853531994694106 -0.001004673561149496 0 -0.0010650332876087451 -0.00138995024230232 0 -0.003959110319875685 -0.0013675635551955736 0 -0.003959110319875685 -0.0013675635551955736 0 -0.0027781843683388533 -0.0015437777946703975 0 -0.0041211500651510014 -0.0013133619240241084 0 -0.0010650332876087451 -0.00138995024230232 0 -0.003959110319875685 -0.0013675635551955736 0 -0.0027781843683388533 -0.0015437777946703975 0 -0.003959110319875685 -0.0013675635551955736 0 -0.0041211500651510014 -0.0013133619240241084 0 -0.0065836325592471831 -0.00084745363141391331 0 -0.0072140999012001543 -0.00078962292563870742 0 -0.003959110319875685 -0.0013675635551955736 0 -0.0065836325592471831 -0.00084745363141391331 0 -0.010098673257285836 -0.00018281372872517546 0 -0.0072140999012001543 -0.00078962292563870742 0 -0.0065836325592471831 -0.00084745363141391331 0 -0.0041211500651510014 -0.0013133619240241084 0 -0.0065836325592471831 -0.00084745363141391331 0 -0.0053335009053936252 -0.00069049473357292901 0 -0.0087165803236259123 0.00049632575993105595 0 -0.0065836325592471831 -0.00084745363141391331 0 -0.0053335009053936252 -0.00069049473357292901 0 -0.0053335009053936252 -0.00069049473357292901 0 -0.0033624500079931308 -0.0011427852954424367 0 -0.0040082325689608529 5.0977063606622577e-05 0 -0.0028950397506634163 -0.00053930288200424576 0 -0.0025416505234064799 0.00029083956134361443 0 -0.0040082325689608529 5.0977063606622577e-05 0 -0.0028950397506634163 -0.00053930288200424576 0 -0.0033624500079931308 -0.0011427852954424367 0 -0.0023293087225340014 -0.0010579829785727643 0 -0.0028950397506634163 -0.00053930288200424576 0 -0.0033624500079931308 -0.0011427852954424367 0 -0.0040082325689608529 5.0977063606622577e-05 0 -0.0028950397506634163 -0.00053930288200424576 0 -0.0022600281378554765 -0.00054673074580740535 0 -0.0025416505234064799 0.00029083956134361443 0 -0.0028950397506634163 -0.00053930288200424576 0 -0.0023293087225340014 -0.0010579829785727643 0 -0.0022600281378554765 -0.00054673074580740535 0 -0.0023649948138427974 -0.0014284103176247411 0 -0.0033624500079931308 -0.0011427852954424367 0 -0.0023293087225340014 -0.0010579829785727643 0 -0.0023649948138427974 -0.0014284103176247411 0 -0.0033624500079931308 -0.0011427852954424367 0 -0.0027108054051805455 -0.001545401668177274 0 -0.0041211500651510014 -0.0013133619240241084 0 -0.0053335009053936252 -0.00069049473357292901 0 -0.0033624500079931308 -0.0011427852954424367 0 -0.0041211500651510014 -0.0013133619240241084 0 -0.0033624500079931308 -0.0011427852954424367 0 -0.0027108054051805455 -0.001545401668177274 0 -0.0027781843683388533 -0.0015437777946703975 0 -0.0041211500651510014 -0.0013133619240241084 0 -0.0027108054051805455 -0.001545401668177274 0 -0.0027781843683388533 -0.0015437777946703975 0 -0.0027108054051805455 -0.001545401668177274 0 -0.0015150119387773464 -0.001570990881452483 0 -0.0027108054051805455 -0.001545401668177274 0 -0.0021186369480027892 -0.0015848196440265544 0 -0.0015150119387773464 -0.001570990881452483 0 -0.0023649948138427974 -0.0014284103176247411 0 -0.0027108054051805455 -0.001545401668177274 0 -0.0021186369480027892 -0.0015848196440265544 0 -0.0023649948138427974 -0.0014284103176247411 0 -0.0021186369480027892 -0.0015848196440265544 0 -0.0019593369339231891 -0.0014495499702433736 0 -0.0021186369480027892 -0.0015848196440265544 0 -0.0018328343653142691 -0.0014742491097322196 0 -0.0019593369339231891 -0.0014495499702433736 0 -0.0021186369480027892 -0.0015848196440265544 0 -0.0018328343653142691 -0.0014742491097322196 0 -0.0015150119387773464 -0.001570990881452483 0 -0.00010126498300655639 -0.0012014186171182652 0 -0.0018328343653142691 -0.0014742491097322196 0 -0.0015150119387773464 -0.001570990881452483 0 -0.0016978769746872656 -0.0014332568263277111 0 -0.00076439901704676734 -0.00099596190763686721 0 -0.0018286321005700833 -0.0011609738251477668 0 -0.00076439901704676734 -0.00099596190763686721 0 -0.0018286321005700833 -0.0011609738251477668 0 -0.00079648652430888266 -7.5778037198382102e-05 0 -0.00076439901704676734 -0.00099596190763686721 0 -0.00079648652430888266 -7.5778037198382102e-05 0 -0.000102208504054516 -0.00020107932334099526 0 -0.0016978769746872656 -0.0014332568263277111 0 -0.0018328343653142691 -0.0014742491097322196 0 -0.0018286321005700833 -0.0011609738251477668 0 -0.0018328343653142691 -0.0014742491097322196 0 -0.0018286321005700833 -0.0011609738251477668 0 -0.0019593369339231891 -0.0014495499702433736 0 -0.0018286321005700833 -0.0011609738251477668 0 -0.0019593369339231891 -0.0014495499702433736 0 -0.0017650887396029702 -0.0013769603975636771 0 -0.0023649948138427974 -0.0014284103176247411 0 -0.0019593369339231891 -0.0014495499702433736 0 -0.0019353972387476681 -0.0012827880706046963 0 -0.0019593369339231891 -0.0014495499702433736 0 -0.0017650887396029702 -0.0013769603975636771 0 -0.0019353972387476681 -0.0012827880706046963 0 -0.0018286321005700833 -0.0011609738251477668 0 -0.0017650887396029702 -0.0013769603975636771 0 -0.001639624308768384 -0.0014262903407640506 0 -0.00079648652430888266 -7.5778037198382102e-05 0 -0.0013039750385276595 0.0015381727417168379 0 -0.00015761738621385862 0.00066686415043872992 0 -0.0018286321005700833 -0.0011609738251477668 0 -0.00079648652430888266 -7.5778037198382102e-05 0 -0.0013039750385276595 0.0015381727417168379 0 -0.0024850556072222815 0.00048657054697934059 0 -0.0023375479138621055 0.0018715426138214788 0 -0.0017650887396029702 -0.0013769603975636771 0 -0.0016401781518269323 -0.0014122167975637665 0 -0.001639624308768384 -0.0014262903407640506 0 -0.0017650887396029702 -0.0013769603975636771 0 -0.0016401781518269323 -0.0014122167975637665 0 -0.0017561167797441747 -0.0013422602210296794 0 -0.0014453051431331395 -0.0014065541357642852 0 -0.0016181562459206583 -0.0010792406947746028 0 -0.00061984141688393795 -0.00030732595849478609 0 -0.0023375479138621055 0.0018715426138214788 0 -0.0034079863064200469 0.0032528595857197317 0 -0.0023348377588341038 0.0018625691315283391 0 -0.0023375479138621055 0.0018715426138214788 0 -0.0016401781518269323 -0.0014122167975637665 0 -0.0016181562459206583 -0.0010792406947746028 0 -0.0017561167797441747 -0.0013422602210296794 0 -0.0016401781518269323 -0.0014122167975637665 0 -0.0014453051431331395 -0.0014065541357642852 0 -0.0016181562459206583 -0.0010792406947746028 0 -0.0023649948138427974 -0.0014284103176247411 0 -0.0019353972387476681 -0.0012827880706046963 0 -0.0023293087225340014 -0.0010579829785727643 0 -0.0016181562459206583 -0.0010792406947746028 0 -0.0019353972387476681 -0.0012827880706046963 0 -0.0017561167797441747 -0.0013422602210296794 0 -0.0017650887396029702 -0.0013769603975636771 0 -0.0019353972387476681 -0.0012827880706046963 0 -0.0017561167797441747 -0.0013422602210296794 0 -0.0016181562459206583 -0.0010792406947746028 0 -0.0019353972387476681 -0.0012827880706046963 0 -0.0019501368467611845 -0.0009299602234161485 0 -0.0016181562459206583 -0.0010792406947746028 0 -0.0019501368467611845 -0.0009299602234161485 0 -0.0015983401762527491 -0.00053539365033608208 0 -0.0019501368467611845 -0.0009299602234161485 0 -0.0023293087225340014 -0.0010579829785727643 0 -0.0022600281378554765 -0.00054673074580740535 0 -0.0019353972387476681 -0.0012827880706046963 0 -0.0019501368467611845 -0.0009299602234161485 0 -0.0023293087225340014 -0.0010579829785727643 0 -0.0022600281378554765 -0.00054673074580740535 0 -0.0014605597343336349 0.00037297234960093724 0 -0.0025416505234064799 0.00029083956134361443 0 -0.0019501368467611845 -0.0009299602234161485 0 -0.0022600281378554765 -0.00054673074580740535 0 -0.0015983401762527491 -0.00053539365033608208 0 -0.0022600281378554765 -0.00054673074580740535 0 -0.0015983401762527491 -0.00053539365033608208 0 -0.0014605597343336349 0.00037297234960093724 0 -0.0015983401762527491 -0.00053539365033608208 0 -0.0014605597343336349 0.00037297234960093724 0 -0.00061984141688393795 -0.00030732595849478609 0 -0.0016181562459206583 -0.0010792406947746028 0 -0.0015983401762527491 -0.00053539365033608208 0 -0.00061984141688393795 -0.00030732595849478609 0 -0.0014605597343336349 0.00037297234960093724 0 -0.00076988142868601652 0.00070305865605024701 0 -0.00061984141688393795 -0.00030732595849478609 0 -0.0014605597343336349 0.00037297234960093724 0 -0.00076988142868601652 0.00070305865605024701 0 -0.0010891058931174187 0.0016882646314558428 0 -0.0014605597343336349 0.00037297234960093724 0 -0.0010891058931174187 0.0016882646314558428 0 -0.0020020112440921412 0.0012605831706375662 0 -0.015723626005226109 0.013821770149322092 0 -0.020741539638541917 0.016003003205290134 0 -0.013440177878503193 0.018409856156414398 0 -0.015723626005226109 0.013821770149322092 0 -0.013440177878503193 0.018409856156414398 0 -0.012210268862883553 0.015183125750580791 0 -0.0096298992085315227 0.0072141903039643759 0 -0.015787844893094698 0.0084601012359505536 0 -0.0010891058931174187 0.0016882646314558428 0 -0.0022886820020075753 0.0024508229650647569 0 -0.0020020112440921412 0.0012605831706375662 0 -0.0022886820020075753 0.0024508229650647569 0 -0.0020020112440921412 0.0012605831706375662 0 -0.002988555447328079 0.0012917369886949041 0 -0.0014605597343336349 0.00037297234960093724 0 -0.0020020112440921412 0.0012605831706375662 0 -0.0025416505234064799 0.00029083956134361443 0 -0.0020020112440921412 0.0012605831706375662 0 -0.0025416505234064799 0.00029083956134361443 0 -0.002988555447328079 0.0012917369886949041 0 -0.0025416505234064799 0.00029083956134361443 0 -0.002988555447328079 0.0012917369886949041 0 -0.0040082325689608529 5.0977063606622577e-05 0 -0.002988555447328079 0.0012917369886949041 0 -0.0040082325689608529 5.0977063606622577e-05 0 -0.0044749651106589768 0.0021993828603359654 0 -0.0087165803236259123 0.00049632575993105595 0 -0.0040082325689608529 5.0977063606622577e-05 0 -0.0044749651106589768 0.0021993828603359654 0 -0.015787844893094698 0.0084601012359505536 0 -0.0097728140897007498 0.0059529533847924067 0 -0.0022886820020075753 0.0024508229650647569 0 -0.002988555447328079 0.0012917369886949041 0 -0.0044749651106589768 0.0021993828603359654 0 -0.0073832080537517596 0.0011428283103631859 0 -0.0086470524373757438 0.0006820489164387453 0 -0.0078309573577662848 0.0013280950116937411 0 -0.024976490267122699 0.010459109123941124 0 -0.020416160672096208 0.0061137905984077418 0 -0.033812347918774341 0.014989961054775403 0 -0.032793504495249731 0.012580074752470652 0 -0.035394561489380832 0.012968042544192027 0 -0.030210248100023523 0.0098446307095006232 0 -0.027756623133892166 0.0087688837333077547 0 -0.029262222362798122 0.0076140567489214866 0 -0.024976490267122699 0.010459109123941124 0 -0.037406513047898826 0.012611447373526213 0 -0.0086470524373757438 0.0006820489164387453 0 -0.0078309573577662848 0.0013280950116937411 0 -0.0089330261550039335 0.0019001834664144222 0 -0.010076891875409041 0.0011250129192719581 0 -0.0086470524373757438 0.0006820489164387453 0 -0.0089330261550039335 0.0019001834664144222 0 -0.029011694859370763 0.0063185535798857932 0 -0.037406513047898826 0.012611447373526213 0 -0.026042381354898038 0.0071180226881385903 0 -0.027756623133892166 0.0087688837333077547 0 -0.029262222362798122 0.0076140567489214866 0 -0.037406513047898826 0.012611447373526213 0 -0.046766369684979575 0.015778331727011079 0 -0.065620710230090751 0.023665905781806138 0 -0.069418341382783258 0.021322317524980455 0 -0.066014624097845948 0.020588983575489515 0 -0.060830618570273824 0.023088291025457702 0 -0.065620710230090751 0.023665905781806138 0 -0.066014624097845948 0.020588983575489515 0 -0.046766369684979575 0.015778331727011079 0 -0.04867094520272592 0.017048923015674407 0 -0.065620710230090751 0.023665905781806138 0 -0.070251709510194008 0.024050758061796317 0 -0.069418341382783258 0.021322317524980455 0 -0.020940129229368106 0.015981308537958205 0 -0.015732310802066527 0.018368999458067463 0 -0.013440177878503193 0.018409856156414398 0 -0.035394561489380832 0.012968042544192027 0 -0.03800271803323349 0.013343467233706835 0 -0.03722188116702909 0.014364407252604336 0 -0.015787844893094698 0.0084601012359505536 0 -0.01471537942047745 0.011264746856031307 0 -0.020940129229368106 0.015981308537958205 0 -0.023323845939924658 0.016981642809018246 0 -0.015732310802066527 0.018368999458067463 0 -0.024976490267122699 0.010459109123941124 0 -0.028325445023263104 0.014691694669199723 0 -0.033812347918774341 0.014989961054775403 0 -0.035394561489380832 0.012968042544192027 0 -0.03722188116702909 0.014364407252604336 0 -0.015787844893094698 0.0084601012359505536 0 -0.024976490267122699 0.010459109123941124 0 -0.040178789414215883 0.016413479487424453 0 -0.036118148294515755 0.015326550009150766 0 -0.008227294521343723 0.019761732376238742 0 -0.0063554446916422652 0.016945675315451814 0 -0.0089752132869627965 0.01540587999280159 0 -0.041541896837684202 0.016511119619422778 0 -0.04105005250346952 0.016583290992663754 0 -0.040612893169322747 0.016335163468525201 0 -0.008227294521343723 0.019761732376238742 0 -0.0063554446916422652 0.016945675315451814 0 -0.0037821102069035884 0.019075432781293283 0 -0.040178789414215883 0.016413479487424453 0 -0.044121068871984241 0.017148672910155854 0 -0.044121068871984241 0.017148672910155854 0 -0.045317884127619917 0.017672986756589695 0 -0.074605711905021646 0.024329799515410897 0 -0.076347212776010934 0.023927968243597712 0 -0.075425903304123618 0.023443708991770701 0 -0.008227294521343723 0.019761732376238742 0 -0.010714244033997421 0.017190470693995621 0 -0.0089752132869627965 0.01540587999280159 0 -0.04867094520272592 0.017048923015674407 0 -0.040178789414215883 0.016413479487424453 0 -0.03800271803323349 0.013343467233706835 0 -0.03722188116702909 0.014364407252604336 0 -0.040615525837834933 0.013712077032940258 0 -0.008227294521343723 0.019761732376238742 0 -0.010714244033997421 0.017190470693995621 0 -0.013440177878503193 0.018409856156414398 0 -0.028325445023263104 0.014691694669199723 0 -0.040178789414215883 0.016413479487424453 0 -0.015732310802066527 0.018368999458067463 0 -0.008227294521343723 0.019761732376238742 0 -0.013440177878503193 0.018409856156414398 0 -0.010714244033997421 0.017190470693995621 0 -0.013440177878503193 0.018409856156414398 0 -0.012210268862883553 0.015183125750580791 0 -0.069418341382783258 0.021322317524980455 0 -0.073164199059638349 0.022222134554348526 0 -0.072736962073536207 0.019258463998842113 0 -0.070251709510194008 0.024050758061796317 0 -0.074605711905021646 0.024329799515410897 0 -0.073164199059638349 0.022222134554348526 0 -0.070251709510194008 0.024050758061796317 0 -0.069418341382783258 0.021322317524980455 0 -0.073164199059638349 0.022222134554348526 0 -0.073164199059638349 0.022222134554348526 0 -0.075317030731646126 0.020970774091710248 0 -0.072736962073536207 0.019258463998842113 0 -0.074605711905021646 0.024329799515410897 0 -0.073164199059638349 0.022222134554348526 0 -0.075425903304123618 0.023443708991770701 0 -0.073164199059638349 0.022222134554348526 0 -0.075317030731646126 0.020970774091710248 0 -0.075425903304123618 0.023443708991770701 0 -0.07633971933962462 0.023799751019805648 0 -0.075425903304123618 0.023443708991770701 0 -0.076681864986219053 0.022082628621741228 0 -0.075317030731646126 0.020970774091710248 0 -0.075425903304123618 0.023443708991770701 0 -0.076681864986219053 0.022082628621741228 0 -0.075317030731646126 0.020970774091710248 0 -0.076681864986219053 0.022082628621741228 0 -0.077758444429949128 0.02024571507369817 0 -0.07633971933962462 0.023799751019805648 0 -0.078198105096157641 0.021814258702765113 0 -0.080041410119952514 0.022603193704981699 0 -0.044121068871984241 0.017148672910155854 0 -0.053521943431706104 0.016392891569214241 0 -0.076681864986219053 0.022082628621741228 0 -0.078198105096157641 0.021814258702765113 0 -0.077758444429949128 0.02024571507369817 0 -0.078198105096157641 0.021814258702765113 0 -0.08010183973739271 0.020411914656342778 0 -0.077758444429949128 0.02024571507369817 0 -0.078198105096157641 0.021814258702765113 0 -0.08010183973739271 0.020411914656342778 0 -0.080041410119952514 0.022603193704981699 0 -0.07633971933962462 0.023799751019805648 0 -0.076681864986219053 0.022082628621741228 0 -0.078198105096157641 0.021814258702765113 0 -0.053521943431706104 0.016392891569214241 0 -0.053349197726232589 0.015632774818632872 0 -0.040473512147627982 0.018021140768081929 0 -0.040336049390949064 0.017969075948367344 0 -0.040255149255396833 0.018005026623297459 0 -0.082224340757078893 0.020483562866458135 0 -0.080041410119952514 0.022603193704981699 0 -0.083339640144182867 0.021299434017550103 0 -0.082224340757078893 0.020483562866458135 0 -0.08010183973739271 0.020411914656342778 0 -0.081735647543108941 0.019452812938180249 0 -0.082224340757078893 0.020483562866458135 0 -0.08010183973739271 0.020411914656342778 0 -0.080041410119952514 0.022603193704981699 0 -0.036118148294515755 0.015326550009150766 0 -0.024026817935978585 0.01293679607786619 0 -0.040843569025208484 0.017848893859891336 0 -0.040560487477727489 0.017773471139977081 0 -0.040087602466560235 0.017325068832030222 0 -0.040329726684875097 0.01777325594277231 0 -0.040560487477727489 0.017773471139977081 0 -0.040087602466560235 0.017325068832030222 0 -0.040336049390949064 0.017969075948367344 0 -0.040329726684875097 0.01777325594277231 0 -0.040140347238110059 0.017675703864628956 0 -0.040336049390949064 0.017969075948367344 0 -0.040140347238110059 0.017675703864628956 0 -0.039761495856764223 0.017608353616093326 0 -0.040473512147627982 0.018021140768081929 0 -0.040336049390949064 0.017969075948367344 0 -0.040329726684875097 0.01777325594277231 0 -0.040473512147627982 0.018021140768081929 0 -0.040329726684875097 0.01777325594277231 0 -0.040560487477727489 0.017773471139977081 0 -0.040329726684875097 0.01777325594277231 0 -0.040140347238110059 0.017675703864628956 0 -0.040087602466560235 0.017325068832030222 0 -0.0063554446916422652 0.016945675315451814 0 -0.0037821102069035884 0.019075432781293283 0 -0.0041307570263180169 0.014128757237825926 0 -0.041076495963643732 0.01796187390470429 0 -0.040473512147627982 0.018021140768081929 0 -0.040841013083926854 0.01782222429119747 0 -0.044121068871984241 0.017148672910155854 0 -0.036118148294515755 0.015326550009150766 0 -0.040473512147627982 0.018021140768081929 0 -0.040841013083926854 0.01782222429119747 0 -0.040560487477727489 0.017773471139977081 0 -0.036118148294515755 0.015326550009150766 0 -0.036804076485492526 0.015500794091484856 0 -0.0037821102069035884 0.019075432781293283 0 -0.0041307570263180169 0.014128757237825926 0 0.0034220445299751128 0.015220429632515652 0 -0.0041307570263180169 0.014128757237825926 0 0.0034220445299751128 0.015220429632515652 0 -0.00015187460059375927 0.010924873101531328 0 -0.00015187460059375927 0.010924873101531328 0 0.00044192460129828038 0.0070062807438842746 0 0.0045068390566671878 0.0089748476294011191 0 0.0034220445299751128 0.015220429632515652 0 -0.00015187460059375927 0.010924873101531328 0 0.0045068390566671878 0.0089748476294011191 0 -0.0027168336747922031 0.006126127579408564 0 0.0004346457563630257 0.0052888339111894908 0 -0.0041307570263180169 0.014128757237825926 0 -0.00015187460059375927 0.010924873101531328 0 -0.0050817237303935753 0.0092734096513081427 0 -0.00015187460059375927 0.010924873101531328 0 -0.0050817237303935753 0.0092734096513081427 0 0.00044192460129828038 0.0070062807438842746 0 -0.0050817237303935753 0.0092734096513081427 0 -0.0070953461939875029 0.01297895693830391 0 -0.010568950036154441 0.01161622566381953 0 -0.0027168336747922031 0.006126127579408564 0 -0.0049592132637904605 0.0062360614698595482 0 -0.0007267308820776417 0.0047499138645570758 0 -0.0019472910823016877 0.0052784083174385798 0 -0.001524052802416666 0.0041929374425055737 0 -0.0041307570263180169 0.014128757237825926 0 -0.0050817237303935753 0.0092734096513081427 0 -0.0070953461939875029 0.01297895693830391 0 -0.0070953461939875029 0.01297895693830391 0 -0.0089752132869627965 0.01540587999280159 0 -0.010568950036154441 0.01161622566381953 0 -0.0063554446916422652 0.016945675315451814 0 -0.0070953461939875029 0.01297895693830391 0 -0.0089752132869627965 0.01540587999280159 0 -0.0063554446916422652 0.016945675315451814 0 -0.0041307570263180169 0.014128757237825926 0 -0.0070953461939875029 0.01297895693830391 0 -0.015723626005226109 0.013821770149322092 0 -0.012210268862883553 0.015183125750580791 0 -0.010629139872584637 0.011571875609994653 0 -0.0096298992085315227 0.0072141903039643759 0 -0.0049592132637904605 0.0062360614698595482 0 -0.010714244033997421 0.017190470693995621 0 -0.0089752132869627965 0.01540587999280159 0 -0.012210268862883553 0.015183125750580791 0 -0.0089752132869627965 0.01540587999280159 0 -0.012210268862883553 0.015183125750580791 0 -0.010629139872584637 0.011571875609994653 0 -0.0049025629440309837 0.0079734771583200095 0 -0.0049592132637904605 0.0062360614698595482 0 -0.0019472910823016877 0.0052784083174385798 0 -0.0025067616243638216 0.0039605121523373556 0 -0.001524052802416666 0.0041929374425055737 0 -0.00076988142868601652 0.00070305865605024701 0 -0.0010891058931174187 0.0016882646314558428 0 7.598149216440781e-05 0.0011055654787232375 0 -0.00076988142868601652 0.00070305865605024701 0 7.598149216440781e-05 0.0011055654787232375 0 -0.00061984141688393795 -0.00030732595849478609 0 -0.0049592132637904605 0.0062360614698595482 0 -0.0034079863064200469 0.0032528595857197317 0 -0.0025067616243638216 0.0039605121523373556 0 -0.001524052802416666 0.0041929374425055737 0 -0.0014789317857586476 0.0029931261748011319 0 -0.0007267308820776417 0.0047499138645570758 0 -0.001524052802416666 0.0041929374425055737 0 -0.0008065121914258268 0.0037432823429933951 0 -0.001524052802416666 0.0041929374425055737 0 -0.0008065121914258268 0.0037432823429933951 0 -0.0014789317857586476 0.0029931261748011319 0 0.0011557481750960794 0.0023868734749192527 0 0.00049967740488854741 0.0015544616908790825 0 0.0031995964363792902 0.0012503232185436229 0 -0.0008065121914258268 0.0037432823429933951 0 -0.0014789317857586476 0.0029931261748011319 0 0.00012299324481717964 0.0033358742220234126 0 -0.0013039750385276595 0.0015381727417168379 0 0.0011557481750960794 0.0023868734749192527 0 0.00049967740488854741 0.0015544616908790825 0 -0.003067976953981472 0.0026476455718639487 0 -0.0025067616243638216 0.0039605121523373556 0 -0.0014789317857586476 0.0029931261748011319 0 -0.0023375479138621055 0.0018715426138214788 0 -0.00010422127191817406 0.0026840566266359764 0 -0.0013039750385276595 0.0015381727417168379 0 0.00049967740488854741 0.0015544616908790825 0 -0.00015761738621385862 0.00066686415043872992 0 -0.00079648652430888266 -7.5778037198382102e-05 0 -0.00015761738621385862 0.00066686415043872992 0 -0.000102208504054516 -0.00020107932334099526 0 -0.00015761738621385862 0.00066686415043872992 0 0.00059944386603243691 0.00026430316888400695 0 -0.000102208504054516 -0.00020107932334099526 0 0.00049967740488854741 0.0015544616908790825 0 0.00059944386603243691 0.00026430316888400695 0 0.0018176252444460773 0.00032135337549629961 0 0.00049967740488854741 0.0015544616908790825 0 -0.00015761738621385862 0.00066686415043872992 0 0.00059944386603243691 0.00026430316888400695 0 0.0020677071585512925 0.001225600005248834 0 0.0037731104230227142 0.00086138954702003675 0 0.00049967740488854741 0.0015544616908790825 0 0.0018176252444460773 0.00032135337549629961 0 0.0035757824153888032 0.00094839568430165678 0 0.00059944386603243691 0.00026430316888400695 0 0.0018176252444460773 0.00032135337549629961 0 0.0014195230093064543 -0.00046541551873019888 0 0.0014195230093064543 -0.00046541551873019888 0 0.0014265691559785319 -0.001331934335512007 0 0.00054593516040077458 -0.00089226871668033345 0 0.0024612410099631803 -0.0023961085864512639 0 0.00269705442293803 -0.00085489279424621036 0 0.0014265691559785319 -0.001331934335512007 0 0.0014195230093064543 -0.00046541551873019888 0 0.00269705442293803 -0.00085489279424621036 0 0.0014265691559785319 -0.001331934335512007 0 0.0018176252444460773 0.00032135337549629961 0 0.0014195230093064543 -0.00046541551873019888 0 0.00269705442293803 -0.00085489279424621036 0 0.00034066128936122392 -0.0022863739846552354 0 0.0014265691559785319 -0.001331934335512007 0 0.00054593516040077458 -0.00089226871668033345 0 -0.000936447531222889 -0.0016420201135775409 0 -0.00076439901704676734 -0.00099596190763686721 0 0.00054593516040077458 -0.00089226871668033345 0 -0.00076439901704676734 -0.00099596190763686721 0 0.00054593516040077458 -0.00089226871668033345 0 -0.000102208504054516 -0.00020107932334099526 0 0.00059944386603243691 0.00026430316888400695 0 0.00054593516040077458 -0.00089226871668033345 0 -0.000102208504054516 -0.00020107932334099526 0 0.00059944386603243691 0.00026430316888400695 0 0.0014195230093064543 -0.00046541551873019888 0 0.00054593516040077458 -0.00089226871668033345 0 0.0062903804521485113 -0.002580029710026683 0 0.0047185797922865095 -0.00070936729539571703 0 0.0064838566631935214 0.00034949057252691411 0 0.0035716890217669622 -0.0022226760231847434 0 0.00269705442293803 -0.00085489279424621036 0 0.0047185797922865095 -0.00070936729539571703 0 0.00269705442293803 -0.00085489279424621036 0 0.0047185797922865095 -0.00070936729539571703 0 0.0035757824153888032 0.00094839568430165678 0 0.0018176252444460773 0.00032135337549629961 0 0.00269705442293803 -0.00085489279424621036 0 0.0035757824153888032 0.00094839568430165678 0 0.0037731104230227142 0.00086138954702003675 0 0.0073963068626738213 1.2086232388419591e-05 0 0.0031995964363792902 0.0012503232185436229 0 0.0054334243103302754 0.0023200702046063579 0 0.0066195675458288836 0.00043173965952636114 0 0.0047185797922865095 -0.00070936729539571703 0 0.0035757824153888032 0.00094839568430165678 0 0.0064838566631935214 0.00034949057252691411 0 0.0054334243103302754 0.0023200702046063579 0 0.0036656381465140181 0.0033696945824223923 0 0.0068670773483574801 0.0046555216078331598 0 0.0031995964363792902 0.0012503232185436229 0 0.0054334243103302754 0.0023200702046063579 0 0.0036656381465140181 0.0033696945824223923 0 0.0011557481750960794 0.0023868734749192527 0 0.0031995964363792902 0.0012503232185436229 0 0.0036656381465140181 0.0033696945824223923 0 -0.00010422127191817406 0.0026840566266359764 0 0.0019912629547333229 0.0034485866129458607 0 -0.0007267308820776417 0.0047499138645570758 0 -0.0008065121914258268 0.0037432823429933951 0 0.00050243361026106157 0.0042192680389752371 0 -0.0008065121914258268 0.0037432823429933951 0 0.00012299324481717964 0.0033358742220234126 0 0.00050243361026106157 0.0042192680389752371 0 0.0019912629547333229 0.0034485866129458607 0 0.0038380020869715572 0.0041984750377000689 0 0.00012299324481717964 0.0033358742220234126 0 0.00050243361026106157 0.0042192680389752371 0 0.001739095877013559 0.0036823693726534103 0 0.0004346457563630257 0.0052888339111894908 0 0.0038380020869715572 0.0041984750377000689 0 0.00044192460129828038 0.0070062807438842746 0 0.0058617923978223239 0.0049190872838936533 0 0.0045068390566671878 0.0089748476294011191 0 0.0066437175901136215 0.0071631442147184103 0 0.0058617923978223239 0.0049190872838936533 0 0.0045068390566671878 0.0089748476294011191 0 0.0077662425576863871 0.0045410334557182902 0 0.0063149960189473938 0.0051699940732964911 0 0.008270613450817605 0.0056721373958825011 0 0.0066437175901136215 0.0071631442147184103 0 0.0058617923978223239 0.0049190872838936533 0 0.008270613450817605 0.0056721373958825011 0 0.0038380020869715572 0.0041984750377000689 0 0.0043247910349885621 0.0043206193296823391 0 0.0040889395822992633 0.0041301318538667876 0 0.0038380020869715572 0.0041984750377000689 0 0.008270613450817605 0.0056721373958825011 0 0.010448232702220622 0.0025156093931794107 0 0.0088172998143005339 0.0080937872243794524 0 0.011454467978034561 0.0044921750292220234 0 0.01159998689566907 0.0059288734252402209 0 0.0088172998143005339 0.0080937872243794524 0 0.011022297847614529 0.0039995864904118911 0 0.010110478014080642 0.0060464111136183428 0 0.01159998689566907 0.0059288734252402209 0 0.011965128124333445 0.0067952981927715175 0 0.0088172998143005339 0.0080937872243794524 0 0.0066437175901136215 0.0071631442147184103 0 0.008270613450817605 0.0056721373958825011 0 0.0088172998143005339 0.0080937872243794524 0 0.0077662425576863871 0.0045410334557182902 0 0.008213325179438782 0.0025374606033389323 0 0.010448232702220622 0.0025156093931794107 0 0.0077662425576863871 0.0045410334557182902 0 0.008270613450817605 0.0056721373958825011 0 0.010448232702220622 0.0025156093931794107 0 0.008213325179438782 0.0025374606033389323 0 0.010448232702220622 0.0025156093931794107 0 0.0082073059655002646 0.0012203794192607307 0 0.0054334243103302754 0.0023200702046063579 0 0.0068670773483574801 0.0046555216078331598 0 0.0069003845196537392 0.0031223054453490299 0 0.0077662425576863871 0.0045410334557182902 0 0.0068670773483574801 0.0046555216078331598 0 0.0069003845196537392 0.0031223054453490299 0 0.0077662425576863871 0.0045410334557182902 0 0.008213325179438782 0.0025374606033389323 0 0.0069003845196537392 0.0031223054453490299 0 0.008213325179438782 0.0025374606033389323 0 0.0069003845196537392 0.0031223054453490299 0 0.0067121866135641476 0.0014817629739252733 0 0.0054334243103302754 0.0023200702046063579 0 0.0069003845196537392 0.0031223054453490299 0 0.0067121866135641476 0.0014817629739252733 0 0.0054334243103302754 0.0023200702046063579 0 0.0067121866135641476 0.0014817629739252733 0 0.0066195675458288836 0.00043173965952636114 0 0.0073803829378042791 0.000131680607448429 0 0.0073963068626738213 1.2086232388419591e-05 0 0.0066376020919841046 7.9168433376716863e-06 0 0.0082073059655002646 0.0012203794192607307 0 0.0090822763255260092 -0.00047267695669489285 0 0.0073963068626738213 1.2086232388419591e-05 0 0.0086522335273445713 -0.00026864267520135905 0 0.008213325179438782 0.0025374606033389323 0 0.0067121866135641476 0.0014817629739252733 0 0.0082073059655002646 0.0012203794192607307 0 0.0067121866135641476 0.0014817629739252733 0 0.0066376020919841046 7.9168433376716863e-06 0 0.0082073059655002646 0.0012203794192607307 0 0.010448232702220622 0.0025156093931794107 0 0.0090822763255260092 -0.00047267695669489285 0 0.011356373958473482 -0.00087994904326704282 0 0.010448232702220622 0.0025156093931794107 0 0.0082073059655002646 0.0012203794192607307 0 0.0090822763255260092 -0.00047267695669489285 0 0.0096907749924037435 -0.00058923647879146235 0 0.010970353267597242 -0.0016490754925583609 0 0.011356373958473482 -0.00087994904326704282 0 0.0086522335273445713 -0.00026864267520135905 0 0.0092736129167189617 -0.0004008609044379237 0 0.0096907749924037435 -0.00058923647879146235 0 0.010277259438359261 -0.002217360354895068 0 0.010970353267597242 -0.0016490754925583609 0 0.0096907749924037435 -0.00058923647879146235 0 0.010277259438359261 -0.002217360354895068 0 0.0090622576592941581 -0.0020529753753679532 0 0.0080193606206003885 -0.00025490330701060396 0 0.0096907749924037435 -0.00058923647879146235 0 0.0090622576592941581 -0.0020529753753679532 0 0.0086597425795060922 -0.0012189380455896214 0 0.0073963068626738213 1.2086232388419591e-05 0 0.0078125409093158429 -0.0035028537502569093 0 0.0080193606206003885 -0.00025490330701060396 0 0.0090622576592941581 -0.0020529753753679532 0 0.013204006877869037 0.0022384097917983359 0 0.013411411314879182 0.0027377949370913078 0 0.013597308828403829 0.0016193844106149298 0 0.013411411314879182 0.0027377949370913078 0 0.013607089965920412 0.0031360169217528378 0 0.013618285591661363 0.0037814637097843837 0 0.0088428360371764977 0.0011825931893078814 0 0.0066024625082173475 0.0015691852837509518 0 0.013607089965920412 0.0031360169217528378 0 0.013521528338622168 0.0028385581828677753 0 0.013157461012060582 0.0032294853365085912 0 0.013411411314879182 0.0027377949370913078 0 0.013607089965920412 0.0031360169217528378 0 0.014101232478872898 0.002796715599408953 0 0.013607089965920412 0.0031360169217528378 0 0.014101232478872898 0.002796715599408953 0 0.013521528338622168 0.0028385581828677753 0 0.013738684481990291 0.0021318842901033707 0 0.014101232478872898 0.002796715599408953 0 0.013521528338622168 0.0028385581828677753 0 0.013738684481990291 0.0021318842901033707 0 0.013521528338622168 0.0028385581828677753 0 0.012721965128004123 0.0031638994158778759 0 0.011223529730693425 -0.0026333652735301303 0 0.010970353267597242 -0.0016490754925583609 0 0.011742063232079847 -0.0012997195709470544 0 0.011223529730693425 -0.0026333652735301303 0 0.010277259438359261 -0.002217360354895068 0 0.010970353267597242 -0.0016490754925583609 0 0.010970353267597242 -0.0016490754925583609 0 0.011356373958473482 -0.00087994904326704282 0 0.011742063232079847 -0.0012997195709470544 0 0.012721965128004123 0.0031638994158778759 0 0.013157461012060582 0.0032294853365085912 0 0.01288104083820724 0.0036806619772451481 0 0.013521528338622168 0.0028385581828677753 0 0.012721965128004123 0.0031638994158778759 0 0.013157461012060582 0.0032294853365085912 0 0.011454467978034561 0.0044921750292220234 0 0.012721965128004123 0.0031638994158778759 0 0.01288104083820724 0.0036806619772451481 0 0.013607089965920412 0.0031360169217528378 0 0.013157461012060582 0.0032294853365085912 0 0.01288104083820724 0.0036806619772451481 0 0.010448232702220622 0.0025156093931794107 0 0.011356373958473482 -0.00087994904326704282 0 0.011742063232079847 -0.0012997195709470544 0 0.011022297847614529 0.0039995864904118911 0 0.012411714364647424 0.0011948284964194893 0 0.011454467978034561 0.0044921750292220234 0 0.01288104083820724 0.0036806619772451481 0 0.01253949316945163 0.0043054756228873845 0 0.01288104083820724 0.0036806619772451481 0 0.013618285591661363 0.0037814637097843837 0 0.01253949316945163 0.0043054756228873845 0 0.013058406853746787 0.0019866355331765043 0 0.013204006877869037 0.0022384097917983359 0 0.013597308828403829 0.0016193844106149298 0 0.013058406853746787 0.0019866355331765043 0 0.013597308828403829 0.0016193844106149298 0 0.013307833566809495 0.0016769540651214473 0 0.013607089965920412 0.0031360169217528378 0 0.01288104083820724 0.0036806619772451481 0 0.013618285591661363 0.0037814637097843837 0 0.013597308828403829 0.0016193844106149298 0 0.013307833566809495 0.0016769540651214473 0 0.013339541872551392 0.0013707193979805806 0 0.013597308828403829 0.0016193844106149298 0 0.013339541872551392 0.0013707193979805806 0 0.01377630170290348 0.0010743188347984147 0 0.0026677855820292995 0.0059031819538839896 0 -0.0043563556972699364 0.0077324901256539194 0 0.013618285591661363 0.0037814637097843837 0 0.012325154675574598 0.0049854200271121606 0 0.012304849824828403 0.0064534367200287717 0 0.0066024625082173475 0.0015691852837509518 0 -0.0043563556972699364 0.0077324901256539194 0 0.011454467978034561 0.0044921750292220234 0 0.01253949316945163 0.0043054756228873845 0 0.012325154675574598 0.0049854200271121606 0 0.013618285591661363 0.0037814637097843837 0 0.01253949316945163 0.0043054756228873845 0 0.012325154675574598 0.0049854200271121606 0 0.012325154675574598 0.0049854200271121606 0 0.01159998689566907 0.0059288734252402209 0 0.012304849824828403 0.0064534367200287717 0 0.011454467978034561 0.0044921750292220234 0 0.012325154675574598 0.0049854200271121606 0 0.01159998689566907 0.0059288734252402209 0 -0.014581177760079347 0.019986220828735683 0 -0.0056273919366215718 0.019521603634620213 0 -0.014570489774540903 0.027653992571927289 0 0.01248385194519722 0.0063776791971774938 0 0.011965128124333445 0.0067952981927715175 0 0.010267214990865173 0.011262801142706294 0 0.01159998689566907 0.0059288734252402209 0 0.012304849824828403 0.0064534367200287717 0 0.011965128124333445 0.0067952981927715175 0 -0.0043563556972699364 0.0077324901256539194 0 -0.0041297388008804323 0.0076183908534900747 0 -0.041048280352693367 0.015709619507759259 0 -0.046930850200843956 0.020809455441614239 0 -0.0042575837674446648 0.012836554444241602 0 -0.014581177760079347 0.019986220828735683 0 -0.0056273919366215718 0.019521603634620213 0 -0.07799271511508496 0.012625014642616348 0 -0.081439041314765689 0.018326614538301811 0 -0.088328607508721249 0.02204390608659558 0 -0.07799271511508496 0.012625014642616348 0 -0.081439041314765689 0.018326614538301811 0 -0.076130625564521479 0.018596178239553708 0 -0.079975012730432921 0.022065300887655549 0 -0.080532509262932261 0.031310652950332953 0 -0.083513232900301188 0.019824777079559531 0 -0.076130625564521479 0.018596178239553708 0 -0.079975012730432921 0.022065300887655549 0 -0.076996675882765264 0.023808327992994479 0 -0.081439041314765689 0.018326614538301811 0 -0.076130625564521479 0.018596178239553708 0 -0.079975012730432921 0.022065300887655549 0 -0.081439041314765689 0.018326614538301811 0 -0.079975012730432921 0.022065300887655549 0 -0.083513232900301188 0.019824777079559531 0 -0.079975012730432921 0.022065300887655549 0 -0.076996675882765264 0.023808327992994479 0 -0.080532509262932261 0.031310652950332953 0 -0.069950938288040387 0.022914772336734009 0 -0.076996675882765264 0.023808327992994479 0 -0.080532509262932261 0.031310652950332953 0 -0.081276394271144595 0.020754662770431732 0 -0.081630513197056984 0.021118151516694324 0 -0.084642373719267375 0.022171759480662186 0 -0.085668229252184688 0.021886353587169081 0 -0.083513232900301188 0.019824777079559531 0 -0.085668229252184688 0.021886353587169081 0 -0.085579196407382319 0.020456339618631171 0 -0.085911700717492989 0.022102010918278889 0 -0.085668229252184688 0.021886353587169081 0 -0.085855573464147447 0.022072869077601306 0 -0.086424349562644803 0.022264089821300216 0 -0.084642373719267375 0.022171759480662186 0 -0.085668229252184688 0.021886353587169081 0 -0.086424349562644803 0.022264089821300216 0 -0.085668229252184688 0.021886353587169081 0 -0.083513232900301188 0.019824777079559531 0 -0.085579196407382319 0.020456339618631171 0 -0.014581177760079347 0.019986220828735683 0 -0.014570489774540903 0.027653992571927289 0 -0.020338162620964093 0.030712983915142551 0 -0.0043563556972699364 0.0077324901256539194 0 -0.030487610492680721 0.015308305138128864 0 -0.046930850200843956 0.020809455441614239 0 -0.030487610492680721 0.015308305138128864 0 -0.055621949017319136 0.023684709305132719 0 -0.046930850200843956 0.020809455441614239 0 -0.081439041314765689 0.018326614538301811 0 -0.083513232900301188 0.019824777079559531 0 -0.085579196407382319 0.020456339618631171 0 -0.046930850200843956 0.020809455441614239 0 -0.042045397036434319 0.020112780347601854 0 -0.042494369511757432 0.017984355868021756 0 -0.040103842602476437 0.016769745405087185 0 -0.03918747348953508 0.015115440712359636 0 0.0088172998143005339 0.0080937872243794524 0 0.010267214990865173 0.011262801142706294 0 0.0045068390566671878 0.0089748476294011191 0 0.011965128124333445 0.0067952981927715175 0 0.0088172998143005339 0.0080937872243794524 0 0.010267214990865173 0.011262801142706294 0 0.0034220445299751128 0.015220429632515652 0 0.010267214990865173 0.011262801142706294 0 0.0045068390566671878 0.0089748476294011191 0 0.0066437175901136215 0.0071631442147184103 0 0.0088172998143005339 0.0080937872243794524 0 0.0045068390566671878 0.0089748476294011191 0 -0.040087602466560235 0.017325068832030222 0 -0.038957075457668758 0.016656516183117479 0 -0.039163787858960339 0.017068369631173391 0 -0.024026817935978585 0.01293679607786619 0 -0.030487610492680721 0.015308305138128864 0 -0.040087602466560235 0.017325068832030222 0 -0.039163787858960339 0.017068369631173391 0 -0.039761495856764223 0.017608353616093326 0 -0.042045397036434319 0.020112780347601854 0 -0.040716720433983125 0.018761540175021275 0 -0.085668229252184688 0.021886353587169081 0 -0.085911700717492989 0.022102010918278889 0 -0.085855573464147447 0.022072869077601306 0 -0.030487610492680721 0.015308305138128864 0 -0.042045397036434319 0.020112780347601854 0 -0.085911700717492989 0.022102010918278889 0 -0.085855573464147447 0.022072869077601306 0 -0.084867158623810959 0.021848771487894509 0 -0.042045397036434319 0.020112780347601854 0 -0.050294780794796046 0.019938303649738639 0 -0.085855573464147447 0.022072869077601306 0 -0.085736526900860838 0.021323104215418023 0 -0.084867158623810959 0.021848771487894509 0 -0.085736526900860838 0.021323104215418023 0 -0.084867158623810959 0.021848771487894509 0 -0.084800787284324372 0.021182674005541285 0 -0.040140347238110059 0.017675703864628956 0 -0.040087602466560235 0.017325068832030222 0 -0.039761495856764223 0.017608353616093326 0 -0.04041590315390934 0.018096646189580973 0 -0.040287871100349218 0.017989140731255588 0 -0.040325230498025146 0.017973437057597214 0 -0.040287871100349218 0.017989140731255588 0 -0.040325230498025146 0.017973437057597214 0 -0.040292238993128324 0.017981836835044712 0 -0.084867158623810959 0.021848771487894509 0 -0.083849106359232414 0.020785351389254851 0 -0.084800787284324372 0.021182674005541285 0 -0.050294780794796046 0.019938303649738639 0 -0.053349197726232589 0.015632774818632872 0 -0.040336049390949064 0.017969075948367344 0 -0.040287871100349218 0.017989140731255588 0 -0.040292238993128324 0.017981836835044712 0 -0.040325230498025146 0.017973437057597214 0 -0.040292238993128324 0.017981836835044712 0 -0.040255149255396833 0.018005026623297459 0 -0.040463482281025025 0.018482181236839708 0 -0.040716720433983125 0.018761540175021275 0 -0.040336049390949064 0.017969075948367344 0 -0.040292238993128324 0.017981836835044712 0 -0.040255149255396833 0.018005026623297459 0 -0.083339640144182867 0.021299434017550103 0 -0.084305376178636968 0.020715364855199671 0 -0.083553767698919493 0.020741632064317662 0 -0.083849106359232414 0.020785351389254851 0 -0.084800787284324372 0.021182674005541285 0 -0.084305376178636968 0.020715364855199671 0 -0.084800787284324372 0.021182674005541285 0 -0.084305376178636968 0.020715364855199671 0 -0.085173321844175309 0.020522198781398965 0 -0.053349197726232589 0.015632774818632872 0 -0.05499641653780965 0.015491923752561433 0 -0.084305376178636968 0.020715364855199671 0 -0.084529943404927393 0.019952402002818555 0 -0.085173321844175309 0.020522198781398965 0 -0.084529943404927393 0.019952402002818555 0 -0.083902898118593167 0.020283643997337179 0 -0.083702781231337148 0.019782343072438733 0 -0.084305376178636968 0.020715364855199671 0 -0.084529943404927393 0.019952402002818555 0 -0.083902898118593167 0.020283643997337179 0 -0.084305376178636968 0.020715364855199671 0 -0.083902898118593167 0.020283643997337179 0 -0.083553767698919493 0.020741632064317662 0 -0.083902898118593167 0.020283643997337179 0 -0.083553767698919493 0.020741632064317662 0 -0.083291944900498141 0.020301857486777843 0 -0.083339640144182867 0.021299434017550103 0 -0.083553767698919493 0.020741632064317662 0 -0.083080133395354805 0.020666670214470755 0 -0.083553767698919493 0.020741632064317662 0 -0.083291944900498141 0.020301857486777843 0 -0.083080133395354805 0.020666670214470755 0 -0.083702781231337148 0.019782343072438733 0 -0.083291944900498141 0.020301857486777843 0 -0.083085802915712811 0.019867215313507106 0 -0.083902898118593167 0.020283643997337179 0 -0.083702781231337148 0.019782343072438733 0 -0.083291944900498141 0.020301857486777843 0 -0.082224340757078893 0.020483562866458135 0 -0.083085802915712811 0.019867215313507106 0 -0.082971048130725228 0.019173232668283254 0 -0.082224340757078893 0.020483562866458135 0 -0.083291944900498141 0.020301857486777843 0 -0.083085802915712811 0.019867215313507106 0 -0.082224340757078893 0.020483562866458135 0 -0.083339640144182867 0.021299434017550103 0 -0.083080133395354805 0.020666670214470755 0 -0.082224340757078893 0.020483562866458135 0 -0.083291944900498141 0.020301857486777843 0 -0.083080133395354805 0.020666670214470755 0 -0.085736526900860838 0.021323104215418023 0 -0.085173321844175309 0.020522198781398965 0 -0.086360739094301794 0.019852513016140442 0 -0.085736526900860838 0.021323104215418023 0 -0.084800787284324372 0.021182674005541285 0 -0.085173321844175309 0.020522198781398965 0 -0.084529943404927393 0.019952402002818555 0 -0.085173321844175309 0.020522198781398965 0 -0.085472742820495315 0.019332279572145457 0 -0.085173321844175309 0.020522198781398965 0 -0.086360739094301794 0.019852513016140442 0 -0.085472742820495315 0.019332279572145457 0 -0.085736526900860838 0.021323104215418023 0 -0.086360739094301794 0.019852513016140442 0 -0.087193993164778438 0.020511947001686757 0 -0.086360739094301794 0.019852513016140442 0 -0.087193993164778438 0.020511947001686757 0 -0.088148228404027584 0.018821089896736982 0 -0.087193993164778438 0.020511947001686757 0 -0.089886626066480332 0.020274942259235009 0 -0.086424349562644803 0.022264089821300216 0 -0.087193993164778438 0.020511947001686757 0 -0.089886626066480332 0.020274942259235009 0 -0.088148228404027584 0.018821089896736982 0 -0.081276394271144595 0.020754662770431732 0 -0.082835317953834725 0.021955071920624892 0 -0.088283918654547697 0.02385601966793055 0 -0.089886626066480332 0.020274942259235009 0 -0.086424349562644803 0.022264089821300216 0 -0.081276394271144595 0.020754662770431732 0 -0.082514667806971018 0.021557904959921707 0 -0.085855573464147447 0.022072869077601306 0 -0.085736526900860838 0.021323104215418023 0 -0.086424349562644803 0.022264089821300216 0 -0.085736526900860838 0.021323104215418023 0 -0.087193993164778438 0.020511947001686757 0 -0.086424349562644803 0.022264089821300216 0 -0.088178425946890612 0.016371702339191233 0 -0.086666457526218432 0.016934961607085935 0 -0.08674068556775448 0.018218530679581513 0 -0.088178425946890612 0.016371702339191233 0 -0.086666457526218432 0.016934961607085935 0 -0.086873444911978875 0.015326385483045754 0 -0.088178425946890612 0.016371702339191233 0 -0.086873444911978875 0.015326385483045754 0 -0.087965683015904211 0.014330523736340847 0 -0.091387369393895856 0.016852916557761173 0 -0.088178425946890612 0.016371702339191233 0 -0.089794663124008633 0.014047657950270086 0 -0.091387369393895856 0.016852916557761173 0 -0.089886626066480332 0.020274942259235009 0 -0.088148228404027584 0.018821089896736982 0 -0.091387369393895856 0.016852916557761173 0 -0.088178425946890612 0.016371702339191233 0 -0.088148228404027584 0.018821089896736982 0 -0.088178425946890612 0.016371702339191233 0 -0.088148228404027584 0.018821089896736982 0 -0.08674068556775448 0.018218530679581513 0 -0.086360739094301794 0.019852513016140442 0 -0.088148228404027584 0.018821089896736982 0 -0.08674068556775448 0.018218530679581513 0 -0.08674068556775448 0.018218530679581513 0 -0.085472742820495315 0.019332279572145457 0 -0.085490504581340152 0.018127868277657395 0 -0.086360739094301794 0.019852513016140442 0 -0.08674068556775448 0.018218530679581513 0 -0.085472742820495315 0.019332279572145457 0 -0.084529943404927393 0.019952402002818555 0 -0.085472742820495315 0.019332279572145457 0 -0.084772062136965226 0.018960078121326905 0 -0.085472742820495315 0.019332279572145457 0 -0.084772062136965226 0.018960078121326905 0 -0.085490504581340152 0.018127868277657395 0 -0.085490504581340152 0.018127868277657395 0 -0.084492573903405976 0.018079949547396952 0 -0.084887124506353814 0.017138788096891108 0 -0.084772062136965226 0.018960078121326905 0 -0.085490504581340152 0.018127868277657395 0 -0.084492573903405976 0.018079949547396952 0 -0.086666457526218432 0.016934961607085935 0 -0.08674068556775448 0.018218530679581513 0 -0.085490504581340152 0.018127868277657395 0 -0.083702781231337148 0.019782343072438733 0 -0.083085802915712811 0.019867215313507106 0 -0.082971048130725228 0.019173232668283254 0 -0.083702781231337148 0.019782343072438733 0 -0.082971048130725228 0.019173232668283254 0 -0.084045879478175545 0.019057388669064299 0 -0.082971048130725228 0.019173232668283254 0 -0.084045879478175545 0.019057388669064299 0 -0.083678306486288545 0.01834365054059061 0 -0.084529943404927393 0.019952402002818555 0 -0.083702781231337148 0.019782343072438733 0 -0.084045879478175545 0.019057388669064299 0 -0.084529943404927393 0.019952402002818555 0 -0.084772062136965226 0.018960078121326905 0 -0.084045879478175545 0.019057388669064299 0 -0.084772062136965226 0.018960078121326905 0 -0.084045879478175545 0.019057388669064299 0 -0.084492573903405976 0.018079949547396952 0 -0.084492573903405976 0.018079949547396952 0 -0.083836325055227229 0.017169792232786064 0 -0.084887124506353814 0.017138788096891108 0 -0.084492573903405976 0.018079949547396952 0 -0.083678306486288545 0.01834365054059061 0 -0.083836325055227229 0.017169792232786064 0 -0.084045879478175545 0.019057388669064299 0 -0.084492573903405976 0.018079949547396952 0 -0.083678306486288545 0.01834365054059061 0 -0.082937776367968133 0.018097290854180968 0 -0.082720650783226532 0.017278324037748281 0 -0.083836325055227229 0.017169792232786064 0 -0.082971048130725228 0.019173232668283254 0 -0.083678306486288545 0.01834365054059061 0 -0.082937776367968133 0.018097290854180968 0 -0.083678306486288545 0.01834365054059061 0 -0.082937776367968133 0.018097290854180968 0 -0.083836325055227229 0.017169792232786064 0 -0.082937776367968133 0.018097290854180968 0 -0.082720650783226532 0.017278324037748281 0 -0.082056320430265922 0.018272933478532972 0 -0.082971048130725228 0.019173232668283254 0 -0.082937776367968133 0.018097290854180968 0 -0.082056320430265922 0.018272933478532972 0 -0.082817070802852222 0.016171557429853441 0 -0.082720650783226532 0.017278324037748281 0 -0.083836325055227229 0.017169792232786064 0 -0.082817070802852222 0.016171557429853441 0 -0.083836325055227229 0.017169792232786064 0 -0.083805048303325802 0.015688726022393497 0 -0.083836325055227229 0.017169792232786064 0 -0.084735705479419138 0.016001365889675597 0 -0.083805048303325802 0.015688726022393497 0 -0.083836325055227229 0.017169792232786064 0 -0.084735705479419138 0.016001365889675597 0 -0.084887124506353814 0.017138788096891108 0 -0.083805048303325802 0.015688726022393497 0 -0.083232854355965211 0.014584079732252791 0 -0.084388481923613576 0.014870624054916572 0 -0.084735705479419138 0.016001365889675597 0 -0.083805048303325802 0.015688726022393497 0 -0.084388481923613576 0.014870624054916572 0 -0.082817070802852222 0.016171557429853441 0 -0.083805048303325802 0.015688726022393497 0 -0.083232854355965211 0.014584079732252791 0 -0.082817070802852222 0.016171557429853441 0 -0.083232854355965211 0.014584079732252791 0 -0.081982782685326522 0.01541485939976346 0 -0.086666457526218432 0.016934961607085935 0 -0.086873444911978875 0.015326385483045754 0 -0.085733923623034794 0.016282311828241264 0 -0.086666457526218432 0.016934961607085935 0 -0.085490504581340152 0.018127868277657395 0 -0.085733923623034794 0.016282311828241264 0 -0.084735705479419138 0.016001365889675597 0 -0.085733923623034794 0.016282311828241264 0 -0.084887124506353814 0.017138788096891108 0 -0.085490504581340152 0.018127868277657395 0 -0.085733923623034794 0.016282311828241264 0 -0.084887124506353814 0.017138788096891108 0 -0.084735705479419138 0.016001365889675597 0 -0.085514410637655164 0.014747710858462729 0 -0.084388481923613576 0.014870624054916572 0 -0.084735705479419138 0.016001365889675597 0 -0.085733923623034794 0.016282311828241264 0 -0.085514410637655164 0.014747710858462729 0 -0.086873444911978875 0.015326385483045754 0 -0.085733923623034794 0.016282311828241264 0 -0.085514410637655164 0.014747710858462729 0 -0.086873444911978875 0.015326385483045754 0 -0.085514410637655164 0.014747710858462729 0 -0.086799110060890153 0.013695392512171905 0 -0.085514410637655164 0.014747710858462729 0 -0.0857623588184971 0.013132253284787312 0 -0.086799110060890153 0.013695392512171905 0 -0.085514410637655164 0.014747710858462729 0 -0.0857623588184971 0.013132253284787312 0 -0.084587680580825289 0.013337669545215229 0 -0.0857623588184971 0.013132253284787312 0 -0.084587680580825289 0.013337669545215229 0 -0.085507060752365902 0.011796528197483299 0 -0.0857623588184971 0.013132253284787312 0 -0.086538298498279181 0.012348078375145037 0 -0.086799110060890153 0.013695392512171905 0 -0.085514410637655164 0.014747710858462729 0 -0.084388481923613576 0.014870624054916572 0 -0.084587680580825289 0.013337669545215229 0 -0.083232854355965211 0.014584079732252791 0 -0.084388481923613576 0.014870624054916572 0 -0.084587680580825289 0.013337669545215229 0 -0.084587680580825289 0.013337669545215229 0 -0.084535465514059632 0.01193014707076614 0 -0.083000819676526602 0.012705648186285281 0 -0.083232854355965211 0.014584079732252791 0 -0.084587680580825289 0.013337669545215229 0 -0.083000819676526602 0.012705648186285281 0 -0.084535465514059632 0.01193014707076614 0 -0.084213818231434923 0.010966914660273353 0 -0.083000819676526602 0.012705648186285281 0 -0.084587680580825289 0.013337669545215229 0 -0.084535465514059632 0.01193014707076614 0 -0.085507060752365902 0.011796528197483299 0 -0.084535465514059632 0.01193014707076614 0 -0.084213818231434923 0.010966914660273353 0 -0.084758942448191057 0.010508734965881403 0 -0.087714859424437908 0.0087395690335559714 0 -0.088235637992497978 0.0083832212369785788 0 -0.084535465514059632 0.01193014707076614 0 -0.085507060752365902 0.011796528197483299 0 -0.084758942448191057 0.010508734965881403 0 -0.086538298498279181 0.012348078375145037 0 -0.085507060752365902 0.011796528197483299 0 -0.086774302158810171 0.011040913079276028 0 -0.0857623588184971 0.013132253284787312 0 -0.086538298498279181 0.012348078375145037 0 -0.085507060752365902 0.011796528197483299 0 -0.085507060752365902 0.011796528197483299 0 -0.086017341323681648 0.010812104468377317 0 -0.084758942448191057 0.010508734965881403 0 -0.085507060752365902 0.011796528197483299 0 -0.086017341323681648 0.010812104468377317 0 -0.086774302158810171 0.011040913079276028 0 -0.086774302158810171 0.011040913079276028 0 -0.087940948601770805 0.012351257187050891 0 -0.088070231783550793 0.010220473981104419 0 -0.087940948601770805 0.012351257187050891 0 -0.089608823513117039 0.010939094257904987 0 -0.088070231783550793 0.010220473981104419 0 -0.086538298498279181 0.012348078375145037 0 -0.086774302158810171 0.011040913079276028 0 -0.087940948601770805 0.012351257187050891 0 -0.087940948601770805 0.012351257187050891 0 -0.086799110060890153 0.013695392512171905 0 -0.087965683015904211 0.014330523736340847 0 -0.086538298498279181 0.012348078375145037 0 -0.087940948601770805 0.012351257187050891 0 -0.086799110060890153 0.013695392512171905 0 -0.087940948601770805 0.012351257187050891 0 -0.087965683015904211 0.014330523736340847 0 -0.089794663124008633 0.014047657950270086 0 -0.086873444911978875 0.015326385483045754 0 -0.086799110060890153 0.013695392512171905 0 -0.087965683015904211 0.014330523736340847 0 -0.088178425946890612 0.016371702339191233 0 -0.087965683015904211 0.014330523736340847 0 -0.089794663124008633 0.014047657950270086 0 -0.092643520491793405 0.013285561870597831 0 -0.089794663124008633 0.014047657950270086 0 -0.089608823513117039 0.010939094257904987 0 -0.087940948601770805 0.012351257187050891 0 -0.089794663124008633 0.014047657950270086 0 -0.089608823513117039 0.010939094257904987 0 -0.091113744662574131 0.0094054898800156692 0 -0.089608823513117039 0.010939094257904987 0 -0.089614614981077534 0.0081776174827349318 0 -0.089608823513117039 0.010939094257904987 0 -0.088070231783550793 0.010220473981104419 0 -0.089614614981077534 0.0081776174827349318 0 -0.091014825185580461 0.0079882736610835496 0 -0.091113744662574131 0.0094054898800156692 0 -0.089614614981077534 0.0081776174827349318 0 -0.088070231783550793 0.010220473981104419 0 -0.08750911577081702 0.0087149478784209738 0 -0.086732674679145083 0.010138696236027749 0 -0.086774302158810171 0.011040913079276028 0 -0.088070231783550793 0.010220473981104419 0 -0.086732674679145083 0.010138696236027749 0 -0.088070231783550793 0.010220473981104419 0 -0.08750911577081702 0.0087149478784209738 0 -0.089614614981077534 0.0081776174827349318 0 -0.091986886419953395 0.0049580731393108618 0 -0.094844121826250516 0.0044766833285120452 0 -0.093390561179689233 0.0037649021646264293 0 -0.091537548635425625 0.0065786033479198671 0 -0.093723086849913359 0.0043848891293695545 0 -0.090191934649164265 0.0068391388217935063 0 -0.093685633493587453 0.004725950803564226 0 -0.090317606507081982 0.0070473772084243677 0 -0.091986886419953395 0.0049580731393108618 0 -0.094844121826250516 0.0044766833285120452 0 -0.090588229275543247 0.0078382288909496153 0 -0.08750911577081702 0.0087149478784209738 0 -0.089614614981077534 0.0081776174827349318 0 -0.090780448041254722 0.0066942768623836722 0 -0.091537548635425625 0.0065786033479198671 0 -0.093723086849913359 0.0043848891293695545 0 -0.095075450517881438 0.004735910027309915 0 -0.089822056507339321 0.0073740648537409508 0 -0.092284259668013513 0.0058275954209875101 0 -0.091014825185580461 0.0079882736610835496 0 -0.089614614981077534 0.0081776174827349318 0 -0.090922133527320217 0.0065973005075230127 0 -0.09181608609770979 0.0063161143517001363 0 -0.092284259668013513 0.0058275954209875101 0 -0.095353860583839767 0.0024212900601235628 0 -0.093659301297141062 0.0027307021666611907 0 -0.094393788653419158 0.00123015971921594 0 -0.095353860583839767 0.0024212900601235628 0 -0.094356549533181927 0.0033598296824876388 0 -0.093659301297141062 0.0027307021666611907 0 -0.094844121826250516 0.0044766833285120452 0 -0.094356549533181927 0.0033598296824876388 0 -0.093390561179689233 0.0037649021646264293 0 -0.094844121826250516 0.0044766833285120452 0 -0.095353860583839767 0.0024212900601235628 0 -0.094356549533181927 0.0033598296824876388 0 -0.093390561179689233 0.0037649021646264293 0 -0.091991384858373937 0.0033241268454631788 0 -0.093659301297141062 0.0027307021666611907 0 -0.094356549533181927 0.0033598296824876388 0 -0.093390561179689233 0.0037649021646264293 0 -0.093659301297141062 0.0027307021666611907 0 -0.091986886419953395 0.0049580731393108618 0 -0.091991384858373937 0.0033241268454631788 0 -0.089655990644717742 0.0042741876491755072 0 -0.091986886419953395 0.0049580731393108618 0 -0.093390561179689233 0.0037649021646264293 0 -0.091991384858373937 0.0033241268454631788 0 -0.091991384858373937 0.0033241268454631788 0 -0.09226358233878719 0.001757390198414873 0 -0.090324889856033444 0.0024886564415378645 0 -0.091991384858373937 0.0033241268454631788 0 -0.093659301297141062 0.0027307021666611907 0 -0.09226358233878719 0.001757390198414873 0 -0.09226358233878719 0.001757390198414873 0 -0.092932170331606154 0.00021508496792622115 0 -0.094393788653419158 0.00123015971921594 0 -0.093659301297141062 0.0027307021666611907 0 -0.09226358233878719 0.001757390198414873 0 -0.094393788653419158 0.00123015971921594 0 -0.092932170331606154 0.00021508496792622115 0 -0.094393788653419158 0.00123015971921594 0 -0.094204056345152554 -0.00041042184469463228 0 -0.095750477403430873 0.0014180475410665002 0 -0.094393788653419158 0.00123015971921594 0 -0.095660002052243384 3.6655993326719333e-06 0 -0.095353860583839767 0.0024212900601235628 0 -0.095750477403430873 0.0014180475410665002 0 -0.094393788653419158 0.00123015971921594 0 -0.085618145437089427 0.0012764562762467688 0 -0.090047003061248257 0.00029408766604183985 0 -0.085957759679928539 -0.00096621985598585624 0 -0.085618145437089427 0.0012764562762467688 0 -0.090047003061248257 0.00029408766604183985 0 -0.087328680878968168 0.0028652276115451515 0 -0.090047003061248257 0.00029408766604183985 0 -0.090324889856033444 0.0024886564415378645 0 -0.087328680878968168 0.0028652276115451515 0 -0.09226358233878719 0.001757390198414873 0 -0.092932170331606154 0.00021508496792622115 0 -0.090047003061248257 0.00029408766604183985 0 -0.09226358233878719 0.001757390198414873 0 -0.090047003061248257 0.00029408766604183985 0 -0.090324889856033444 0.0024886564415378645 0 -0.091991384858373937 0.0033241268454631788 0 -0.090324889856033444 0.0024886564415378645 0 -0.089655990644717742 0.0042741876491755072 0 -0.090324889856033444 0.0024886564415378645 0 -0.089655990644717742 0.0042741876491755072 0 -0.087328680878968168 0.0028652276115451515 0 -0.087328680878968168 0.0028652276115451515 0 -0.084843019829337285 0.0044392022747203269 0 -0.083228278416155516 0.002758531463770645 0 -0.089655990644717742 0.0042741876491755072 0 -0.087328680878968168 0.0028652276115451515 0 -0.08697742242256358 0.0047907477861602286 0 -0.085618145437089427 0.0012764562762467688 0 -0.087328680878968168 0.0028652276115451515 0 -0.083228278416155516 0.002758531463770645 0 -0.087328680878968168 0.0028652276115451515 0 -0.084843019829337285 0.0044392022747203269 0 -0.08697742242256358 0.0047907477861602286 0 -0.084843019829337285 0.0044392022747203269 0 -0.08697742242256358 0.0047907477861602286 0 -0.085730874781369926 0.0066111675484063466 0 -0.08697742242256358 0.0047907477861602286 0 -0.085730874781369926 0.0066111675484063466 0 -0.088497698473585712 0.0057318021275111295 0 -0.085730874781369926 0.0066111675484063466 0 -0.088497698473585712 0.0057318021275111295 0 -0.088514112631950831 0.007051475331468794 0 -0.091986886419953395 0.0049580731393108618 0 -0.089655990644717742 0.0042741876491755072 0 -0.090027724553635363 0.0059033273622637761 0 -0.089655990644717742 0.0042741876491755072 0 -0.088497698473585712 0.0057318021275111295 0 -0.090027724553635363 0.0059033273622637761 0 -0.089655990644717742 0.0042741876491755072 0 -0.08697742242256358 0.0047907477861602286 0 -0.088497698473585712 0.0057318021275111295 0 -0.088497698473585712 0.0057318021275111295 0 -0.088514112631950831 0.007051475331468794 0 -0.090027724553635363 0.0059033273622637761 0 -0.088514112631950831 0.007051475331468794 0 -0.090027724553635363 0.0059033273622637761 0 -0.090588229275543247 0.0078382288909496153 0 -0.091986886419953395 0.0049580731393108618 0 -0.090027724553635363 0.0059033273622637761 0 -0.090588229275543247 0.0078382288909496153 0 -0.091537548635425625 0.0065786033479198671 0 -0.090191934649164265 0.0068391388217935063 0 -0.087969020201793716 0.0083844975776460641 0 -0.086017341323681648 0.010812104468377317 0 -0.086732674679145083 0.010138696236027749 0 -0.084758942448191057 0.010508734965881403 0 -0.090588229275543247 0.0078382288909496153 0 -0.086859653443010193 0.008297117873302293 0 -0.086898078542788956 0.0099443766257390105 0 -0.088514112631950831 0.007051475331468794 0 -0.090588229275543247 0.0078382288909496153 0 -0.086859653443010193 0.008297117873302293 0 -0.089822056507339321 0.0073740648537409508 0 -0.088235637992497978 0.0083832212369785788 0 -0.08750911577081702 0.0087149478784209738 0 -0.086732674679145083 0.010138696236027749 0 -0.084758942448191057 0.010508734965881403 0 -0.090317606507081982 0.0070473772084243677 0 -0.088235637992497978 0.0083832212369785788 0 -0.086017341323681648 0.010812104468377317 0 -0.086774302158810171 0.011040913079276028 0 -0.086732674679145083 0.010138696236027749 0 -0.085730874781369926 0.0066111675484063466 0 -0.084669589134029069 0.0088921218783623267 0 -0.08269596147568864 0.0083157932384644584 0 -0.085730874781369926 0.0066111675484063466 0 -0.086859653443010193 0.008297117873302293 0 -0.084669589134029069 0.0088921218783623267 0 -0.085730874781369926 0.0066111675484063466 0 -0.088514112631950831 0.007051475331468794 0 -0.086859653443010193 0.008297117873302293 0 -0.084213818231434923 0.010966914660273353 0 -0.086859653443010193 0.008297117873302293 0 -0.086898078542788956 0.0099443766257390105 0 -0.084213818231434923 0.010966914660273353 0 -0.084669589134029069 0.0088921218783623267 0 -0.08269596147568864 0.0083157932384644584 0 -0.084213818231434923 0.010966914660273353 0 -0.086859653443010193 0.008297117873302293 0 -0.084669589134029069 0.0088921218783623267 0 -0.08269596147568864 0.0083157932384644584 0 -0.079772991087355583 0.0085058763028530854 0 -0.081942867338594655 0.0054811716019962462 0 -0.08269596147568864 0.0083157932384644584 0 -0.079772991087355583 0.0085058763028530854 0 -0.081549038616664946 0.01079559056557328 0 -0.079772991087355583 0.0085058763028530854 0 -0.07770490104918916 0.0055161282659098101 0 -0.075982636126030345 0.0089557269733315532 0 -0.079772991087355583 0.0085058763028530854 0 -0.081942867338594655 0.0054811716019962462 0 -0.07770490104918916 0.0055161282659098101 0 -0.081942867338594655 0.0054811716019962462 0 -0.079516840417746995 0.0026165645352782324 0 -0.07770490104918916 0.0055161282659098101 0 -0.085730874781369926 0.0066111675484063466 0 -0.08269596147568864 0.0083157932384644584 0 -0.081942867338594655 0.0054811716019962462 0 -0.084843019829337285 0.0044392022747203269 0 -0.085730874781369926 0.0066111675484063466 0 -0.081942867338594655 0.0054811716019962462 0 -0.081942867338594655 0.0054811716019962462 0 -0.083228278416155516 0.002758531463770645 0 -0.079516840417746995 0.0026165645352782324 0 -0.084843019829337285 0.0044392022747203269 0 -0.081942867338594655 0.0054811716019962462 0 -0.083228278416155516 0.002758531463770645 0 -0.083228278416155516 0.002758531463770645 0 -0.079516840417746995 0.0026165645352782324 0 -0.081569589017592287 -0.00023943071441469659 0 -0.079516840417746995 0.0026165645352782324 0 -0.081569589017592287 -0.00023943071441469659 0 -0.077205434312440813 -0.00056469142015265462 0 -0.085618145437089427 0.0012764562762467688 0 -0.083228278416155516 0.002758531463770645 0 -0.081569589017592287 -0.00023943071441469659 0 -0.085618145437089427 0.0012764562762467688 0 -0.081569589017592287 -0.00023943071441469659 0 -0.085957759679928539 -0.00096621985598585624 0 -0.074216017824201633 -0.00025328934856944308 0 -0.077205434312440813 -0.00056469142015265462 0 -0.075632033235413454 0.0025511397655761749 0 -0.079516840417746995 0.0026165645352782324 0 -0.077205434312440813 -0.00056469142015265462 0 -0.075632033235413454 0.0025511397655761749 0 -0.079516840417746995 0.0026165645352782324 0 -0.075632033235413454 0.0025511397655761749 0 -0.07770490104918916 0.0055161282659098101 0 -0.075632033235413454 0.0025511397655761749 0 -0.073366122110203047 0.0057836352233568084 0 -0.072193373384123002 0.0021476947258852316 0 -0.074216017824201633 -0.00025328934856944308 0 -0.075632033235413454 0.0025511397655761749 0 -0.072193373384123002 0.0021476947258852316 0 -0.072527769370786727 0.003313654294698334 0 -0.071501759926431596 0.00088613224962166446 0 -0.075632033235413454 0.0025511397655761749 0 -0.07770490104918916 0.0055161282659098101 0 -0.073366122110203047 0.0057836352233568084 0 -0.07770490104918916 0.0055161282659098101 0 -0.075982636126030345 0.0089557269733315532 0 -0.073366122110203047 0.0057836352233568084 0 -0.075982636126030345 0.0089557269733315532 0 -0.073366122110203047 0.0057836352233568084 0 -0.070818169758373226 0.010574944124362344 0 -0.075982636126030345 0.0089557269733315532 0 -0.070818169758373226 0.010574944124362344 0 -0.075093662727286861 0.012371372096709831 0 -0.071909115983784619 0.013960683077131693 0 -0.075093662727286861 0.012371372096709831 0 -0.073773401217613457 0.015923701822898876 0 -0.070818169758373226 0.010574944124362344 0 -0.071909115983784619 0.013960683077131693 0 -0.075093662727286861 0.012371372096709831 0 -0.075093662727286861 0.012371372096709831 0 -0.078564539914535741 0.011249535199818351 0 -0.07793685663876973 0.013848347434040006 0 -0.075093662727286861 0.012371372096709831 0 -0.073773401217613457 0.015923701822898876 0 -0.076195595383410045 0.015179656900286923 0 -0.075093662727286861 0.012371372096709831 0 -0.07793685663876973 0.013848347434040006 0 -0.076195595383410045 0.015179656900286923 0 -0.075982636126030345 0.0089557269733315532 0 -0.075093662727286861 0.012371372096709831 0 -0.078564539914535741 0.011249535199818351 0 -0.079772991087355583 0.0085058763028530854 0 -0.078564539914535741 0.011249535199818351 0 -0.081549038616664946 0.01079559056557328 0 -0.079772991087355583 0.0085058763028530854 0 -0.075982636126030345 0.0089557269733315532 0 -0.078564539914535741 0.011249535199818351 0 -0.078564539914535741 0.011249535199818351 0 -0.081549038616664946 0.01079559056557328 0 -0.0806611800798821 0.013348977379269329 0 -0.081549038616664946 0.01079559056557328 0 -0.083000819676526602 0.012705648186285281 0 -0.0806611800798821 0.013348977379269329 0 -0.084213818231434923 0.010966914660273353 0 -0.08269596147568864 0.0083157932384644584 0 -0.081549038616664946 0.01079559056557328 0 -0.084213818231434923 0.010966914660273353 0 -0.081549038616664946 0.01079559056557328 0 -0.083000819676526602 0.012705648186285281 0 -0.083000819676526602 0.012705648186285281 0 -0.0806611800798821 0.013348977379269329 0 -0.08199271085916722 0.01420361275899948 0 -0.0806611800798821 0.013348977379269329 0 -0.081019593384019137 0.014907162881554133 0 -0.08199271085916722 0.01420361275899948 0 -0.0806611800798821 0.013348977379269329 0 -0.081019593384019137 0.014907162881554133 0 -0.079579928937213551 0.015366232543144046 0 -0.083232854355965211 0.014584079732252791 0 -0.083000819676526602 0.012705648186285281 0 -0.08199271085916722 0.01420361275899948 0 -0.083232854355965211 0.014584079732252791 0 -0.08199271085916722 0.01420361275899948 0 -0.081982782685326522 0.01541485939976346 0 -0.081019593384019137 0.014907162881554133 0 -0.08199271085916722 0.01420361275899948 0 -0.081982782685326522 0.01541485939976346 0 -0.078564539914535741 0.011249535199818351 0 -0.0806611800798821 0.013348977379269329 0 -0.07793685663876973 0.013848347434040006 0 -0.0806611800798821 0.013348977379269329 0 -0.07793685663876973 0.013848347434040006 0 -0.079579928937213551 0.015366232543144046 0 -0.07793685663876973 0.013848347434040006 0 -0.077678593356932904 0.016768393506908945 0 -0.076195595383410045 0.015179656900286923 0 -0.07793685663876973 0.013848347434040006 0 -0.079579928937213551 0.015366232543144046 0 -0.077678593356932904 0.016768393506908945 0 -0.079579928937213551 0.015366232543144046 0 -0.079431152642244054 0.017183606646554234 0 -0.080820891939606329 0.016197293732667085 0 -0.079579928937213551 0.015366232543144046 0 -0.079431152642244054 0.017183606646554234 0 -0.077678593356932904 0.016768393506908945 0 -0.079431152642244054 0.017183606646554234 0 -0.077678593356932904 0.016768393506908945 0 -0.078007081687062982 0.018326815445004429 0 -0.082817070802852222 0.016171557429853441 0 -0.081982782685326522 0.01541485939976346 0 -0.081910068240277342 0.016746359715688493 0 -0.081982782685326522 0.01541485939976346 0 -0.080820891939606329 0.016197293732667085 0 -0.081910068240277342 0.016746359715688493 0 -0.081019593384019137 0.014907162881554133 0 -0.079579928937213551 0.015366232543144046 0 -0.080820891939606329 0.016197293732667085 0 -0.081019593384019137 0.014907162881554133 0 -0.081982782685326522 0.01541485939976346 0 -0.080820891939606329 0.016197293732667085 0 -0.079431152642244054 0.017183606646554234 0 -0.080820891939606329 0.016197293732667085 0 -0.080923647794895123 0.017541077586986191 0 -0.080820891939606329 0.016197293732667085 0 -0.081910068240277342 0.016746359715688493 0 -0.080923647794895123 0.017541077586986191 0 -0.082817070802852222 0.016171557429853441 0 -0.082720650783226532 0.017278324037748281 0 -0.081910068240277342 0.016746359715688493 0 -0.082720650783226532 0.017278324037748281 0 -0.081910068240277342 0.016746359715688493 0 -0.082056320430265922 0.018272933478532972 0 -0.081910068240277342 0.016746359715688493 0 -0.082056320430265922 0.018272933478532972 0 -0.080923647794895123 0.017541077586986191 0 -0.082056320430265922 0.018272933478532972 0 -0.080914784884644167 0.018728143242580663 0 -0.080923647794895123 0.017541077586986191 0 -0.080914784884644167 0.018728143242580663 0 -0.080923647794895123 0.017541077586986191 0 -0.079485197799495561 0.018840756285210977 0 -0.08010183973739271 0.020411914656342778 0 -0.080914784884644167 0.018728143242580663 0 -0.079485197799495561 0.018840756285210977 0 -0.08010183973739271 0.020411914656342778 0 -0.080914784884644167 0.018728143242580663 0 -0.081735647543108941 0.019452812938180249 0 -0.082056320430265922 0.018272933478532972 0 -0.080914784884644167 0.018728143242580663 0 -0.081735647543108941 0.019452812938180249 0 -0.082224340757078893 0.020483562866458135 0 -0.082971048130725228 0.019173232668283254 0 -0.081735647543108941 0.019452812938180249 0 -0.082971048130725228 0.019173232668283254 0 -0.082056320430265922 0.018272933478532972 0 -0.081735647543108941 0.019452812938180249 0 -0.077678593356932904 0.016768393506908945 0 -0.078007081687062982 0.018326815445004429 0 -0.075951478307754117 0.018360622677758783 0 -0.078007081687062982 0.018326815445004429 0 -0.077758444429949128 0.02024571507369817 0 -0.075951478307754117 0.018360622677758783 0 -0.079431152642244054 0.017183606646554234 0 -0.078007081687062982 0.018326815445004429 0 -0.079485197799495561 0.018840756285210977 0 -0.079431152642244054 0.017183606646554234 0 -0.080923647794895123 0.017541077586986191 0 -0.079485197799495561 0.018840756285210977 0 -0.08010183973739271 0.020411914656342778 0 -0.079485197799495561 0.018840756285210977 0 -0.077758444429949128 0.02024571507369817 0 -0.078007081687062982 0.018326815445004429 0 -0.079485197799495561 0.018840756285210977 0 -0.077758444429949128 0.02024571507369817 0 -0.075317030731646126 0.020970774091710248 0 -0.075951478307754117 0.018360622677758783 0 -0.072736962073536207 0.019258463998842113 0 -0.075317030731646126 0.020970774091710248 0 -0.077758444429949128 0.02024571507369817 0 -0.075951478307754117 0.018360622677758783 0 -0.075951478307754117 0.018360622677758783 0 -0.072736962073536207 0.019258463998842113 0 -0.073773401217613457 0.015923701822898876 0 -0.072736962073536207 0.019258463998842113 0 -0.07102816754718895 0.016396653139990777 0 -0.068428678352637606 0.018181740286070364 0 -0.072736962073536207 0.019258463998842113 0 -0.07102816754718895 0.016396653139990777 0 -0.073773401217613457 0.015923701822898876 0 -0.071909115983784619 0.013960683077131693 0 -0.07102816754718895 0.016396653139990777 0 -0.073773401217613457 0.015923701822898876 0 -0.077678593356932904 0.016768393506908945 0 -0.075951478307754117 0.018360622677758783 0 -0.076195595383410045 0.015179656900286923 0 -0.075951478307754117 0.018360622677758783 0 -0.073773401217613457 0.015923701822898876 0 -0.076195595383410045 0.015179656900286923 0 -0.065926290392306061 0.015260353531919759 0 -0.063634487872711379 0.017770798454068131 0 -0.063501666181388278 0.01308041770377282 0 -0.065926290392306061 0.015260353531919759 0 -0.068428678352637606 0.018181740286070364 0 -0.063634487872711379 0.017770798454068131 0 -0.065926290392306061 0.015260353531919759 0 -0.068702063714226283 0.014513172140634691 0 -0.068428678352637606 0.018181740286070364 0 -0.07102816754718895 0.016396653139990777 0 -0.068702063714226283 0.014513172140634691 0 -0.068428678352637606 0.018181740286070364 0 -0.071909115983784619 0.013960683077131693 0 -0.07102816754718895 0.016396653139990777 0 -0.068702063714226283 0.014513172140634691 0 -0.069418341382783258 0.021322317524980455 0 -0.072736962073536207 0.019258463998842113 0 -0.068428678352637606 0.018181740286070364 0 -0.069418341382783258 0.021322317524980455 0 -0.068428678352637606 0.018181740286070364 0 -0.066014624097845948 0.020588983575489515 0 -0.068428678352637606 0.018181740286070364 0 -0.066014624097845948 0.020588983575489515 0 -0.063634487872711379 0.017770798454068131 0 -0.060830618570273824 0.023088291025457702 0 -0.066014624097845948 0.020588983575489515 0 -0.063634487872711379 0.017770798454068131 0 -0.060830618570273824 0.023088291025457702 0 -0.063634487872711379 0.017770798454068131 0 -0.057902955052449225 0.016982730396622511 0 -0.037406513047898826 0.012611447373526213 0 -0.04214576936855826 0.0091676946822717691 0 -0.030596230306615967 0.00090735827847842113 0 -0.03164701685166478 0.0010296728259212994 0 -0.031041578827490101 0.00019997249609232288 0 -0.03164701685166478 0.0010296728259212994 0 -0.031041578827490101 0.00019997249609232288 0 -0.031113802294621691 0.00011361112834247186 0 -0.063634487872711379 0.017770798454068131 0 -0.063501666181388278 0.01308041770377282 0 -0.059831622242037884 0.013587554851024695 0 -0.063634487872711379 0.017770798454068131 0 -0.057902955052449225 0.016982730396622511 0 -0.059831622242037884 0.013587554851024695 0 -0.063501666181388278 0.01308041770377282 0 -0.059103165561446368 0.0094072042827185263 0 -0.063438351409024665 0.0095637368965716656 0 -0.063501666181388278 0.01308041770377282 0 -0.059831622242037884 0.013587554851024695 0 -0.059103165561446368 0.0094072042827185263 0 -0.059831622242037884 0.013587554851024695 0 -0.059103165561446368 0.0094072042827185263 0 -0.054765455417683698 0.01034441130311765 0 -0.04214576936855826 0.0091676946822717691 0 -0.044147087444782372 0.0044231470529548667 0 -0.057902955052449225 0.016982730396622511 0 -0.059831622242037884 0.013587554851024695 0 -0.054765455417683698 0.01034441130311765 0 -0.059103165561446368 0.0094072042827185263 0 -0.055844133119261403 0.006663715785584663 0 -0.05423696454209833 0.0096824264514742148 0 -0.049025246619685048 0.0043958062401199477 0 -0.044147087444782372 0.0044231470529548667 0 -0.059103165561446368 0.0094072042827185263 0 -0.061722997576678165 0.0064241053666313731 0 -0.057823423973596938 0.0053811459388210907 0 -0.059103165561446368 0.0094072042827185263 0 -0.055844133119261403 0.006663715785584663 0 -0.057823423973596938 0.0053811459388210907 0 -0.059103165561446368 0.0094072042827185263 0 -0.063438351409024665 0.0095637368965716656 0 -0.061722997576678165 0.0064241053666313731 0 -0.063438351409024665 0.0095637368965716656 0 -0.066565936280376825 0.011493319501886633 0 -0.066141246281435181 0.0075098320152872239 0 -0.063438351409024665 0.0095637368965716656 0 -0.066141246281435181 0.0075098320152872239 0 -0.061722997576678165 0.0064241053666313731 0 -0.065926290392306061 0.015260353531919759 0 -0.068702063714226283 0.014513172140634691 0 -0.066565936280376825 0.011493319501886633 0 -0.065926290392306061 0.015260353531919759 0 -0.063501666181388278 0.01308041770377282 0 -0.066565936280376825 0.011493319501886633 0 -0.063501666181388278 0.01308041770377282 0 -0.063438351409024665 0.0095637368965716656 0 -0.066565936280376825 0.011493319501886633 0 -0.070818169758373226 0.010574944124362344 0 -0.071909115983784619 0.013960683077131693 0 -0.068702063714226283 0.014513172140634691 0 -0.070818169758373226 0.010574944124362344 0 -0.068702063714226283 0.014513172140634691 0 -0.066565936280376825 0.011493319501886633 0 -0.070818169758373226 0.010574944124362344 0 -0.066565936280376825 0.011493319501886633 0 -0.066141246281435181 0.0075098320152872239 0 -0.073366122110203047 0.0057836352233568084 0 -0.066141246281435181 0.0075098320152872239 0 -0.066642737122755924 0.0030300609042269808 0 -0.073366122110203047 0.0057836352233568084 0 -0.070818169758373226 0.010574944124362344 0 -0.066141246281435181 0.0075098320152872239 0 -0.066141246281435181 0.0075098320152872239 0 -0.066642737122755924 0.0030300609042269808 0 -0.063066277171730703 0.0035634349042535764 0 -0.066141246281435181 0.0075098320152872239 0 -0.063066277171730703 0.0035634349042535764 0 -0.061722997576678165 0.0064241053666313731 0 -0.066642737122755924 0.0030300609042269808 0 -0.063141631370313145 -4.9704826202201371e-05 0 -0.063066277171730703 0.0035634349042535764 0 -0.073366122110203047 0.0057836352233568084 0 -0.066642737122755924 0.0030300609042269808 0 -0.068876469207133834 -0.00081573351604530091 0 -0.066642737122755924 0.0030300609042269808 0 -0.068876469207133834 -0.00081573351604530091 0 -0.063141631370313145 -4.9704826202201371e-05 0 -0.063141631370313145 -4.9704826202201371e-05 0 -0.060904660469853572 -0.003196150383769655 0 -0.065473415059868575 -0.0050858258848574247 0 -0.068876469207133834 -0.00081573351604530091 0 -0.063141631370313145 -4.9704826202201371e-05 0 -0.065473415059868575 -0.0050858258848574247 0 -0.071501759926431596 0.00088613224962166446 0 -0.071674405364906227 -0.00064025625841001828 0 -0.074216017824201633 -0.00025328934856944308 0 -0.072193373384123002 0.0021476947258852316 0 -0.069820432800479559 -0.00238865155168693 0 -0.060904660469853572 -0.003196150383769655 0 -0.059474231237008887 -0.00094844027998899157 0 -0.058518481116259541 -0.0020898452984779332 0 -0.063141631370313145 -4.9704826202201371e-05 0 -0.060904660469853572 -0.003196150383769655 0 -0.059474231237008887 -0.00094844027998899157 0 -0.063141631370313145 -4.9704826202201371e-05 0 -0.059474231237008887 -0.00094844027998899157 0 -0.058693689932106462 0.0021971187589341439 0 -0.059474231237008887 -0.00094844027998899157 0 -0.058693689932106462 0.0021971187589341439 0 -0.056849289030745848 -0.00016867425212985582 0 -0.059474231237008887 -0.00094844027998899157 0 -0.056849289030745848 -0.00016867425212985582 0 -0.058518481116259541 -0.0020898452984779332 0 -0.063141631370313145 -4.9704826202201371e-05 0 -0.058693689932106462 0.0021971187589341439 0 -0.063066277171730703 0.0035634349042535764 0 -0.058693689932106462 0.0021971187589341439 0 -0.063066277171730703 0.0035634349042535764 0 -0.061722997576678165 0.0064241053666313731 0 -0.058693689932106462 0.0021971187589341439 0 -0.057823423973596938 0.0053811459388210907 0 -0.054585303915499345 0.0036733516141511688 0 -0.058693689932106462 0.0021971187589341439 0 -0.061722997576678165 0.0064241053666313731 0 -0.057823423973596938 0.0053811459388210907 0 -0.055844133119261403 0.006663715785584663 0 -0.057823423973596938 0.0053811459388210907 0 -0.054585303915499345 0.0036733516141511688 0 -0.054585303915499345 0.0036733516141511688 0 -0.051432159120268418 0.0028805935994781953 0 -0.052768671064928253 0.0054371636465175878 0 -0.054585303915499345 0.0036733516141511688 0 -0.051432159120268418 0.0028805935994781953 0 -0.054033403433017081 0.0013087064288638626 0 -0.051432159120268418 0.0028805935994781953 0 -0.054033403433017081 0.0013087064288638626 0 -0.048883427253658851 0.00084227421675143674 0 -0.051432159120268418 0.0028805935994781953 0 -0.048883427253658851 0.00084227421675143674 0 -0.047950123272764586 0.0030413006521512751 0 -0.051432159120268418 0.0028805935994781953 0 -0.047950123272764586 0.0030413006521512751 0 -0.052768671064928253 0.0054371636465175878 0 -0.054033403433017081 0.0013087064288638626 0 -0.054464565790665539 -0.00073639181037618172 0 -0.048883427253658851 0.00084227421675143674 0 -0.058693689932106462 0.0021971187589341439 0 -0.054585303915499345 0.0036733516141511688 0 -0.054033403433017081 0.0013087064288638626 0 -0.058693689932106462 0.0021971187589341439 0 -0.054033403433017081 0.0013087064288638626 0 -0.056849289030745848 -0.00016867425212985582 0 -0.056849289030745848 -0.00016867425212985582 0 -0.054464565790665539 -0.00073639181037618172 0 -0.058518481116259541 -0.0020898452984779332 0 -0.054033403433017081 0.0013087064288638626 0 -0.056849289030745848 -0.00016867425212985582 0 -0.054464565790665539 -0.00073639181037618172 0 -0.054464565790665539 -0.00073639181037618172 0 -0.057181046193829757 -0.0016404447057494333 0 -0.055846408558322229 -0.0012598419231525139 0 -0.054464565790665539 -0.00073639181037618172 0 -0.057181046193829757 -0.0016404447057494333 0 -0.058518481116259541 -0.0020898452984779332 0 -0.051784846919730093 -1.9614308644338479e-06 0 -0.050949176643260916 -0.00044389115731386264 0 -0.055846408558322229 -0.0012598419231525139 0 -0.054464565790665539 -0.00073639181037618172 0 -0.050949176643260916 -0.00044389115731386264 0 -0.055846408558322229 -0.0012598419231525139 0 -0.054464565790665539 -0.00073639181037618172 0 -0.050949176643260916 -0.00044389115731386264 0 -0.048883427253658851 0.00084227421675143674 0 -0.051784846919730093 -1.9614308644338479e-06 0 -0.050949176643260916 -0.00044389115731386264 0 -0.045729391300263766 4.202309262541593e-07 0 -0.048883427253658851 0.00084227421675143674 0 -0.039668694871808782 -2.1566676858936604e-06 0 -0.047950123272764586 0.0030413006521512751 0 -0.045729391300263766 4.202309262541593e-07 0 -0.048883427253658851 0.00084227421675143674 0 -0.039668694871808782 -2.1566676858936604e-06 0 -0.050949176643260916 -0.00044389115731386264 0 -0.045729391300263766 4.202309262541593e-07 0 -0.048883427253658851 0.00084227421675143674 0 -0.039668694871808782 -2.1566676858936604e-06 0 -0.04564659358454963 0.0053899032191684513 0 -0.047950123272764586 0.0030413006521512751 0 -0.039668694871808782 -2.1566676858936604e-06 0 -0.033627890282094702 1.5732059225833782e-05 0 -0.04564659358454963 0.0053899032191684513 0 -0.03361897001071331 4.4408028744765195e-06 0 -0.039258274830578879 0.0022097616573361419 0 -0.03360030485947306 -8.475709247941363e-07 0 -0.031159169237547364 0.0004654519732377826 0 -0.031261074281374063 -0.00024331163635036931 0 -0.04564659358454963 0.0053899032191684513 0 -0.047950123272764586 0.0030413006521512751 0 -0.052768671064928253 0.0054371636465175878 0 -0.04564659358454963 0.0053899032191684513 0 -0.052768671064928253 0.0054371636465175878 0 -0.053520677020785362 0.0073604819103430755 0 -0.055844133119261403 0.006663715785584663 0 -0.054585303915499345 0.0036733516141511688 0 -0.052768671064928253 0.0054371636465175878 0 -0.045003144719588578 0.005314162020830418 0 -0.044147087444782372 0.0044231470529548667 0 -0.055844133119261403 0.006663715785584663 0 -0.052768671064928253 0.0054371636465175878 0 -0.05423696454209833 0.0096824264514742148 0 -0.039258274830578879 0.0022097616573361419 0 -0.044147087444782372 0.0044231470529548667 0 -0.031159169237547364 0.0004654519732377826 0 -0.031080284800683693 0.00029620660240858447 0 -0.031110886794870524 0.0001538419744992203 0 -0.031159169237547364 0.0004654519732377826 0 -0.031195321820532758 3.5392007138492999e-05 0 -0.031110886794870524 0.0001538419744992203 0 -0.031195321820532758 3.5392007138492999e-05 0 -0.031110886794870524 0.0001538419744992203 0 -0.031299054043018894 2.0466695008342615e-05 0 -0.031041578827490101 0.00019997249609232288 0 -0.031113802294621691 0.00011361112834247186 0 -0.031110886794870524 0.0001538419744992203 0 -0.031113802294621691 0.00011361112834247186 0 -0.031080284800683693 0.00029620660240858447 0 -0.031110886794870524 0.0001538419744992203 0 -0.031041578827490101 0.00019997249609232288 0 -0.031110886794870524 0.0001538419744992203 0 -0.031299054043018894 2.0466695008342615e-05 0 -0.030665668956520887 0.00019405119290035727 0 -0.030121337026402066 0.00025846791424892187 0 -0.030596230306615967 0.00090735827847842113 0 -0.031041578827490101 0.00019997249609232288 0 -0.029948916067525966 0.00032399708606199636 0 -0.029450088787491356 0.00075853421643722464 0 -0.030596230306615967 0.00090735827847842113 0 -0.029948916067525966 0.00032399708606199636 0 -0.030121337026402066 0.00025846791424892187 0 -0.027857397253600622 0.00053839095920728123 0 -0.029450088787491356 0.00075853421643722464 0 -0.029948916067525966 0.00032399708606199636 0 -0.028802701128410164 0.00048138357849476137 0 -0.031299054043018894 2.0466695008342615e-05 0 -0.030885993375854896 0.00045766045746048288 0 -0.031261074281374063 -0.00024331163635036931 0 -0.025050897288496219 0.0022908371510975637 0 -0.027857397253600622 0.00053839095920728123 0 -0.025050897288496219 0.0022908371510975637 0 -0.027029718217341257 4.3740738411186486e-06 0 -0.02801172916459007 0.00019002341082367962 0 -0.027417033268022695 -9.3453951604356377e-05 0 -0.027039978551667121 -2.1811575333528023e-07 0 -0.027857397253600622 0.00053839095920728123 0 -0.027364279657056883 2.8327736609992727e-06 0 -0.02764620194625091 -7.7615588328181488e-07 0 -0.027368882964212738 8.9873822380095641e-10 0 -0.02852590116470274 -1.9545440275615048e-09 0 -0.027417033268022695 -9.3453951604356377e-05 0 -0.027039978551667121 -2.1811575333528023e-07 0 -0.027356838424244818 2.2218431672769626e-07 0 -0.030885993375854896 0.00045766045746048288 0 -0.028543833268717317 9.7101169418224418e-07 0 -0.031191473534259936 -0.00025566116815811169 0 -0.027857397253600622 0.00053839095920728123 0 -0.028529633638070283 2.8273769573851234e-06 0 -0.03360030485947306 -8.475709247941363e-07 0 -0.028543833268717317 9.7101169418224418e-07 0 -0.031191473534259936 -0.00025566116815811169 0 -0.03360030485947306 -8.475709247941363e-07 0 -0.031191473534259936 -0.00025566116815811169 0 -0.031261074281374063 -0.00024331163635036931 0 -0.030885993375854896 0.00045766045746048288 0 -0.031191473534259936 -0.00025566116815811169 0 -0.031261074281374063 -0.00024331163635036931 0 -0.031159169237547364 0.0004654519732377826 0 -0.031195321820532758 3.5392007138492999e-05 0 -0.031261074281374063 -0.00024331163635036931 0 -0.031195321820532758 3.5392007138492999e-05 0 -0.031299054043018894 2.0466695008342615e-05 0 -0.031261074281374063 -0.00024331163635036931 0 -0.073454960813258613 0.00085822945209262968 0 -0.075789661033744044 0.00030564868682863081 0 -0.076443054020227247 0.00083796959349746248 0 -0.073454960813258613 0.00085822945209262968 0 -0.073106239610369592 0.00024284117479823604 0 -0.075789661033744044 0.00030564868682863081 0 -0.073106239610369592 0.00024284117479823604 0 -0.076014072895222717 -4.47115612051891e-07 0 -0.075789661033744044 0.00030564868682863081 0 -0.073106239610369592 0.00024284117479823604 0 -0.076014072895222717 -4.47115612051891e-07 0 -0.069954740207748528 7.1446017910439233e-07 0 -0.076014072895222717 -4.47115612051891e-07 0 -0.075789661033744044 0.00030564868682863081 0 -0.078385699009775586 -0.00023763893715138455 0 -0.075789661033744044 0.00030564868682863081 0 -0.078359792251599211 3.7817585797891159e-05 0 -0.078385699009775586 -0.00023763893715138455 0 -0.075789661033744044 0.00030564868682863081 0 -0.076443054020227247 0.00083796959349746248 0 -0.078359792251599211 3.7817585797891159e-05 0 -0.076443054020227247 0.00083796959349746248 0 -0.080984775933275632 0.00011880035791501673 0 -0.078359792251599211 3.7817585797891159e-05 0 -0.076443054020227247 0.00083796959349746248 0 -0.077164922897534252 0.0017421358370181197 0 -0.080984775933275632 0.00011880035791501673 0 -0.077164922897534252 0.0017421358370181197 0 -0.081498901502900942 0.00072624839540331358 0 -0.080984775933275632 0.00011880035791501673 0 -0.076573456873118576 0.0014273433778472936 0 -0.076564135305463549 0.0013665858837831537 0 -0.077164922897534252 0.0017421358370181197 0 -0.073072339717135129 0.0014677568690301161 0 -0.073834072484890378 0.0016074850664558639 0 -0.076443054020227247 0.00083796959349746248 0 -0.077164922897534252 0.0017421358370181197 0 -0.07445606615742123 0.0013426890655894256 0 -0.077164922897534252 0.0017421358370181197 0 -0.07445606615742123 0.0013426890655894256 0 -0.073072339717135129 0.0014677568690301161 0 -0.073454960813258613 0.00085822945209262968 0 -0.076443054020227247 0.00083796959349746248 0 -0.07445606615742123 0.0013426890655894256 0 -0.073454960813258613 0.00085822945209262968 0 -0.07445606615742123 0.0013426890655894256 0 -0.071737538749608212 0.0013220233538813425 0 -0.071737538749608212 0.0013220233538813425 0 -0.068895067492775228 0.0017557230183292262 0 -0.069339210910370014 0.00065994894449632776 0 -0.073454960813258613 0.00085822945209262968 0 -0.071737538749608212 0.0013220233538813425 0 -0.069339210910370014 0.00065994894449632776 0 -0.073072339717135129 0.0014677568690301161 0 -0.068895067492775228 0.0017557230183292262 0 -0.073804329754755413 0.0017901083312478875 0 -0.073932037949099361 0.0021555171954147842 0 -0.075954185040734104 0.0013611585984945047 0 -0.073072339717135129 0.0014677568690301161 0 -0.073804329754755413 0.0017901083312478875 0 -0.073834072484890378 0.0016074850664558639 0 -0.07445606615742123 0.0013426890655894256 0 -0.071737538749608212 0.0013220233538813425 0 -0.073072339717135129 0.0014677568690301161 0 -0.071737538749608212 0.0013220233538813425 0 -0.073072339717135129 0.0014677568690301161 0 -0.068895067492775228 0.0017557230183292262 0 -0.068895067492775228 0.0017557230183292262 0 -0.063562044938306528 -0.00094178451596542043 0 -0.065320616341822582 0.0038939483232649677 0 -0.068895067492775228 0.0017557230183292262 0 -0.065955725708112298 -0.00018027345981098847 0 -0.063562044938306528 -0.00094178451596542043 0 -0.068895067492775228 0.0017557230183292262 0 -0.069339210910370014 0.00065994894449632776 0 -0.065955725708112298 -0.00018027345981098847 0 -0.069339210910370014 0.00065994894449632776 0 -0.064441460394891723 -0.00057706287386055264 0 -0.066211201050576263 -4.302198391241997e-05 0 -0.073454960813258613 0.00085822945209262968 0 -0.073106239610369592 0.00024284117479823604 0 -0.069339210910370014 0.00065994894449632776 0 -0.073106239610369592 0.00024284117479823604 0 -0.069339210910370014 0.00065994894449632776 0 -0.069954740207748528 7.1446017910439233e-07 0 -0.069339210910370014 0.00065994894449632776 0 -0.069954740207748528 7.1446017910439233e-07 0 -0.066211201050576263 -4.302198391241997e-05 0 -0.069954740207748528 7.1446017910439233e-07 0 -0.063899004043700289 -5.7606598396678131e-07 0 -0.066211201050576263 -4.302198391241997e-05 0 -0.063899004043700289 -5.7606598396678131e-07 0 -0.066211201050576263 -4.302198391241997e-05 0 -0.062055595465380406 -0.00048928225275368068 0 -0.064441460394891723 -0.00057706287386055264 0 -0.066211201050576263 -4.302198391241997e-05 0 -0.062055595465380406 -0.00048928225275368068 0 -0.064441460394891723 -0.00057706287386055264 0 -0.062055595465380406 -0.00048928225275368068 0 -0.059847607844065176 -0.0012254339300231214 0 -0.063899004043700289 -5.7606598396678131e-07 0 -0.062055595465380406 -0.00048928225275368068 0 -0.057841979837322637 -1.4643027676681198e-06 0 -0.057841979837322637 -1.4643027676681198e-06 0 -0.059847607844065176 -0.0012254339300231214 0 -0.056257700780651114 -0.0006981240676114961 0 -0.062055595465380406 -0.00048928225275368068 0 -0.057841979837322637 -1.4643027676681198e-06 0 -0.059847607844065176 -0.0012254339300231214 0 -0.059847607844065176 -0.0012254339300231214 0 -0.055846408558322229 -0.0012598419231525139 0 -0.056257700780651114 -0.0006981240676114961 0 -0.051784846919730093 -1.9614308644338479e-06 0 -0.055846408558322229 -0.0012598419231525139 0 -0.056257700780651114 -0.0006981240676114961 0 -0.051784846919730093 -1.9614308644338479e-06 0 -0.057841979837322637 -1.4643027676681198e-06 0 -0.056257700780651114 -0.0006981240676114961 0 -0.057181046193829757 -0.0016404447057494333 0 -0.058518481116259541 -0.0020898452984779332 0 -0.05988593547817779 -0.0022159919052373543 0 -0.058518481116259541 -0.0020898452984779332 0 -0.05988593547817779 -0.0022159919052373543 0 -0.060599299343164444 -0.0027598963398967244 0 -0.057181046193829757 -0.0016404447057494333 0 -0.055846408558322229 -0.0012598419231525139 0 -0.05988593547817779 -0.0022159919052373543 0 -0.059847607844065176 -0.0012254339300231214 0 -0.055846408558322229 -0.0012598419231525139 0 -0.05988593547817779 -0.0022159919052373543 0 -0.059847607844065176 -0.0012254339300231214 0 -0.05988593547817779 -0.0022159919052373543 0 -0.062669551001237708 -0.0016306935803687514 0 -0.05988593547817779 -0.0022159919052373543 0 -0.062669551001237708 -0.0016306935803687514 0 -0.061643667393849542 -0.0021900407264840755 0 -0.062669551001237708 -0.0016306935803687514 0 -0.063562044938306528 -0.00094178451596542043 0 -0.061643667393849542 -0.0021900407264840755 0 -0.064441460394891723 -0.00057706287386055264 0 -0.059847607844065176 -0.0012254339300231214 0 -0.062669551001237708 -0.0016306935803687514 0 -0.069339210910370014 0.00065994894449632776 0 -0.064441460394891723 -0.00057706287386055264 0 -0.065955725708112298 -0.00018027345981098847 0 -0.064441460394891723 -0.00057706287386055264 0 -0.062669551001237708 -0.0016306935803687514 0 -0.065955725708112298 -0.00018027345981098847 0 -0.062669551001237708 -0.0016306935803687514 0 -0.065955725708112298 -0.00018027345981098847 0 -0.063562044938306528 -0.00094178451596542043 0 -0.063562044938306528 -0.00094178451596542043 0 -0.061324246975316299 -0.00072993493087361897 0 -0.061643667393849542 -0.0021900407264840755 0 -0.082664935750099991 -0.0017621817758948944 0 -0.082506262563860441 -0.0017283037005381338 0 -0.082680999008917108 -0.0017003856358763904 0 -0.082630718122658986 -0.0018312901875384569 0 -0.082664935750099991 -0.0017621817758948944 0 -0.082739967011961665 -0.0017855263651863286 0 -0.082630718122658986 -0.0018312901875384569 0 -0.082664935750099991 -0.0017621817758948944 0 -0.082506262563860441 -0.0017283037005381338 0 -0.082506262563860441 -0.0017283037005381338 0 -0.082652461785123948 -0.0016508117106304242 0 -0.082680999008917108 -0.0017003856358763904 0 -0.073213346180642805 -0.0012918163954195258 0 -0.071961653023725147 -0.001701977430209921 0 -0.082506262563860441 -0.0017283037005381338 0 -0.082647905416024445 -0.0015539257511365176 0 -0.082652461785123948 -0.0016508117106304242 0 -0.061324246975316299 -0.00072993493087361897 0 -0.061643667393849542 -0.0021900407264840755 0 -0.060441871204746568 -0.0023811971835681024 0 -0.060904660469853572 -0.003196150383769655 0 -0.060599299343164444 -0.0027598963398967244 0 -0.060441871204746568 -0.0023811971835681024 0 -0.05988593547817779 -0.0022159919052373543 0 -0.061643667393849542 -0.0021900407264840755 0 -0.060599299343164444 -0.0027598963398967244 0 -0.061643667393849542 -0.0021900407264840755 0 -0.060599299343164444 -0.0027598963398967244 0 -0.060441871204746568 -0.0023811971835681024 0 -0.060904660469853572 -0.003196150383769655 0 -0.058518481116259541 -0.0020898452984779332 0 -0.060599299343164444 -0.0027598963398967244 0 -0.060904660469853572 -0.003196150383769655 0 -0.060261364467788618 -0.0030461297123674951 0 -0.060441871204746568 -0.0023811971835681024 0 -0.071674405364906227 -0.00064025625841001828 0 -0.077910572915901935 -0.0019131429527795821 0 -0.082716696492799627 -0.0013496201266564164 0 -0.082794719271652509 -0.0014992679701622622 0 -0.082938051082585409 -0.0013832967168143527 0 -0.074216017824201633 -0.00025328934856944308 0 -0.069820432800479559 -0.00238865155168693 0 -0.074082843653501845 -0.0036314281514775522 0 -0.06665281228072073 -0.00035648196677454265 0 -0.071674405364906227 -0.00064025625841001828 0 -0.082794719271652509 -0.0014992679701622622 0 -0.082647905416024445 -0.0015539257511365176 0 -0.082749868426013409 -0.0015999239137015754 0 -0.071674405364906227 -0.00064025625841001828 0 -0.071961653023725147 -0.001701977430209921 0 -0.082716696492799627 -0.0013496201266564164 0 -0.082794719271652509 -0.0014992679701622622 0 -0.082647905416024445 -0.0015539257511365176 0 -0.082794719271652509 -0.0014992679701622622 0 -0.082872872576457937 -0.0015839596669218426 0 -0.08288929405527698 -0.0014984070781892021 0 -0.082794719271652509 -0.0014992679701622622 0 -0.082872872576457937 -0.0015839596669218426 0 -0.082749868426013409 -0.0015999239137015754 0 -0.082846273139610571 -0.0016536636832563212 0 -0.082749868426013409 -0.0015999239137015754 0 -0.082702001958880514 -0.0016865379987179268 0 -0.082872872576457937 -0.0015839596669218426 0 -0.082846273139610571 -0.0016536636832563212 0 -0.082749868426013409 -0.0015999239137015754 0 -0.082647905416024445 -0.0015539257511365176 0 -0.082749868426013409 -0.0015999239137015754 0 -0.082689065223248051 -0.001634128323359412 0 -0.082749868426013409 -0.0015999239137015754 0 -0.082689065223248051 -0.001634128323359412 0 -0.082702001958880514 -0.0016865379987179268 0 -0.082647905416024445 -0.0015539257511365176 0 -0.082689065223248051 -0.001634128323359412 0 -0.082652461785123948 -0.0016508117106304242 0 -0.082689065223248051 -0.001634128323359412 0 -0.082652461785123948 -0.0016508117106304242 0 -0.082693883030496046 -0.0016857536214665543 0 -0.082652461785123948 -0.0016508117106304242 0 -0.082680999008917108 -0.0017003856358763904 0 -0.082693883030496046 -0.0016857536214665543 0 -0.082689065223248051 -0.001634128323359412 0 -0.082693883030496046 -0.0016857536214665543 0 -0.082702001958880514 -0.0016865379987179268 0 -0.083790099546825023 -0.0018152279669790177 0 -0.083794883682375504 -0.0018155357516108691 0 -0.083737709750734857 -0.00182675092797706 0 -0.083794883682375504 -0.0018155357516108691 0 -0.082680999008917108 -0.0017003856358763904 0 -0.082768210121290681 -0.0016769274698738533 0 -0.082752269551502181 -0.0017223645655256173 0 -0.082680999008917108 -0.0017003856358763904 0 -0.082693883030496046 -0.0016857536214665543 0 -0.082699426840706469 -0.0016837394126822493 0 -0.083794883682375504 -0.0018155357516108691 0 -0.084231931965117607 -0.001776253459612045 0 -0.082768210121290681 -0.0016769274698738533 0 -0.082752269551502181 -0.0017223645655256173 0 -0.082883224580615228 -0.0016844186391425911 0 -0.08369991806676938 -0.001308374118558348 0 -0.083797609812342994 -0.001313159199180591 0 -0.083318820248548239 -0.0017623762584838337 0 -0.083574703573926865 -0.0019960105769922325 0 -0.084231931965117607 -0.001776253459612045 0 -0.084534007136567391 -0.0017671820100352263 0 -0.084009498615169292 -0.0019718842982448556 0 -0.082752269551502181 -0.0017223645655256173 0 -0.082739967011961665 -0.0017855263651863286 0 -0.082883224580615228 -0.0016844186391425911 0 -0.083156207356710685 -0.0016655570621362788 0 -0.08369991806676938 -0.001308374118558348 0 -0.083318820248548239 -0.0017623762584838337 0 -0.082664935750099991 -0.0017621817758948944 0 -0.082680999008917108 -0.0017003856358763904 0 -0.082752269551502181 -0.0017223645655256173 0 -0.082664935750099991 -0.0017621817758948944 0 -0.082752269551502181 -0.0017223645655256173 0 -0.082739967011961665 -0.0017855263651863286 0 -0.084115242511901042 -0.0018235939747154918 0 -0.083794883682375504 -0.0018155357516108691 0 -0.084121708701079365 -0.0017747114112762771 0 -0.08402950590895715 -0.0018018548908455871 0 -0.084077125183653331 -0.0018047347728258978 0 -0.084534007136567391 -0.0017671820100352263 0 -0.087994404342221069 -0.0017852484001318119 0 -0.084122640208355637 -0.00099111365258007121 0 -0.084114186251341094 -0.0015045458651989421 0 -0.084939093659439829 -0.0010323537221793178 0 -0.086117924829481454 -0.0017676981943141525 0 -0.08595720773206672 -0.0019157900304126734 0 -0.086274529022559346 -0.0019339196898961212 0 -0.084115242511901042 -0.0018235939747154918 0 -0.084534007136567391 -0.0017671820100352263 0 -0.08409978349062959 -0.0018939597627049705 0 -0.084595456966942664 -0.0015440911201249053 0 -0.084471111042648719 -0.0015386229370674448 0 -0.084115242511901042 -0.0018235939747154918 0 -0.084231931965117607 -0.001776253459612045 0 -0.084231931965117607 -0.001776253459612045 0 -0.084534007136567391 -0.0017671820100352263 0 -0.084122640208355637 -0.00099111365258007121 0 -0.084114186251341094 -0.0015045458651989421 0 -0.083454675287404287 -0.001612655463837577 0 -0.086817869743305298 -0.0018307746358516947 0 -0.087994404342221069 -0.0017852484001318119 0 -0.091438117988327211 -0.0027496800266228424 0 -0.091931457073695044 -0.0029689513167114284 0 -0.091923640297845305 -0.0024698301902892168 0 -0.086817869743305298 -0.0018307746358516947 0 -0.089067166376393156 -0.0027686191973806773 0 -0.091438117988327211 -0.0027496800266228424 0 -0.091750124521156856 -0.0036353278241238046 0 -0.091931457073695044 -0.0029689513167114284 0 -0.083987153574389808 -0.0015489562350401854 0 -0.084435854265948601 -0.0027802013835151471 0 -0.083449692507643392 -0.0026751686504990673 0 -0.084435854265948601 -0.0027802013835151471 0 -0.083449692507643392 -0.0026751686504990673 0 -0.083905814929705252 -0.0032896549995906489 0 -0.083449692507643392 -0.0026751686504990673 0 -0.082809135079097262 -0.0027312868824183809 0 -0.082958752792566801 -0.0033226049591655845 0 -0.083449692507643392 -0.0026751686504990673 0 -0.082841134632548274 -0.0022100651778978945 0 -0.082809135079097262 -0.0027312868824183809 0 -0.083449692507643392 -0.0026751686504990673 0 -0.083317016905791685 -0.0019477377894805703 0 -0.082841134632548274 -0.0022100651778978945 0 -0.083987153574389808 -0.0015489562350401854 0 -0.083449692507643392 -0.0026751686504990673 0 -0.083317016905791685 -0.0019477377894805703 0 -0.086817869743305298 -0.0018307746358516947 0 -0.085885340941376315 -0.0021743044796808126 0 -0.084114186251341094 -0.0015045458651989421 0 -0.083454675287404287 -0.001612655463837577 0 -0.083317016905791685 -0.0019477377894805703 0 -0.084009498615169292 -0.0019718842982448556 0 -0.083775943085679094 -0.0021030298046579008 0 -0.083156207356710685 -0.0016655570621362788 0 -0.083318820248548239 -0.0017623762584838337 0 -0.082841134632548274 -0.0022100651778978945 0 -0.083454675287404287 -0.001612655463837577 0 -0.083317016905791685 -0.0019477377894805703 0 -0.082841134632548274 -0.0022100651778978945 0 -0.083156207356710685 -0.0016655570621362788 0 -0.082591346234741597 -0.002044970209250208 0 -0.082841134632548274 -0.0022100651778978945 0 -0.082630718122658986 -0.0018312901875384569 0 -0.082739967011961665 -0.0017855263651863286 0 -0.082591346234741597 -0.002044970209250208 0 -0.082506262563860441 -0.0017283037005381338 0 -0.082591346234741597 -0.002044970209250208 0 -0.082433095423178546 -0.0024016488749322058 0 -0.083574703573926865 -0.0019960105769922325 0 -0.083336853032651079 -0.0020897733122524969 0 -0.082630718122658986 -0.0018312901875384569 0 -0.082506262563860441 -0.0017283037005381338 0 -0.082591346234741597 -0.002044970209250208 0 -0.082591346234741597 -0.002044970209250208 0 -0.082841134632548274 -0.0022100651778978945 0 -0.082433095423178546 -0.0024016488749322058 0 -0.061324246975316299 -0.00072993493087361897 0 -0.063124318758402631 0.0023448872338886202 0 -0.062953998669773206 0.0024473772117380214 0 -0.073213346180642805 -0.0012918163954195258 0 -0.076517025886105455 0.0010299018843288612 0 -0.063562044938306528 -0.00094178451596542043 0 -0.061324246975316299 -0.00072993493087361897 0 -0.063124318758402631 0.0023448872338886202 0 -0.082506262563860441 -0.0017283037005381338 0 -0.081951737693456567 -0.0026286710570030381 0 -0.082433095423178546 -0.0024016488749322058 0 -0.072652944789286522 0.0010963961265912283 0 -0.075954185040734104 0.0013611585984945047 0 -0.076904575951675588 -0.0015987632025705673 0 -0.075381771809352682 -0.00069060438449123252 0 -0.076458210128926035 0.001444595825611708 0 -0.075954185040734104 0.0013611585984945047 0 -0.076517025886105455 0.0010299018843288612 0 -0.087635228018223529 0.0074756637196932612 0 -0.087488263854855766 0.0071748047450531701 0 -0.088928203974276837 0.0053304789255570976 0 -0.076517025886105455 0.0010299018843288612 0 -0.076564135305463549 0.0013665858837831537 0 -0.075954185040734104 0.0013611585984945047 0 -0.076564135305463549 0.0013665858837831537 0 -0.081951737693456567 -0.0026286710570030381 0 -0.082809135079097262 -0.0027312868824183809 0 -0.082958752792566801 -0.0033226049591655845 0 -0.081951737693456567 -0.0026286710570030381 0 -0.082433095423178546 -0.0024016488749322058 0 -0.082809135079097262 -0.0027312868824183809 0 -0.076517025886105455 0.0010299018843288612 0 -0.085280172644091809 -0.00040817668470998994 0 -0.082841134632548274 -0.0022100651778978945 0 -0.082433095423178546 -0.0024016488749322058 0 -0.082809135079097262 -0.0027312868824183809 0 -0.087635228018223529 0.0074756637196932612 0 -0.091279154994687028 0.0053397024181657832 0 -0.088928203974276837 0.0053304789255570976 0 -0.091279154994687028 0.0053397024181657832 0 -0.090218213529644278 0.0035853802866767522 0 -0.0929874354241743 0.0030599345440224944 0 -0.091279154994687028 0.0053397024181657832 0 -0.088928203974276837 0.0053304789255570976 0 -0.090218213529644278 0.0035853802866767522 0 -0.077164922897534252 0.0017421358370181197 0 -0.078936894915365097 0.0055079018338592117 0 -0.081498901502900942 0.00072624839540331358 0 -0.087488263854855766 0.0071748047450531701 0 -0.088928203974276837 0.0053304789255570976 0 -0.088101918394143011 0.0030686439601236371 0 -0.076564135305463549 0.0013665858837831537 0 -0.081200904857864187 0.00048874307013502065 0 -0.088928203974276837 0.0053304789255570976 0 -0.088101918394143011 0.0030686439601236371 0 -0.090218213529644278 0.0035853802866767522 0 -0.088101918394143011 0.0030686439601236371 0 -0.090218213529644278 0.0035853802866767522 0 -0.090671697901757983 0.0013236783992811602 0 -0.090218213529644278 0.0035853802866767522 0 -0.0929874354241743 0.0030599345440224944 0 -0.090671697901757983 0.0013236783992811602 0 -0.0929874354241743 0.0030599345440224944 0 -0.094014890288732098 0.00061785802544690098 0 -0.090671697901757983 0.0013236783992811602 0 -0.091279154994687028 0.0053397024181657832 0 -0.0929874354241743 0.0030599345440224944 0 -0.095052760457164528 0.0030017636562570463 0 -0.094812532015111167 0.0027268885769999021 0 -0.09582890366111807 0.00086207364570403341 0 -0.094014890288732098 0.00061785802544690098 0 -0.094812532015111167 0.0027268885769999021 0 -0.096959633513092794 0.0024817643283338974 0 -0.09582890366111807 0.00086207364570403341 0 -0.0929874354241743 0.0030599345440224944 0 -0.094812532015111167 0.0027268885769999021 0 -0.094014890288732098 0.00061785802544690098 0 -0.089890073149614946 -0.0011576211963618907 0 -0.09190890767186756 -0.0030011267044140898 0 -0.090732822486200959 -0.00088894940000165961 0 -0.089890073149614946 -0.0011576211963618907 0 -0.084435854265948601 -0.0027802013835151471 0 -0.083905814929705252 -0.0032896549995906489 0 -0.084907476890234895 -0.0040282210796629856 0 -0.08409718446867441 -0.0040103735659880605 0 -0.083905814929705252 -0.0032896549995906489 0 -0.084907476890234895 -0.0040282210796629856 0 -0.083449692507643392 -0.0026751686504990673 0 -0.082958752792566801 -0.0033226049591655845 0 -0.083905814929705252 -0.0032896549995906489 0 -0.085280172644091809 -0.00040817668470998994 0 -0.089890073149614946 -0.0011576211963618907 0 -0.082958752792566801 -0.0033226049591655845 0 -0.08409718446867441 -0.0040103735659880605 0 -0.083905814929705252 -0.0032896549995906489 0 -0.092442435419848437 -0.0039482473093986926 0 -0.092060396340339079 -0.0045596579309771096 0 -0.092800174137488922 -0.0045998723987884143 0 -0.092442435419848437 -0.0039482473093986926 0 -0.092800174137488922 -0.0045998723987884143 0 -0.092946958078231487 -0.0039821221453223577 0 -0.091750124521156856 -0.0036353278241238046 0 -0.092442435419848437 -0.0039482473093986926 0 -0.092060396340339079 -0.0045596579309771096 0 -0.089067166376393156 -0.0027686191973806773 0 -0.09190890767186756 -0.0030011267044140898 0 -0.09190890767186756 -0.0030011267044140898 0 -0.094169958087246292 -0.0037681964813388977 0 -0.098255642010726951 -0.0049983946524012526 0 -0.097232465338208812 -0.0049776285651809329 0 -0.097930566617606296 -0.0040145722725470094 0 -0.094169958087246292 -0.0037681964813388977 0 -0.09471786944760556 -0.0041086854958745514 0 -0.092800174137488922 -0.0045998723987884143 0 -0.093618760731231751 -0.0046497755467720123 0 -0.092946958078231487 -0.0039821221453223577 0 -0.097232465338208812 -0.0049776285651809329 0 -0.096134039607491714 -0.0049013024119582095 0 -0.096397551157804712 -0.0042029617920917245 0 -0.096134039607491714 -0.0049013024119582095 0 -0.094848480156445994 -0.0045455439971740282 0 -0.095679637106952015 -0.0041153289988729164 0 -0.09471786944760556 -0.0041086854958745514 0 -0.09481911217458576 -0.0041943914494330112 0 -0.093618760731231751 -0.0046497755467720123 0 -0.093514738506174422 -0.0037606362599269059 0 -0.094195104862044618 -0.0040826368820685421 0 -0.093618760731231751 -0.0046497755467720123 0 -0.092946958078231487 -0.0039821221453223577 0 -0.093514738506174422 -0.0037606362599269059 0 -0.092946958078231487 -0.0039821221453223577 0 -0.092878910718182078 -0.0033884168860528726 0 -0.093514738506174422 -0.0037606362599269059 0 -0.092878910718182078 -0.0033884168860528726 0 -0.093514738506174422 -0.0037606362599269059 0 -0.093472642053249358 -0.0030707307518251592 0 -0.093514738506174422 -0.0037606362599269059 0 -0.094017535316396186 -0.0035909241393159369 0 -0.094195104862044618 -0.0040826368820685421 0 -0.093514738506174422 -0.0037606362599269059 0 -0.093472642053249358 -0.0030707307518251592 0 -0.094017535316396186 -0.0035909241393159369 0 -0.093472642053249358 -0.0030707307518251592 0 -0.092974618737787354 -0.0028939253468433361 0 -0.09325656198281243 -0.0026126393314950484 0 -0.092878910718182078 -0.0033884168860528726 0 -0.093472642053249358 -0.0030707307518251592 0 -0.092974618737787354 -0.0028939253468433361 0 -0.092878910718182078 -0.0033884168860528726 0 -0.092974618737787354 -0.0028939253468433361 0 -0.092602342340559016 -0.0029338896526610774 0 -0.092878910718182078 -0.0033884168860528726 0 -0.092602342340559016 -0.0029338896526610774 0 -0.092283045788870879 -0.0032011506586385112 0 -0.092602342340559016 -0.0029338896526610774 0 -0.092283045788870879 -0.0032011506586385112 0 -0.092257537142379178 -0.0027925028432857959 0 -0.092442435419848437 -0.0039482473093986926 0 -0.092946958078231487 -0.0039821221453223577 0 -0.092878910718182078 -0.0033884168860528726 0 -0.092442435419848437 -0.0039482473093986926 0 -0.092878910718182078 -0.0033884168860528726 0 -0.092283045788870879 -0.0032011506586385112 0 -0.091750124521156856 -0.0036353278241238046 0 -0.092442435419848437 -0.0039482473093986926 0 -0.092283045788870879 -0.0032011506586385112 0 -0.091750124521156856 -0.0036353278241238046 0 -0.092283045788870879 -0.0032011506586385112 0 -0.091931457073695044 -0.0029689513167114284 0 -0.092283045788870879 -0.0032011506586385112 0 -0.091931457073695044 -0.0029689513167114284 0 -0.092257537142379178 -0.0027925028432857959 0 -0.087994404342221069 -0.0017852484001318119 0 -0.091561048171150891 -0.0021892302114158895 0 -0.091931457073695044 -0.0029689513167114284 0 -0.092257537142379178 -0.0027925028432857959 0 -0.091923640297845305 -0.0024698301902892168 0 -0.092257537142379178 -0.0027925028432857959 0 -0.091923640297845305 -0.0024698301902892168 0 -0.092624462363799148 -0.0025237063953934438 0 -0.092721878670706706 -0.0025967603113246527 0 -0.093034786283238149 -0.0026094319794151585 0 -0.092993238086614555 -0.0024593087714558288 0 -0.092974618737787354 -0.0028939253468433361 0 -0.092602342340559016 -0.0029338896526610774 0 -0.092624462363799148 -0.0025237063953934438 0 -0.092602342340559016 -0.0029338896526610774 0 -0.092257537142379178 -0.0027925028432857959 0 -0.092624462363799148 -0.0025237063953934438 0 -0.086666355743422865 -0.0017133305299299071 0 -0.08659912015353112 -0.0016270463073546925 0 -0.087058240581012622 -0.0014982678349212415 0 -0.085276741183845858 -0.0018827391277343082 0 -0.087104002602950842 -0.001865214259476822 0 -0.083104188060861395 -0.0016899076427003533 0 -0.083291387698803787 -0.0015637528865171605 0 -0.083394292909560019 -0.0016228825385611017 0 -0.08841357013680351 -0.0015699185438710172 0 -0.087104002602950842 -0.001865214259476822 0 -0.093034786283238149 -0.0026094319794151585 0 -0.092993238086614555 -0.0024593087714558288 0 -0.093163525819830034 -0.0025028814628771812 0 -0.083104188060861395 -0.0016899076427003533 0 -0.083025611490964213 -0.0016623030687936936 0 -0.083179102298418031 -0.0015460516351181622 0 -0.08287796588189425 -0.0017520131559657173 0 -0.083104188060861395 -0.0016899076427003533 0 -0.083025611490964213 -0.0016623030687936936 0 -0.084115242511901042 -0.0018235939747154918 0 -0.085276741183845858 -0.0018827391277343082 0 -0.087994404342221069 -0.0017852484001318119 0 -0.08841357013680351 -0.0015699185438710172 0 -0.086117924829481454 -0.0017676981943141525 0 -0.086274529022559346 -0.0019339196898961212 0 -0.08659912015353112 -0.0016270463073546925 0 -0.086274529022559346 -0.0019339196898961212 0 -0.086666355743422865 -0.0017133305299299071 0 -0.08659912015353112 -0.0016270463073546925 0 -0.084115242511901042 -0.0018235939747154918 0 -0.083611879182010129 -0.0019185597541345545 0 -0.082872872576457937 -0.0015839596669218426 0 -0.082964720937045475 -0.0015767947386943033 0 -0.082917495124854176 -0.0015472743989196265 0 -0.084115242511901042 -0.0018235939747154918 0 -0.083656009744628321 -0.0018906915171855211 0 -0.082872872576457937 -0.0015839596669218426 0 -0.082846273139610571 -0.0016536636832563212 0 -0.082964720937045475 -0.0015767947386943033 0 -0.082896260016448925 -0.001739013702180182 0 -0.083025073884890138 -0.0016489608173468129 0 -0.083008945950393737 -0.0016177545771432049 0 -0.082872872576457937 -0.0015839596669218426 0 -0.082917495124854176 -0.0015472743989196265 0 -0.08288929405527698 -0.0014984070781892021 0 -0.08294293916082858 -0.0015284410285189148 0 -0.08288929405527698 -0.0014984070781892021 0 -0.083006685319665527 -0.001479845299959266 0 -0.082794719271652509 -0.0014992679701622622 0 -0.08288929405527698 -0.0014984070781892021 0 -0.082938051082585409 -0.0013832967168143527 0 -0.082964720937045475 -0.0015767947386943033 0 -0.082917495124854176 -0.0015472743989196265 0 -0.08294293916082858 -0.0015284410285189148 0 -0.082917495124854176 -0.0015472743989196265 0 -0.08294293916082858 -0.0015284410285189148 0 -0.08288929405527698 -0.0014984070781892021 0 -0.08288929405527698 -0.0014984070781892021 0 -0.083006685319665527 -0.001479845299959266 0 -0.082938051082585409 -0.0013832967168143527 0 -0.083006685319665527 -0.001479845299959266 0 -0.083146362599966425 -0.001462329681842391 0 -0.082938051082585409 -0.0013832967168143527 0 -0.082964720937045475 -0.0015767947386943033 0 -0.083006685319665527 -0.001479845299959266 0 -0.083146362599966425 -0.001462329681842391 0 -0.082964720937045475 -0.0015767947386943033 0 -0.08294293916082858 -0.0015284410285189148 0 -0.083006685319665527 -0.001479845299959266 0 -0.083025073884890138 -0.0016489608173468129 0 -0.083008945950393737 -0.0016177545771432049 0 -0.083179102298418031 -0.0015460516351181622 0 -0.083656009744628321 -0.0018906915171855211 0 -0.083565204610106053 -0.0018651232343001496 0 -0.083611879182010129 -0.0019185597541345545 0 -0.083521325792146051 -0.0019119718576015097 0 -0.083146362599966425 -0.001462329681842391 0 -0.082938051082585409 -0.0013832967168143527 0 -0.083273510170924561 -0.00144934810173705 0 -0.083008945950393737 -0.0016177545771432049 0 -0.083179102298418031 -0.0015460516351181622 0 -0.083146362599966425 -0.001462329681842391 0 -0.083104188060861395 -0.0016899076427003533 0 -0.083179102298418031 -0.0015460516351181622 0 -0.083291387698803787 -0.0015637528865171605 0 -0.083179102298418031 -0.0015460516351181622 0 -0.083273510170924561 -0.00144934810173705 0 -0.083291387698803787 -0.0015637528865171605 0 -0.083179102298418031 -0.0015460516351181622 0 -0.083146362599966425 -0.001462329681842391 0 -0.083273510170924561 -0.00144934810173705 0 -0.077910572915901935 -0.0019131429527795821 0 -0.081747181307108896 -0.002295222798236267 0 -0.077205434312440813 -0.00056469142015265462 0 -0.074082843653501845 -0.0036314281514775522 0 -0.078820520197381172 -0.0049608081844339756 0 -0.074216017824201633 -0.00025328934856944308 0 -0.077205434312440813 -0.00056469142015265462 0 -0.074082843653501845 -0.0036314281514775522 0 -0.081569589017592287 -0.00023943071441469659 0 -0.083048481535832205 -0.0031283323569248648 0 -0.085957759679928539 -0.00096621985598585624 0 -0.083048481535832205 -0.0031283323569248648 0 -0.085957759679928539 -0.00096621985598585624 0 -0.086239696663255275 -0.0032897386201055541 0 -0.081569589017592287 -0.00023943071441469659 0 -0.083048481535832205 -0.0031283323569248648 0 -0.078820520197381172 -0.0049608081844339756 0 -0.081569589017592287 -0.00023943071441469659 0 -0.077205434312440813 -0.00056469142015265462 0 -0.078820520197381172 -0.0049608081844339756 0 -0.083048481535832205 -0.0031283323569248648 0 -0.078820520197381172 -0.0049608081844339756 0 -0.084420879069771262 -0.0065452765130939805 0 -0.081747181307108896 -0.002295222798236267 0 -0.086781254125988583 -0.002376483218277642 0 -0.083273510170924561 -0.00144934810173705 0 -0.083462019643319882 -0.0015899644881923929 0 -0.083659220354853597 -0.0015494512274775564 0 -0.083273510170924561 -0.00144934810173705 0 -0.083291387698803787 -0.0015637528865171605 0 -0.083462019643319882 -0.0015899644881923929 0 -0.083291387698803787 -0.0015637528865171605 0 -0.083394292909560019 -0.0016228825385611017 0 -0.083462019643319882 -0.0015899644881923929 0 -0.087104002602950842 -0.001865214259476822 0 -0.086997229070634285 -0.0019052619149981182 0 -0.083396586666054873 -0.0016278346711641465 0 -0.083462019643319882 -0.0015899644881923929 0 -0.083659220354853597 -0.0015494512274775564 0 -0.087104002602950842 -0.001865214259476822 0 -0.086781254125988583 -0.002376483218277642 0 -0.083048481535832205 -0.0031283323569248648 0 -0.084420879069771262 -0.0065452765130939805 0 -0.086239696663255275 -0.0032897386201055541 0 -0.09342911610955279 -0.0025298900532224732 0 -0.093412681566615655 -0.0024993249067110385 0 -0.093327505626538299 -0.0024053398107885472 0 -0.08686595258359954 -0.0023937584336738184 0 -0.086781254125988583 -0.002376483218277642 0 -0.09323633199080486 -0.002388529154004919 0 -0.093412681566615655 -0.0024993249067110385 0 -0.093327681971089885 -0.0024434216018375523 0 -0.093412681566615655 -0.0024993249067110385 0 -0.093327505626538299 -0.0024053398107885472 0 -0.093327681971089885 -0.0024434216018375523 0 -0.093327505626538299 -0.0024053398107885472 0 -0.093327681971089885 -0.0024434216018375523 0 -0.093389872697767926 -0.0024615561079559352 0 -0.093327681971089885 -0.0024434216018375523 0 -0.093389872697767926 -0.0024615561079559352 0 -0.093254765657464711 -0.002595892641010452 0 -0.092993238086614555 -0.0024593087714558288 0 -0.09323633199080486 -0.002388529154004919 0 -0.093163525819830034 -0.0025028814628771812 0 -0.09323633199080486 -0.002388529154004919 0 -0.093327681971089885 -0.0024434216018375523 0 -0.093163525819830034 -0.0025028814628771812 0 -0.093327681971089885 -0.0024434216018375523 0 -0.093163525819830034 -0.0025028814628771812 0 -0.093254765657464711 -0.002595892641010452 0 -0.093034786283238149 -0.0026094319794151585 0 -0.093163525819830034 -0.0025028814628771812 0 -0.093254765657464711 -0.002595892641010452 0 -0.092974618737787354 -0.0028939253468433361 0 -0.092624462363799148 -0.0025237063953934438 0 -0.09325656198281243 -0.0026126393314950484 0 -0.091561048171150891 -0.0021892302114158895 0 -0.09277694352280616 -0.0023629824952793705 0 -0.093389872697767926 -0.0024615561079559352 0 -0.093254765657464711 -0.002595892641010452 0 -0.093594979984954613 -0.0026222628049828306 0 -0.093472642053249358 -0.0030707307518251592 0 -0.09325656198281243 -0.0026126393314950484 0 -0.093594979984954613 -0.0026222628049828306 0 -0.09277694352280616 -0.0023629824952793705 0 -0.093124086496780403 -0.0024142740909478756 0 -0.093594979984954613 -0.0026222628049828306 0 -0.093700988510441979 -0.0025110958670572221 0 -0.094258755588735005 -0.0030473831801952193 0 -0.093594979984954613 -0.0026222628049828306 0 -0.093700988510441979 -0.0025110958670572221 0 -0.093309770780266144 -0.0024020187813952936 0 -0.093700988510441979 -0.0025110958670572221 0 -0.094411850219698362 -0.0024878784102490173 0 -0.094258755588735005 -0.0030473831801952193 0 -0.093700988510441979 -0.0025110958670572221 0 -0.09297563286412118 -0.0023905315981750169 0 -0.094411850219698362 -0.0024878784102490173 0 -0.093700988510441979 -0.0025110958670572221 0 -0.09297563286412118 -0.0023905315981750169 0 -0.093309770780266144 -0.0024020187813952936 0 -0.093389872697767926 -0.0024615561079559352 0 -0.093594979984954613 -0.0026222628049828306 0 -0.093309770780266144 -0.0024020187813952936 0 -0.093327505626538299 -0.0024053398107885472 0 -0.093389872697767926 -0.0024615561079559352 0 -0.093309770780266144 -0.0024020187813952936 0 -0.09297563286412118 -0.0023905315981750169 0 -0.093309770780266144 -0.0024020187813952936 0 -0.09290291310829385 -0.0023859244147072666 0 -0.093327505626538299 -0.0024053398107885472 0 -0.093309770780266144 -0.0024020187813952936 0 -0.09290291310829385 -0.0023859244147072666 0 -0.09342911610955279 -0.0025298900532224732 0 -0.093327505626538299 -0.0024053398107885472 0 -0.09290291310829385 -0.0023859244147072666 0 -0.09342911610955279 -0.0025298900532224732 0 -0.09290291310829385 -0.0023859244147072666 0 -0.091684585901121524 -0.0027260863224777779 0 -0.086781254125988583 -0.002376483218277642 0 -0.089016068410869092 -0.0022188875925993039 0 -0.084420879069771262 -0.0065452765130939805 0 -0.091684585901121524 -0.0027260863224777779 0 -0.086239696663255275 -0.0032897386201055541 0 -0.09342911610955279 -0.0025298900532224732 0 -0.093638394935058003 -0.0026224954660708818 0 -0.091684585901121524 -0.0027260863224777779 0 -0.09297563286412118 -0.0023905315981750169 0 -0.091684585901121524 -0.0027260863224777779 0 -0.093005415174188921 -0.0015520067088836136 0 -0.09297563286412118 -0.0023905315981750169 0 -0.09290291310829385 -0.0023859244147072666 0 -0.091684585901121524 -0.0027260863224777779 0 -0.090047003061248257 0.00029408766604183985 0 -0.091684585901121524 -0.0027260863224777779 0 -0.093005415174188921 -0.0015520067088836136 0 -0.092932170331606154 0.00021508496792622115 0 -0.090047003061248257 0.00029408766604183985 0 -0.093005415174188921 -0.0015520067088836136 0 -0.091684585901121524 -0.0027260863224777779 0 -0.085957759679928539 -0.00096621985598585624 0 -0.086239696663255275 -0.0032897386201055541 0 -0.090047003061248257 0.00029408766604183985 0 -0.091684585901121524 -0.0027260863224777779 0 -0.085957759679928539 -0.00096621985598585624 0 -0.095660002052243384 3.6655993326719333e-06 0 -0.094204056345152554 -0.00041042184469463228 0 -0.09467281961570273 -0.0014629408938890082 0 -0.094393788653419158 0.00123015971921594 0 -0.095660002052243384 3.6655993326719333e-06 0 -0.094204056345152554 -0.00041042184469463228 0 -0.094204056345152554 -0.00041042184469463228 0 -0.093005415174188921 -0.0015520067088836136 0 -0.09467281961570273 -0.0014629408938890082 0 -0.092932170331606154 0.00021508496792622115 0 -0.094204056345152554 -0.00041042184469463228 0 -0.093005415174188921 -0.0015520067088836136 0 -0.09297563286412118 -0.0023905315981750169 0 -0.093005415174188921 -0.0015520067088836136 0 -0.09467281961570273 -0.0014629408938890082 0 -0.095660002052243384 3.6655993326719333e-06 0 -0.09467281961570273 -0.0014629408938890082 0 -0.096516262119551624 -0.0010881589846755166 0 -0.09467281961570273 -0.0014629408938890082 0 -0.096022940024049486 -0.0021536633144068193 0 -0.096516262119551624 -0.0010881589846755166 0 -0.09467281961570273 -0.0014629408938890082 0 -0.094411850219698362 -0.0024878784102490173 0 -0.096022940024049486 -0.0021536633144068193 0 -0.09297563286412118 -0.0023905315981750169 0 -0.09467281961570273 -0.0014629408938890082 0 -0.094411850219698362 -0.0024878784102490173 0 -0.094411850219698362 -0.0024878784102490173 0 -0.096022940024049486 -0.0021536633144068193 0 -0.095721826737691459 -0.0031120992947276946 0 -0.096022940024049486 -0.0021536633144068193 0 -0.095721826737691459 -0.0031120992947276946 0 -0.097533932648642713 -0.0029018474774795615 0 -0.097516384036504228 -0.0035810866700012539 0 -0.097533932648642713 -0.0029018474774795615 0 -0.098441526480644484 -0.0034553801446926924 0 -0.095721826737691459 -0.0031120992947276946 0 -0.097516384036504228 -0.0035810866700012539 0 -0.097533932648642713 -0.0029018474774795615 0 -0.095721826737691459 -0.0031120992947276946 0 -0.094752011777551215 -0.0040142676358233065 0 -0.095352730103179476 -0.0040530189269580132 0 -0.096568569765228998 -0.0029136509584706681 0 -0.096807438412231162 -0.0031858947203294683 0 -0.094411850219698362 -0.0024878784102490173 0 -0.095721826737691459 -0.0031120992947276946 0 -0.094258755588735005 -0.0030473831801952193 0 -0.093472642053249358 -0.0030707307518251592 0 -0.093594979984954613 -0.0026222628049828306 0 -0.094258755588735005 -0.0030473831801952193 0 -0.093472642053249358 -0.0030707307518251592 0 -0.094258755588735005 -0.0030473831801952193 0 -0.094017535316396186 -0.0035909241393159369 0 -0.094258755588735005 -0.0030473831801952193 0 -0.094017535316396186 -0.0035909241393159369 0 -0.094752011777551215 -0.0040142676358233065 0 -0.095721826737691459 -0.0031120992947276946 0 -0.094258755588735005 -0.0030473831801952193 0 -0.094752011777551215 -0.0040142676358233065 0 -0.094752011777551215 -0.0040142676358233065 0 -0.094195104862044618 -0.0040826368820685421 0 -0.094848480156445994 -0.0045455439971740282 0 -0.094017535316396186 -0.0035909241393159369 0 -0.094752011777551215 -0.0040142676358233065 0 -0.094195104862044618 -0.0040826368820685421 0 -0.093618760731231751 -0.0046497755467720123 0 -0.094195104862044618 -0.0040826368820685421 0 -0.094848480156445994 -0.0045455439971740282 0 -0.094848480156445994 -0.0045455439971740282 0 -0.09495565519702559 -0.0043452617337882285 0 -0.095170630809387591 -0.0041296067854544576 0 -0.094752011777551215 -0.0040142676358233065 0 -0.094848480156445994 -0.0045455439971740282 0 -0.09495565519702559 -0.0043452617337882285 0 -0.09495565519702559 -0.0043452617337882285 0 -0.09492338773167143 -0.0042549581308203048 0 -0.095352730103179476 -0.0040530189269580132 0 -0.097325337722697067 -0.0033419070351701921 0 -0.096807438412231162 -0.0031858947203294683 0 -0.098963219964620985 -0.0039091735669625465 0 -0.097516384036504228 -0.0035810866700012539 0 -0.098441526480644484 -0.0034553801446926924 0 -0.094752011777551215 -0.0040142676358233065 0 -0.09495565519702559 -0.0043452617337882285 0 -0.095352730103179476 -0.0040530189269580132 0 -0.094943192800047135 -0.0036774304261664656 0 -0.094548188249405571 -0.0037644092997960576 0 -0.09491153267978221 -0.0040419571211685852 0 -0.094943192800047135 -0.0036774304261664656 0 -0.09491153267978221 -0.0040419571211685852 0 -0.095090521074326001 -0.0039134897375280395 0 -0.097325337722697067 -0.0033419070351701921 0 -0.098051273352953258 -0.002949379097400796 0 -0.09492338773167143 -0.0042549581308203048 0 -0.094548188249405571 -0.0037644092997960576 0 -0.09491153267978221 -0.0040419571211685852 0 -0.098963219964620985 -0.0039091735669625465 0 -0.10048846388853518 -0.0036732550604697545 0 -0.099876875408540344 -0.0038645285344170487 0 -0.09495565519702559 -0.0043452617337882285 0 -0.09492338773167143 -0.0042549581308203048 0 -0.09491153267978221 -0.0040419571211685852 0 -0.09495565519702559 -0.0043452617337882285 0 -0.09491153267978221 -0.0040419571211685852 0 -0.095090521074326001 -0.0039134897375280395 0 -0.09495565519702559 -0.0043452617337882285 0 -0.095170630809387591 -0.0041296067854544576 0 -0.095090521074326001 -0.0039134897375280395 0 -0.095170630809387591 -0.0041296067854544576 0 -0.095572092039679382 -0.00355569432589146 0 -0.095679637106952015 -0.0041153289988729164 0 -0.094848480156445994 -0.0045455439971740282 0 -0.095170630809387591 -0.0041296067854544576 0 -0.095679637106952015 -0.0041153289988729164 0 -0.095170630809387591 -0.0041296067854544576 0 -0.095572092039679382 -0.00355569432589146 0 -0.095090521074326001 -0.0039134897375280395 0 -0.095572092039679382 -0.00355569432589146 0 -0.095090521074326001 -0.0039134897375280395 0 -0.095234379701022887 -0.0034603479780287846 0 -0.094943192800047135 -0.0036774304261664656 0 -0.095090521074326001 -0.0039134897375280395 0 -0.095234379701022887 -0.0034603479780287846 0 -0.095234379701022887 -0.0034603479780287846 0 -0.095415373794226432 -0.0030834014701587786 0 -0.094928679705306815 -0.0032811954024968911 0 -0.096004664497452319 -0.0032453365220827288 0 -0.095550540455823257 -0.0032782826299591634 0 -0.095415373794226432 -0.0030834014701587786 0 -0.095791140015746123 -0.0032013835738911966 0 -0.096205810437939188 -0.0028763216920083337 0 -0.095572092039679382 -0.00355569432589146 0 -0.095508089660821388 -0.0033189880308113835 0 -0.095791140015746123 -0.0032013835738911966 0 -0.095234379701022887 -0.0034603479780287846 0 -0.095508089660821388 -0.0033189880308113835 0 -0.095415373794226432 -0.0030834014701587786 0 -0.095572092039679382 -0.00355569432589146 0 -0.095234379701022887 -0.0034603479780287846 0 -0.095508089660821388 -0.0033189880308113835 0 -0.095508089660821388 -0.0033189880308113835 0 -0.095415373794226432 -0.0030834014701587786 0 -0.095791140015746123 -0.0032013835738911966 0 -0.096004664497452319 -0.0032453365220827288 0 -0.096896329209529175 -0.0032219438101451906 0 -0.096095573021370242 -0.0032574904239853772 0 -0.096177609608859363 -0.0028111140017866684 0 -0.096882034177739912 -0.0027048881446479884 0 -0.10006704796692867 -0.0021732463745216032 0 -0.10091563242710504 -0.0014335178445905325 0 -0.096177609608859363 -0.0028111140017866684 0 -0.096698071379440018 -0.0020274934278195159 0 -0.096882034177739912 -0.0027048881446479884 0 -0.096095573021370242 -0.0032574904239853772 0 -0.095470988619837424 -0.0028999400821052915 0 -0.094928679705306815 -0.0032811954024968911 0 -0.096177609608859363 -0.0028111140017866684 0 -0.095470988619837424 -0.0028999400821052915 0 -0.095292687843918145 -0.0020784319678750487 0 -0.096095573021370242 -0.0032574904239853772 0 -0.096177609608859363 -0.0028111140017866684 0 -0.095470988619837424 -0.0028999400821052915 0 -0.094831373498181715 -0.0026288805969334338 0 -0.094928679705306815 -0.0032811954024968911 0 -0.094327353988382198 -0.0029392854524532678 0 -0.095470988619837424 -0.0028999400821052915 0 -0.094831373498181715 -0.0026288805969334338 0 -0.095292687843918145 -0.0020784319678750487 0 -0.095470988619837424 -0.0028999400821052915 0 -0.094831373498181715 -0.0026288805969334338 0 -0.094928679705306815 -0.0032811954024968911 0 -0.094943192800047135 -0.0036774304261664656 0 -0.095234379701022887 -0.0034603479780287846 0 -0.094928679705306815 -0.0032811954024968911 0 -0.094943192800047135 -0.0036774304261664656 0 -0.094548188249405571 -0.0037644092997960576 0 -0.094928679705306815 -0.0032811954024968911 0 -0.098051273352953258 -0.002949379097400796 0 -0.099089883848254401 -0.0021882670013332723 0 -0.094548188249405571 -0.0037644092997960576 0 -0.094928679705306815 -0.0032811954024968911 0 -0.094327353988382198 -0.0029392854524532678 0 -0.10048846388853518 -0.0036732550604697545 0 -0.10218083056013993 -0.0019540946282738413 0 -0.10080163171708298 -0.003040849982327576 0 -0.099089883848254401 -0.0021882670013332723 0 -0.10077649493741798 -0.002013887732882151 0 -0.10218083056013993 -0.0019540946282738413 0 -0.10308941151036474 -0.00083883814244175821 0 -0.10271294634000491 -0.0010976227151791701 0 -0.094831373498181715 -0.0026288805969334338 0 -0.094327353988382198 -0.0029392854524532678 0 -0.094176179768278939 -0.0019152006844353735 0 -0.10030668384229673 -0.0014938897372561743 0 -0.10077649493741798 -0.002013887732882151 0 -0.094831373498181715 -0.0026288805969334338 0 -0.095292687843918145 -0.0020784319678750487 0 -0.094176179768278939 -0.0019152006844353735 0 -0.10495525539142053 -0.00017436988370782435 0 -0.10490979921245557 -0.00014473837162383982 0 -0.10496297200906184 -0.00010136535363616899 0 -0.10495525539142053 -0.00017436988370782435 0 -0.10488782258186516 -0.0001791369663423029 0 -0.10490979921245557 -0.00014473837162383982 0 -0.10488782258186516 -0.0001791369663423029 0 -0.10490979921245557 -0.00014473837162383982 0 -0.10483680332350384 -0.00013970207641919995 0 -0.10077649493741798 -0.002013887732882151 0 -0.10178463721707139 -0.00096579391537708506 0 -0.10490979921245557 -0.00014473837162383982 0 -0.10494017399108539 -9.376076898234988e-05 0 -0.10483680332350384 -0.00013970207641919995 0 -0.10490979921245557 -0.00014473837162383982 0 -0.10494017399108539 -9.376076898234988e-05 0 -0.10496297200906184 -0.00010136535363616899 0 -0.10494017399108539 -9.376076898234988e-05 0 -0.10496297200906184 -0.00010136535363616899 0 -0.10498163169805073 -4.5150688399813126e-05 0 -0.10498163169805073 -4.5150688399813126e-05 0 -0.10499995587784368 -4.6385841688830223e-08 0 -0.10499999379056486 -5.0862245005962316e-08 0 -0.10494017399108539 -9.376076898234988e-05 0 -0.10499995587784368 -4.6385841688830223e-08 0 -0.10483680332350384 -0.00013970207641919995 0 -0.10494017399108539 -9.376076898234988e-05 0 -0.10498163169805073 -4.5150688399813126e-05 0 -0.10499995587784368 -4.6385841688830223e-08 0 -0.10500485523489031 -5.9232621845387296e-06 0 -0.10499999379056486 -5.0862245005962316e-08 0 -0.10500002865134184 -6.4276892460255435e-09 0 -0.10502568667950031 -5.2108050804709015e-05 0 -0.10500485523489031 -5.9232621845387296e-06 0 -0.10500009563080097 -4.7810128883050965e-05 0 -0.10502568667950031 -5.2108050804709015e-05 0 -0.10500485523489031 -5.9232621845387296e-06 0 -0.10506294136846525 -4.0726976829765136e-05 0 -0.10498163169805073 -4.5150688399813126e-05 0 -0.10499999379056486 -5.0862245005962316e-08 0 -0.10500009563080097 -4.7810128883050965e-05 0 -0.10500485523489031 -5.9232621845387296e-06 0 -0.10499999379056486 -5.0862245005962316e-08 0 -0.10500009563080097 -4.7810128883050965e-05 0 -0.10496297200906184 -0.00010136535363616899 0 -0.10498163169805073 -4.5150688399813126e-05 0 -0.10500009563080097 -4.7810128883050965e-05 0 -0.10496297200906184 -0.00010136535363616899 0 -0.10500009563080097 -4.7810128883050965e-05 0 -0.10498775462282965 -0.00011199251752693078 0 -0.10500009563080097 -4.7810128883050965e-05 0 -0.10502092418742083 -9.4002460250903347e-05 0 -0.10498775462282965 -0.00011199251752693078 0 -0.10502568667950031 -5.2108050804709015e-05 0 -0.10500009563080097 -4.7810128883050965e-05 0 -0.10502092418742083 -9.4002460250903347e-05 0 -0.10502568667950031 -5.2108050804709015e-05 0 -0.10502092418742083 -9.4002460250903347e-05 0 -0.1050560994830864 -8.1055891246672752e-05 0 -0.10502092418742083 -9.4002460250903347e-05 0 -0.10500976276346097 -0.00013684991946224062 0 -0.10506524619529269 -0.00012593416063295035 0 -0.10500976276346097 -0.00013684991946224062 0 -0.10502544170288035 -0.00018044103891312537 0 -0.10506524619529269 -0.00012593416063295035 0 -0.10502092418742083 -9.4002460250903347e-05 0 -0.10500976276346097 -0.00013684991946224062 0 -0.10498775462282965 -0.00011199251752693078 0 -0.10495525539142053 -0.00017436988370782435 0 -0.10500976276346097 -0.00013684991946224062 0 -0.10498775462282965 -0.00011199251752693078 0 -0.10495525539142053 -0.00017436988370782435 0 -0.10496297200906184 -0.00010136535363616899 0 -0.10498775462282965 -0.00011199251752693078 0 -0.10030668384229673 -0.0014938897372561743 0 -0.10091563242710504 -0.0014335178445905325 0 -0.096177609608859363 -0.0028111140017866684 0 -0.095292687843918145 -0.0020784319678750487 0 -0.096555772443270613 -0.002263075167294318 0 -0.10495525539142053 -0.00017436988370782435 0 -0.10500976276346097 -0.00013684991946224062 0 -0.10502544170288035 -0.00018044103891312537 0 -0.10091563242710504 -0.0014335178445905325 0 -0.10271171492759153 -0.00065032864622415344 0 -0.10185905671255259 -0.0011792644567582518 0 -0.10203823477850761 -0.0012115252444301892 0 -0.10198119016361576 -0.0010014862654153607 0 -0.10091563242710504 -0.0014335178445905325 0 -0.1006132494635756 -0.0013293237196167471 0 -0.096698071379440018 -0.0020274934278195159 0 -0.097867636322378729 -0.002238719751368076 0 -0.096882034177739912 -0.0027048881446479884 0 -0.10203823477850761 -0.0012115252444301892 0 -0.10209990326221867 -0.0010931587090750397 0 -0.10221592817144411 -0.0012440000951834775 0 -0.10203823477850761 -0.0012115252444301892 0 -0.10209990326221867 -0.0010931587090750397 0 -0.10198119016361576 -0.0010014862654153607 0 -0.10209990326221867 -0.0010931587090750397 0 -0.10211992452712362 -0.00097224341133711381 0 -0.10221517688339427 -0.0010645723535084247 0 -0.10209990326221867 -0.0010931587090750397 0 -0.10211992452712362 -0.00097224341133711381 0 -0.10198119016361576 -0.0010014862654153607 0 -0.1050560994830864 -8.1055891246672752e-05 0 -0.10510483153590132 -6.7698265575743486e-05 0 -0.10506294136846525 -4.0726976829765136e-05 0 -0.10506524619529269 -0.00012593416063295035 0 -0.1050560994830864 -8.1055891246672752e-05 0 -0.10510483153590132 -6.7698265575743486e-05 0 -0.10502092418742083 -9.4002460250903347e-05 0 -0.10506524619529269 -0.00012593416063295035 0 -0.1050560994830864 -8.1055891246672752e-05 0 -0.10502568667950031 -5.2108050804709015e-05 0 -0.1050560994830864 -8.1055891246672752e-05 0 -0.10506294136846525 -4.0726976829765136e-05 0 -0.10271171492759153 -0.00065032864622415344 0 -0.10355422759555923 -0.00075927177106776753 0 -0.10211992452712362 -0.00097224341133711381 0 -0.10210306520571454 -0.00082399136519669715 0 -0.10221496728251235 -0.00088353724247712138 0 -0.10211992452712362 -0.00097224341133711381 0 -0.10198119016361576 -0.0010014862654153607 0 -0.10210306520571454 -0.00082399136519669715 0 -0.10355422759555923 -0.00075927177106776753 0 -0.10274503858416562 -0.0010771973214062753 0 -0.10355422759555923 -0.00075927177106776753 0 -0.10422056785129437 -0.00071447549408362081 0 -0.10355422759555923 -0.00075927177106776753 0 -0.10479782639820752 -6.7265389329937634e-05 0 -0.10500002865134184 -6.4276892460255435e-09 0 -0.10499877483741032 -1.7643435874596689e-07 0 -0.10499978548504452 -3.7075464412724746e-08 0 -0.10500002865134184 -6.4276892460255435e-09 0 -0.10499978548504452 -3.7075464412724746e-08 0 -0.10499997980488004 2.5787741664305378e-09 0 -0.10499757841210158 -9.9935457176103027e-07 0 -0.10499877483741032 -1.7643435874596689e-07 0 -0.10499978548504452 -3.7075464412724746e-08 0 -0.10438859570911922 -0.00068099386630569034 0 -0.10422056785129437 -0.00071447549408362081 0 -0.10500485523489031 -5.9232621845387296e-06 0 -0.10500002865134184 -6.4276892460255435e-09 0 -0.10499877483741032 -1.7643435874596689e-07 0 -0.10499999264863644 -2.9960325745247658e-09 0 -0.10499437013649772 -4.0897189683497443e-06 0 -0.10499998253589859 -3.9595325101270319e-09 0 -0.10499999264863644 -2.9960325745247658e-09 0 -0.10499437013649772 -4.0897189683497443e-06 0 -0.10499341696201318 -5.8306581852335034e-06 0 -0.10353053695233265 -0.00090775913902280624 0 -0.10377331877549315 -0.00055100956458538298 0 -0.10377835750398805 -0.0010382756664596977 0 -0.10499437013649772 -4.0897189683497443e-06 0 -0.10499900858902994 -5.8093943338542002e-07 0 -0.10498765921865115 -8.4441248740608826e-06 0 -0.10499437013649772 -4.0897189683497443e-06 0 -0.10499900858902994 -5.8093943338542002e-07 0 -0.10499998253589859 -3.9595325101270319e-09 0 -0.10479782639820752 -6.7265389329937634e-05 0 -0.10274503858416562 -0.0010771973214062753 0 -0.10479782639820752 -6.7265389329937634e-05 0 -0.1049934905466218 -1.1506140594163206e-06 0 -0.10499437013649772 -4.0897189683497443e-06 0 -0.10498765921865115 -8.4441248740608826e-06 0 -0.10498673736652409 -1.1164778961468113e-05 0 -0.10274503858416562 -0.0010771973214062753 0 -0.10158997249363916 -0.0015565795337238331 0 -0.10498673736652409 -1.1164778961468113e-05 0 -0.1049848826366134 -1.5556536330832368e-05 0 -0.10499341696201318 -5.8306581852335034e-06 0 -0.10499437013649772 -4.0897189683497443e-06 0 -0.10498673736652409 -1.1164778961468113e-05 0 -0.10499341696201318 -5.8306581852335034e-06 0 -0.10158997249363916 -0.0015565795337238331 0 -0.10003451209933488 -0.0022263067937394417 0 -0.099872013085467087 -0.00086485277995553987 0 -0.099791445306757792 -0.0014831387138256847 0 -0.10067587382443567 -0.0012865259441659851 0 -0.10211992452712362 -0.00097224341133711381 0 -0.10221496728251235 -0.00088353724247712138 0 -0.10221517688339427 -0.0010645723535084247 0 -0.10274503858416562 -0.0010771973214062753 0 -0.10180253464196239 -0.0011956289677583897 0 -0.099072475859820694 -0.00044533162256976292 0 -0.099872013085467087 -0.00086485277995553987 0 -0.099079547068269325 -0.0014591463733750227 0 -0.099872013085467087 -0.00086485277995553987 0 -0.099791445306757792 -0.0014831387138256847 0 -0.099079547068269325 -0.0014591463733750227 0 -0.10209990326221867 -0.0010931587090750397 0 -0.10221517688339427 -0.0010645723535084247 0 -0.10221592817144411 -0.0012440000951834775 0 -0.099079547068269325 -0.0014591463733750227 0 -0.099416505602487604 -0.0020078061468198848 0 -0.099076870478164492 -0.002494644936035342 0 -0.10180253464196239 -0.0011956289677583897 0 -0.10123525489938241 -0.0012260949861800565 0 -0.099791445306757792 -0.0014831387138256847 0 -0.099079547068269325 -0.0014591463733750227 0 -0.099416505602487604 -0.0020078061468198848 0 -0.099416505602487604 -0.0020078061468198848 0 -0.09993757669076192 -0.0020929824685581508 0 -0.099193473042925751 -0.0025179246469874809 0 -0.099416505602487604 -0.0020078061468198848 0 -0.099076870478164492 -0.002494644936035342 0 -0.099193473042925751 -0.0025179246469874809 0 -0.099791445306757792 -0.0014831387138256847 0 -0.09993757669076192 -0.0020929824685581508 0 -0.10067587382443567 -0.0012865259441659851 0 -0.098521613408887793 -0.003172158905053533 0 -0.10003451209933488 -0.0022263067937394417 0 -0.099791445306757792 -0.0014831387138256847 0 -0.099416505602487604 -0.0020078061468198848 0 -0.09993757669076192 -0.0020929824685581508 0 -0.09669859773403261 -0.0043832835696188243 0 -0.0958993953659701 -0.0040498549327750172 0 -0.095565129681032396 -0.0050658981313181908 0 -0.096572575163422006 -0.0053857811088041949 0 -0.09669859773403261 -0.0043832835696188243 0 -0.095565129681032396 -0.0050658981313181908 0 -0.096572575163422006 -0.0053857811088041949 0 -0.09669859773403261 -0.0043832835696188243 0 -0.09768785851736049 -0.0042643968478904594 0 -0.09669859773403261 -0.0043832835696188243 0 -0.097069100134727679 -0.0034543988692365894 0 -0.0958993953659701 -0.0040498549327750172 0 -0.097069100134727679 -0.0034543988692365894 0 -0.096048629652912235 -0.0029490277595560018 0 -0.0958993953659701 -0.0040498549327750172 0 -0.097069100134727679 -0.0034543988692365894 0 -0.096048629652912235 -0.0029490277595560018 0 -0.096881309885846492 -0.0023285552971779775 0 -0.097641549436270583 -0.0029813194998750906 0 -0.097457890725889784 -0.003290190005066362 0 -0.097287113682526516 -0.0029594309858018714 0 -0.097069100134727679 -0.0034543988692365894 0 -0.097641549436270583 -0.0029813194998750906 0 -0.096881309885846492 -0.0023285552971779775 0 -0.097069100134727679 -0.0034543988692365894 0 -0.097641549436270583 -0.0029813194998750906 0 -0.097457890725889784 -0.003290190005066362 0 -0.097069100134727679 -0.0034543988692365894 0 -0.097457890725889784 -0.003290190005066362 0 -0.09752700795593687 -0.0038618301285185909 0 -0.097631196745009141 -0.0033404324489106807 0 -0.097177397730299195 -0.0035151104172886491 0 -0.097457890725889784 -0.003290190005066362 0 -0.09752700795593687 -0.0038618301285185909 0 -0.097287113682526516 -0.0029594309858018714 0 -0.09669859773403261 -0.0043832835696188243 0 -0.097069100134727679 -0.0034543988692365894 0 -0.09752700795593687 -0.0038618301285185909 0 -0.097411964844930934 -0.0034269692611871836 0 -0.097631196745009141 -0.0033404324489106807 0 -0.09993757669076192 -0.0020929824685581508 0 -0.099176054284260295 -0.0029390754136049539 0 -0.099193473042925751 -0.0025179246469874809 0 -0.098521613408887793 -0.003172158905053533 0 -0.097631196745009141 -0.0033404324489106807 0 -0.10122049268831422 -0.0012647769396994127 0 -0.10123525489938241 -0.0012260949861800565 0 -0.099176054284260295 -0.0029390754136049539 0 -0.099068592439794587 -0.002718237816728399 0 -0.099193473042925751 -0.0025179246469874809 0 -0.099068592439794587 -0.002718237816728399 0 -0.099071973308156216 -0.0024943744927144627 0 -0.099193473042925751 -0.0025179246469874809 0 -0.10123525489938241 -0.0012260949861800565 0 -0.10122008310717602 -0.001226694014885519 0 -0.097631196745009141 -0.0033404324489106807 0 -0.096896329209529175 -0.0032219438101451906 0 -0.1006132494635756 -0.0013293237196167471 0 -0.10123525489938241 -0.0012260949861800565 0 -0.097867636322378729 -0.002238719751368076 0 -0.099068592439794587 -0.002718237816728399 0 -0.099065006351432353 -0.0024599128744491909 0 -0.099176054284260295 -0.0029390754136049539 0 -0.099068592439794587 -0.002718237816728399 0 -0.097605730355415629 -0.0031333482889103091 0 -0.097867636322378729 -0.002238719751368076 0 -0.099068592439794587 -0.002718237816728399 0 -0.097605730355415629 -0.0031333482889103091 0 -0.097867636322378729 -0.002238719751368076 0 -0.096882034177739912 -0.0027048881446479884 0 -0.097605730355415629 -0.0031333482889103091 0 -0.096095573021370242 -0.0032574904239853772 0 -0.096882034177739912 -0.0027048881446479884 0 -0.097605730355415629 -0.0031333482889103091 0 -0.095572092039679382 -0.00355569432589146 0 -0.095791140015746123 -0.0032013835738911966 0 -0.096180321778399649 -0.0032347657906351712 0 -0.095791140015746123 -0.0032013835738911966 0 -0.096205810437939188 -0.0028763216920083337 0 -0.096180321778399649 -0.0032347657906351712 0 -0.096915549801628295 -0.0027944388957635087 0 -0.096205810437939188 -0.0028763216920083337 0 -0.096557174515662592 -0.0031800842108433316 0 -0.096205810437939188 -0.0028763216920083337 0 -0.096180321778399649 -0.0032347657906351712 0 -0.096557174515662592 -0.0031800842108433316 0 -0.096180321778399649 -0.0032347657906351712 0 -0.096557174515662592 -0.0031800842108433316 0 -0.096270595960658872 -0.003517213638367365 0 -0.097177397730299195 -0.0035151104172886491 0 -0.096982360886931268 -0.0036098224673488076 0 -0.097641549436270583 -0.0029813194998750906 0 -0.097287113682526516 -0.0029594309858018714 0 -0.097103935527993276 -0.0037613824335626504 0 -0.097287113682526516 -0.0029594309858018714 0 -0.097103935527993276 -0.0037613824335626504 0 -0.096270595960658872 -0.003517213638367365 0 -0.095572092039679382 -0.00355569432589146 0 -0.096180321778399649 -0.0032347657906351712 0 -0.096270595960658872 -0.003517213638367365 0 -0.095572092039679382 -0.00355569432589146 0 -0.096270595960658872 -0.003517213638367365 0 -0.095679637106952015 -0.0041153289988729164 0 -0.096134039607491714 -0.0049013024119582095 0 -0.095679637106952015 -0.0041153289988729164 0 -0.096397551157804712 -0.0042029617920917245 0 -0.096270595960658872 -0.003517213638367365 0 -0.095679637106952015 -0.0041153289988729164 0 -0.096397551157804712 -0.0042029617920917245 0 -0.097103935527993276 -0.0037613824335626504 0 -0.096270595960658872 -0.003517213638367365 0 -0.096397551157804712 -0.0042029617920917245 0 -0.097232465338208812 -0.0049776285651809329 0 -0.097103935527993276 -0.0037613824335626504 0 -0.096397551157804712 -0.0042029617920917245 0 -0.097232465338208812 -0.0049776285651809329 0 -0.097103935527993276 -0.0037613824335626504 0 -0.097930566617606296 -0.0040145722725470094 0 -0.09190890767186756 -0.0030011267044140898 0 -0.094166891750961143 -0.0030193825531530469 0 -0.09765687924354742 -0.00036819729769542182 0 -0.095902901042884847 -0.0011372942418696175 0 -0.09582890366111807 0.00086207364570403341 0 -0.096959633513092794 0.0024817643283338974 0 -0.09765687924354742 -0.00036819729769542182 0 -0.09582890366111807 0.00086207364570403341 0 -0.096048629652912235 -0.0029490277595560018 0 -0.095902901042884847 -0.0011372942418696175 0 -0.096881309885846492 -0.0023285552971779775 0 -0.09765687924354742 -0.00036819729769542182 0 -0.095902901042884847 -0.0011372942418696175 0 -0.096881309885846492 -0.0023285552971779775 0 -0.097641549436270583 -0.0029813194998750906 0 -0.097103935527993276 -0.0037613824335626504 0 -0.097930566617606296 -0.0040145722725470094 0 -0.094833195107703674 -0.0031240619900202 0 -0.094166891750961143 -0.0030193825531530469 0 -0.097641549436270583 -0.0029813194998750906 0 -0.09765687924354742 -0.00036819729769542182 0 -0.096881309885846492 -0.0023285552971779775 0 -0.092181494961780575 -0.00090874601393292316 0 -0.094343205387903084 -0.0019230439973381857 0 -0.092627933112852903 -0.003344708351324094 0 -0.096048629652912235 -0.0029490277595560018 0 -0.095902901042884847 -0.0011372942418696175 0 -0.094343205387903084 -0.0019230439973381857 0 -0.095902901042884847 -0.0011372942418696175 0 -0.094343205387903084 -0.0019230439973381857 0 -0.094014890288732098 0.00061785802544690098 0 -0.095902901042884847 -0.0011372942418696175 0 -0.09582890366111807 0.00086207364570403341 0 -0.094014890288732098 0.00061785802544690098 0 -0.092181494961780575 -0.00090874601393292316 0 -0.094343205387903084 -0.0019230439973381857 0 -0.094014890288732098 0.00061785802544690098 0 -0.092181494961780575 -0.00090874601393292316 0 -0.094014890288732098 0.00061785802544690098 0 -0.090671697901757983 0.0013236783992811602 0 -0.092181494961780575 -0.00090874601393292316 0 -0.090671697901757983 0.0013236783992811602 0 -0.088149152619202212 -0.0010896867184876319 0 -0.081498901502900942 0.00072624839540331358 0 -0.088149152619202212 -0.0010896867184876319 0 -0.080984775933275632 0.00011880035791501673 0 -0.088101918394143011 0.0030686439601236371 0 -0.090671697901757983 0.0013236783992811602 0 -0.088149152619202212 -0.0010896867184876319 0 -0.081200904857864187 0.00048874307013502065 0 -0.082988370643195128 -0.0013069569829663669 0 -0.088149152619202212 -0.0010896867184876319 0 -0.089961385629284227 -0.0031623913640892879 0 -0.085722345258813906 -0.0017790942544670394 0 -0.088149152619202212 -0.0010896867184876319 0 -0.085722345258813906 -0.0017790942544670394 0 -0.080984775933275632 0.00011880035791501673 0 -0.088149152619202212 -0.0010896867184876319 0 -0.092627933112852903 -0.003344708351324094 0 -0.089961385629284227 -0.0031623913640892879 0 -0.092181494961780575 -0.00090874601393292316 0 -0.088149152619202212 -0.0010896867184876319 0 -0.092627933112852903 -0.003344708351324094 0 -0.092627933112852903 -0.003344708351324094 0 -0.089961385629284227 -0.0031623913640892879 0 -0.0925691041458023 -0.0049180755334798281 0 -0.089961385629284227 -0.0031623913640892879 0 -0.090021825828889582 -0.0042500728868248945 0 -0.0925691041458023 -0.0049180755334798281 0 -0.089961385629284227 -0.0031623913640892879 0 -0.090021825828889582 -0.0042500728868248945 0 -0.085722345258813906 -0.0017790942544670394 0 -0.092620525747278748 -0.005631935257141253 0 -0.0925691041458023 -0.0049180755334798281 0 -0.094501075847709434 -0.0057202573489819964 0 -0.090021825828889582 -0.0042500728868248945 0 -0.092620525747278748 -0.005631935257141253 0 -0.0925691041458023 -0.0049180755334798281 0 -0.090021825828889582 -0.0042500728868248945 0 -0.092620525747278748 -0.005631935257141253 0 -0.090501754508162793 -0.0052254560056861658 0 -0.092627933112852903 -0.003344708351324094 0 -0.0925691041458023 -0.0049180755334798281 0 -0.094299027406988062 -0.0054164691295099272 0 -0.0925691041458023 -0.0049180755334798281 0 -0.094299027406988062 -0.0054164691295099272 0 -0.094501075847709434 -0.0057202573489819964 0 -0.094299027406988062 -0.0054164691295099272 0 -0.094908653099948601 -0.0040776833537837492 0 -0.095565129681032396 -0.0050658981313181908 0 -0.092627933112852903 -0.003344708351324094 0 -0.094299027406988062 -0.0054164691295099272 0 -0.094908653099948601 -0.0040776833537837492 0 -0.094343205387903084 -0.0019230439973381857 0 -0.092627933112852903 -0.003344708351324094 0 -0.094908653099948601 -0.0040776833537837492 0 -0.096048629652912235 -0.0029490277595560018 0 -0.094343205387903084 -0.0019230439973381857 0 -0.094908653099948601 -0.0040776833537837492 0 -0.096048629652912235 -0.0029490277595560018 0 -0.094908653099948601 -0.0040776833537837492 0 -0.0958993953659701 -0.0040498549327750172 0 -0.094908653099948601 -0.0040776833537837492 0 -0.0958993953659701 -0.0040498549327750172 0 -0.095565129681032396 -0.0050658981313181908 0 -0.096572575163422006 -0.0053857811088041949 0 -0.095565129681032396 -0.0050658981313181908 0 -0.095735387414305928 -0.0060921955331778663 0 -0.095565129681032396 -0.0050658981313181908 0 -0.095069293864592883 -0.0056185733582124458 0 -0.095735387414305928 -0.0060921955331778663 0 -0.094299027406988062 -0.0054164691295099272 0 -0.095565129681032396 -0.0050658981313181908 0 -0.095069293864592883 -0.0056185733582124458 0 -0.094299027406988062 -0.0054164691295099272 0 -0.095069293864592883 -0.0056185733582124458 0 -0.096704221724838654 -0.0052651446416474212 0 -0.095069293864592883 -0.0056185733582124458 0 -0.096217501456342391 -0.0028889699729892685 0 -0.096704221724838654 -0.0052651446416474212 0 -0.095069293864592883 -0.0056185733582124458 0 -0.093734600001107754 -0.0047819786185413563 0 -0.096217501456342391 -0.0028889699729892685 0 -0.10003451209933488 -0.0022263067937394417 0 -0.10156233138623728 -0.0018161795444673655 0 -0.098570352891604818 -0.0023010673021943992 0 -0.10003451209933488 -0.0022263067937394417 0 -0.1049848826366134 -1.5556536330832368e-05 0 -0.10499341696201318 -5.8306581852335034e-06 0 -0.10499463129326027 -6.8702476844905698e-06 0 -0.10499463129326027 -6.8702476844905698e-06 0 -0.10499999199768083 -4.7911164059113466e-09 0 -0.10500000030061916 2.6238847779113785e-09 0 -0.10499341696201318 -5.8306581852335034e-06 0 -0.10499463129326027 -6.8702476844905698e-06 0 -0.10499999199768083 -4.7911164059113466e-09 0 -0.10499999264863644 -2.9960325745247658e-09 0 -0.10499341696201318 -5.8306581852335034e-06 0 -0.10499999199768083 -4.7911164059113466e-09 0 -0.10330207629173996 -0.0011160954223855112 0 -0.10498134764717239 7.9433934094385108e-07 0 -0.1011777492859188 -0.0024747225521642808 0 -0.10330207629173996 -0.0011160954223855112 0 -0.10498134764717239 7.9433934094385108e-07 0 -0.10500595510722031 -1.6454838581359196e-06 0 -0.10498134764717239 7.9433934094385108e-07 0 -0.099584842914895555 -0.0030830460469288964 0 -0.1011777492859188 -0.0024747225521642808 0 -0.096217501456342391 -0.0028889699729892685 0 -0.10498134764717239 7.9433934094385108e-07 0 -0.099584842914895555 -0.0030830460469288964 0 -0.10156233138623728 -0.0018161795444673655 0 -0.10499513634313801 -1.6392209383455294e-06 0 -0.096217501456342391 -0.0028889699729892685 0 -0.099584842914895555 -0.0030830460469288964 0 -0.096704221724838654 -0.0052651446416474212 0 -0.099584842914895555 -0.0030830460469288964 0 -0.099286442210069589 -0.0039254290574121577 0 -0.1011777492859188 -0.0024747225521642808 0 -0.10330207629173996 -0.0011160954223855112 0 -0.1011777492859188 -0.0024747225521642808 0 -0.10256253332129692 -0.0025600886095106684 0 -0.099286442210069589 -0.0039254290574121577 0 -0.1011777492859188 -0.0024747225521642808 0 -0.10256253332129692 -0.0025600886095106684 0 -0.099286442210069589 -0.0039254290574121577 0 -0.096967159422504348 -0.0051832823699339272 0 -0.096704221724838654 -0.0052651446416474212 0 -0.099286442210069589 -0.0039254290574121577 0 -0.096967159422504348 -0.0051832823699339272 0 -0.10256253332129692 -0.0025600886095106684 0 -0.099584842914895555 -0.0030830460469288964 0 -0.099286442210069589 -0.0039254290574121577 0 -0.096704221724838654 -0.0052651446416474212 0 -0.094299027406988062 -0.0054164691295099272 0 -0.096704221724838654 -0.0052651446416474212 0 -0.094501075847709434 -0.0057202573489819964 0 -0.096967159422504348 -0.0051832823699339272 0 -0.096704221724838654 -0.0052651446416474212 0 -0.094501075847709434 -0.0057202573489819964 0 -0.096967159422504348 -0.0051832823699339272 0 -0.094501075847709434 -0.0057202573489819964 0 -0.094309495205770699 -0.0059701779204427447 0 -0.092620525747278748 -0.005631935257141253 0 -0.094501075847709434 -0.0057202573489819964 0 -0.094309495205770699 -0.0059701779204427447 0 -0.094309495205770699 -0.0059701779204427447 0 -0.092931136211186635 -0.0065403561144149434 0 -0.094881434024164379 -0.0061794534324076745 0 -0.092620525747278748 -0.005631935257141253 0 -0.094309495205770699 -0.0059701779204427447 0 -0.092931136211186635 -0.0065403561144149434 0 -0.09008363339878471 -0.0076823356042497008 0 -0.087510272509007489 -0.0052849629548693319 0 -0.08969464907266067 -0.0061376158656347556 0 -0.092931136211186635 -0.0065403561144149434 0 -0.090576453303712431 -0.0068944991242080207 0 -0.08969464907266067 -0.0061376158656347556 0 -0.090576453303712431 -0.0068944991242080207 0 -0.09008363339878471 -0.0076823356042497008 0 -0.08969464907266067 -0.0061376158656347556 0 -0.099265169944380061 -0.0041978112168071921 0 -0.099490243868086789 -0.0040611645951449714 0 -0.090576453303712431 -0.0068944991242080207 0 -0.090336332373405395 -0.007628731030748884 0 -0.09008363339878471 -0.0076823356042497008 0 -0.092931136211186635 -0.0065403561144149434 0 -0.090576453303712431 -0.0068944991242080207 0 -0.090336332373405395 -0.007628731030748884 0 -0.096967159422504348 -0.0051832823699339272 0 -0.094309495205770699 -0.0059701779204427447 0 -0.094881434024164379 -0.0061794534324076745 0 -0.09008363339878471 -0.0076823356042497008 0 -0.088972893217389326 -0.0066243284850183931 0 -0.088979600948991294 -0.0082255360716316037 0 -0.099490243868086789 -0.0040611645951449714 0 -0.098143592199160343 -0.0036307285958209787 0 -0.09008363339878471 -0.0076823356042497008 0 -0.088972893217389326 -0.0066243284850183931 0 -0.089492180585089592 -0.0037150262067559853 0 -0.090336332373405395 -0.007628731030748884 0 -0.09008363339878471 -0.0076823356042497008 0 -0.088979600948991294 -0.0082255360716316037 0 -0.10488613744898118 -0.00021093129694885429 0 -0.10497210379628701 -0.00013739941765297751 0 -0.10492373752671205 -7.4688448053450895e-05 0 -0.099490243868086789 -0.0040611645951449714 0 -0.10241670002442396 -0.0010618187466058153 0 -0.10240913576932362 -0.0030565783412122493 0 -0.10326338321872042 -0.0021159633825850333 0 -0.096967159422504348 -0.0051832823699339272 0 -0.094881434024164379 -0.0061794534324076745 0 -0.10077663323618614 -0.003432728910774258 0 -0.10077663323618614 -0.003432728910774258 0 -0.10041770457815248 -0.0024902413843222553 0 -0.10500426969588238 1.1452088946974769e-06 0 -0.096967159422504348 -0.0051832823699339272 0 -0.10077663323618614 -0.003432728910774258 0 -0.10041770457815248 -0.0024902413843222553 0 -0.10492373752671205 -7.4688448053450895e-05 0 -0.10498390197669204 -4.3927693346956442e-05 0 -0.10499989240735204 1.0306621676452184e-08 0 -0.10497210379628701 -0.00013739941765297751 0 -0.10492373752671205 -7.4688448053450895e-05 0 -0.10498390197669204 -4.3927693346956442e-05 0 -0.10498390197669204 -4.3927693346956442e-05 0 -0.1050000054321652 -2.734608552277451e-08 0 -0.10499989240735204 1.0306621676452184e-08 0 -0.10326338321872042 -0.0021159633825850333 0 -0.10499594615884734 -2.942399112527874e-06 0 -0.10041770457815248 -0.0024902413843222553 0 -0.10500426969588238 1.1452088946974769e-06 0 -0.10499223705970688 -1.5825464139455778e-06 0 -0.10241670002442396 -0.0010618187466058153 0 -0.1049955785669284 -8.7378833350907864e-08 0 -0.10330207629173996 -0.0011160954223855112 0 -0.10256253332129692 -0.0025600886095106684 0 -0.10500595510722031 -1.6454838581359196e-06 0 -0.1034668976318215 2.9521804980614698e-05 0 -0.10499828470826991 -1.8691984651266764e-06 0 -0.10368908278175611 0.0012315220751573347 0 -0.1034668976318215 2.9521804980614698e-05 0 -0.10499670435483464 -6.3540237123993649e-07 0 -0.10135418959858455 3.1326273541275083e-06 0 -0.10499112151785438 -5.9189257483934258e-07 0 -0.099155493133632006 -0.0015719272560500012 0 -0.1034668976318215 2.9521804980614698e-05 0 -0.10499670435483464 -6.3540237123993649e-07 0 -0.10499828470826991 -1.8691984651266764e-06 0 -0.10500003961933622 3.0313187247504171e-09 0 -0.10499999545794932 -2.6911983794792766e-05 0 -0.10502269166091505 -7.4929470577745852e-05 0 -0.10498390197669204 -4.3927693346956442e-05 0 -0.1050000054321652 -2.734608552277451e-08 0 -0.10499999545794932 -2.6911983794792766e-05 0 -0.1050000054321652 -2.734608552277451e-08 0 -0.10500003961933622 3.0313187247504171e-09 0 -0.10499999545794932 -2.6911983794792766e-05 0 -0.10497210379628701 -0.00013739941765297751 0 -0.10498390197669204 -4.3927693346956442e-05 0 -0.10502269166091505 -7.4929470577745852e-05 0 -0.10498390197669204 -4.3927693346956442e-05 0 -0.10499999545794932 -2.6911983794792766e-05 0 -0.10502269166091505 -7.4929470577745852e-05 0 -0.096444647824122196 0.00038027624426654273 0 -0.10133971891886098 2.6598600014538062e-06 0 -0.096526557555321482 -9.2111387647457562e-07 0 -0.1034668976318215 2.9521804980614698e-05 0 -0.10368908278175611 0.0012315220751573347 0 -0.10135418959858455 3.1326273541275083e-06 0 -0.099155493133632006 -0.0015719272560500012 0 -0.10134273486571566 -1.987232038317372e-06 0 -0.096444647824122196 0.00038027624426654273 0 -0.096526557555321482 -9.2111387647457562e-07 0 -0.092369560758481239 -0.00026486940807914544 0 -0.098143592199160343 -0.0036307285958209787 0 -0.099155493133632006 -0.0015719272560500012 0 -0.099155493133632006 -0.0015719272560500012 0 -0.094283766762559243 -0.0037309742689013601 0 -0.088979600948991294 -0.0082255360716316037 0 -0.086794017588966724 -0.0098348179525103545 0 -0.086861218498520187 -0.0064094812246593075 0 -0.088972893217389326 -0.0066243284850183931 0 -0.086861218498520187 -0.0064094812246593075 0 -0.089492180585089592 -0.0037150262067559853 0 -0.088972893217389326 -0.0066243284850183931 0 -0.088979600948991294 -0.0082255360716316037 0 -0.086861218498520187 -0.0064094812246593075 0 -0.096526557555321482 -9.2111387647457562e-07 0 -0.092369560758481239 -0.00026486940807914544 0 -0.091708011648135065 -6.3967208817841866e-07 0 -0.092369560758481239 -0.00026486940807914544 0 -0.09013139358158509 -0.00041329065577989682 0 -0.088096852273016543 -0.00083014300955357059 0 -0.091708011648135065 -6.3967208817841866e-07 0 -0.09013139358158509 -0.00041329065577989682 0 -0.08847563361395569 -0.00044772963418177546 0 -0.092369560758481239 -0.00026486940807914544 0 -0.091708011648135065 -6.3967208817841866e-07 0 -0.09013139358158509 -0.00041329065577989682 0 -0.091708011648135065 -6.3967208817841866e-07 0 -0.086887938866586648 -1.5631850636778056e-06 0 -0.08847563361395569 -0.00044772963418177546 0 -0.086887938866586648 -1.5631850636778056e-06 0 -0.08847563361395569 -0.00044772963418177546 0 -0.087889721889509914 5.9597453898689175e-05 0 -0.09013139358158509 -0.00041329065577989682 0 -0.08847563361395569 -0.00044772963418177546 0 -0.088096852273016543 -0.00083014300955357059 0 -0.08847563361395569 -0.00044772963418177546 0 -0.087889721889509914 5.9597453898689175e-05 0 -0.088096852273016543 -0.00083014300955357059 0 -0.081468307232292161 -0.001681436008130684 0 -0.079263404948906269 -0.0011452930712555101 0 -0.082973947728978314 -0.0050567687758955506 0 -0.083980689529766686 -0.0017757324186697978 0 -0.085620939323406212 -0.0034768442958067218 0 -0.087889721889509914 5.9597453898689175e-05 0 -0.088096852273016543 -0.00083014300955357059 0 -0.089492180585089592 -0.0037150262067559853 0 -0.081468307232292161 -0.001681436008130684 0 -0.079263404948906269 -0.0011452930712555101 0 -0.079991736100874303 -0.00083285306339767116 0 -0.094283766762559243 -0.0037309742689013601 0 -0.092796783681370829 -0.0032174391817142403 0 -0.086861218498520187 -0.0064094812246593075 0 -0.088096852273016543 -0.00083014300955357059 0 -0.089492180585089592 -0.0037150262067559853 0 -0.086818269865844899 -0.004728847193288829 0 -0.085620939323406212 -0.0034768442958067218 0 -0.09008363339878471 -0.0076823356042497008 0 -0.087510272509007489 -0.0052849629548693319 0 -0.082973947728978314 -0.0050567687758955506 0 -0.087510272509007489 -0.0052849629548693319 0 -0.082973947728978314 -0.0050567687758955506 0 -0.084101368135488117 -0.0031401404701451256 0 -0.092931136211186635 -0.0065403561144149434 0 -0.090501754508162793 -0.0052254560056861658 0 -0.08969464907266067 -0.0061376158656347556 0 -0.092620525747278748 -0.005631935257141253 0 -0.092931136211186635 -0.0065403561144149434 0 -0.090501754508162793 -0.0052254560056861658 0 -0.087510272509007489 -0.0052849629548693319 0 -0.090501754508162793 -0.0052254560056861658 0 -0.08969464907266067 -0.0061376158656347556 0 -0.087510272509007489 -0.0052849629548693319 0 -0.090501754508162793 -0.0052254560056861658 0 -0.086534877596224802 -0.0032937722379481641 0 -0.090021825828889582 -0.0042500728868248945 0 -0.090501754508162793 -0.0052254560056861658 0 -0.086534877596224802 -0.0032937722379481641 0 -0.086534877596224802 -0.0032937722379481641 0 -0.082815209323976152 -0.0014872470452742751 0 -0.085722345258813906 -0.0017790942544670394 0 -0.090021825828889582 -0.0042500728868248945 0 -0.086534877596224802 -0.0032937722379481641 0 -0.085722345258813906 -0.0017790942544670394 0 -0.081468307232292161 -0.001681436008130684 0 -0.082973947728978314 -0.0050567687758955506 0 -0.084101368135488117 -0.0031401404701451256 0 -0.087510272509007489 -0.0052849629548693319 0 -0.086534877596224802 -0.0032937722379481641 0 -0.084101368135488117 -0.0031401404701451256 0 -0.086534877596224802 -0.0032937722379481641 0 -0.084101368135488117 -0.0031401404701451256 0 -0.082815209323976152 -0.0014872470452742751 0 -0.081468307232292161 -0.001681436008130684 0 -0.084101368135488117 -0.0031401404701451256 0 -0.082815209323976152 -0.0014872470452742751 0 -0.081468307232292161 -0.001681436008130684 0 -0.082815209323976152 -0.0014872470452742751 0 -0.079827631610030536 -0.00046624274767751095 0 -0.082815209323976152 -0.0014872470452742751 0 -0.081255669039446171 -0.00052489767016455587 0 -0.079827631610030536 -0.00046624274767751095 0 -0.082815209323976152 -0.0014872470452742751 0 -0.085722345258813906 -0.0017790942544670394 0 -0.081255669039446171 -0.00052489767016455587 0 -0.085722345258813906 -0.0017790942544670394 0 -0.080984775933275632 0.00011880035791501673 0 -0.081255669039446171 -0.00052489767016455587 0 -0.080984775933275632 0.00011880035791501673 0 -0.081255669039446171 -0.00052489767016455587 0 -0.078359792251599211 3.7817585797891159e-05 0 -0.081255669039446171 -0.00052489767016455587 0 -0.078359792251599211 3.7817585797891159e-05 0 -0.079827631610030536 -0.00046624274767751095 0 -0.078359792251599211 3.7817585797891159e-05 0 -0.078385699009775586 -0.00023763893715138455 0 -0.079827631610030536 -0.00046624274767751095 0 -0.078385699009775586 -0.00023763893715138455 0 -0.079827631610030536 -0.00046624274767751095 0 -0.079624019349362835 -0.0004131445425340124 0 -0.076014072895222717 -4.47115612051891e-07 0 -0.078385699009775586 -0.00023763893715138455 0 -0.082057870202333003 4.4963855026757207e-07 0 -0.078385699009775586 -0.00023763893715138455 0 -0.082057870202333003 4.4963855026757207e-07 0 -0.079624019349362835 -0.0004131445425340124 0 -0.083980689529766686 -0.0017757324186697978 0 -0.082072508260597685 -2.6509502027549733e-06 0 -0.079263404948906269 -0.0011452930712555101 0 -0.082057870202333003 4.4963855026757207e-07 0 -0.079624019349362835 -0.0004131445425340124 0 -0.086887938866586648 -1.5631850636778056e-06 0 -0.087889721889509914 5.9597453898689175e-05 0 -0.082075157435313656 2.2816976930193684e-06 0 -0.079263404948906269 -0.0011452930712555101 0 -0.079991736100874303 -0.00083285306339767116 0 -0.079624019349362835 -0.0004131445425340124 0 -0.081468307232292161 -0.001681436008130684 0 -0.079991736100874303 -0.00083285306339767116 0 -0.079827631610030536 -0.00046624274767751095 0 -0.079991736100874303 -0.00083285306339767116 0 -0.079827631610030536 -0.00046624274767751095 0 -0.079624019349362835 -0.0004131445425340124 0 -0.10118471270032593 -0.0017646401386767849 0 -0.099801200226863784 -0.0017412947577808756 0 -0.10096391208542628 -0.0027610130321797039 0 -0.10096519943043265 -0.0027991094159746277 0 -0.10083305222179034 -0.0030475213823670864 0 -0.10096519943043265 -0.0027991094159746277 0 -0.10083305222179034 -0.0030475213823670864 0 -0.10098278853874483 -0.0029003348042233152 0 -0.10344751336827253 -0.0014362063627701782 0 -0.10295935284838628 -0.0015915798283551534 0 -0.10322888558075649 -0.0019910903536518678 0 -0.10295935284838628 -0.0015915798283551534 0 -0.1029662542281507 -0.001084703229969934 0 -0.10247305781534599 -0.0014910149702034834 0 -0.10322888558075649 -0.0019910903536518678 0 -0.10273787570280338 -0.0020303624478015593 0 -0.10288660815895921 -0.0023012314633631377 0 -0.10295935284838628 -0.0015915798283551534 0 -0.10267347711745382 -0.0017447939910759584 0 -0.10273787570280338 -0.0020303624478015593 0 -0.10295935284838628 -0.0015915798283551534 0 -0.10322888558075649 -0.0019910903536518678 0 -0.10273787570280338 -0.0020303624478015593 0 -0.10083305222179034 -0.0030475213823670864 0 -0.10101904243887276 -0.002965258877019462 0 -0.10098278853874483 -0.0029003348042233152 0 -0.10083305222179034 -0.0030475213823670864 0 -0.10101904243887276 -0.002965258877019462 0 -0.10097534880300336 -0.0031361357167973762 0 -0.10101904243887276 -0.002965258877019462 0 -0.10121632254609883 -0.0028913780279790813 0 -0.10097534880300336 -0.0031361357167973762 0 -0.10056254441119396 -0.0018669272154737033 0 -0.099525836475023777 -0.001385483535923653 0 -0.10179683421276998 -0.0022605122475041583 0 -0.1017431718643113 -0.0020166438313193686 0 -0.10193438977672142 -0.0020025332306747808 0 -0.10179683421276998 -0.0022605122475041583 0 -0.1017431718643113 -0.0020166438313193686 0 -0.10160669810737183 -0.002161083241231852 0 -0.10179683421276998 -0.0022605122475041583 0 -0.10160669810737183 -0.002161083241231852 0 -0.10150135685110845 -0.0025980816813842805 0 -0.10056254441119396 -0.0018669272154737033 0 -0.10082085106631646 -0.0020285666798167306 0 -0.10121632254609883 -0.0028913780279790813 0 -0.10109476764626701 -0.0027497353223661183 0 -0.10122431206380224 -0.0026372004233287663 0 -0.10096519943043265 -0.0027991094159746277 0 -0.10098278853874483 -0.0029003348042233152 0 -0.10102737634297013 -0.0028268263691891859 0 -0.10101904243887276 -0.002965258877019462 0 -0.10106776914798947 -0.0028664189411180805 0 -0.10098278853874483 -0.0029003348042233152 0 -0.10106776914798947 -0.0028664189411180805 0 -0.10098278853874483 -0.0029003348042233152 0 -0.10102737634297013 -0.0028268263691891859 0 -0.10101904243887276 -0.002965258877019462 0 -0.10121632254609883 -0.0028913780279790813 0 -0.10106776914798947 -0.0028664189411180805 0 -0.10121632254609883 -0.0028913780279790813 0 -0.10106776914798947 -0.0028664189411180805 0 -0.10109476764626701 -0.0027497353223661183 0 -0.10106776914798947 -0.0028664189411180805 0 -0.10109476764626701 -0.0027497353223661183 0 -0.10102737634297013 -0.0028268263691891859 0 -0.10096519943043265 -0.0027991094159746277 0 -0.10109476764626701 -0.0027497353223661183 0 -0.10102737634297013 -0.0028268263691891859 0 -0.10109476764626701 -0.0027497353223661183 0 -0.10122431206380224 -0.0026372004233287663 0 -0.10107675769589042 -0.002492604146037667 0 -0.10096519943043265 -0.0027991094159746277 0 -0.10109476764626701 -0.0027497353223661183 0 -0.10107675769589042 -0.002492604146037667 0 -0.10096391208542628 -0.0027610130321797039 0 -0.10096519943043265 -0.0027991094159746277 0 -0.10111473612895325 -0.0024415526070765809 0 -0.10155649724214465 -0.0024595991467366391 0 -0.10195823775389452 -0.0017688717656471613 0 -0.10118471270032593 -0.0017646401386767849 0 -0.10195823775389452 -0.0017688717656471613 0 -0.10121632254609883 -0.0028913780279790813 0 -0.10122431206380224 -0.0026372004233287663 0 -0.10150135685110845 -0.0025980816813842805 0 -0.10122431206380224 -0.0026372004233287663 0 -0.1012831042047956 -0.002477825981744319 0 -0.10150135685110845 -0.0025980816813842805 0 -0.10122431206380224 -0.0026372004233287663 0 -0.1012831042047956 -0.002477825981744319 0 -0.10107675769589042 -0.002492604146037667 0 -0.1012831042047956 -0.002477825981744319 0 -0.1014664205998735 -0.0024931968089169669 0 -0.10132286349823112 -0.0022970824387780102 0 -0.1012831042047956 -0.002477825981744319 0 -0.10107675769589042 -0.002492604146037667 0 -0.10109903086345391 -0.0023071438718754059 0 -0.10195823775389452 -0.0017688717656471613 0 -0.10283291355380234 -0.00096283581906178237 0 -0.10365034458871253 -0.00090651139989362378 0 -0.10342619904265286 -0.00068430332513134712 0 -0.10376440401596433 -0.00056872986672670974 0 -0.10342619904265286 -0.00068430332513134712 0 -0.10334842389236105 -0.001059983359595161 0 -0.1029662542281507 -0.001084703229969934 0 -0.10365034458871253 -0.00090651139989362378 0 -0.10342619904265286 -0.00068430332513134712 0 -0.10334842389236105 -0.001059983359595161 0 -0.10381040707413236 -0.00020823636047994764 0 -0.10374028177345207 -0.00033323089672085849 0 -0.10344751336827253 -0.0014362063627701782 0 -0.10334842389236105 -0.001059983359595161 0 -0.1029662542281507 -0.001084703229969934 0 -0.10344751336827253 -0.0014362063627701782 0 -0.10365034458871253 -0.00090651139989362378 0 -0.10334842389236105 -0.001059983359595161 0 -0.10344751336827253 -0.0014362063627701782 0 -0.10295935284838628 -0.0015915798283551534 0 -0.1029662542281507 -0.001084703229969934 0 -0.10468230635693251 0.00018707369114483136 0 -0.1047913759932155 0.00026998476406730175 0 -0.10478874473209478 0.00017549169057637433 0 -0.1047913759932155 0.00026998476406730175 0 -0.10485969095454765 0.00021905731650360575 0 -0.10478874473209478 0.00017549169057637433 0 -0.10483390584026595 0.0002487873717364811 0 -0.10484147642700709 0.00025582324004496591 0 -0.10481390542431636 0.00019880970705385696 0 -0.10325053282219167 0.0018461010528408931 0 -0.10331640796157046 0.0016717243993983671 0 -0.10344354811651033 0.0016372486672000116 0 -0.10331640796157046 0.0016717243993983671 0 -0.10266120792240691 0.0016436573984809242 0 -0.10400623198082763 0.0016459970539352252 0 -0.10266120792240691 0.0016436573984809242 0 -0.10122720788678326 0.0021011534681020464 0 -0.10137944828428702 0.0033089877217964939 0 -0.10266120792240691 0.0016436573984809242 0 -0.10147350555260781 0.0034188800374040911 0 -0.10137944828428702 0.0033089877217964939 0 -0.10296988941452202 0.0018720026195715553 0 -0.10291268651447827 0.0021330060669460063 0 -0.10331640796157046 0.0016717243993983671 0 -0.10352701272067504 0.0016145460777472239 0 -0.10344354811651033 0.0016372486672000116 0 -0.10331640796157046 0.0016717243993983671 0 -0.10363095102997524 0.001624735266925751 0 -0.10352701272067504 0.0016145460777472239 0 -0.10325053282219167 0.0018461010528408931 0 -0.10331640796157046 0.0016717243993983671 0 -0.10266120792240691 0.0016436573984809242 0 -0.10266120792240691 0.0016436573984809242 0 -0.10122720788678326 0.0021011534681020464 0 -0.10152654208622032 0.00062432454021467475 0 -0.10266120792240691 0.0016436573984809242 0 -0.10265690075992105 0.00098346087867076681 0 -0.10152654208622032 0.00062432454021467475 0 -0.1047913759932155 0.00026998476406730175 0 -0.10484852704650971 0.00031224226438542144 0 -0.10486503713650273 0.000331144315550156 0 -0.10484147642700709 0.00025582324004496591 0 -0.10484852704650971 0.00031224226438542144 0 -0.10486503713650273 0.000331144315550156 0 -0.10450028273039401 0.00033613363959231023 0 -0.10456515432981034 0.00031092533404005542 0 -0.10374028177345207 -0.00033323089672085849 0 -0.10348809467613419 -0.00049560082417674878 0 -0.1047913759932155 0.00026998476406730175 0 -0.10485969095454765 0.00021905731650360575 0 -0.10484852704650971 0.00031224226438542144 0 -0.10397121426085516 0.00062957002810773714 0 -0.10348809467613419 -0.00049560082417674878 0 -0.10325053282219167 0.0018461010528408931 0 -0.10265690075992105 0.00098346087867076681 0 -0.10296941403861669 0.00056553931879899989 0 -0.10325053282219167 0.0018461010528408931 0 -0.10266120792240691 0.0016436573984809242 0 -0.10265690075992105 0.00098346087867076681 0 -0.10483390584026595 0.0002487873717364811 0 -0.10484147642700709 0.00025582324004496591 0 -0.10484852704650971 0.00031224226438542144 0 -0.10115385752943608 0.0027436165313054271 0 -0.10115982648549639 0.003197990995781923 0 -0.10087679086197515 0.0030307525694243257 0 -0.099507989720099929 0.002771337682405282 0 -0.10014776845826678 0.003133481769338108 0 -0.10122720788678326 0.0021011534681020464 0 -0.099838006599154691 0.0018243057069191381 0 -0.10137944828428702 0.0033089877217964939 0 -0.10115385752943608 0.0027436165313054271 0 -0.10115982648549639 0.003197990995781923 0 -0.10137944828428702 0.0033089877217964939 0 -0.10122720788678326 0.0021011534681020464 0 -0.099838006599154691 0.0018243057069191381 0 -0.10017719489288783 0.00067260296958194317 0 -0.10122720788678326 0.0021011534681020464 0 -0.10017719489288783 0.00067260296958194317 0 -0.10152654208622032 0.00062432454021467475 0 -0.099838006599154691 0.0018243057069191381 0 -0.10017719489288783 0.00067260296958194317 0 -0.0983220002326297 0.00020593293151008083 0 -0.099507989720099929 0.002771337682405282 0 -0.097970469551794115 0.002404589502066054 0 -0.10017719489288783 0.00067260296958194317 0 -0.10046944314131717 -0.00052457649062687627 0 -0.0983220002326297 0.00020593293151008083 0 -0.10017719489288783 0.00067260296958194317 0 -0.10046944314131717 -0.00052457649062687627 0 -0.10152654208622032 0.00062432454021467475 0 -0.10046944314131717 -0.00052457649062687627 0 -0.10152654208622032 0.00062432454021467475 0 -0.10172823217987433 -0.00027845626665802379 0 -0.10046944314131717 -0.00052457649062687627 0 -0.10158640202932358 -0.0012379419840714836 0 -0.10069804182595131 -0.0018792255954759021 0 -0.10046944314131717 -0.00052457649062687627 0 -0.09913669592145867 -0.0015561889048316057 0 -0.10069804182595131 -0.0018792255954759021 0 -0.10046944314131717 -0.00052457649062687627 0 -0.10172823217987433 -0.00027845626665802379 0 -0.10158640202932358 -0.0012379419840714836 0 -0.10046944314131717 -0.00052457649062687627 0 -0.09913669592145867 -0.0015561889048316057 0 -0.0983220002326297 0.00020593293151008083 0 -0.10295935284838628 -0.0015915798283551534 0 -0.10267347711745382 -0.0017447939910759584 0 -0.10247305781534599 -0.0014910149702034834 0 -0.10298880929221783 0.00053675011901487912 0 -0.10280252993447975 0.00038724003658525627 0 -0.1025392605110209 -0.0012770363392852163 0 -0.10265690075992105 0.00098346087867076681 0 -0.10296941403861669 0.00056553931879899989 0 -0.10280252993447975 0.00038724003658525627 0 -0.10348809467613419 -0.00049560082417674878 0 -0.10348639631671265 -0.00049196673344836751 0 -0.10265690075992105 0.00098346087867076681 0 -0.10222524849603332 0.00031711733327435181 0 -0.10152654208622032 0.00062432454021467475 0 -0.10265690075992105 0.00098346087867076681 0 -0.10280252993447975 0.00038724003658525627 0 -0.10222524849603332 0.00031711733327435181 0 -0.10222524849603332 0.00031711733327435181 0 -0.10152654208622032 0.00062432454021467475 0 -0.10172823217987433 -0.00027845626665802379 0 -0.10280252993447975 0.00038724003658525627 0 -0.10222524849603332 0.00031711733327435181 0 -0.10225863915041512 -7.5744063028312196e-05 0 -0.10280252993447975 0.00038724003658525627 0 -0.10225863915041512 -7.5744063028312196e-05 0 -0.10222807114914637 -0.00061839852576390153 0 -0.10222524849603332 0.00031711733327435181 0 -0.10225863915041512 -7.5744063028312196e-05 0 -0.10172823217987433 -0.00027845626665802379 0 -0.10280252993447975 0.00038724003658525627 0 -0.10222807114914637 -0.00061839852576390153 0 -0.1025392605110209 -0.0012770363392852163 0 -0.10225863915041512 -7.5744063028312196e-05 0 -0.10222807114914637 -0.00061839852576390153 0 -0.10172823217987433 -0.00027845626665802379 0 -0.10222807114914637 -0.00061839852576390153 0 -0.10172823217987433 -0.00027845626665802379 0 -0.10158640202932358 -0.0012379419840714836 0 -0.10222807114914637 -0.00061839852576390153 0 -0.10158640202932358 -0.0012379419840714836 0 -0.1025392605110209 -0.0012770363392852163 0 -0.10348809467613419 -0.00049560082417674878 0 -0.10296667866465586 -0.001576448115096082 0 -0.10267347711745382 -0.0017447939910759584 0 -0.10247305781534599 -0.0014910149702034834 0 -0.10231566618830805 -0.0021299996944306823 0 -0.10267347711745382 -0.0017447939910759584 0 -0.10231566618830805 -0.0021299996944306823 0 -0.10273787570280338 -0.0020303624478015593 0 -0.10231566618830805 -0.0021299996944306823 0 -0.10273787570280338 -0.0020303624478015593 0 -0.1026416781591941 -0.0025599023520289513 0 -0.10273787570280338 -0.0020303624478015593 0 -0.1026416781591941 -0.0025599023520289513 0 -0.10310158868501938 -0.0025126404384715824 0 -0.10231566618830805 -0.0021299996944306823 0 -0.1026416781591941 -0.0025599023520289513 0 -0.10210651471533204 -0.0030996465431111365 0 -0.1026416781591941 -0.0025599023520289513 0 -0.10267890652917258 -0.0030328991603218529 0 -0.10298610586660424 -0.0028723221571315847 0 -0.1025392605110209 -0.0012770363392852163 0 -0.10163066353275726 -0.0021822185961634013 0 -0.10210651471533204 -0.0030996465431111365 0 -0.10296667866465586 -0.001576448115096082 0 -0.10276459368242116 -0.0021904828002072396 0 -0.10163066353275726 -0.0021822185961634013 0 -0.10122754668683322 -0.0033171934200346043 0 -0.10069804182595131 -0.0018792255954759021 0 -0.10158640202932358 -0.0012379419840714836 0 -0.1025392605110209 -0.0012770363392852163 0 -0.10163066353275726 -0.0021822185961634013 0 -0.10158640202932358 -0.0012379419840714836 0 -0.10163066353275726 -0.0021822185961634013 0 -0.10069804182595131 -0.0018792255954759021 0 -0.10122754668683322 -0.0033171934200346043 0 -0.10024159414443906 -0.0036519256174598049 0 -0.10182230316879111 -0.0039351968107921159 0 -0.10163066353275726 -0.0021822185961634013 0 -0.10210651471533204 -0.0030996465431111365 0 -0.10122754668683322 -0.0033171934200346043 0 -0.10122754668683322 -0.0033171934200346043 0 -0.10196266780720824 -0.0034971966468650959 0 -0.10182230316879111 -0.0039351968107921159 0 -0.10210651471533204 -0.0030996465431111365 0 -0.10122754668683322 -0.0033171934200346043 0 -0.10196266780720824 -0.0034971966468650959 0 -0.10196266780720824 -0.0034971966468650959 0 -0.10252672902465422 -0.0035910015832791558 0 -0.10182230316879111 -0.0039351968107921159 0 -0.10210651471533204 -0.0030996465431111365 0 -0.10196266780720824 -0.0034971966468650959 0 -0.10252672902465422 -0.0035910015832791558 0 -0.10210651471533204 -0.0030996465431111365 0 -0.10252672902465422 -0.0035910015832791558 0 -0.10267890652917258 -0.0030328991603218529 0 -0.10252672902465422 -0.0035910015832791558 0 -0.10290999658448775 -0.0033505351901563932 0 -0.10267890652917258 -0.0030328991603218529 0 -0.10252672902465422 -0.0035910015832791558 0 -0.10290999658448775 -0.0033505351901563932 0 -0.10283893755029286 -0.0037166381899161292 0 -0.10290999658448775 -0.0033505351901563932 0 -0.10267890652917258 -0.0030328991603218529 0 -0.10298610586660424 -0.0028723221571315847 0 -0.1026416781591941 -0.0025599023520289513 0 -0.10210651471533204 -0.0030996465431111365 0 -0.10267890652917258 -0.0030328991603218529 0 -0.09913669592145867 -0.0015561889048316057 0 -0.099783672984988844 -0.0025216721349660019 0 -0.09820780514322773 -0.0028544856649567519 0 -0.09913669592145867 -0.0015561889048316057 0 -0.10069804182595131 -0.0018792255954759021 0 -0.099783672984988844 -0.0025216721349660019 0 -0.10122754668683322 -0.0033171934200346043 0 -0.099783672984988844 -0.0025216721349660019 0 -0.10024159414443906 -0.0036519256174598049 0 -0.10122754668683322 -0.0033171934200346043 0 -0.10069804182595131 -0.0018792255954759021 0 -0.099783672984988844 -0.0025216721349660019 0 -0.099783672984988844 -0.0025216721349660019 0 -0.10024159414443906 -0.0036519256174598049 0 -0.09820780514322773 -0.0028544856649567519 0 -0.09753385015338481 -0.0029405166026611868 0 -0.09820780514322773 -0.0028544856649567519 0 -0.097752581164654934 -0.0028075298763345796 0 -0.098725289068829561 -0.0024213348605840292 0 -0.09863334026792081 -0.0024955498454944922 0 -0.09820780514322773 -0.0028544856649567519 0 -0.097752581164654934 -0.0028075298763345796 0 -0.097605601755694507 -0.0028345837636259757 0 -0.097752581164654934 -0.0028075298763345796 0 -0.097558236296765591 -0.002798193507810855 0 -0.097605601755694507 -0.0028345837636259757 0 -0.097752581164654934 -0.0028075298763345796 0 -0.097514332627242115 -0.002786771444434932 0 -0.097558236296765591 -0.002798193507810855 0 -0.098725289068829561 -0.0024213348605840292 0 -0.098306555020601399 -0.0019144953152727671 0 -0.09753385015338481 -0.0029405166026611868 0 -0.097752581164654934 -0.0028075298763345796 0 -0.097514332627242115 -0.002786771444434932 0 -0.09753385015338481 -0.0029405166026611868 0 -0.097514332627242115 -0.002786771444434932 0 -0.097394641332098686 -0.0028163881866773853 0 -0.097514332627242115 -0.002786771444434932 0 -0.097430045818985817 -0.0027839849865862131 0 -0.097394641332098686 -0.0028163881866773853 0 -0.097514332627242115 -0.002786771444434932 0 -0.097430045818985817 -0.0027839849865862131 0 -0.097416381238662433 -0.0027694338442564369 0 -0.097430045818985817 -0.0027839849865862131 0 -0.097416381238662433 -0.0027694338442564369 0 -0.097402586688533632 -0.0027797691106214496 0 -0.097368261072662263 -0.0027728154236441259 0 -0.097416381238662433 -0.0027694338442564369 0 -0.097418540776209983 -0.0027778556557296837 0 -0.097368261072662263 -0.0027728154236441259 0 -0.097416381238662433 -0.0027694338442564369 0 -0.097396836592576183 -0.0027662994999951445 0 -0.097514332627242115 -0.002786771444434932 0 -0.097416381238662433 -0.0027694338442564369 0 -0.097418540776209983 -0.0027778556557296837 0 -0.097514332627242115 -0.002786771444434932 0 -0.097418540776209983 -0.0027778556557296837 0 -0.097558236296765591 -0.002798193507810855 0 -0.097418540776209983 -0.0027778556557296837 0 -0.097558236296765591 -0.002798193507810855 0 -0.097421351411697665 -0.0028119332589158085 0 -0.097558236296765591 -0.002798193507810855 0 -0.097421351411697665 -0.0028119332589158085 0 -0.097605601755694507 -0.0028345837636259757 0 -0.10252672902465422 -0.0035910015832791558 0 -0.10283872035669195 -0.0041205978893786464 0 -0.10182230316879111 -0.0039351968107921159 0 -0.09708274076614351 -0.0027228938700634407 0 -0.09704236193652932 -0.002768360824690196 0 -0.097306167459130469 -0.0028640494591407667 0 -0.095404112114479009 -0.00025309166474853654 0 -0.098306555020601399 -0.0019144953152727671 0 -0.090460717838246482 -0.0025633949637933586 0 -0.096023034116677966 -0.0037979612488168273 0 -0.09474833684453754 0.0024802450783785986 0 -0.095405663842653213 -0.00011770208520124815 0 -0.093488921225558921 0.0004219274190822825 0 -0.093488921225558921 0.0004219274190822825 0 -0.09437060277387016 0.00012273665027597014 0 -0.096023034116677966 -0.0037979612488168273 0 -0.09474833684453754 0.0024802450783785986 0 -0.098177144461987984 0.0014382166632315241 0 -0.095404112114479009 -0.00025309166474853654 0 -0.09437060277387016 0.00012273665027597014 0 -0.095405663842653213 -0.00011770208520124815 0 -0.095404112114479009 -0.00025309166474853654 0 -0.10283872035669195 -0.0041205978893786464 0 -0.10283893755029286 -0.0037166381899161292 0 -0.10308005351011489 -0.0038070877124537191 0 -0.10252672902465422 -0.0035910015832791558 0 -0.10283872035669195 -0.0041205978893786464 0 -0.10283893755029286 -0.0037166381899161292 0 -0.09753385015338481 -0.0029405166026611868 0 -0.097306167459130469 -0.0028640494591407667 0 -0.097394641332098686 -0.0028163881866773853 0 -0.09708274076614351 -0.0027228938700634407 0 -0.097306167459130469 -0.0028640494591407667 0 -0.097394641332098686 -0.0028163881866773853 0 -0.097352195649733977 -0.0027793037495894876 0 -0.097394641332098686 -0.0028163881866773853 0 -0.097380268955631205 -0.0027783631558919108 0 -0.095405663842653213 -0.00011770208520124815 0 -0.096709212035803543 -0.00086882103458291464 0 -0.097430045818985817 -0.0027839849865862131 0 -0.097394641332098686 -0.0028163881866773853 0 -0.097402586688533632 -0.0027797691106214496 0 -0.097394641332098686 -0.0028163881866773853 0 -0.097380268955631205 -0.0027783631558919108 0 -0.097402586688533632 -0.0027797691106214496 0 -0.097416381238662433 -0.0027694338442564369 0 -0.097402586688533632 -0.0027797691106214496 0 -0.097396836592576183 -0.0027662994999951445 0 -0.097380268955631205 -0.0027783631558919108 0 -0.097402586688533632 -0.0027797691106214496 0 -0.097396836592576183 -0.0027662994999951445 0 -0.09739786269904642 -0.0027651612236226203 0 -0.097368261072662263 -0.0027728154236441259 0 -0.097396836592576183 -0.0027662994999951445 0 -0.09739786269904642 -0.0027651612236226203 0 -0.097380268955631205 -0.0027783631558919108 0 -0.097396836592576183 -0.0027662994999951445 0 -0.09739786269904642 -0.0027651612236226203 0 -0.097352195649733977 -0.0027793037495894876 0 -0.097380268955631205 -0.0027783631558919108 0 -0.096754559227610337 -0.00054340904238944451 0 -0.095405663842653213 -0.00011770208520124815 0 -0.09967454035736939 0.00027394527102188586 0 -0.098718933484006205 0.00053267569902645936 0 -0.10004661334297407 0.002096478196982584 0 -0.080710121905704826 0.0080663851647944183 0 -0.078984240328026464 0.0078465638754677686 0 -0.079795475237747965 0.0097296019321271871 0 -0.089437066839811646 0.0029592186469493396 0 -0.093488921225558921 0.0004219274190822825 0 -0.09967454035736939 0.00027394527102188586 0 -0.10004661334297407 0.002096478196982584 0 -0.10036760355605336 0.0020246308058991668 0 -0.080710121905704826 0.0080663851647944183 0 -0.079795475237747965 0.0097296019321271871 0 -0.081878282677749228 0.0092711996616677214 0 -0.093488921225558921 0.0004219274190822825 0 -0.08921474806732739 0.0036651844686697373 0 -0.093183520704926401 0.0017410864777231837 0 -0.091398093369068137 0.0019576423463086396 0 -0.091316140888018829 0.0021624195685892612 0 -0.082402405283607691 0.0079398069173472786 0 -0.080710121905704826 0.0080663851647944183 0 -0.081878282677749228 0.0092711996616677214 0 -0.083568956207792186 0.007174455754624668 0 -0.08921474806732739 0.0036651844686697373 0 -0.085754952627476302 0.0049523800093229332 0 -0.085707960465964461 0.0047040017879358791 0 -0.085646778872170384 0.0048126412159039478 0 -0.085754952627476302 0.0049523800093229332 0 -0.085872652693512255 0.0046649060308906797 0 -0.085707960465964461 0.0047040017879358791 0 -0.083568956207792186 0.007174455754624668 0 -0.088003756565446595 0.0055212245105828893 0 -0.090396840388075189 0.0027545148685538122 0 -0.08921474806732739 0.0036651844686697373 0 -0.08921474806732739 0.0036651844686697373 0 -0.08993948130594516 0.0040137540381358283 0 -0.090396840388075189 0.0027545148685538122 0 -0.090740688143270146 0.0033093937932760715 0 -0.08847612912990277 0.0037282196447583323 0 -0.091554389347656639 0.0036973300423843143 0 -0.091970445940116233 0.0029574164013677329 0 -0.088067830425920271 0.0047518543690791941 0 -0.08847612912990277 0.0037282196447583323 0 -0.091554389347656639 0.0036973300423843143 0 -0.090740688143270146 0.0033093937932760715 0 -0.08993948130594516 0.0040137540381358283 0 -0.090396840388075189 0.0027545148685538122 0 -0.095945867142369384 -0.00091918696864717831 0 -0.093378822050532856 0.0029233339930661083 0 -0.093272430307948573 0.0011753143078874772 0 -0.094788553855169155 -0.00060935557449610564 0 -0.10190665642324787 -0.0015089669094455699 0 -0.10199413839999702 -0.0016525489420018693 0 -0.10190302644885151 -0.001651522883748371 0 -0.090740688143270146 0.0033093937932760715 0 -0.09432779139701486 0.00039028515884565119 0 -0.093378822050532856 0.0029233339930661083 0 -0.092066775269022322 0.0033246035374351959 0 -0.093272430307948573 0.0011753143078874772 0 -0.10199413839999702 -0.0016525489420018693 0 -0.10191426051051605 -0.0017441839838976945 0 -0.10190302644885151 -0.001651522883748371 0 -0.090396840388075189 0.0027545148685538122 0 -0.09437060277387016 0.00012273665027597014 0 -0.093183520704926401 0.0017410864777231837 0 -0.091398093369068137 0.0019576423463086396 0 -0.093062143405617831 0.0014462968668828087 0 -0.094288590555004312 0.00022870414434397699 0 -0.094101830738188827 0.00028251910165568643 0 -0.094129260490047537 0.00034670248499163957 0 -0.094288590555004312 0.00022870414434397699 0 -0.094129260490047537 0.00034670248499163957 0 -0.094210885626941659 0.0004397279000312919 0 -0.093654837928407828 -0.0022720388881183073 0 -0.094756560406221615 -0.0026068978122833386 0 -0.096055923699373283 0.00055212610587535092 0 -0.09437060277387016 0.00012273665027597014 0 -0.095400279715299047 -0.00044898910110284231 0 -0.095404112114479009 -0.00025309166474853654 0 -0.095400279715299047 -0.00044898910110284231 0 -0.095400279715299047 -0.00044898910110284231 0 -0.095945867142369384 -0.00091918696864717831 0 -0.095400279715299047 -0.00044898910110284231 0 -0.0967294726572622 -0.0014995009275754452 0 -0.10290999658448775 -0.0033505351901563932 0 -0.10283893755029286 -0.0037166381899161292 0 -0.10308005351011489 -0.0038070877124537191 0 -0.10290999658448775 -0.0033505351901563932 0 -0.10308005351011489 -0.0038070877124537191 0 -0.10334196524672673 -0.003050650183543481 0 -0.10290999658448775 -0.0033505351901563932 0 -0.10334196524672673 -0.003050650183543481 0 -0.10298610586660424 -0.0028723221571315847 0 -0.097112965108722721 -0.0015866322581200277 0 -0.0967294726572622 -0.0014995009275754452 0 -0.096350846935299134 -0.00081810941570720143 0 -0.096283552866895494 -0.00098012249579552198 0 -0.096548936433642055 -0.0011724661754095754 0 -0.0967294726572622 -0.0014995009275754452 0 -0.095945867142369384 -0.00091918696864717831 0 -0.096283552866895494 -0.00098012249579552198 0 -0.096548936433642055 -0.0011724661754095754 0 -0.096419537355229859 -0.0013239366463784347 0 -0.097112965108722721 -0.0015866322581200277 0 -0.09641530343549938 -0.00098456526463384497 0 -0.095978659830193713 -0.0011265646181356473 0 -0.096265578674861352 -0.00043857834966038828 0 -0.096361471437018495 -0.00068061692175251784 0 -0.09641530343549938 -0.00098456526463384497 0 -0.095945867142369384 -0.00091918696864717831 0 -0.09432779139701486 0.00039028515884565119 0 -0.09641530343549938 -0.00098456526463384497 0 -0.093272430307948573 0.0011753143078874772 0 -0.094479541287283586 -0.0009736960392411659 0 -0.094788553855169155 -0.00060935557449610564 0 -0.10199413839999702 -0.0016525489420018693 0 -0.10207097038379107 -0.0017890655276917807 0 -0.10198325142033168 -0.0017777336727288276 0 -0.10199413839999702 -0.0016525489420018693 0 -0.10198325142033168 -0.0017777336727288276 0 -0.10191426051051605 -0.0017441839838976945 0 -0.10198325142033168 -0.0017777336727288276 0 -0.10191426051051605 -0.0017441839838976945 0 -0.10190100749162315 -0.0018156370886983251 0 -0.10198325142033168 -0.0017777336727288276 0 -0.10195812795563386 -0.0018605744993934763 0 -0.10190100749162315 -0.0018156370886983251 0 -0.10207097038379107 -0.0017890655276917807 0 -0.10198325142033168 -0.0017777336727288276 0 -0.10195812795563386 -0.0018605744993934763 0 -0.10070420800856111 -0.0033170383151239157 0 -0.10073993943501669 -0.0033836160670239171 0 -0.10097534880300336 -0.0031361357167973762 0 -0.09641530343549938 -0.00098456526463384497 0 -0.099525836475023777 -0.001385483535923653 0 -0.10207097038379107 -0.0017890655276917807 0 -0.10195812795563386 -0.0018605744993934763 0 -0.10193438977672142 -0.0020025332306747808 0 -0.10083305222179034 -0.0030475213823670864 0 -0.10070420800856111 -0.0033170383151239157 0 -0.10097534880300336 -0.0031361357167973762 0 -0.099801200226863784 -0.0017412947577808756 0 -0.097112965108722721 -0.0015866322581200277 0 -0.10322888558075649 -0.0019910903536518678 0 -0.10300128688144781 -0.0025165451872570205 0 -0.10288660815895921 -0.0023012314633631377 0 -0.098295885263225066 -0.0026147896296125654 0 -0.097659764740023261 -0.0021952770974464804 0 -0.10334196524672673 -0.003050650183543481 0 -0.10310158868501938 -0.0025126404384715824 0 -0.10298610586660424 -0.0028723221571315847 0 -0.1026416781591941 -0.0025599023520289513 0 -0.10310158868501938 -0.0025126404384715824 0 -0.10298610586660424 -0.0028723221571315847 0 -0.0967294726572622 -0.0014995009275754452 0 -0.097659764740023261 -0.0021952770974464804 0 -0.097112965108722721 -0.0015866322581200277 0 -0.097659764740023261 -0.0021952770974464804 0 -0.096897036620473845 -0.0016593662558397513 0 -0.096948468840671986 -0.0015333204772789242 0 -0.097161012696421453 -0.0021271084210938767 0 -0.1017431718643113 -0.0020166438313193686 0 -0.1018079144147673 -0.0019187873647292517 0 -0.10170265673277212 -0.0017998821985108322 0 -0.1017431718643113 -0.0020166438313193686 0 -0.10158955814732079 -0.0018439493036082096 0 -0.10160669810737183 -0.002161083241231852 0 -0.1017431718643113 -0.0020166438313193686 0 -0.10170265673277212 -0.0017998821985108322 0 -0.10158955814732079 -0.0018439493036082096 0 -0.1017431718643113 -0.0020166438313193686 0 -0.10193438977672142 -0.0020025332306747808 0 -0.1018079144147673 -0.0019187873647292517 0 -0.10193438977672142 -0.0020025332306747808 0 -0.1018887247763676 -0.0019048322757948166 0 -0.1018079144147673 -0.0019187873647292517 0 -0.10195812795563386 -0.0018605744993934763 0 -0.1018887247763676 -0.0019048322757948166 0 -0.10190100749162315 -0.0018156370886983251 0 -0.10195812795563386 -0.0018605744993934763 0 -0.10193438977672142 -0.0020025332306747808 0 -0.1018887247763676 -0.0019048322757948166 0 -0.1018887247763676 -0.0019048322757948166 0 -0.1018079144147673 -0.0019187873647292517 0 -0.10181366690896687 -0.0018166381627809538 0 -0.10181366690896687 -0.0018166381627809538 0 -0.10190100749162315 -0.0018156370886983251 0 -0.10185596707483295 -0.001761299334712972 0 -0.1018887247763676 -0.0019048322757948166 0 -0.10181366690896687 -0.0018166381627809538 0 -0.10190100749162315 -0.0018156370886983251 0 -0.10191426051051605 -0.0017441839838976945 0 -0.10190100749162315 -0.0018156370886983251 0 -0.10185596707483295 -0.001761299334712972 0 -0.10191426051051605 -0.0017441839838976945 0 -0.10185596707483295 -0.001761299334712972 0 -0.1018520452481777 -0.0017020978481515642 0 -0.10181366690896687 -0.0018166381627809538 0 -0.10179807632996409 -0.0017262035841064652 0 -0.10175260304699565 -0.001755839037609545 0 -0.10181366690896687 -0.0018166381627809538 0 -0.10185596707483295 -0.001761299334712972 0 -0.10179807632996409 -0.0017262035841064652 0 -0.10185596707483295 -0.001761299334712972 0 -0.10179807632996409 -0.0017262035841064652 0 -0.1018520452481777 -0.0017020978481515642 0 -0.10179807632996409 -0.0017262035841064652 0 -0.10176061829782898 -0.0017053968160532719 0 -0.10175260304699565 -0.001755839037609545 0 -0.0967798981416544 0.0025165496272071268 0 -0.098863539283039384 0.00092896135912299324 0 -0.10175260304699565 -0.001755839037609545 0 -0.10170265673277212 -0.0017998821985108322 0 -0.10171123681234313 -0.001670781003516741 0 -0.10300370679612299 9.003655821780781e-05 0 -0.10231209749760466 -3.8695615838216124e-05 0 -0.10231917106078769 -0.00099805810117972781 0 -0.10170265673277212 -0.0017998821985108322 0 -0.10171123681234313 -0.001670781003516741 0 -0.10158955814732079 -0.0018439493036082096 0 -0.10176061829782898 -0.0017053968160532719 0 -0.10175260304699565 -0.001755839037609545 0 -0.10171123681234313 -0.001670781003516741 0 -0.1018079144147673 -0.0019187873647292517 0 -0.10181366690896687 -0.0018166381627809538 0 -0.10170265673277212 -0.0017998821985108322 0 -0.10181366690896687 -0.0018166381627809538 0 -0.10175260304699565 -0.001755839037609545 0 -0.10170265673277212 -0.0017998821985108322 0 -0.10294386521204607 0.00022008285477754941 0 -0.10302928112066648 0.00039334454510401212 0 -0.10301576730896786 0.00060878789752667208 0 -0.10300370679612299 9.003655821780781e-05 0 -0.10294386521204607 0.00022008285477754941 0 -0.10231209749760466 -3.8695615838216124e-05 0 -0.10294386521204607 0.00022008285477754941 0 -0.10238455183665053 0.00033050136498388927 0 -0.10231209749760466 -3.8695615838216124e-05 0 -0.10176061829782898 -0.0017053968160532719 0 -0.10171123681234313 -0.001670781003516741 0 -0.10178356150383949 -0.0016614740039217618 0 -0.10300370679612299 9.003655821780781e-05 0 -0.10294386521204607 0.00022008285477754941 0 -0.10302928112066648 0.00039334454510401212 0 -0.10294386521204607 0.00022008285477754941 0 -0.10276864128061747 0.0005151200128928632 0 -0.1030215084821598 0.00073599121260545361 0 -0.10294386521204607 0.00022008285477754941 0 -0.10276864128061747 0.0005151200128928632 0 -0.10238455183665053 0.00033050136498388927 0 -0.10276864128061747 0.0005151200128928632 0 -0.10281540341824973 0.00071933737916997213 0 -0.1030215084821598 0.00073599121260545361 0 -0.10276864128061747 0.0005151200128928632 0 -0.10249102720171596 0.00070210914183100475 0 -0.10238455183665053 0.00033050136498388927 0 -0.10276864128061747 0.0005151200128928632 0 -0.10281540341824973 0.00071933737916997213 0 -0.10249102720171596 0.00070210914183100475 0 -0.10300370679612299 9.003655821780781e-05 0 -0.10302928112066648 0.00039334454510401212 0 -0.10318586623606946 0.00059353466780388484 0 -0.0967798981416544 0.0025165496272071268 0 -0.090501121764062414 0.0044147618479008924 0 -0.10171123681234313 -0.001670781003516741 0 -0.10180340050751556 -0.0016061044580348799 0 -0.10183108076816028 -0.0014770142823656396 0 -0.10191426051051605 -0.0017441839838976945 0 -0.10190302644885151 -0.001651522883748371 0 -0.1018520452481777 -0.0017020978481515642 0 -0.10190302644885151 -0.001651522883748371 0 -0.1018520452481777 -0.0017020978481515642 0 -0.10184174137078943 -0.0016374339946526708 0 -0.10171123681234313 -0.001670781003516741 0 -0.10178356150383949 -0.0016614740039217618 0 -0.10180340050751556 -0.0016061044580348799 0 -0.10184174137078943 -0.0016374339946526708 0 -0.10178356150383949 -0.0016614740039217618 0 -0.10180340050751556 -0.0016061044580348799 0 -0.10179807632996409 -0.0017262035841064652 0 -0.1018520452481777 -0.0017020978481515642 0 -0.10178356150383949 -0.0016614740039217618 0 -0.1018520452481777 -0.0017020978481515642 0 -0.10184174137078943 -0.0016374339946526708 0 -0.10178356150383949 -0.0016614740039217618 0 -0.10179807632996409 -0.0017262035841064652 0 -0.10176061829782898 -0.0017053968160532719 0 -0.10178356150383949 -0.0016614740039217618 0 -0.10190665642324787 -0.0015089669094455699 0 -0.10190302644885151 -0.001651522883748371 0 -0.10185505582702258 -0.001575720477723681 0 -0.10180340050751556 -0.0016061044580348799 0 -0.10185505582702258 -0.001575720477723681 0 -0.10183108076816028 -0.0014770142823656396 0 -0.10184174137078943 -0.0016374339946526708 0 -0.10180340050751556 -0.0016061044580348799 0 -0.10185505582702258 -0.001575720477723681 0 -0.10190302644885151 -0.001651522883748371 0 -0.10184174137078943 -0.0016374339946526708 0 -0.10185505582702258 -0.001575720477723681 0 -0.10190665642324787 -0.0015089669094455699 0 -0.10185505582702258 -0.001575720477723681 0 -0.10183108076816028 -0.0014770142823656396 0 -0.089221528196364933 0.0049696676186474298 0 -0.089469829469450188 0.0045288828547939116 0 -0.091037951218515045 0.004185470792840847 0 -0.090740688143270146 0.0033093937932760715 0 -0.090501121764062414 0.0044147618479008924 0 -0.08993948130594516 0.0040137540381358283 0 -0.090501121764062414 0.0044147618479008924 0 -0.08688795276916253 0.0037873759682695816 0 -0.087707240707011136 0.0036072909008083558 0 -0.087282273782698677 0.0030852377163765035 0 -0.10302928112066648 0.00039334454510401212 0 -0.10318586623606946 0.00059353466780388484 0 -0.10306760675991374 0.00052879133780655543 0 -0.10302928112066648 0.00039334454510401212 0 -0.10306760675991374 0.00052879133780655543 0 -0.10301576730896786 0.00060878789752667208 0 -0.10318586623606946 0.00059353466780388484 0 -0.10308935758532853 0.00058280625716728709 0 -0.10306760675991374 0.00052879133780655543 0 -0.090501121764062414 0.0044147618479008924 0 -0.091108597221493587 0.0043117608185790808 0 -0.10308935758532853 0.00058280625716728709 0 -0.10306760675991374 0.00052879133780655543 0 -0.10301576730896786 0.00060878789752667208 0 -0.090501121764062414 0.0044147618479008924 0 -0.089484295692600288 0.0059701415475992151 0 -0.08667219496882278 0.0069127732674575263 0 -0.087563423316324746 0.0067158176274668101 0 -0.086365699275317426 0.0065366308699577446 0 -0.087017831488941294 0.0053701914176221078 0 -0.087563423316324746 0.0067158176274668101 0 -0.086365699275317426 0.0065366308699577446 0 -0.10317859342738826 0.00057034522031038505 0 -0.10308935758532853 0.00058280625716728709 0 -0.10301576730896786 0.00060878789752667208 0 -0.090501121764062414 0.0044147618479008924 0 -0.088003756565446595 0.0055212245105828893 0 -0.08993948130594516 0.0040137540381358283 0 -0.088003756565446595 0.0055212245105828893 0 -0.10294386521204607 0.00022008285477754941 0 -0.10332105346325314 0.0011990132513064961 0 -0.1030215084821598 0.00073599121260545361 0 -0.091258466240671021 0.005225230908728529 0 -0.089484295692600288 0.0059701415475992151 0 -0.10276159892987402 0.00092691104330419691 0 -0.10287612879988763 0.001101920281763996 0 -0.10245090137607904 0.0011071501638389471 0 -0.10276159892987402 0.00092691104330419691 0 -0.10287612879988763 0.001101920281763996 0 -0.10293418459679221 0.00096960162980555032 0 -0.10276159892987402 0.00092691104330419691 0 -0.10292131230421503 0.00083748005828664562 0 -0.10293418459679221 0.00096960162980555032 0 -0.10276159892987402 0.00092691104330419691 0 -0.10245090137607904 0.0011071501638389471 0 -0.10249102720171596 0.00070210914183100475 0 -0.10276159892987402 0.00092691104330419691 0 -0.10281540341824973 0.00071933737916997213 0 -0.10249102720171596 0.00070210914183100475 0 -0.10276159892987402 0.00092691104330419691 0 -0.10281540341824973 0.00071933737916997213 0 -0.10292131230421503 0.00083748005828664562 0 -0.1030215084821598 0.00073599121260545361 0 -0.10302297290343854 0.00090464053791632049 0 -0.10316236917290492 0.0010640686363901294 0 -0.10332105346325314 0.0011990132513064961 0 -0.1030215084821598 0.00073599121260545361 0 -0.10316236917290492 0.0010640686363901294 0 -0.10281540341824973 0.00071933737916997213 0 -0.1030215084821598 0.00073599121260545361 0 -0.10292131230421503 0.00083748005828664562 0 -0.1030215084821598 0.00073599121260545361 0 -0.10302297290343854 0.00090464053791632049 0 -0.10292131230421503 0.00083748005828664562 0 -0.10302297290343854 0.00090464053791632049 0 -0.10292131230421503 0.00083748005828664562 0 -0.10293418459679221 0.00096960162980555032 0 -0.10302297290343854 0.00090464053791632049 0 -0.10293418459679221 0.00096960162980555032 0 -0.10303280871720458 0.00099750516911065483 0 -0.10302297290343854 0.00090464053791632049 0 -0.10316236917290492 0.0010640686363901294 0 -0.10303280871720458 0.00099750516911065483 0 -0.10316236917290492 0.0010640686363901294 0 -0.10303280871720458 0.00099750516911065483 0 -0.10302456042379766 0.0011290170783725012 0 -0.10287612879988763 0.001101920281763996 0 -0.10303280871720458 0.00099750516911065483 0 -0.10302456042379766 0.0011290170783725012 0 -0.10287612879988763 0.001101920281763996 0 -0.10293418459679221 0.00096960162980555032 0 -0.10303280871720458 0.00099750516911065483 0 -0.081798012319292457 0.0089175210715834816 0 -0.082015622148336506 0.0076242583709347595 0 -0.081228733099665065 0.0077989292602868828 0 -0.10287612879988763 0.001101920281763996 0 -0.10302456042379766 0.0011290170783725012 0 -0.10298845000987282 0.0012719153832331275 0 -0.10316236917290492 0.0010640686363901294 0 -0.10302456042379766 0.0011290170783725012 0 -0.10298845000987282 0.0012719153832331275 0 -0.089484295692600288 0.0059701415475992151 0 -0.090399612634985443 0.0066975854669353097 0 -0.10332105346325314 0.0011990132513064961 0 -0.10316236917290492 0.0010640686363901294 0 -0.10298845000987282 0.0012719153832331275 0 -0.090399612634985443 0.0066975854669353097 0 -0.093233429354842481 0.0058999733688345881 0 -0.10219331039389842 0.0018344597910401822 0 -0.10286312041468125 0.0012999044927497622 0 -0.10228118778096525 0.0014212555388874899 0 -0.10298845000987282 0.0012719153832331275 0 -0.10228118778096525 0.0014212555388874899 0 -0.10245090137607904 0.0011071501638389471 0 -0.10287612879988763 0.001101920281763996 0 -0.10298845000987282 0.0012719153832331275 0 -0.10245090137607904 0.0011071501638389471 0 -0.10228118778096525 0.0014212555388874899 0 -0.10245090137607904 0.0011071501638389471 0 -0.10177282803385644 0.00060140990487380513 0 -0.092444992923710972 0.0068030658578617682 0 -0.094474449726507717 0.0050229327543584185 0 -0.1015257851455751 0.0026578187828343366 0 -0.10239025613877492 0.0025705708079174403 0 -0.10177282803385644 0.00060140990487380513 0 -0.10219331039389842 0.0018344597910401822 0 -0.10228118778096525 0.0014212555388874899 0 -0.10177282803385644 0.00060140990487380513 0 -0.10245090137607904 0.0011071501638389471 0 -0.10249102720171596 0.00070210914183100475 0 -0.10177282803385644 0.00060140990487380513 0 -0.10238455183665053 0.00033050136498388927 0 -0.10177282803385644 0.00060140990487380513 0 -0.10231209749760466 -3.8695615838216124e-05 0 -0.10249102720171596 0.00070210914183100475 0 -0.10238455183665053 0.00033050136498388927 0 -0.10177282803385644 0.00060140990487380513 0 -0.10177282803385644 0.00060140990487380513 0 -0.10231209749760466 -3.8695615838216124e-05 0 -0.10141010921588393 -0.00038582184014630426 0 -0.10177282803385644 0.00060140990487380513 0 -0.10059571287553785 0.00071729742422264875 0 -0.10141010921588393 -0.00038582184014630426 0 -0.10177282803385644 0.00060140990487380513 0 -0.10106864578702646 0.0015928582091421391 0 -0.10059571287553785 0.00071729742422264875 0 -0.1015257851455751 0.0026578187828343366 0 -0.10177282803385644 0.00060140990487380513 0 -0.10106864578702646 0.0015928582091421391 0 -0.10051087562773856 0.0022696188024130598 0 -0.10106864578702646 0.0015928582091421391 0 -0.10059571287553785 0.00071729742422264875 0 -0.10051087562773856 0.0022696188024130598 0 -0.099542303808176497 0.00099037892870216756 0 -0.10059571287553785 0.00071729742422264875 0 -0.099542303808176497 0.00099037892870216756 0 -0.099777777708218718 -0.00022712430592431728 0 -0.10059571287553785 0.00071729742422264875 0 -0.099777777708218718 -0.00022712430592431728 0 -0.10059571287553785 0.00071729742422264875 0 -0.10049337055646047 -0.0008413561225041194 0 -0.10059571287553785 0.00071729742422264875 0 -0.10049337055646047 -0.0008413561225041194 0 -0.10141010921588393 -0.00038582184014630426 0 -0.099777777708218718 -0.00022712430592431728 0 -0.10049337055646047 -0.0008413561225041194 0 -0.099714335826770792 -0.0012220221650561343 0 -0.10049337055646047 -0.0008413561225041194 0 -0.099714335826770792 -0.0012220221650561343 0 -0.10074058721521519 -0.0018855853030721619 0 -0.099714335826770792 -0.0012220221650561343 0 -0.099863949897760027 -0.0021250591866519767 0 -0.10074058721521519 -0.0018855853030721619 0 -0.10049337055646047 -0.0008413561225041194 0 -0.1012417430098333 -0.0012542867181466757 0 -0.10074058721521519 -0.0018855853030721619 0 -0.1012417430098333 -0.0012542867181466757 0 -0.10147928999887773 -0.0019810501624057736 0 -0.10074058721521519 -0.0018855853030721619 0 -0.1012417430098333 -0.0012542867181466757 0 -0.10231917106078769 -0.00099805810117972781 0 -0.10147928999887773 -0.0019810501624057736 0 -0.098863539283039384 0.00092896135912299324 0 -0.099321642425838116 0.00029906359503578976 0 -0.10158955814732079 -0.0018439493036082096 0 -0.10160669810737183 -0.002161083241231852 0 -0.10147928999887773 -0.0019810501624057736 0 -0.10231209749760466 -3.8695615838216124e-05 0 -0.10231917106078769 -0.00099805810117972781 0 -0.10141010921588393 -0.00038582184014630426 0 -0.1012417430098333 -0.0012542867181466757 0 -0.10231917106078769 -0.00099805810117972781 0 -0.10141010921588393 -0.00038582184014630426 0 -0.10049337055646047 -0.0008413561225041194 0 -0.1012417430098333 -0.0012542867181466757 0 -0.10141010921588393 -0.00038582184014630426 0 -0.096516262119551624 -0.0010881589846755166 0 -0.09691694201923455 0.00017565459722584836 0 -0.097771379686196647 -0.00029943239516014178 0 -0.095660002052243384 3.6655993326719333e-06 0 -0.096516262119551624 -0.0010881589846755166 0 -0.09691694201923455 0.00017565459722584836 0 -0.09655829211054183 0.00090033501089292127 0 -0.095660002052243384 3.6655993326719333e-06 0 -0.09691694201923455 0.00017565459722584836 0 -0.097442744635151179 0.00063194377122662081 0 -0.097067735738422728 0.00075817346785264866 0 -0.09691694201923455 0.00017565459722584836 0 -0.097442744635151179 0.00063194377122662081 0 -0.09691694201923455 0.00017565459722584836 0 -0.097771379686196647 -0.00029943239516014178 0 -0.097442744635151179 0.00063194377122662081 0 -0.097771379686196647 -0.00029943239516014178 0 -0.098167989737622308 0.0002035912290310868 0 -0.096516262119551624 -0.0010881589846755166 0 -0.097771379686196647 -0.00029943239516014178 0 -0.097966774329581577 -0.00099660959720063082 0 -0.097771379686196647 -0.00029943239516014178 0 -0.097966774329581577 -0.00099660959720063082 0 -0.098618349487699347 -0.00035140077474715302 0 -0.097771379686196647 -0.00029943239516014178 0 -0.098167989737622308 0.0002035912290310868 0 -0.098618349487699347 -0.00035140077474715302 0 -0.095658265820304567 0.0016677309430142941 0 -0.097832733723212925 0.0015101974440101761 0 -0.098618349487699347 -0.00035140077474715302 0 -0.096485066651088122 0.0014885309058261691 0 -0.097291723231855837 0.00064860330232801178 0 -0.09882139413262854 0.002754582053440445 0 -0.099542303808176497 0.00099037892870216756 0 -0.097832733723212925 0.0015101974440101761 0 -0.099542303808176497 0.00099037892870216756 0 -0.097832733723212925 0.0015101974440101761 0 -0.098618349487699347 -0.00035140077474715302 0 -0.099542303808176497 0.00099037892870216756 0 -0.099777777708218718 -0.00022712430592431728 0 -0.098618349487699347 -0.00035140077474715302 0 -0.099714335826770792 -0.0012220221650561343 0 -0.098618349487699347 -0.00035140077474715302 0 -0.0988147093575973 -0.0015236987960452375 0 -0.099777777708218718 -0.00022712430592431728 0 -0.099714335826770792 -0.0012220221650561343 0 -0.098618349487699347 -0.00035140077474715302 0 -0.099714335826770792 -0.0012220221650561343 0 -0.0988147093575973 -0.0015236987960452375 0 -0.099863949897760027 -0.0021250591866519767 0 -0.0988147093575973 -0.0015236987960452375 0 -0.098866018718809415 -0.0023666047173436086 0 -0.099863949897760027 -0.0021250591866519767 0 -0.097966774329581577 -0.00099660959720063082 0 -0.098618349487699347 -0.00035140077474715302 0 -0.0988147093575973 -0.0015236987960452375 0 -0.097966774329581577 -0.00099660959720063082 0 -0.0988147093575973 -0.0015236987960452375 0 -0.097565300763136242 -0.0018012543573768071 0 -0.096516262119551624 -0.0010881589846755166 0 -0.097966774329581577 -0.00099660959720063082 0 -0.097565300763136242 -0.0018012543573768071 0 -0.0988147093575973 -0.0015236987960452375 0 -0.097565300763136242 -0.0018012543573768071 0 -0.098866018718809415 -0.0023666047173436086 0 -0.096022940024049486 -0.0021536633144068193 0 -0.097565300763136242 -0.0018012543573768071 0 -0.097533932648642713 -0.0029018474774795615 0 -0.096022940024049486 -0.0021536633144068193 0 -0.096516262119551624 -0.0010881589846755166 0 -0.097565300763136242 -0.0018012543573768071 0 -0.097533932648642713 -0.0029018474774795615 0 -0.098807045363239004 -0.0029740258927707449 0 -0.098441526480644484 -0.0034553801446926924 0 -0.097533932648642713 -0.0029018474774795615 0 -0.098807045363239004 -0.0029740258927707449 0 -0.098866018718809415 -0.0023666047173436086 0 -0.097565300763136242 -0.0018012543573768071 0 -0.097533932648642713 -0.0029018474774795615 0 -0.098866018718809415 -0.0023666047173436086 0 -0.098807045363239004 -0.0029740258927707449 0 -0.098866018718809415 -0.0023666047173436086 0 -0.10005460311334159 -0.0027663143187551934 0 -0.098866018718809415 -0.0023666047173436086 0 -0.099863949897760027 -0.0021250591866519767 0 -0.10005460311334159 -0.0027663143187551934 0 -0.099863949897760027 -0.0021250591866519767 0 -0.10005460311334159 -0.0027663143187551934 0 -0.10072682659150199 -0.0024736110981368126 0 -0.10005460311334159 -0.0027663143187551934 0 -0.10072682659150199 -0.0024736110981368126 0 -0.10099190335555625 -0.0028308834385077819 0 -0.10005460311334159 -0.0027663143187551934 0 -0.10112100674535605 -0.0031718640917046525 0 -0.10099190335555625 -0.0028308834385077819 0 -0.10112100674535605 -0.0031718640917046525 0 -0.099654465576151124 -0.0031591990392598598 0 -0.099319357820638651 -0.0036810300025607247 0 -0.10005460311334159 -0.0027663143187551934 0 -0.10112100674535605 -0.0031718640917046525 0 -0.099654465576151124 -0.0031591990392598598 0 -0.098807045363239004 -0.0029740258927707449 0 -0.10005460311334159 -0.0027663143187551934 0 -0.099654465576151124 -0.0031591990392598598 0 -0.098807045363239004 -0.0029740258927707449 0 -0.099654465576151124 -0.0031591990392598598 0 -0.098441526480644484 -0.0034553801446926924 0 -0.099654465576151124 -0.0031591990392598598 0 -0.099319357820638651 -0.0036810300025607247 0 -0.098441526480644484 -0.0034553801446926924 0 -0.098963219964620985 -0.0039091735669625465 0 -0.099319357820638651 -0.0036810300025607247 0 -0.098441526480644484 -0.0034553801446926924 0 -0.10133505277421448 -0.0024432653722561062 0 -0.10160669810737183 -0.002161083241231852 0 -0.10150135685110845 -0.0025980816813842805 0 -0.10133505277421448 -0.0024432653722561062 0 -0.10147928999887773 -0.0019810501624057736 0 -0.10074058721521519 -0.0018855853030721619 0 -0.10133505277421448 -0.0024432653722561062 0 -0.10160669810737183 -0.002161083241231852 0 -0.10147928999887773 -0.0019810501624057736 0 -0.10133505277421448 -0.0024432653722561062 0 -0.10074058721521519 -0.0018855853030721619 0 -0.10072682659150199 -0.0024736110981368126 0 -0.099863949897760027 -0.0021250591866519767 0 -0.10074058721521519 -0.0018855853030721619 0 -0.10072682659150199 -0.0024736110981368126 0 -0.10133505277421448 -0.0024432653722561062 0 -0.10072682659150199 -0.0024736110981368126 0 -0.10122584251868857 -0.0026623408536330098 0 -0.10122584251868857 -0.0026623408536330098 0 -0.10099190335555625 -0.0028308834385077819 0 -0.10157113770524645 -0.0026895303818860496 0 -0.10072682659150199 -0.0024736110981368126 0 -0.10122584251868857 -0.0026623408536330098 0 -0.10099190335555625 -0.0028308834385077819 0 -0.10112100674535605 -0.0031718640917046525 0 -0.10099190335555625 -0.0028308834385077819 0 -0.10157113770524645 -0.0026895303818860496 0 -0.10157113770524645 -0.0026895303818860496 0 -0.10149918158211402 -0.0026255478359110181 0 -0.1017922979139978 -0.0023333422551795073 0 -0.10122584251868857 -0.0026623408536330098 0 -0.10157113770524645 -0.0026895303818860496 0 -0.10149918158211402 -0.0026255478359110181 0 -0.10149918158211402 -0.0026255478359110181 0 -0.1014664205998735 -0.0024931968089169669 0 -0.10160572670179412 -0.0023337538241211763 0 -0.10133505277421448 -0.0024432653722561062 0 -0.10149918158211402 -0.0026255478359110181 0 -0.10150135685110845 -0.0025980816813842805 0 -0.10133505277421448 -0.0024432653722561062 0 -0.10122584251868857 -0.0026623408536330098 0 -0.10149918158211402 -0.0026255478359110181 0 -0.1012831042047956 -0.002477825981744319 0 -0.10150135685110845 -0.0025980816813842805 0 -0.1014664205998735 -0.0024931968089169669 0 -0.10149918158211402 -0.0026255478359110181 0 -0.10150135685110845 -0.0025980816813842805 0 -0.1014664205998735 -0.0024931968089169669 0 -0.10148353729907053 -0.0020294801305180978 0 -0.10160572670179412 -0.0023337538241211763 0 -0.10132286349823112 -0.0022970824387780102 0 -0.1014664205998735 -0.0024931968089169669 0 -0.10160572670179412 -0.0023337538241211763 0 -0.10132286349823112 -0.0022970824387780102 0 -0.10148353729907053 -0.0020294801305180978 0 -0.10151137996527011 -0.0014498141319499948 0 -0.10110959155317348 -0.002050955314893571 0 -0.10148353729907053 -0.0020294801305180978 0 -0.10205186342131216 -0.0018578514560843383 0 -0.10151137996527011 -0.0014498141319499948 0 -0.10148353729907053 -0.0020294801305180978 0 -0.10205186342131216 -0.0018578514560843383 0 -0.10160572670179412 -0.0023337538241211763 0 -0.10149918158211402 -0.0026255478359110181 0 -0.10160572670179412 -0.0023337538241211763 0 -0.1017922979139978 -0.0023333422551795073 0 -0.10205186342131216 -0.0018578514560843383 0 -0.10160572670179412 -0.0023337538241211763 0 -0.1017922979139978 -0.0023333422551795073 0 -0.10157113770524645 -0.0026895303818860496 0 -0.1017922979139978 -0.0023333422551795073 0 -0.10233911401213117 -0.001867478084469932 0 -0.10157113770524645 -0.0026895303818860496 0 -0.10233911401213117 -0.001867478084469932 0 -0.10215642182350081 -0.0022247184259894916 0 -0.10205186342131216 -0.0018578514560843383 0 -0.10233911401213117 -0.001867478084469932 0 -0.102699453672845 -0.0012881255313739385 0 -0.10205186342131216 -0.0018578514560843383 0 -0.1017922979139978 -0.0023333422551795073 0 -0.10233911401213117 -0.001867478084469932 0 -0.10205186342131216 -0.0018578514560843383 0 -0.102699453672845 -0.0012881255313739385 0 -0.10310820765278789 -0.00053779286339873048 0 -0.10233911401213117 -0.001867478084469932 0 -0.102699453672845 -0.0012881255313739385 0 -0.10319820721917584 -0.00093090544882231286 0 -0.10319820721917584 -0.00093090544882231286 0 -0.10310820765278789 -0.00053779286339873048 0 -0.10374561612628698 -0.00053919402344836912 0 -0.102699453672845 -0.0012881255313739385 0 -0.10319820721917584 -0.00093090544882231286 0 -0.10310820765278789 -0.00053779286339873048 0 -0.10310820765278789 -0.00053779286339873048 0 -0.1043648996372008 -0.00021499022615988512 0 -0.10393366467822548 -0.00051054432258145963 0 -0.10310820765278789 -0.00053779286339873048 0 -0.1043648996372008 -0.00021499022615988512 0 -0.10400675025533339 0.00046551365606724434 0 -0.1043648996372008 -0.00021499022615988512 0 -0.10400675025533339 0.00046551365606724434 0 -0.10456468479073577 0.00048578549686473189 0 -0.10205186342131216 -0.0018578514560843383 0 -0.10310820765278789 -0.00053779286339873048 0 -0.10151137996527011 -0.0014498141319499948 0 -0.10297023822985539 -0.00056585030041464489 0 -0.10298820011959202 -0.00055726498281600504 0 -0.10048846388853518 -0.0036732550604697545 0 -0.099876875408540344 -0.0038645285344170487 0 -0.10080163171708298 -0.003040849982327576 0 -0.098963219964620985 -0.0039091735669625465 0 -0.099319357820638651 -0.0036810300025607247 0 -0.099876875408540344 -0.0038645285344170487 0 -0.099319357820638651 -0.0036810300025607247 0 -0.099876875408540344 -0.0038645285344170487 0 -0.099813088989043092 -0.0040129401346964723 0 -0.10164474442353415 -0.0025799013426744148 0 -0.10187234090977429 -0.0021737778175726402 0 -0.099876875408540344 -0.0038645285344170487 0 -0.099813088989043092 -0.0040129401346964723 0 -0.09995695978037869 -0.0029042237164910566 0 -0.10330109826818594 -0.0019762117957075509 0 -0.10215642182350081 -0.0022247184259894916 0 -0.10323301122654499 -0.0011743405056480838 0 -0.1015362211419745 -0.0027333034924639519 0 -0.10164474442353415 -0.0025799013426744148 0 -0.10112100674535605 -0.0031718640917046525 0 -0.10330109826818594 -0.0019762117957075509 0 -0.10215642182350081 -0.0022247184259894916 0 -0.10112100674535605 -0.0031718640917046525 0 -0.099319357820638651 -0.0036810300025607247 0 -0.099813088989043092 -0.0040129401346964723 0 -0.10112100674535605 -0.0031718640917046525 0 -0.10157113770524645 -0.0026895303818860496 0 -0.10215642182350081 -0.0022247184259894916 0 -0.10233911401213117 -0.001867478084469932 0 -0.10215642182350081 -0.0022247184259894916 0 -0.10323301122654499 -0.0011743405056480838 0 -0.10233911401213117 -0.001867478084469932 0 -0.10319820721917584 -0.00093090544882231286 0 -0.10323301122654499 -0.0011743405056480838 0 -0.10319820721917584 -0.00093090544882231286 0 -0.10372425594026194 -0.00078461278697654617 0 -0.10367572838928513 -0.0006842487829417578 0 -0.10319820721917584 -0.00093090544882231286 0 -0.10323301122654499 -0.0011743405056480838 0 -0.10372425594026194 -0.00078461278697654617 0 -0.10323301122654499 -0.0011743405056480838 0 -0.10377160192747721 -0.00087604658675244915 0 -0.10372425594026194 -0.00078461278697654617 0 -0.10330109826818594 -0.0019762117957075509 0 -0.10323301122654499 -0.0011743405056480838 0 -0.10374507800521152 -0.00094819253208833654 0 -0.10323301122654499 -0.0011743405056480838 0 -0.10374507800521152 -0.00094819253208833654 0 -0.10377160192747721 -0.00087604658675244915 0 -0.10218083056013993 -0.0019540946282738413 0 -0.09995695978037869 -0.0029042237164910566 0 -0.10271294634000491 -0.0010976227151791701 0 -0.10187234090977429 -0.0021737778175726402 0 -0.10207978631958881 -0.0018703931729091949 0 -0.10374507800521152 -0.00094819253208833654 0 -0.10271294634000491 -0.0010976227151791701 0 -0.10377160192747721 -0.00087604658675244915 0 -0.099876875408540344 -0.0038645285344170487 0 -0.09995695978037869 -0.0029042237164910566 0 -0.10080163171708298 -0.003040849982327576 0 -0.10218083056013993 -0.0019540946282738413 0 -0.09995695978037869 -0.0029042237164910566 0 -0.10080163171708298 -0.003040849982327576 0 -0.10450275405769224 -0.0010578079103913563 0 -0.10390136944169452 -0.00093145898406224675 0 -0.10483680332350384 -0.00013970207641919995 0 -0.10077649493741798 -0.002013887732882151 0 -0.10155709465079062 -0.0020291581666683485 0 -0.10271294634000491 -0.0010976227151791701 0 -0.10352129831934199 -0.0010082129744047989 0 -0.10377160192747721 -0.00087604658675244915 0 -0.10308941151036474 -0.00083883814244175821 0 -0.10271294634000491 -0.0010976227151791701 0 -0.10352129831934199 -0.0010082129744047989 0 -0.10308941151036474 -0.00083883814244175821 0 -0.10390136944169452 -0.00093145898406224675 0 -0.10352129831934199 -0.0010082129744047989 0 -0.10390136944169452 -0.00093145898406224675 0 -0.10352129831934199 -0.0010082129744047989 0 -0.10401409175437167 -0.00074554535763199327 0 -0.10352129831934199 -0.0010082129744047989 0 -0.10377160192747721 -0.00087604658675244915 0 -0.10401409175437167 -0.00074554535763199327 0 -0.10390136944169452 -0.00093145898406224675 0 -0.10401409175437167 -0.00074554535763199327 0 -0.10440450917304854 -0.0004206073552942249 0 -0.10401409175437167 -0.00074554535763199327 0 -0.10405622784137024 -0.00051522478543595803 0 -0.10449025738079278 -0.00030908601263794064 0 -0.10401409175437167 -0.00074554535763199327 0 -0.10372425594026194 -0.00078461278697654617 0 -0.10405622784137024 -0.00051522478543595803 0 -0.10377160192747721 -0.00087604658675244915 0 -0.10401409175437167 -0.00074554535763199327 0 -0.10372425594026194 -0.00078461278697654617 0 -0.10372425594026194 -0.00078461278697654617 0 -0.10405622784137024 -0.00051522478543595803 0 -0.10367572838928513 -0.0006842487829417578 0 -0.10405622784137024 -0.00051522478543595803 0 -0.10452538472813887 -0.00023607417463886149 0 -0.10449025738079278 -0.00030908601263794064 0 -0.10452538472813887 -0.00023607417463886149 0 -0.10499934019170901 -2.3114805463542867e-07 0 -0.10449025738079278 -0.00030908601263794064 0 -0.10499934019170901 -2.3114805463542867e-07 0 -0.10449025738079278 -0.00030908601263794064 0 -0.10499929648694728 -1.1067146956141281e-07 0 -0.10449025738079278 -0.00030908601263794064 0 -0.10440450917304854 -0.0004206073552942249 0 -0.10499929648694728 -1.1067146956141281e-07 0 -0.10401409175437167 -0.00074554535763199327 0 -0.10449025738079278 -0.00030908601263794064 0 -0.10440450917304854 -0.0004206073552942249 0 -0.10499995587784368 -4.6385841688830223e-08 0 -0.10499929648694728 -1.1067146956141281e-07 0 -0.10483680332350384 -0.00013970207641919995 0 -0.10440450917304854 -0.0004206073552942249 0 -0.10499929648694728 -1.1067146956141281e-07 0 -0.10483680332350384 -0.00013970207641919995 0 -0.10390136944169452 -0.00093145898406224675 0 -0.10440450917304854 -0.0004206073552942249 0 -0.10483680332350384 -0.00013970207641919995 0 -0.10419480706156677 -0.0004341690012103024 0 -0.10393366467822548 -0.00051054432258145963 0 -0.10374561612628698 -0.00053919402344836912 0 -0.10419480706156677 -0.0004341690012103024 0 -0.10434072477019832 -0.00039916582449864464 0 -0.10459138268942816 -0.00025272740120221458 0 -0.10419480706156677 -0.0004341690012103024 0 -0.10434072477019832 -0.00039916582449864464 0 -0.10393366467822548 -0.00051054432258145963 0 -0.10434072477019832 -0.00039916582449864464 0 -0.10468327451603138 -0.00025729831502783649 0 -0.10447406325039195 -0.00037518494272176066 0 -0.10434072477019832 -0.00039916582449864464 0 -0.10393366467822548 -0.00051054432258145963 0 -0.10447406325039195 -0.00037518494272176066 0 -0.1043648996372008 -0.00021499022615988512 0 -0.10393366467822548 -0.00051054432258145963 0 -0.10447406325039195 -0.00037518494272176066 0 -0.10310820765278789 -0.00053779286339873048 0 -0.10393366467822548 -0.00051054432258145963 0 -0.10374561612628698 -0.00053919402344836912 0 -0.10319820721917584 -0.00093090544882231286 0 -0.10374561612628698 -0.00053919402344836912 0 -0.10367572838928513 -0.0006842487829417578 0 -0.10405622784137024 -0.00051522478543595803 0 -0.10374561612628698 -0.00053919402344836912 0 -0.10367572838928513 -0.0006842487829417578 0 -0.10405622784137024 -0.00051522478543595803 0 -0.10374561612628698 -0.00053919402344836912 0 -0.10427541306217374 -0.00030772989967183889 0 -0.10419480706156677 -0.0004341690012103024 0 -0.10374561612628698 -0.00053919402344836912 0 -0.10454648083768005 -0.00030731997232678708 0 -0.10454129262513175 -0.00032400603015254263 0 -0.10469305649355963 -0.00023765359302046273 0 -0.10419480706156677 -0.0004341690012103024 0 -0.10454648083768005 -0.00030731997232678708 0 -0.10459138268942816 -0.00025272740120221458 0 -0.10405622784137024 -0.00051522478543595803 0 -0.10452538472813887 -0.00023607417463886149 0 -0.10427541306217374 -0.00030772989967183889 0 -0.10452538472813887 -0.00023607417463886149 0 -0.10427541306217374 -0.00030772989967183889 0 -0.10499887522371182 -1.0661890795148261e-07 0 -0.10452538472813887 -0.00023607417463886149 0 -0.10499934019170901 -2.3114805463542867e-07 0 -0.10499887522371182 -1.0661890795148261e-07 0 -0.10469305649355963 -0.00023765359302046273 0 -0.10499933090246821 -3.364820216958259e-07 0 -0.10454648083768005 -0.00030731997232678708 0 -0.10499981577924289 -1.0920850007176861e-07 0 -0.10459138268942816 -0.00025272740120221458 0 -0.10499981577924289 -1.0920850007176861e-07 0 -0.10499944833246483 -1.9435900901028259e-07 0 -0.10459138268942816 -0.00025272740120221458 0 -0.10434072477019832 -0.00039916582449864464 0 -0.10459138268942816 -0.00025272740120221458 0 -0.10468327451603138 -0.00025729831502783649 0 -0.10499944833246483 -1.9435900901028259e-07 0 -0.10468327451603138 -0.00025729831502783649 0 -0.10499971943157312 -1.4614198403521082e-07 0 -0.10499944833246483 -1.9435900901028259e-07 0 -0.10459138268942816 -0.00025272740120221458 0 -0.10468327451603138 -0.00025729831502783649 0 -0.10468327451603138 -0.00025729831502783649 0 -0.10499971943157312 -1.4614198403521082e-07 0 -0.10485266510143941 -0.00015890583336463192 0 -0.10485266510143941 -0.00015890583336463192 0 -0.10499987129346305 -1.2293721067301763e-07 0 -0.10486076041311942 -0.00017024066176343707 0 -0.10499971943157312 -1.4614198403521082e-07 0 -0.10485266510143941 -0.00015890583336463192 0 -0.10499987129346305 -1.2293721067301763e-07 0 -0.10485266510143941 -0.00015890583336463192 0 -0.10486076041311942 -0.00017024066176343707 0 -0.1047070592503804 -0.00027005600912662043 0 -0.10468327451603138 -0.00025729831502783649 0 -0.10485266510143941 -0.00015890583336463192 0 -0.1047070592503804 -0.00027005600912662043 0 -0.1049996131079103 7.6905706170947362e-08 0 -0.10479017364296171 5.0257852358060574e-05 0 -0.10499987129346305 -1.2293721067301763e-07 0 -0.1049996353345337 -9.8462991530835767e-08 0 -0.10486076041311942 -0.00017024066176343707 0 -0.1049996353345337 -9.8462991530835767e-08 0 -0.10486076041311942 -0.00017024066176343707 0 -0.10482170634969426 -0.00018867368440134483 0 -0.10479017364296171 5.0257852358060574e-05 0 -0.10460406908604367 0.00016554732990202911 0 -0.10482170634969426 -0.00018867368440134483 0 -0.10475400431974387 -0.00023409957692302767 0 -0.10481694139922101 -0.00020330803055444932 0 -0.10486076041311942 -0.00017024066176343707 0 -0.10482170634969426 -0.00018867368440134483 0 -0.10475400431974387 -0.00023409957692302767 0 -0.10475400431974387 -0.00023409957692302767 0 -0.10481694139922101 -0.00020330803055444932 0 -0.10475993019665489 -0.00012959425674713114 0 -0.10447406325039195 -0.00037518494272176066 0 -0.1047070592503804 -0.00027005600912662043 0 -0.10461175511586947 -0.00026802610137911082 0 -0.10468327451603138 -0.00025729831502783649 0 -0.10447406325039195 -0.00037518494272176066 0 -0.1047070592503804 -0.00027005600912662043 0 -0.10475400431974387 -0.00023409957692302767 0 -0.1047070592503804 -0.00027005600912662043 0 -0.10461175511586947 -0.00026802610137911082 0 -0.10486076041311942 -0.00017024066176343707 0 -0.10475400431974387 -0.00023409957692302767 0 -0.1047070592503804 -0.00027005600912662043 0 -0.10475400431974387 -0.00023409957692302767 0 -0.10461175511586947 -0.00026802610137911082 0 -0.10464411876057995 -0.00015855823145424102 0 -0.1043648996372008 -0.00021499022615988512 0 -0.10447406325039195 -0.00037518494272176066 0 -0.10461175511586947 -0.00026802610137911082 0 -0.1043648996372008 -0.00021499022615988512 0 -0.10461175511586947 -0.00026802610137911082 0 -0.10464411876057995 -0.00015855823145424102 0 -0.1043648996372008 -0.00021499022615988512 0 -0.10457806498540552 -5.9063149179034441e-05 0 -0.10464411876057995 -0.00015855823145424102 0 -0.1043648996372008 -0.00021499022615988512 0 -0.10447837765961401 -1.5746617719314473e-05 0 -0.10457806498540552 -5.9063149179034441e-05 0 -0.10393769491908539 6.3703184564417511e-05 0 -0.10385185484114368 8.2193717344732149e-05 0 -0.10447837765961401 -1.5746617719314473e-05 0 -0.10457806498540552 -5.9063149179034441e-05 0 -0.10455286058741356 1.3230141651852459e-05 0 -0.10400675025533339 0.00046551365606724434 0 -0.1045150044977021 0.00057714250305816598 0 -0.10456468479073577 0.00048578549686473189 0 -0.10457806498540552 -5.9063149179034441e-05 0 -0.10464411876057995 -0.00015855823145424102 0 -0.10468236994265809 -2.3907981713444047e-05 0 -0.10457806498540552 -5.9063149179034441e-05 0 -0.10468236994265809 -2.3907981713444047e-05 0 -0.10460445840629613 2.2073259983028341e-05 0 -0.10457806498540552 -5.9063149179034441e-05 0 -0.10455286058741356 1.3230141651852459e-05 0 -0.10460445840629613 2.2073259983028341e-05 0 -0.10475400431974387 -0.00023409957692302767 0 -0.10464411876057995 -0.00015855823145424102 0 -0.10475993019665489 -0.00012959425674713114 0 -0.10464411876057995 -0.00015855823145424102 0 -0.10475993019665489 -0.00012959425674713114 0 -0.10468236994265809 -2.3907981713444047e-05 0 -0.10481694139922101 -0.00020330803055444932 0 -0.10475993019665489 -0.00012959425674713114 0 -0.10485349725107121 -7.406850315681604e-05 0 -0.10460406908604367 0.00016554732990202911 0 -0.10444166241740657 0.00034380026567357185 0 -0.10475993019665489 -0.00012959425674713114 0 -0.10478318339283205 -1.1166433773103872e-05 0 -0.10485349725107121 -7.406850315681604e-05 0 -0.10475993019665489 -0.00012959425674713114 0 -0.10478318339283205 -1.1166433773103872e-05 0 -0.10468236994265809 -2.3907981713444047e-05 0 -0.10468236994265809 -2.3907981713444047e-05 0 -0.10475103448869748 8.0868457565129299e-05 0 -0.10466060378753539 9.1962913818538497e-05 0 -0.10478318339283205 -1.1166433773103872e-05 0 -0.10468236994265809 -2.3907981713444047e-05 0 -0.10475103448869748 8.0868457565129299e-05 0 -0.10478318339283205 -1.1166433773103872e-05 0 -0.10486895655127208 9.3511699727444531e-05 0 -0.10485349725107121 -7.406850315681604e-05 0 -0.10478318339283205 -1.1166433773103872e-05 0 -0.10475103448869748 8.0868457565129299e-05 0 -0.10486895655127208 9.3511699727444531e-05 0 -0.10475103448869748 8.0868457565129299e-05 0 -0.10478874473209478 0.00017549169057637433 0 -0.10486895655127208 9.3511699727444531e-05 0 -0.10468230635693251 0.00018707369114483136 0 -0.10475103448869748 8.0868457565129299e-05 0 -0.10466060378753539 9.1962913818538497e-05 0 -0.10468230635693251 0.00018707369114483136 0 -0.10475103448869748 8.0868457565129299e-05 0 -0.10478874473209478 0.00017549169057637433 0 -0.10468230635693251 0.00018707369114483136 0 -0.10455556971080786 9.6952254168078961e-05 0 -0.10466060378753539 9.1962913818538497e-05 0 -0.10381040707413236 -0.00020823636047994764 0 -0.1033829672914027 -0.00036328961774040813 0 -0.10342619904265286 -0.00068430332513134712 0 -0.10376440401596433 -0.00056872986672670974 0 -0.10386151007811058 -0.0002933324798107283 0 -0.10283291355380234 -0.00096283581906178237 0 -0.1033829672914027 -0.00036328961774040813 0 -0.10109903086345391 -0.0023071438718754059 0 -0.10132286349823112 -0.0022970824387780102 0 -0.10110959155317348 -0.002050955314893571 0 -0.1012831042047956 -0.002477825981744319 0 -0.10109903086345391 -0.0023071438718754059 0 -0.10132286349823112 -0.0022970824387780102 0 -0.10148353729907053 -0.0020294801305180978 0 -0.10132286349823112 -0.0022970824387780102 0 -0.10110959155317348 -0.002050955314893571 0 -0.10283291355380234 -0.00096283581906178237 0 -0.10327489043609475 -0.00042548628261509516 0 -0.10296292992221392 -0.00091928806628976912 0 -0.10315293629580181 -0.0003832003683893218 0 -0.10325261563985318 -0.00029341452996462934 0 -0.10447837765961401 -1.5746617719314473e-05 0 -0.10455556971080786 9.6952254168078961e-05 0 -0.10455286058741356 1.3230141651852459e-05 0 -0.10456468479073577 0.00048578549686473189 0 -0.10475458623565087 0.0010894600288732794 0 -0.10468421834601649 0.0010230456804520395 0 -0.10385185484114368 8.2193717344732149e-05 0 -0.1033829672914027 -0.00036328961774040813 0 -0.10400675025533339 0.00046551365606724434 0 -0.1045150044977021 0.00057714250305816598 0 -0.10472797546975587 0.0010795211752717322 0 -0.10298820011959202 -0.00055726498281600504 0 -0.10327489043609475 -0.00042548628261509516 0 -0.1045150044977021 0.00057714250305816598 0 -0.10456468479073577 0.00048578549686473189 0 -0.10468421834601649 0.0010230456804520395 0 -0.1033829672914027 -0.00036328961774040813 0 -0.10327489043609475 -0.00042548628261509516 0 -0.10352110256835473 -7.4410566399059701e-06 0 -0.10327489043609475 -0.00042548628261509516 0 -0.10455556971080786 9.6952254168078961e-05 0 -0.10460445840629613 2.2073259983028341e-05 0 -0.10466060378753539 9.1962913818538497e-05 0 -0.10455556971080786 9.6952254168078961e-05 0 -0.10455286058741356 1.3230141651852459e-05 0 -0.10460445840629613 2.2073259983028341e-05 0 -0.10468236994265809 -2.3907981713444047e-05 0 -0.10460445840629613 2.2073259983028341e-05 0 -0.10466060378753539 9.1962913818538497e-05 0 -0.10463387476913322 0.00096416595501531521 0 -0.10414530206983978 0.001217032255257288 0 -0.10400623198082763 0.0016459970539352252 0 -0.10463387476913322 0.00096416595501531521 0 -0.10414530206983978 0.001217032255257288 0 -0.10423558032763801 0.00090202261024423453 0 -0.10299464747208956 0.0021847052583066112 0 -0.10291268651447827 0.0021330060669460063 0 -0.10116564506824981 0.0037160162303355899 0 -0.10102009543813036 0.0035278648079000419 0 -0.1012035931381428 0.0034743762534782687 0 -0.10116564506824981 0.0037160162303355899 0 -0.10102009543813036 0.0035278648079000419 0 -0.10093650130742056 0.0036196585056144899 0 -0.10102009543813036 0.0035278648079000419 0 -0.10095505467775455 0.0033005206393902208 0 -0.1012035931381428 0.0034743762534782687 0 -0.10095505467775455 0.0033005206393902208 0 -0.10115982648549639 0.003197990995781923 0 -0.10087679086197515 0.0030307525694243257 0 -0.10095505467775455 0.0033005206393902208 0 -0.10115982648549639 0.003197990995781923 0 -0.1012035931381428 0.0034743762534782687 0 -0.1012911993240177 0.0033423497442417157 0 -0.1012035931381428 0.0034743762534782687 0 -0.10147350555260781 0.0034188800374040911 0 -0.10116564506824981 0.0037160162303355899 0 -0.1012035931381428 0.0034743762534782687 0 -0.10147350555260781 0.0034188800374040911 0 -0.10115982648549639 0.003197990995781923 0 -0.1012911993240177 0.0033423497442417157 0 -0.10137944828428702 0.0033089877217964939 0 -0.10115982648549639 0.003197990995781923 0 -0.1012911993240177 0.0033423497442417157 0 -0.1012035931381428 0.0034743762534782687 0 -0.10414530206983978 0.001217032255257288 0 -0.10400623198082763 0.0016459970539352252 0 -0.10390879380120438 0.0014761100226347644 0 -0.1012911993240177 0.0033423497442417157 0 -0.10147350555260781 0.0034188800374040911 0 -0.10137944828428702 0.0033089877217964939 0 -0.10331640796157046 0.0016717243993983671 0 -0.10400623198082763 0.0016459970539352252 0 -0.10363095102997524 0.001624735266925751 0 -0.10400623198082763 0.0016459970539352252 0 -0.10379971847089951 0.0015858490638184534 0 -0.10363095102997524 0.001624735266925751 0 -0.10400623198082763 0.0016459970539352252 0 -0.10379971847089951 0.0015858490638184534 0 -0.10390879380120438 0.0014761100226347644 0 -0.10379971847089951 0.0015858490638184534 0 -0.10370846655797929 0.0015478988225662185 0 -0.10390879380120438 0.0014761100226347644 0 -0.10379971847089951 0.0015858490638184534 0 -0.10370846655797929 0.0015478988225662185 0 -0.10363095102997524 0.001624735266925751 0 -0.10370846655797929 0.0015478988225662185 0 -0.10363095102997524 0.001624735266925751 0 -0.10352701272067504 0.0016145460777472239 0 -0.10352701272067504 0.0016145460777472239 0 -0.10360999577821062 0.0014962167536985334 0 -0.10344354811651033 0.0016372486672000116 0 -0.10370846655797929 0.0015478988225662185 0 -0.10352701272067504 0.0016145460777472239 0 -0.10360999577821062 0.0014962167536985334 0 -0.10370846655797929 0.0015478988225662185 0 -0.10360999577821062 0.0014962167536985334 0 -0.10386962726444762 0.001365042971849334 0 -0.10360999577821062 0.0014962167536985334 0 -0.10386962726444762 0.001365042971849334 0 -0.10376044585981108 0.0013048359649511891 0 -0.10414530206983978 0.001217032255257288 0 -0.10386962726444762 0.001365042971849334 0 -0.10390879380120438 0.0014761100226347644 0 -0.10370846655797929 0.0015478988225662185 0 -0.10386962726444762 0.001365042971849334 0 -0.10390879380120438 0.0014761100226347644 0 -0.10450028273039401 0.00033613363959231023 0 -0.1042837247313833 0.00059889669329883178 0 -0.10325053282219167 0.0018461010528408931 0 -0.10344354811651033 0.0016372486672000116 0 -0.10346254571729203 0.0013327953100547353 0 -0.10485969095454765 0.00021905731650360575 0 -0.10478874473209478 0.00017549169057637433 0 -0.10486895655127208 9.3511699727444531e-05 0 -0.10397121426085516 0.00062957002810773714 0 -0.1042837247313833 0.00059889669329883178 0 -0.10360999577821062 0.0014962167536985334 0 -0.10344354811651033 0.0016372486672000116 0 -0.10346254571729203 0.0013327953100547353 0 -0.10360999577821062 0.0014962167536985334 0 -0.10346254571729203 0.0013327953100547353 0 -0.10376044585981108 0.0013048359649511891 0 -0.10346254571729203 0.0013327953100547353 0 -0.10378036728141699 0.0011076520749100302 0 -0.1037211770251802 0.00087990202203766109 0 -0.1042837247313833 0.00059889669329883178 0 -0.10418509538421399 0.00074373622511027227 0 -0.10391468002228768 0.00091041551219510786 0 -0.10399135629836079 0.00061106640266995256 0 -0.10397627644015311 0.00071783006315358482 0 -0.1042837247313833 0.00059889669329883178 0 -0.10444166241740657 0.00034380026567357185 0 -0.10346254571729203 0.0013327953100547353 0 -0.10378036728141699 0.0011076520749100302 0 -0.10376044585981108 0.0013048359649511891 0 -0.10378036728141699 0.0011076520749100302 0 -0.10399497034564915 0.00088972688613497982 0 -0.1037211770251802 0.00087990202203766109 0 -0.10414530206983978 0.001217032255257288 0 -0.10386962726444762 0.001365042971849334 0 -0.10396494834928544 0.001133337242752172 0 -0.10378036728141699 0.0011076520749100302 0 -0.10396494834928544 0.001133337242752172 0 -0.10376044585981108 0.0013048359649511891 0 -0.10386962726444762 0.001365042971849334 0 -0.10396494834928544 0.001133337242752172 0 -0.10376044585981108 0.0013048359649511891 0 -0.10378036728141699 0.0011076520749100302 0 -0.10396494834928544 0.001133337242752172 0 -0.10399497034564915 0.00088972688613497982 0 -0.10414530206983978 0.001217032255257288 0 -0.10396494834928544 0.001133337242752172 0 -0.10423558032763801 0.00090202261024423453 0 -0.10396494834928544 0.001133337242752172 0 -0.10423558032763801 0.00090202261024423453 0 -0.10399497034564915 0.00088972688613497982 0 -0.10423558032763801 0.00090202261024423453 0 -0.10399497034564915 0.00088972688613497982 0 -0.1042248369040749 0.00064605351050043788 0 -0.10399497034564915 0.00088972688613497982 0 -0.1042248369040749 0.00064605351050043788 0 -0.10402691580435562 0.0006887360654292986 0 -0.10423558032763801 0.00090202261024423453 0 -0.1042248369040749 0.00064605351050043788 0 -0.10447140826500047 0.0006553505885223775 0 -0.1037211770251802 0.00087990202203766109 0 -0.10402691580435562 0.0006887360654292986 0 -0.10407924280445112 0.0005234639659864595 0 -0.10418509538421399 0.00074373622511027227 0 -0.10416398463436595 0.00072811249846329988 0 -0.10399135629836079 0.00061106640266995256 0 -0.10397627644015311 0.00071783006315358482 0 -0.10407924280445112 0.0005234639659864595 0 -0.10399497034564915 0.00088972688613497982 0 -0.1037211770251802 0.00087990202203766109 0 -0.10402691580435562 0.0006887360654292986 0 -0.1042248369040749 0.00064605351050043788 0 -0.10402691580435562 0.0006887360654292986 0 -0.10416768218317528 0.00053107054800079136 0 -0.10430340305358693 0.00029727283180360859 0 -0.10407924280445112 0.0005234639659864595 0 -0.10427068073494962 0.0004061403471775541 0 -0.10430340305358693 0.00029727283180360859 0 -0.10399135629836079 0.00061106640266995256 0 -0.10407924280445112 0.0005234639659864595 0 -0.10407924280445112 0.0005234639659864595 0 -0.10416768218317528 0.00053107054800079136 0 -0.10427068073494962 0.0004061403471775541 0 -0.10402691580435562 0.0006887360654292986 0 -0.10407924280445112 0.0005234639659864595 0 -0.10416768218317528 0.00053107054800079136 0 -0.10416768218317528 0.00053107054800079136 0 -0.10427068073494962 0.0004061403471775541 0 -0.10434755703211081 0.00042441439100206186 0 -0.1042248369040749 0.00064605351050043788 0 -0.10444388249808854 0.00048062789287613226 0 -0.10447140826500047 0.0006553505885223775 0 -0.1042248369040749 0.00064605351050043788 0 -0.10434755703211081 0.00042441439100206186 0 -0.10444388249808854 0.00048062789287613226 0 -0.1042248369040749 0.00064605351050043788 0 -0.10416768218317528 0.00053107054800079136 0 -0.10434755703211081 0.00042441439100206186 0 -0.10434755703211081 0.00042441439100206186 0 -0.10444388249808854 0.00048062789287613226 0 -0.10458243966135077 0.00028632597641282064 0 -0.10444388249808854 0.00048062789287613226 0 -0.10463712339031814 0.00044588307549116611 0 -0.10458243966135077 0.00028632597641282064 0 -0.10463712339031814 0.00044588307549116611 0 -0.10468018111072128 0.00059534930256749591 0 -0.10476255457525371 0.00044752678939614693 0 -0.10463712339031814 0.00044588307549116611 0 -0.10468018111072128 0.00059534930256749591 0 -0.10447140826500047 0.0006553505885223775 0 -0.10444388249808854 0.00048062789287613226 0 -0.10463712339031814 0.00044588307549116611 0 -0.10447140826500047 0.0006553505885223775 0 -0.10463387476913322 0.00096416595501531521 0 -0.10468018111072128 0.00059534930256749591 0 -0.10447140826500047 0.0006553505885223775 0 -0.10463387476913322 0.00096416595501531521 0 -0.10423558032763801 0.00090202261024423453 0 -0.10447140826500047 0.0006553505885223775 0 -0.10116564506824981 0.0037160162303355899 0 -0.10107982454718638 0.0036860300632304984 0 -0.10093650130742056 0.0036196585056144899 0 -0.10299464747208956 0.0021847052583066112 0 -0.10329420611292867 0.0018457210547974175 0 -0.10116564506824981 0.0037160162303355899 0 -0.10128699382841844 0.0036130234549412634 0 -0.10107982454718638 0.0036860300632304984 0 -0.10463387476913322 0.00096416595501531521 0 -0.10468018111072128 0.00059534930256749591 0 -0.10490114265300499 0.00049258243458849885 0 -0.10116564506824981 0.0037160162303355899 0 -0.10128699382841844 0.0036130234549412634 0 -0.10134185297698547 0.0034817084836403526 0 -0.10490114265300499 0.00049258243458849885 0 -0.10476255457525371 0.00044752678939614693 0 -0.10482247611421058 0.00025663012478958442 0 -0.10468018111072128 0.00059534930256749591 0 -0.10490114265300499 0.00049258243458849885 0 -0.10476255457525371 0.00044752678939614693 0 -0.10463712339031814 0.00044588307549116611 0 -0.10476255457525371 0.00044752678939614693 0 -0.10482247611421058 0.00025663012478958442 0 -0.10490114265300499 0.00049258243458849885 0 -0.10482247611421058 0.00025663012478958442 0 -0.10500811352118676 0.00020904718817864884 0 -0.10463712339031814 0.00044588307549116611 0 -0.10482247611421058 0.00025663012478958442 0 -0.10458243966135077 0.00028632597641282064 0 -0.10482247611421058 0.00025663012478958442 0 -0.10458243966135077 0.00028632597641282064 0 -0.10480559637238222 9.4505391780816059e-05 0 -0.10482247611421058 0.00025663012478958442 0 -0.10494617261120671 6.5138909166207284e-05 0 -0.10480559637238222 9.4505391780816059e-05 0 -0.10482247611421058 0.00025663012478958442 0 -0.10494617261120671 6.5138909166207284e-05 0 -0.10500811352118676 0.00020904718817864884 0 -0.10430340305358693 0.00029727283180360859 0 -0.10444392984871134 0.00029352170917933492 0 -0.10461362166855069 0.00015219465471538263 0 -0.10430340305358693 0.00029727283180360859 0 -0.10427068073494962 0.0004061403471775541 0 -0.10444392984871134 0.00029352170917933492 0 -0.10427068073494962 0.0004061403471775541 0 -0.10434755703211081 0.00042441439100206186 0 -0.10444392984871134 0.00029352170917933492 0 -0.10444392984871134 0.00029352170917933492 0 -0.10458243966135077 0.00028632597641282064 0 -0.10461362166855069 0.00015219465471538263 0 -0.10434755703211081 0.00042441439100206186 0 -0.10444392984871134 0.00029352170917933492 0 -0.10458243966135077 0.00028632597641282064 0 -0.10458243966135077 0.00028632597641282064 0 -0.10461362166855069 0.00015219465471538263 0 -0.10480559637238222 9.4505391780816059e-05 0 -0.10467262212447535 8.1944791943416932e-05 0 -0.10430340305358693 0.00029727283180360859 0 -0.10461362166855069 0.00015219465471538263 0 -0.10467262212447535 8.1944791943416932e-05 0 -0.10461362166855069 0.00015219465471538263 0 -0.10482219227590565 4.4337571689483167e-05 0 -0.10461362166855069 0.00015219465471538263 0 -0.10482219227590565 4.4337571689483167e-05 0 -0.10480559637238222 9.4505391780816059e-05 0 -0.10482219227590565 4.4337571689483167e-05 0 -0.10499975395207115 5.8599465188172843e-08 0 -0.10499987111884655 -3.1676222169592417e-08 0 -0.10499965252976795 -2.131744802721209e-08 0 -0.10467262212447535 8.1944791943416932e-05 0 -0.10482219227590565 4.4337571689483167e-05 0 -0.10499965252976795 -2.131744802721209e-08 0 -0.10482219227590565 4.4337571689483167e-05 0 -0.10499975395207115 5.8599465188172843e-08 0 -0.10482219227590565 4.4337571689483167e-05 0 -0.10480559637238222 9.4505391780816059e-05 0 -0.10499987111884655 -3.1676222169592417e-08 0 -0.10494617261120671 6.5138909166207284e-05 0 -0.10480559637238222 9.4505391780816059e-05 0 -0.10499987111884655 -3.1676222169592417e-08 0 -0.10494617261120671 6.5138909166207284e-05 0 -0.10499987111884655 -3.1676222169592417e-08 0 -0.10499999530227296 2.0700292581549228e-08 0 -0.10494617261120671 6.5138909166207284e-05 0 -0.10499999530227296 2.0700292581549228e-08 0 -0.1050312187731214 5.4188083679373242e-05 0 -0.10439400982211589 0.00055575601146588762 0 -0.1049991310545695 5.1352084351486924e-07 0 -0.10499999530227296 2.0700292581549228e-08 0 -0.1050312187731214 5.4188083679373242e-05 0 -0.10500006854204313 1.332305629098422e-08 0 -0.10373788789144082 0.00057433748128752021 0 -0.10499855345626634 -2.0232019357907541e-07 0 -0.10475457764097842 0.0003628098161464613 0 -0.10499855345626634 -2.0232019357907541e-07 0 -0.10500004670452324 2.2797770273678566e-07 0 -0.10475457764097842 0.0003628098161464613 0 -0.10500004670452324 2.2797770273678566e-07 0 -0.10510499236566859 0.00037558150707787404 0 -0.10500088141874674 -3.9481657008161529e-08 0 -0.10500004670452324 2.2797770273678566e-07 0 -0.10510499236566859 0.00037558150707787404 0 -0.10475457764097842 0.0003628098161464613 0 -0.10510499236566859 0.00037558150707787404 0 -0.10487700857834464 0.00087237681855566618 0 -0.10475457764097842 0.0003628098161464613 0 -0.10510499236566859 0.00037558150707787404 0 -0.10487700857834464 0.00087237681855566618 0 -0.10536248888025083 0.0012213636447007802 0 -0.10373788789144082 0.00057433748128752021 0 -0.10475457764097842 0.0003628098161464613 0 -0.10417915602863501 0.0012589024187896801 0 -0.10487700857834464 0.00087237681855566618 0 -0.10475457764097842 0.0003628098161464613 0 -0.10417915602863501 0.0012589024187896801 0 -0.10417915602863501 0.0012589024187896801 0 -0.10483010692060604 0.0015031077356883306 0 -0.10441798947820845 0.0020911525601131848 0 -0.10487700857834464 0.00087237681855566618 0 -0.10417915602863501 0.0012589024187896801 0 -0.10483010692060604 0.0015031077356883306 0 -0.10483010692060604 0.0015031077356883306 0 -0.10527380152188674 0.0020118630646228479 0 -0.10536248888025083 0.0012213636447007802 0 -0.10487700857834464 0.00087237681855566618 0 -0.10483010692060604 0.0015031077356883306 0 -0.10536248888025083 0.0012213636447007802 0 -0.10483010692060604 0.0015031077356883306 0 -0.10527380152188674 0.0020118630646228479 0 -0.10441798947820845 0.0020911525601131848 0 -0.10527380152188674 0.0020118630646228479 0 -0.10441798947820845 0.0020911525601131848 0 -0.10492519916831043 0.0028408645765811841 0 -0.10417915602863501 0.0012589024187896801 0 -0.10441798947820845 0.0020911525601131848 0 -0.10358634738827444 0.0022617612203886541 0 -0.10441798947820845 0.0020911525601131848 0 -0.10358634738827444 0.0022617612203886541 0 -0.10394537277301301 0.0027028990954298675 0 -0.10417915602863501 0.0012589024187896801 0 -0.10358634738827444 0.0022617612203886541 0 -0.10263564904273167 0.0016675834751142123 0 -0.10329420611292867 0.0018457210547974175 0 -0.1038315306122059 0.0011560474350939948 0 -0.10358634738827444 0.0022617612203886541 0 -0.10263564904273167 0.0016675834751142123 0 -0.10268698437202972 0.0027993524826736105 0 -0.10134185297698547 0.0034817084836403526 0 -0.10263564904273167 0.0016675834751142123 0 -0.10268698437202972 0.0027993524826736105 0 -0.10494617261120671 6.5138909166207284e-05 0 -0.1050312187731214 5.4188083679373242e-05 0 -0.10500811352118676 0.00020904718817864884 0 -0.10439400982211589 0.00055575601146588762 0 -0.1038315306122059 0.0011560474350939948 0 -0.10373788789144082 0.00057433748128752021 0 -0.10417915602863501 0.0012589024187896801 0 -0.10263564904273167 0.0016675834751142123 0 -0.10494102962570406 5.8432502658717247e-05 0 -0.1049706386519895 0.00012152130673252018 0 -0.10500707219082979 6.9804331476274405e-05 0 -0.10500007149704078 -1.4362967639779955e-08 0 -0.10494102962570406 5.8432502658717247e-05 0 -0.10500707219082979 6.9804331476274405e-05 0 -0.10499696333704935 1.3683469292476478e-06 0 -0.10291370283419282 0.00064921435666701283 0 -0.10499806322691353 1.3157109386673398e-07 0 -0.10399838742109213 0.00017888068501360408 0 -0.10500007343436138 1.1514415829999596e-08 0 -0.10502368055446497 4.8782894856403592e-05 0 -0.10499269979965754 1.8565260587091835e-05 0 -0.10500007149704078 -1.4362967639779955e-08 0 -0.1049998650026164 3.4617737617542861e-08 0 -0.10494102962570406 5.8432502658717247e-05 0 -0.10502368055446497 4.8782894856403592e-05 0 -0.10499269979965754 1.8565260587091835e-05 0 -0.10495805534523568 5.0193713886933324e-05 0 -0.10502368055446497 4.8782894856403592e-05 0 -0.10495805534523568 5.0193713886933324e-05 0 -0.10498826404953515 0.0001022605234216826 0 -0.10500007343436138 1.1514415829999596e-08 0 -0.10499269979965754 1.8565260587091835e-05 0 -0.10499989885003652 9.4156948434812602e-09 0 -0.10499885982038761 9.9784978347636356e-07 0 -0.10438395244042485 0.00075267977437037947 0 -0.10499269979965754 1.8565260587091835e-05 0 -0.10499989885003652 9.4156948434812602e-09 0 -0.10495805534523568 5.0193713886933324e-05 0 -0.10510499236566859 0.00037558150707787404 0 -0.10500088141874674 -3.9481657008161529e-08 0 -0.10572867860261943 0.00069331359141816767 0 -0.10510499236566859 0.00037558150707787404 0 -0.10572867860261943 0.00069331359141816767 0 -0.10536248888025083 0.0012213636447007802 0 -0.10572867860261943 0.00069331359141816767 0 -0.10536248888025083 0.0012213636447007802 0 -0.10612454538226575 0.001776796919083513 0 -0.10527380152188674 0.0020118630646228479 0 -0.10536248888025083 0.0012213636447007802 0 -0.10612454538226575 0.001776796919083513 0 -0.10527380152188674 0.0020118630646228479 0 -0.10612454538226575 0.001776796919083513 0 -0.10588978522916258 0.0025688551317446045 0 -0.10494532472245578 0.00017847890936478108 0 -0.10503060079559347 0.00016695103445334624 0 -0.10501548973088624 0.00033559103099095654 0 -0.10319682823983657 0.0016155988672648775 0 -0.10061539958450252 0.0027364722905995321 0 -0.10438395244042485 0.00075267977437037947 0 -0.10319682823983657 0.0016155988672648775 0 -0.10495805534523568 5.0193713886933324e-05 0 -0.10494532472245578 0.00017847890936478108 0 -0.10498826404953515 0.0001022605234216826 0 -0.10494532472245578 0.00017847890936478108 0 -0.10498826404953515 0.0001022605234216826 0 -0.10503060079559347 0.00016695103445334624 0 -0.10494102962570406 5.8432502658717247e-05 0 -0.10490285866422869 0.00014394041433269297 0 -0.1049706386519895 0.00012152130673252018 0 -0.10399838742109213 0.00017888068501360408 0 -0.1025081161162032 0.00068201273165937573 0 -0.10502368055446497 4.8782894856403592e-05 0 -0.10498826404953515 0.0001022605234216826 0 -0.10503060079559347 0.00016695103445334624 0 -0.1025081161162032 0.00068201273165937573 0 -0.099774983677262077 0.0026786216003057638 0 -0.10490285866422869 0.00014394041433269297 0 -0.1049677627341167 0.00019376075505789806 0 -0.1048819335614677 0.0002431532936831503 0 -0.10490285866422869 0.00014394041433269297 0 -0.1049677627341167 0.00019376075505789806 0 -0.1049706386519895 0.00012152130673252018 0 -0.086600245838150264 0.0025451338499878494 0 -0.08658394831635717 0.0025565734130061062 0 -0.086600372941301032 0.002548745159444336 0 -0.086600245838150264 0.0025451338499878494 0 -0.086587721900838202 0.0025575473034936637 0 -0.08658394831635717 0.0025565734130061062 0 -0.08661746422892494 0.0025292416325632004 0 -0.086600245838150264 0.0025451338499878494 0 -0.086619195991316469 0.0025352615042093323 0 -0.08661746422892494 0.0025292416325632004 0 -0.086600245838150264 0.0025451338499878494 0 -0.086606383114277763 0.0025399131672996962 0 -0.097505748575470619 0.0019839488958468608 0 -0.099774983677262077 0.0026786216003057638 0 -0.099774983677262077 0.0026786216003057638 0 -0.10061539958450252 0.0027364722905995321 0 -0.098608318779197637 0.0021574756162506185 0 -0.098578318897171266 0.0029861858302307116 0 -0.098373261181176785 0.0022692865831210798 0 -0.086600245838150264 0.0025451338499878494 0 -0.086606383114277763 0.0025399131672996962 0 -0.086587721900838202 0.0025575473034936637 0 -0.099774983677262077 0.0026786216003057638 0 -0.097434521763344981 0.0026741837111347202 0 -0.097434521763344981 0.0026741837111347202 0 -0.10061539958450252 0.0027364722905995321 0 -0.10644053542802054 0.0033855510569071401 0 -0.10616644434711121 0.0029998735239251109 0 -0.10631057444448223 0.0027567710713381583 0 -0.10644053542802054 0.0033855510569071401 0 -0.10601390671297366 0.003268703261051728 0 -0.10616644434711121 0.0029998735239251109 0 -0.10601390671297366 0.003268703261051728 0 -0.10590499194580487 0.0029366425588180432 0 -0.10571227356122037 0.003244065931258601 0 -0.10601390671297366 0.003268703261051728 0 -0.10571227356122037 0.003244065931258601 0 -0.10585351793334376 0.0034215994935490445 0 -0.10601390671297366 0.003268703261051728 0 -0.10590499194580487 0.0029366425588180432 0 -0.10616644434711121 0.0029998735239251109 0 -0.10590499194580487 0.0029366425588180432 0 -0.10616644434711121 0.0029998735239251109 0 -0.10607034634884836 0.0028572865275181287 0 -0.10616644434711121 0.0029998735239251109 0 -0.1062434453029243 0.0027919986658420035 0 -0.10607034634884836 0.0028572865275181287 0 -0.1063287708662492 0.0027556518694083331 0 -0.1062434453029243 0.0027919986658420035 0 -0.10588978522916258 0.0025688551317446045 0 -0.10612454538226575 0.001776796919083513 0 -0.1063287708662492 0.0027556518694083331 0 -0.10588978522916258 0.0025688551317446045 0 -0.10494532472245578 0.00017847890936478108 0 -0.10501548973088624 0.00033559103099095654 0 -0.10497153434758816 0.00035732915326884969 0 -0.10061539958450252 0.0027364722905995321 0 -0.10066234970487208 0.0027207369416808046 0 -0.10616644434711121 0.0029998735239251109 0 -0.10631057444448223 0.0027567710713381583 0 -0.1062434453029243 0.0027919986658420035 0 -0.10590499194580487 0.0029366425588180432 0 -0.10588978522916258 0.0025688551317446045 0 -0.10607034634884836 0.0028572865275181287 0 -0.1062434453029243 0.0027919986658420035 0 -0.10588978522916258 0.0025688551317446045 0 -0.10607034634884836 0.0028572865275181287 0 -0.10588978522916258 0.0025688551317446045 0 -0.10540032844212467 0.002906725025127746 0 -0.10567710820072275 0.0029686491764305701 0 -0.10588978522916258 0.0025688551317446045 0 -0.10540032844212467 0.002906725025127746 0 -0.10495937266309603 0.0026650204947763919 0 -0.10527380152188674 0.0020118630646228479 0 -0.10588978522916258 0.0025688551317446045 0 -0.10492519916831043 0.0028408645765811841 0 -0.10516999009858456 0.0028194446790189257 0 -0.10450594110032992 0.0029396202025617725 0 -0.10590499194580487 0.0029366425588180432 0 -0.10588978522916258 0.0025688551317446045 0 -0.10567710820072275 0.0029686491764305701 0 -0.10540032844212467 0.002906725025127746 0 -0.10567710820072275 0.0029686491764305701 0 -0.1055247088829489 0.0031921409151282093 0 -0.10567710820072275 0.0029686491764305701 0 -0.10571227356122037 0.003244065931258601 0 -0.1055247088829489 0.0031921409151282093 0 -0.10590499194580487 0.0029366425588180432 0 -0.10567710820072275 0.0029686491764305701 0 -0.10571227356122037 0.003244065931258601 0 -0.10571227356122037 0.003244065931258601 0 -0.1055247088829489 0.0031921409151282093 0 -0.1055450997241547 0.0034350752735105173 0 -0.10540032844212467 0.002906725025127746 0 -0.1055247088829489 0.0031921409151282093 0 -0.10528687600800261 0.0034021771183764169 0 -0.1055247088829489 0.0031921409151282093 0 -0.1055450997241547 0.0034350752735105173 0 -0.10528687600800261 0.0034021771183764169 0 -0.1055450997241547 0.0034350752735105173 0 -0.10560567378067653 0.0038999047820323092 0 -0.10528687600800261 0.0034021771183764169 0 -0.10571227356122037 0.003244065931258601 0 -0.10570603500203316 0.0035738466331735586 0 -0.10585351793334376 0.0034215994935490445 0 -0.1055450997241547 0.0034350752735105173 0 -0.10570603500203316 0.0035738466331735586 0 -0.10560567378067653 0.0038999047820323092 0 -0.10571227356122037 0.003244065931258601 0 -0.1055450997241547 0.0034350752735105173 0 -0.10570603500203316 0.0035738466331735586 0 -0.10570603500203316 0.0035738466331735586 0 -0.10560567378067653 0.0038999047820323092 0 -0.10579644036580686 0.0037279531871892754 0 -0.10560567378067653 0.0038999047820323092 0 -0.10579644036580686 0.0037279531871892754 0 -0.10589621725105036 0.0038392572492032717 0 -0.099345411418566565 0.003478322138797917 0 -0.099286539942531005 0.0032985913319642166 0 -0.099555164101752303 0.0032831414418131449 0 -0.099286539942531005 0.0032985913319642166 0 -0.099282251656901521 0.0031516087692968309 0 -0.099555164101752303 0.0032831414418131449 0 -0.099282251656901521 0.0031516087692968309 0 -0.098958042415169825 0.0032820201034628751 0 -0.099082871064322453 0.0030440674587235319 0 -0.099286539942531005 0.0032985913319642166 0 -0.099282251656901521 0.0031516087692968309 0 -0.098958042415169825 0.0032820201034628751 0 -0.09795750700015271 0.0037923179513787582 0 -0.097556251780579001 0.0036615413380106728 0 -0.099345411418566565 0.003478322138797917 0 -0.099286539942531005 0.0032985913319642166 0 -0.098958042415169825 0.0032820201034628751 0 -0.099216557964347182 0.0034639575388531814 0 -0.099345411418566565 0.003478322138797917 0 -0.098964748318742857 0.0032522988181239942 0 -0.10602857079648401 0.0040439655230925207 0 -0.10616237095169564 0.0038274138450729092 0 -0.10589621725105036 0.0038392572492032717 0 -0.10560567378067653 0.0038999047820323092 0 -0.10602857079648401 0.0040439655230925207 0 -0.10589621725105036 0.0038392572492032717 0 -0.10088845326941603 0.0042377253797071289 0 -0.096242491528530663 0.0032209237176640806 0 -0.10560567378067653 0.0038999047820323092 0 -0.10602857079648401 0.0040439655230925207 0 -0.10628783276233919 0.0044050715777024891 0 -0.099216557964347182 0.0034639575388531814 0 -0.098964748318742857 0.0032522988181239942 0 -0.098580810034411326 0.0030186017419985777 0 -0.097556251780579001 0.0036615413380106728 0 -0.096242491528530663 0.0032209237176640806 0 -0.10602857079648401 0.0040439655230925207 0 -0.10624141853580812 0.0041515457688777388 0 -0.10628783276233919 0.0044050715777024891 0 -0.10624141853580812 0.0041515457688777388 0 -0.10616237095169564 0.0038274138450729092 0 -0.10639022789922783 0.003930177897288444 0 -0.10602857079648401 0.0040439655230925207 0 -0.10624141853580812 0.0041515457688777388 0 -0.10616237095169564 0.0038274138450729092 0 -0.10616237095169564 0.0038274138450729092 0 -0.10589621725105036 0.0038392572492032717 0 -0.10598052478231761 0.0035969171359798344 0 -0.10579644036580686 0.0037279531871892754 0 -0.10589621725105036 0.0038392572492032717 0 -0.10598052478231761 0.0035969171359798344 0 -0.10570603500203316 0.0035738466331735586 0 -0.10585351793334376 0.0034215994935490445 0 -0.10598052478231761 0.0035969171359798344 0 -0.10570603500203316 0.0035738466331735586 0 -0.10579644036580686 0.0037279531871892754 0 -0.10598052478231761 0.0035969171359798344 0 -0.10601390671297366 0.003268703261051728 0 -0.10585351793334376 0.0034215994935490445 0 -0.10598052478231761 0.0035969171359798344 0 -0.10644053542802054 0.0033855510569071401 0 -0.10616237095169564 0.0038274138450729092 0 -0.10598052478231761 0.0035969171359798344 0 -0.10644053542802054 0.0033855510569071401 0 -0.10601390671297366 0.003268703261051728 0 -0.10598052478231761 0.0035969171359798344 0 -0.094577379156543434 0.0029239460076905936 0 -0.094422539218551815 0.0024599353078372582 0 -0.094574375908017941 0.0025562334784739313 0 -0.097434521763344981 0.0026741837111347202 0 -0.093359612343979478 0.0017925404363528965 0 -0.10644053542802054 0.0033855510569071401 0 -0.10616237095169564 0.0038274138450729092 0 -0.10639022789922783 0.003930177897288444 0 -0.097434521763344981 0.0026741837111347202 0 -0.096663309062700709 0.0028622056989107102 0 -0.086587721900838202 0.0025575473034936637 0 -0.086565215251754646 0.0025707172069244712 0 -0.086568313171217673 0.0025660230008420575 0 -0.096663309062700709 0.0028622056989107102 0 -0.094948183611048925 0.002737830558137453 0 -0.094422539218551815 0.0024599353078372582 0 -0.094574375908017941 0.0025562334784739313 0 -0.094576861932975986 0.0021817123716327265 0 -0.10624141853580812 0.0041515457688777388 0 -0.10639022789922783 0.003930177897288444 0 -0.10635226223017577 0.004457120075576723 0 -0.10624141853580812 0.0041515457688777388 0 -0.10628783276233919 0.0044050715777024891 0 -0.10635226223017577 0.004457120075576723 0 -0.086540270797758459 0.0025752487905844087 0 -0.086568313171217673 0.0025660230008420575 0 -0.086568583988060485 0.0025644461425114451 0 -0.086565215251754646 0.0025707172069244712 0 -0.086540270797758459 0.0025752487905844087 0 -0.086536629999064085 0.0025636454689939008 0 -0.086565215251754646 0.0025707172069244712 0 -0.086540270797758459 0.0025752487905844087 0 -0.086568313171217673 0.0025660230008420575 0 -0.086587721900838202 0.0025575473034936637 0 -0.086568313171217673 0.0025660230008420575 0 -0.08658394831635717 0.0025565734130061062 0 -0.086568313171217673 0.0025660230008420575 0 -0.08658394831635717 0.0025565734130061062 0 -0.086568583988060485 0.0025644461425114451 0 -0.10062768153265164 0.0039009594910892989 0 -0.10086377208744791 0.0039817314258698477 0 -0.10044219485628465 0.0041073028367616133 0 -0.10062768153265164 0.0039009594910892989 0 -0.10034507317412954 0.0038443837742517836 0 -0.10044219485628465 0.0041073028367616133 0 -0.10034507317412954 0.0038443837742517836 0 -0.10060266351601629 0.0037330413103510824 0 -0.10024650846682097 0.0036061399126049182 0 -0.10062768153265164 0.0039009594910892989 0 -0.10034507317412954 0.0038443837742517836 0 -0.10060266351601629 0.0037330413103510824 0 -0.10062768153265164 0.0039009594910892989 0 -0.10060266351601629 0.0037330413103510824 0 -0.10081336530635542 0.0037895890202363073 0 -0.10060266351601629 0.0037330413103510824 0 -0.10081336530635542 0.0037895890202363073 0 -0.10093650130742056 0.0036196585056144899 0 -0.10128699382841844 0.0036130234549412634 0 -0.10107982454718638 0.0036860300632304984 0 -0.10086377208744791 0.0039817314258698477 0 -0.10107982454718638 0.0036860300632304984 0 -0.10081336530635542 0.0037895890202363073 0 -0.10093650130742056 0.0036196585056144899 0 -0.10107982454718638 0.0036860300632304984 0 -0.10081336530635542 0.0037895890202363073 0 -0.10086377208744791 0.0039817314258698477 0 -0.10062768153265164 0.0039009594910892989 0 -0.10081336530635542 0.0037895890202363073 0 -0.10086377208744791 0.0039817314258698477 0 -0.10245473389186725 0.0037222043398427761 0 -0.10268698437202972 0.0027993524826736105 0 -0.10340077234060976 0.0032220919018574644 0 -0.10178862396357356 0.0034762063373621793 0 -0.1019864357072284 0.0034352679816411248 0 -0.10128699382841844 0.0036130234549412634 0 -0.10134185297698547 0.0034817084836403526 0 -0.10245473389186725 0.0037222043398427761 0 -0.10134185297698547 0.0034817084836403526 0 -0.10245473389186725 0.0037222043398427761 0 -0.10268698437202972 0.0027993524826736105 0 -0.1019864357072284 0.0034352679816411248 0 -0.10255897598230634 0.003282259144960646 0 -0.10245473389186725 0.0037222043398427761 0 -0.10340077234060976 0.0032220919018574644 0 -0.10372922564728639 0.0034556288607347271 0 -0.10358634738827444 0.0022617612203886541 0 -0.10268698437202972 0.0027993524826736105 0 -0.10340077234060976 0.0032220919018574644 0 -0.10340077234060976 0.0032220919018574644 0 -0.10364383540249202 0.0033110629925394118 0 -0.10394537277301301 0.0027028990954298675 0 -0.10258348794394651 0.0032935050922679181 0 -0.10255897598230634 0.003282259144960646 0 -0.10358634738827444 0.0022617612203886541 0 -0.10340077234060976 0.0032220919018574644 0 -0.10394537277301301 0.0027028990954298675 0 -0.10364383540249202 0.0033110629925394118 0 -0.10394537277301301 0.0027028990954298675 0 -0.10492519916831043 0.0028408645765811841 0 -0.10255897598230634 0.003282259144960646 0 -0.10450594110032992 0.0029396202025617725 0 -0.10441798947820845 0.0020911525601131848 0 -0.10394537277301301 0.0027028990954298675 0 -0.10492519916831043 0.0028408645765811841 0 -0.10540032844212467 0.002906725025127746 0 -0.10495937266309603 0.0026650204947763919 0 -0.10483320479999643 0.0033574783612938587 0 -0.10540032844212467 0.002906725025127746 0 -0.10483320479999643 0.0033574783612938587 0 -0.10528687600800261 0.0034021771183764169 0 -0.10403720810056752 0.002772025591380596 0 -0.10495937266309603 0.0026650204947763919 0 -0.10483320479999643 0.0033574783612938587 0 -0.10255897598230634 0.003282259144960646 0 -0.10199585369707921 0.0037966706787365143 0 -0.10034507317412954 0.0038443837742517836 0 -0.10044219485628465 0.0041073028367616133 0 -0.099849942870743905 0.0038093932142355142 0 -0.10034507317412954 0.0038443837742517836 0 -0.099849942870743905 0.0038093932142355142 0 -0.10024650846682097 0.0036061399126049182 0 -0.099849942870743905 0.0038093932142355142 0 -0.10024650846682097 0.0036061399126049182 0 -0.099856351440897578 0.0034385901933957782 0 -0.10024650846682097 0.0036061399126049182 0 -0.099856351440897578 0.0034385901933957782 0 -0.10023369558847917 0.0033047311162202192 0 -0.10560567378067653 0.0038999047820323092 0 -0.10483320479999643 0.0033574783612938587 0 -0.10528687600800261 0.0034021771183764169 0 -0.099216557964347182 0.0034639575388531814 0 -0.099345411418566565 0.003478322138797917 0 -0.099849942870743905 0.0038093932142355142 0 -0.099345411418566565 0.003478322138797917 0 -0.099849942870743905 0.0038093932142355142 0 -0.099856351440897578 0.0034385901933957782 0 -0.10088845326941603 0.0042377253797071289 0 -0.10199585369707921 0.0037966706787365143 0 -0.099856351440897578 0.0034385901933957782 0 -0.099555164101752303 0.0032831414418131449 0 -0.099866097103285242 0.003075778814660889 0 -0.099345411418566565 0.003478322138797917 0 -0.099856351440897578 0.0034385901933957782 0 -0.099555164101752303 0.0032831414418131449 0 -0.099555164101752303 0.0032831414418131449 0 -0.099866097103285242 0.003075778814660889 0 -0.099512578683777456 0.003001224779145383 0 -0.099282251656901521 0.0031516087692968309 0 -0.099555164101752303 0.0032831414418131449 0 -0.099512578683777456 0.003001224779145383 0 -0.099856351440897578 0.0034385901933957782 0 -0.10023369558847917 0.0033047311162202192 0 -0.099866097103285242 0.003075778814660889 0 -0.10023369558847917 0.0033047311162202192 0 -0.099866097103285242 0.003075778814660889 0 -0.10024984488830144 0.0029437229392025293 0 -0.10023369558847917 0.0033047311162202192 0 -0.10060994715859443 0.0031978503371365222 0 -0.10024984488830144 0.0029437229392025293 0 -0.10023369558847917 0.0033047311162202192 0 -0.10060994715859443 0.0031978503371365222 0 -0.10056358317753637 0.0034986789471016478 0 -0.10024650846682097 0.0036061399126049182 0 -0.10023369558847917 0.0033047311162202192 0 -0.10056358317753637 0.0034986789471016478 0 -0.10060266351601629 0.0037330413103510824 0 -0.10024650846682097 0.0036061399126049182 0 -0.10056358317753637 0.0034986789471016478 0 -0.10060266351601629 0.0037330413103510824 0 -0.10056358317753637 0.0034986789471016478 0 -0.10093650130742056 0.0036196585056144899 0 -0.10056358317753637 0.0034986789471016478 0 -0.10093650130742056 0.0036196585056144899 0 -0.10082991411602171 0.0034511996588503704 0 -0.10102009543813036 0.0035278648079000419 0 -0.10093650130742056 0.0036196585056144899 0 -0.10082991411602171 0.0034511996588503704 0 -0.10095505467775455 0.0033005206393902208 0 -0.10060994715859443 0.0031978503371365222 0 -0.10082991411602171 0.0034511996588503704 0 -0.10095505467775455 0.0033005206393902208 0 -0.10060994715859443 0.0031978503371365222 0 -0.10087679086197515 0.0030307525694243257 0 -0.10060994715859443 0.0031978503371365222 0 -0.10056358317753637 0.0034986789471016478 0 -0.10082991411602171 0.0034511996588503704 0 -0.10102009543813036 0.0035278648079000419 0 -0.10095505467775455 0.0033005206393902208 0 -0.10082991411602171 0.0034511996588503704 0 -0.10115385752943608 0.0027436165313054271 0 -0.10087679086197515 0.0030307525694243257 0 -0.10063143621711279 0.0027079144313623643 0 -0.10060994715859443 0.0031978503371365222 0 -0.10087679086197515 0.0030307525694243257 0 -0.10063143621711279 0.0027079144313623643 0 -0.10024984488830144 0.0029437229392025293 0 -0.10063143621711279 0.0027079144313623643 0 -0.10017999682885161 0.0025541656680196064 0 -0.10060994715859443 0.0031978503371365222 0 -0.10024984488830144 0.0029437229392025293 0 -0.10063143621711279 0.0027079144313623643 0 -0.10063143621711279 0.0027079144313623643 0 -0.10039409053013308 0.0022258987107494146 0 -0.10017999682885161 0.0025541656680196064 0 -0.10063143621711279 0.0027079144313623643 0 -0.10078108358868401 0.0021666111177279929 0 -0.10039409053013308 0.0022258987107494146 0 -0.10115385752943608 0.0027436165313054271 0 -0.10063143621711279 0.0027079144313623643 0 -0.10078108358868401 0.0021666111177279929 0 -0.10078108358868401 0.0021666111177279929 0 -0.10039409053013308 0.0022258987107494146 0 -0.10034462698058537 0.0015970723598430095 0 -0.10039409053013308 0.0022258987107494146 0 -0.10034462698058537 0.0015970723598430095 0 -0.10003599774897853 0.0020785213075956072 0 -0.10039409053013308 0.0022258987107494146 0 -0.10003599774897853 0.0020785213075956072 0 -0.10017999682885161 0.0025541656680196064 0 -0.09913669592145867 -0.0015561889048316057 0 -0.0983220002326297 0.00020593293151008083 0 -0.098111417850313423 -0.0012457560310185777 0 -0.0983220002326297 0.00020593293151008083 0 -0.097225520994219841 -0.0013676633733852115 0 -0.098111417850313423 -0.0012457560310185777 0 -0.097970469551794115 0.002404589502066054 0 -0.095283092434821998 0.0026896501440356623 0 -0.099584685266741205 0.0017501450353923577 0 -0.099052515499291921 0.0017406047788505591 0 -0.099500219998826037 0.00135394067989124 0 -0.099584685266741205 0.0017501450353923577 0 -0.099888332130984969 0.0015144862234547066 0 -0.099500219998826037 0.00135394067989124 0 -0.10034462698058537 0.0015970723598430095 0 -0.10003599774897853 0.0020785213075956072 0 -0.099888332130984969 0.0015144862234547066 0 -0.099584685266741205 0.0017501450353923577 0 -0.10003599774897853 0.0020785213075956072 0 -0.099888332130984969 0.0015144862234547066 0 -0.10003599774897853 0.0020785213075956072 0 -0.099662181560348673 0.0021392677421618253 0 -0.099745163522478766 0.0025094332046330342 0 -0.099584685266741205 0.0017501450353923577 0 -0.10003599774897853 0.0020785213075956072 0 -0.099662181560348673 0.0021392677421618253 0 -0.099584685266741205 0.0017501450353923577 0 -0.099662181560348673 0.0021392677421618253 0 -0.099293341464490842 0.00207022301143946 0 -0.099662181560348673 0.0021392677421618253 0 -0.099340365527051985 0.0024208913282292781 0 -0.099293341464490842 0.00207022301143946 0 -0.099662181560348673 0.0021392677421618253 0 -0.099745163522478766 0.0025094332046330342 0 -0.099340365527051985 0.0024208913282292781 0 -0.099745163522478766 0.0025094332046330342 0 -0.099454732547431382 0.0026954218136785247 0 -0.099694090770662103 0.0028134530445651676 0 -0.099745163522478766 0.0025094332046330342 0 -0.099943180481527741 0.0027842921818209722 0 -0.099694090770662103 0.0028134530445651676 0 -0.099745163522478766 0.0025094332046330342 0 -0.099454732547431382 0.0026954218136785247 0 -0.099340365527051985 0.0024208913282292781 0 -0.099745163522478766 0.0025094332046330342 0 -0.10017999682885161 0.0025541656680196064 0 -0.099943180481527741 0.0027842921818209722 0 -0.10003599774897853 0.0020785213075956072 0 -0.099745163522478766 0.0025094332046330342 0 -0.10017999682885161 0.0025541656680196064 0 -0.099866097103285242 0.003075778814660889 0 -0.10024984488830144 0.0029437229392025293 0 -0.099943180481527741 0.0027842921818209722 0 -0.10024984488830144 0.0029437229392025293 0 -0.10017999682885161 0.0025541656680196064 0 -0.099943180481527741 0.0027842921818209722 0 -0.099866097103285242 0.003075778814660889 0 -0.099943180481527741 0.0027842921818209722 0 -0.099694090770662103 0.0028134530445651676 0 -0.099454732547431382 0.0026954218136785247 0 -0.099694090770662103 0.0028134530445651676 0 -0.099512578683777456 0.003001224779145383 0 -0.099866097103285242 0.003075778814660889 0 -0.099694090770662103 0.0028134530445651676 0 -0.099512578683777456 0.003001224779145383 0 -0.099282251656901521 0.0031516087692968309 0 -0.099512578683777456 0.003001224779145383 0 -0.099223876476534814 0.0029096436508221643 0 -0.099454732547431382 0.0026954218136785247 0 -0.099512578683777456 0.003001224779145383 0 -0.099223876476534814 0.0029096436508221643 0 -0.099454732547431382 0.0026954218136785247 0 -0.099223876476534814 0.0029096436508221643 0 -0.09914927224970721 0.0026740398161076888 0 -0.099223876476534814 0.0029096436508221643 0 -0.098865448678904899 0.0028358764471885399 0 -0.09914927224970721 0.0026740398161076888 0 -0.099223876476534814 0.0029096436508221643 0 -0.099082871064322453 0.0030440674587235319 0 -0.098865448678904899 0.0028358764471885399 0 -0.099282251656901521 0.0031516087692968309 0 -0.099223876476534814 0.0029096436508221643 0 -0.099082871064322453 0.0030440674587235319 0 -0.098958042415169825 0.0032820201034628751 0 -0.099082871064322453 0.0030440674587235319 0 -0.098865448678904899 0.0028358764471885399 0 -0.098865448678904899 0.0028358764471885399 0 -0.098534697365360108 0.0030209605620359183 0 -0.098515905323441469 0.0022799475212009475 0 -0.098958042415169825 0.0032820201034628751 0 -0.098865448678904899 0.0028358764471885399 0 -0.098593197875257554 0.0030634401037912744 0 -0.098865448678904899 0.0028358764471885399 0 -0.098593197875257554 0.0030634401037912744 0 -0.098534697365360108 0.0030209605620359183 0 -0.098865448678904899 0.0028358764471885399 0 -0.098996058626984129 0.0023426436749424281 0 -0.098515905323441469 0.0022799475212009475 0 -0.098865448678904899 0.0028358764471885399 0 -0.098996058626984129 0.0023426436749424281 0 -0.09914927224970721 0.0026740398161076888 0 -0.098996058626984129 0.0023426436749424281 0 -0.099340365527051985 0.0024208913282292781 0 -0.09914927224970721 0.0026740398161076888 0 -0.099454732547431382 0.0026954218136785247 0 -0.099340365527051985 0.0024208913282292781 0 -0.09914927224970721 0.0026740398161076888 0 -0.086536629999064085 0.0025636454689939008 0 -0.086467646115811467 0.0026126866401106389 0 -0.086511327203277019 0.0025856002121986666 0 -0.086540270797758459 0.0025752487905844087 0 -0.086536629999064085 0.0025636454689939008 0 -0.086511327203277019 0.0025856002121986666 0 -0.083416877638053694 0.001139922264577068 0 -0.082248748898899257 0.00038637108269578158 0 -0.082217410207031036 0.0030776924921493078 0 -0.094422539218551815 0.0024599353078372582 0 -0.094270948625044454 0.0019914445906615633 0 -0.094576861932975986 0.0021817123716327265 0 -0.093359612343979478 0.0017925404363528965 0 -0.090564492469532035 0.00078345083074362785 0 -0.090564492469532035 0.00078345083074362785 0 -0.094948183611048925 0.002737830558137453 0 -0.096242491528530663 0.0032209237176640806 0 -0.094948183611048925 0.002737830558137453 0 -0.083416877638053694 0.001139922264577068 0 -0.082591707753428764 0.0029944186280023272 0 -0.082217410207031036 0.0030776924921493078 0 -0.083416877638053694 0.001139922264577068 0 -0.083705576519856426 0.0024021667073852626 0 -0.082591707753428764 0.0029944186280023272 0 -0.094948183611048925 0.002737830558137453 0 -0.090094878618693738 0.0022688541574399589 0 -0.083705576519856426 0.0024021667073852626 0 -0.084326447443615588 0.0035375655537926128 0 -0.082591707753428764 0.0029944186280023272 0 -0.083204024417704955 0.00074419100412063293 0 -0.084706030039418359 0.0019945770945446872 0 -0.086397300384820797 0.0026788031529092517 0 -0.086536629999064085 0.0025636454689939008 0 -0.086467646115811467 0.0026126866401106389 0 -0.086397300384820797 0.0026788031529092517 0 -0.090564492469532035 0.00078345083074362785 0 -0.088195364750436225 0.00050768643401849468 0 -0.083416877638053694 0.001139922264577068 0 -0.083705576519856426 0.0024021667073852626 0 -0.084706030039418359 0.0019945770945446872 0 -0.090564492469532035 0.00078345083074362785 0 -0.089360614135455749 0.00028715334474416091 0 -0.083705576519856426 0.0024021667073852626 0 -0.084706030039418359 0.0019945770945446872 0 -0.084326447443615588 0.0035375655537926128 0 -0.084706030039418359 0.0019945770945446872 0 -0.084326447443615588 0.0035375655537926128 0 -0.08566707268847093 0.0031470511870469093 0 -0.081782369073339287 0.002765774874621988 0 -0.081700332560674452 0.0023545313859606393 0 -0.081267817676417178 0.0029741044528683721 0 -0.08179776005058928 0.003081742119594394 0 -0.082160295095073055 0.0028382745701680864 0 -0.082591707753428764 0.0029944186280023272 0 -0.081782369073339287 0.002765774874621988 0 -0.08179776005058928 0.003081742119594394 0 -0.081267817676417178 0.0029741044528683721 0 -0.081642134026257682 0.0029366871076917699 0 -0.081992250322415097 0.0029998513144254752 0 -0.081782369073339287 0.002765774874621988 0 -0.082160295095073055 0.0028382745701680864 0 -0.082034507549288926 0.0025850341060968183 0 -0.081782369073339287 0.002765774874621988 0 -0.08179776005058928 0.003081742119594394 0 -0.082160295095073055 0.0028382745701680864 0 -0.082160295095073055 0.0028382745701680864 0 -0.082342743329457624 0.0026871646300172369 0 -0.082034507549288926 0.0025850341060968183 0 -0.082160295095073055 0.0028382745701680864 0 -0.0823621034422337 0.0029277321558275802 0 -0.082342743329457624 0.0026871646300172369 0 -0.082160295095073055 0.0028382745701680864 0 -0.082591707753428764 0.0029944186280023272 0 -0.0823621034422337 0.0029277321558275802 0 -0.082591707753428764 0.0029944186280023272 0 -0.0823621034422337 0.0029277321558275802 0 -0.082217410207031036 0.0030776924921493078 0 -0.0823621034422337 0.0029277321558275802 0 -0.082217410207031036 0.0030776924921493078 0 -0.082342743329457624 0.0026871646300172369 0 -0.090094878618693738 0.0022688541574399589 0 -0.084993726213532017 0.0015477537208431287 0 -0.082217410207031036 0.0030776924921493078 0 -0.082342743329457624 0.0026871646300172369 0 -0.08266891601761267 0.002252178652598275 0 -0.082342743329457624 0.0026871646300172369 0 -0.082158323652299844 0.0023542625714851385 0 -0.08266891601761267 0.002252178652598275 0 -0.082342743329457624 0.0026871646300172369 0 -0.082158323652299844 0.0023542625714851385 0 -0.082034507549288926 0.0025850341060968183 0 -0.081782369073339287 0.002765774874621988 0 -0.082034507549288926 0.0025850341060968183 0 -0.081700332560674452 0.0023545313859606393 0 -0.082158323652299844 0.0023542625714851385 0 -0.082034507549288926 0.0025850341060968183 0 -0.081700332560674452 0.0023545313859606393 0 -0.082158323652299844 0.0023542625714851385 0 -0.081700332560674452 0.0023545313859606393 0 -0.081993210704219111 0.0018718221960961653 0 -0.098996058626984129 0.0023426436749424281 0 -0.099293341464490842 0.00207022301143946 0 -0.099052515499291921 0.0017406047788505591 0 -0.098996058626984129 0.0023426436749424281 0 -0.099340365527051985 0.0024208913282292781 0 -0.099293341464490842 0.00207022301143946 0 -0.098996058626984129 0.0023426436749424281 0 -0.098515905323441469 0.0022799475212009475 0 -0.099052515499291921 0.0017406047788505591 0 -0.098515905323441469 0.0022799475212009475 0 -0.099052515499291921 0.0017406047788505591 0 -0.098468974113306615 0.0015208889371284937 0 -0.099584685266741205 0.0017501450353923577 0 -0.099293341464490842 0.00207022301143946 0 -0.099052515499291921 0.0017406047788505591 0 -0.099052515499291921 0.0017406047788505591 0 -0.099164152763291658 0.0008815584932212637 0 -0.098468974113306615 0.0015208889371284937 0 -0.099052515499291921 0.0017406047788505591 0 -0.099164152763291658 0.0008815584932212637 0 -0.099500219998826037 0.00135394067989124 0 -0.098431212532538032 0.00072544784076919531 0 -0.099164152763291658 0.0008815584932212637 0 -0.098468974113306615 0.0015208889371284937 0 -0.075364820302776095 0.00059192731053572052 0 -0.085058759922563176 0.0028011438463937019 0 -0.067674712863312766 0.004197404764118489 0 -0.073547065861979469 0.0055168385554570766 0 -0.071609956210759856 0.0033928673432764918 0 -0.081993210704219111 0.0018718221960961653 0 -0.081037952673935626 0.0010287592393334751 0 -0.079935325648416863 0.0018079298833163127 0 -0.081700332560674452 0.0023545313859606393 0 -0.081993210704219111 0.0018718221960961653 0 -0.081079683608708278 0.0018298064387518294 0 -0.078265971020230446 0.0018615128921876944 0 -0.070880632061138441 0.0013955779565758579 0 -0.081993210704219111 0.0018718221960961653 0 -0.08266891601761267 0.002252178652598275 0 -0.082001987058797632 0.00099915436839443338 0 -0.075364820302776095 0.00059192731053572052 0 -0.084993726213532017 0.0015477537208431287 0 -0.082158323652299844 0.0023542625714851385 0 -0.081993210704219111 0.0018718221960961653 0 -0.08266891601761267 0.002252178652598275 0 -0.082797533335191006 0.00044997740580787488 0 -0.08266891601761267 0.002252178652598275 0 -0.082001987058797632 0.00099915436839443338 0 -0.082797533335191006 0.00044997740580787488 0 -0.082001987058797632 0.00099915436839443338 0 -0.08142691189765848 7.480743482296651e-05 0 -0.081993210704219111 0.0018718221960961653 0 -0.082001987058797632 0.00099915436839443338 0 -0.081037952673935626 0.0010287592393334751 0 -0.082001987058797632 0.00099915436839443338 0 -0.081037952673935626 0.0010287592393334751 0 -0.08142691189765848 7.480743482296651e-05 0 -0.05382649698738752 -0.0011441372646874848 0 -0.053645137827763659 -0.0019665146984066185 0 -0.052882536023695428 -0.0013506257999478587 0 -0.081037952673935626 0.0010287592393334751 0 -0.08142691189765848 7.480743482296651e-05 0 -0.079918073819244734 -0.00027738722946955228 0 -0.054783135360472864 -0.00093674078075749417 0 -0.05382649698738752 -0.0011441372646874848 0 -0.054772395860595249 -0.0020737311953858951 0 -0.075364820302776095 0.00059192731053572052 0 -0.06655522763498388 -0.0011472038035697813 0 -0.053645137827763659 -0.0019665146984066185 0 -0.054772395860595249 -0.0020737311953858951 0 -0.053748080035783179 -0.0028667232507426006 0 -0.05382649698738752 -0.0011441372646874848 0 -0.053645137827763659 -0.0019665146984066185 0 -0.054772395860595249 -0.0020737311953858951 0 -0.073547065861979469 0.0055168385554570766 0 -0.07272820033392266 0.0025461760542710024 0 -0.076619719871450109 0.0031504400113928264 0 -0.072775575415991514 0.0011379415413563826 0 -0.07272820033392266 0.0025461760542710024 0 -0.076619719871450109 0.0031504400113928264 0 -0.072775575415991514 0.0011379415413563826 0 -0.073630515149181092 -0.00049925384591372672 0 -0.076619719871450109 0.0031504400113928264 0 -0.071318299482709929 0.0016149430004496462 0 -0.072679232632243643 0.0012467286014209882 0 -0.070815050967328444 -0.00038589163044201535 0 -0.071318299482709929 0.0016149430004496462 0 -0.072679232632243643 0.0012467286014209882 0 -0.071609956210759856 0.0033928673432764918 0 -0.067798188217234198 0.00037956036581982618 0 -0.067870048009513795 0.00047124754925057498 0 -0.073547065861979469 0.0055168385554570766 0 -0.071609956210759856 0.0033928673432764918 0 -0.07272820033392266 0.0025461760542710024 0 -0.067798188217234198 0.00037956036581982618 0 -0.067991774169057412 0.00049944405490938469 0 -0.072769172796471687 0.001136553649240808 0 -0.071609956210759856 0.0033928673432764918 0 -0.07272820033392266 0.0025461760542710024 0 -0.075364820302776095 0.00059192731053572052 0 -0.064059283994729682 -0.0012358727499764603 0 -0.067674712863312766 0.004197404764118489 0 -0.06992413052875375 0.0015785138467239934 0 -0.067865145985161301 -0.0014255102070326912 0 -0.067674712863312766 0.004197404764118489 0 -0.071609956210759856 0.0033928673432764918 0 -0.06992413052875375 0.0015785138467239934 0 -0.071318299482709929 0.0016149430004496462 0 -0.06992413052875375 0.0015785138467239934 0 -0.070815050967328444 -0.00038589163044201535 0 -0.071318299482709929 0.0016149430004496462 0 -0.071609956210759856 0.0033928673432764918 0 -0.06992413052875375 0.0015785138467239934 0 -0.070815050967328444 -0.00038589163044201535 0 -0.067865145985161301 -0.0014255102070326912 0 -0.070364876718371897 -0.0040979852792051123 0 -0.06992413052875375 0.0015785138467239934 0 -0.070815050967328444 -0.00038589163044201535 0 -0.067865145985161301 -0.0014255102070326912 0 -0.06388438785628732 -0.0023741089183592474 0 -0.064097397708262366 -0.0021079055610873556 0 -0.06318793178291944 -0.0010594478045342125 0 -0.070815050967328444 -0.00038589163044201535 0 -0.072740973925063401 -0.001207164874823165 0 -0.070364876718371897 -0.0040979852792051123 0 -0.065718832424565124 -0.00031138723370955333 0 -0.060412952239845004 -0.00095161180448747327 0 -0.072679232632243643 0.0012467286014209882 0 -0.070815050967328444 -0.00038589163044201535 0 -0.072740973925063401 -0.001207164874823165 0 -0.065988668986319207 -0.0016115792812384576 0 -0.064513798117428967 0.0011981835430443942 0 -0.065829923697373172 0.0028250579709821616 0 -0.067798188217234198 0.00037956036581982618 0 -0.065718832424565124 -0.00031138723370955333 0 -0.067798188217234198 0.00037956036581982618 0 -0.069110059899869847 0.00011841966066811657 0 -0.069110059899869847 0.00011841966066811657 0 -0.065718832424565124 -0.00031138723370955333 0 -0.096913038051643557 -0.0027863388898629379 0 -0.097061289978470439 -0.0028032837870789092 0 -0.097043362250060855 -0.0028799982516663439 0 -0.069110059899869847 0.00011841966066811657 0 -0.073863751451665585 -0.0029358954092014258 0 -0.096913038051643557 -0.0027863388898629379 0 -0.097061289978470439 -0.0028032837870789092 0 -0.096975564079229276 -0.0026717551770693926 0 -0.069110059899869847 0.00011841966066811657 0 -0.081192481120887949 0.0025384811015242976 0 -0.097061289978470439 -0.0028032837870789092 0 -0.096975564079229276 -0.0026717551770693926 0 -0.097189722194361866 -0.0027666019576649266 0 -0.096975564079229276 -0.0026717551770693926 0 -0.097189722194361866 -0.0027666019576649266 0 -0.097141689278245916 -0.0026001787846323039 0 -0.097061289978470439 -0.0028032837870789092 0 -0.097189722194361866 -0.0027666019576649266 0 -0.097184200775114429 -0.0028587279972663239 0 -0.097061289978470439 -0.0028032837870789092 0 -0.097184200775114429 -0.0028587279972663239 0 -0.097043362250060855 -0.0028799982516663439 0 -0.097184200775114429 -0.0028587279972663239 0 -0.097360137430287416 -0.002832690484167621 0 -0.097311861976600939 -0.0028552799809441779 0 -0.097189722194361866 -0.0027666019576649266 0 -0.097184200775114429 -0.0028587279972663239 0 -0.097360137430287416 -0.002832690484167621 0 -0.097421351411697665 -0.0028119332589158085 0 -0.097605601755694507 -0.0028345837636259757 0 -0.097311861976600939 -0.0028552799809441779 0 -0.097360137430287416 -0.002832690484167621 0 -0.097605601755694507 -0.0028345837636259757 0 -0.097311861976600939 -0.0028552799809441779 0 -0.097360137430287416 -0.002832690484167621 0 -0.097605601755694507 -0.0028345837636259757 0 -0.097491560042081177 -0.0027409656223207112 0 -0.09820780514322773 -0.0028544856649567519 0 -0.097605601755694507 -0.0028345837636259757 0 -0.097491560042081177 -0.0027409656223207112 0 -0.097189722194361866 -0.0027666019576649266 0 -0.097360137430287416 -0.002832690484167621 0 -0.097491560042081177 -0.0027409656223207112 0 -0.097189722194361866 -0.0027666019576649266 0 -0.097491560042081177 -0.0027409656223207112 0 -0.097141689278245916 -0.0026001787846323039 0 -0.097491560042081177 -0.0027409656223207112 0 -0.097086307672458072 -0.0023436295929087285 0 -0.097141689278245916 -0.0026001787846323039 0 -0.097491560042081177 -0.0027409656223207112 0 -0.097086307672458072 -0.0023436295929087285 0 -0.097774614250830477 -0.0021476724628134922 0 -0.09820780514322773 -0.0028544856649567519 0 -0.097491560042081177 -0.0027409656223207112 0 -0.097774614250830477 -0.0021476724628134922 0 -0.09913669592145867 -0.0015561889048316057 0 -0.09820780514322773 -0.0028544856649567519 0 -0.097774614250830477 -0.0021476724628134922 0 -0.09913669592145867 -0.0015561889048316057 0 -0.098111417850313423 -0.0012457560310185777 0 -0.097774614250830477 -0.0021476724628134922 0 -0.097225520994219841 -0.0013676633733852115 0 -0.098111417850313423 -0.0012457560310185777 0 -0.097774614250830477 -0.0021476724628134922 0 -0.097225520994219841 -0.0013676633733852115 0 -0.097086307672458072 -0.0023436295929087285 0 -0.097774614250830477 -0.0021476724628134922 0 -0.10034462698058537 0.0015970723598430095 0 -0.099888332130984969 0.0015144862234547066 0 -0.099879399218301593 0.0010349253363213691 0 -0.097225520994219841 -0.0013676633733852115 0 -0.097086307672458072 -0.0023436295929087285 0 -0.096662998174618042 -0.0024608470774050433 0 -0.095283092434821998 0.0026896501440356623 0 -0.089677995124974555 0.003841520602494204 0 -0.099888332130984969 0.0015144862234547066 0 -0.099500219998826037 0.00135394067989124 0 -0.099879399218301593 0.0010349253363213691 0 -0.073547065861979469 0.0055168385554570766 0 -0.076619719871450109 0.0031504400113928264 0 -0.079644496578172047 0.0068464492023267015 0 -0.085058759922563176 0.0028011438463937019 0 -0.089677995124974555 0.003841520602494204 0 -0.081192481120887949 0.0025384811015242976 0 -0.089677995124974555 0.003841520602494204 0 -0.099164152763291658 0.0008815584932212637 0 -0.099500219998826037 0.00135394067989124 0 -0.099879399218301593 0.0010349253363213691 0 -0.096975564079229276 -0.0026717551770693926 0 -0.097141689278245916 -0.0026001787846323039 0 -0.09703089638149745 -0.0024519823373707768 0 -0.097086307672458072 -0.0023436295929087285 0 -0.097141689278245916 -0.0026001787846323039 0 -0.09703089638149745 -0.0024519823373707768 0 -0.090588489342144127 0.0037285109224629645 0 -0.089677995124974555 0.003841520602494204 0 -0.065750145931550041 -0.0017538470739846095 0 -0.064812451697677936 -0.0026308051053562436 0 -0.064805925051342514 -0.00080606569395053594 0 -0.065750145931550041 -0.0017538470739846095 0 -0.066432941303875212 -0.0015011408515998254 0 -0.064805925051342514 -0.00080606569395053594 0 -0.065750145931550041 -0.0017538470739846095 0 -0.064812451697677936 -0.0026308051053562436 0 -0.066711120171643143 -0.0020635382613844863 0 -0.063403836734278823 -0.0018920547660141087 0 -0.064812451697677936 -0.0026308051053562436 0 -0.062299048493018455 -0.0030360665183129377 0 -0.063403836734278823 -0.0018920547660141087 0 -0.064805925051342514 -0.00080606569395053594 0 -0.061548751958221688 -0.0010683422602304016 0 -0.063403836734278823 -0.0018920547660141087 0 -0.064812451697677936 -0.0026308051053562436 0 -0.064805925051342514 -0.00080606569395053594 0 -0.070117810905329883 -0.0011706163295316359 0 -0.068768442071461225 -0.002400975697199409 0 -0.071571514630797931 -0.0022088406816987123 0 -0.066807384962554187 -0.0018442485754705331 0 -0.066985390705011458 -0.0014866745705380113 0 -0.070117810905329883 -0.0011706163295316359 0 -0.068446467176989961 -0.0012539890117263717 0 -0.068768442071461225 -0.002400975697199409 0 -0.066807384962554187 -0.0018442485754705331 0 -0.066770173708822753 -0.0019142326161961365 0 -0.067424622811910431 -0.0017720053195985897 0 -0.066947281421613741 -0.0016448085918747341 0 -0.067720512686785139 -0.0012526524751491183 0 -0.068768442071461225 -0.002400975697199409 0 -0.067424622811910431 -0.0017720053195985897 0 -0.066711120171643143 -0.0020635382613844863 0 -0.068446467176989961 -0.0012539890117263717 0 -0.068768442071461225 -0.002400975697199409 0 -0.067424622811910431 -0.0017720053195985897 0 -0.068446467176989961 -0.0012539890117263717 0 -0.067424622811910431 -0.0017720053195985897 0 -0.068251015698443621 -2.7323429970690307e-05 0 -0.077329988620984627 -0.0008249675073164688 0 -0.079531258945424552 0.0011650671112750121 0 -0.066947281421613741 -0.0016448085918747341 0 -0.067064592285667773 -0.001971613691744532 0 -0.066711120171643143 -0.0020635382613844863 0 -0.067424622811910431 -0.0017720053195985897 0 -0.066947281421613741 -0.0016448085918747341 0 -0.066711120171643143 -0.0020635382613844863 0 -0.082207459424825616 -1.0364750472614948e-05 0 -0.083236603514788454 -0.0011222963236210538 0 -0.067064592285667773 -0.001971613691744532 0 -0.067072716740283117 -0.0016065153127159057 0 -0.066711120171643143 -0.0020635382613844863 0 -0.067072716740283117 -0.0016065153127159057 0 -0.066711120171643143 -0.0020635382613844863 0 -0.066432941303875212 -0.0015011408515998254 0 -0.067072716740283117 -0.0016065153127159057 0 -0.066432941303875212 -0.0015011408515998254 0 -0.066743707812425959 -0.001012160051631223 0 -0.065750145931550041 -0.0017538470739846095 0 -0.066711120171643143 -0.0020635382613844863 0 -0.066432941303875212 -0.0015011408515998254 0 -0.066432941303875212 -0.0015011408515998254 0 -0.066743707812425959 -0.001012160051631223 0 -0.064805925051342514 -0.00080606569395053594 0 -0.023856279289312346 -0.0085458011456711544 0 -0.024919246975143826 -0.0072178730569889904 0 -0.026406815175209191 -0.0081466643144047206 0 -0.067072716740283117 -0.0016065153127159057 0 -0.066743707812425959 -0.001012160051631223 0 -0.067529258752979729 -0.0010392332719310012 0 -0.046058513475083968 -0.0055004304855569269 0 -0.0525269006915869 -0.0064439925706207034 0 -0.023856279289312346 -0.0085458011456711544 0 -0.024919246975143826 -0.0072178730569889904 0 -0.023637256197798641 -0.0063851568441326972 0 -0.023856279289312346 -0.0085458011456711544 0 -0.021994839879261343 -0.0071474245807861183 0 -0.023637256197798641 -0.0063851568441326972 0 -0.046058513475083968 -0.0055004304855569269 0 -0.043213085963517778 -0.004576019210577268 0 -0.023856279289312346 -0.0085458011456711544 0 -0.021994839879261343 -0.0071474245807861183 0 -0.021265015396818878 -0.0087978412341000335 0 -0.021265015396818878 -0.0087978412341000335 0 -0.020494441687096566 -0.0074031287059267209 0 -0.019842757548115725 -0.0083318361011060597 0 -0.021994839879261343 -0.0071474245807861183 0 -0.021265015396818878 -0.0087978412341000335 0 -0.020494441687096566 -0.0074031287059267209 0 -0.043213085963517778 -0.004576019210577268 0 -0.041540877988668443 -0.0033024094984803122 0 -0.021994839879261343 -0.0071474245807861183 0 -0.020494441687096566 -0.0074031287059267209 0 -0.020782895070103398 -0.0061017521727008105 0 -0.020494441687096566 -0.0074031287059267209 0 -0.019662592323337391 -0.0064141600866061401 0 -0.020782895070103398 -0.0061017521727008105 0 -0.019688154490292251 -0.0072155576234572841 0 -0.018971905054310467 -0.0068002663589132586 0 -0.019842757548115725 -0.0083318361011060597 0 -0.020494441687096566 -0.0074031287059267209 0 -0.019662592323337391 -0.0064141600866061401 0 -0.019688154490292251 -0.0072155576234572841 0 -0.019662592323337391 -0.0064141600866061401 0 -0.019688154490292251 -0.0072155576234572841 0 -0.018971905054310467 -0.0068002663589132586 0 -0.018971905054310467 -0.0068002663589132586 0 -0.017636728451720061 -0.0066255973193577239 0 -0.019842757548115725 -0.0083318361011060597 0 -0.020494441687096566 -0.0074031287059267209 0 -0.019688154490292251 -0.0072155576234572841 0 -0.019842757548115725 -0.0083318361011060597 0 -0.019794350912576548 -0.008538984255311452 0 -0.01975744680771931 -0.0084520010950921397 0 -0.019809316157605936 -0.0084687972293631657 0 -0.019794350912576548 -0.008538984255311452 0 -0.019809316157605936 -0.0084687972293631657 0 -0.019854814418856854 -0.008495186295814007 0 -0.022991309838345856 -0.0045386130130627171 0 -0.021929399974935326 -0.0054971166032431419 0 -0.01975744680771931 -0.0084520010950921397 0 -0.019842597090787981 -0.0084348702839868173 0 -0.019651025732614808 -0.0085870710530848351 0 -0.019794350912576548 -0.008538984255311452 0 -0.01975744680771931 -0.0084520010950921397 0 -0.019842757548115725 -0.0083318361011060597 0 -0.01975744680771931 -0.0084520010950921397 0 -0.019809316157605936 -0.0084687972293631657 0 -0.019842597090787981 -0.0084348702839868173 0 -0.01975744680771931 -0.0084520010950921397 0 -0.019842757548115725 -0.0083318361011060597 0 -0.019651025732614808 -0.0085870710530848351 0 -0.021265015396818878 -0.0087978412341000335 0 -0.019842757548115725 -0.0083318361011060597 0 -0.019651025732614808 -0.0085870710530848351 0 -0.053645137827763659 -0.0019665146984066185 0 -0.052866824417214624 -0.0023079967503559676 0 -0.052882536023695428 -0.0013506257999478587 0 -0.045112528361058848 -0.0038591194202857618 0 -0.055527090476114614 -0.0035191112474037183 0 -0.041732208222850738 -0.00523466475220401 0 -0.042910879825683104 -0.0053730204546668771 0 -0.041786301333529417 -0.0093163261101325816 0 -0.01990374033842324 -0.0084871681120229948 0 -0.019967345370525278 -0.00855058676272967 0 -0.019920952344932293 -0.0084631043546657559 0 -0.037049583959119309 -0.0054726764918560308 0 -0.045030286860625962 -0.0053446199963267573 0 -0.019794350912576548 -0.008538984255311452 0 -0.019967345370525278 -0.00855058676272967 0 -0.019854814418856854 -0.008495186295814007 0 -0.01990374033842324 -0.0084871681120229948 0 -0.019967345370525278 -0.00855058676272967 0 -0.019854814418856854 -0.008495186295814007 0 -0.019842597090787981 -0.0084348702839868173 0 -0.019920952344932293 -0.0084631043546657559 0 -0.019927105971725707 -0.0083264993671187653 0 -0.042910879825683104 -0.0053730204546668771 0 -0.043461759775670475 -0.0089546180327927626 0 -0.041786301333529417 -0.0093163261101325816 0 -0.045030286860625962 -0.0053446199963267573 0 -0.044534311863343577 -0.00016485931503283576 0 -0.057409377976339597 0.00084588033305999866 0 -0.056148709590079011 0.0005727039762556586 0 -0.05704415767262648 -0.0016701230848186008 0 -0.019809316157605936 -0.0084687972293631657 0 -0.019860862572617759 -0.0084668133211170168 0 -0.019842597090787981 -0.0084348702839868173 0 -0.01990374033842324 -0.0084871681120229948 0 -0.019860862572617759 -0.0084668133211170168 0 -0.019920952344932293 -0.0084631043546657559 0 -0.019809316157605936 -0.0084687972293631657 0 -0.019854814418856854 -0.008495186295814007 0 -0.019860862572617759 -0.0084668133211170168 0 -0.01990374033842324 -0.0084871681120229948 0 -0.019854814418856854 -0.008495186295814007 0 -0.019860862572617759 -0.0084668133211170168 0 -0.019860862572617759 -0.0084668133211170168 0 -0.019842597090787981 -0.0084348702839868173 0 -0.019920952344932293 -0.0084631043546657559 0 -0.06655522763498388 -0.0011472038035697813 0 -0.055527090476114614 -0.0035191112474037183 0 -0.045030286860625962 -0.0053446199963267573 0 -0.055527090476114614 -0.0035191112474037183 0 -0.055527090476114614 -0.0035191112474037183 0 -0.070880632061138441 0.0013955779565758579 0 -0.081037952673935626 0.0010287592393334751 0 -0.079918073819244734 -0.00027738722946955228 0 -0.079935325648416863 0.0018079298833163127 0 -0.056148709590079011 0.0005727039762556586 0 -0.05704415767262648 -0.0016701230848186008 0 -0.056221929985216842 -0.0035624846116333641 0 -0.057409377976339597 0.00084588033305999866 0 -0.05704415767262648 -0.0016701230848186008 0 -0.057770967766980687 -0.0015386070997548669 0 -0.044534311863343577 -0.00016485931503283576 0 -0.045327657672187098 -0.0008939252702870492 0 -0.05704415767262648 -0.0016701230848186008 0 -0.057777986505511351 -0.0015382874847264211 0 -0.058026615776216844 -0.0031533107373504007 0 -0.045083561899304597 -0.0001096542951287579 0 -0.044534311863343577 -0.00016485931503283576 0 -0.057819945126969322 -0.0016158006680951403 0 -0.058026615776216844 -0.0031533107373504007 0 -0.059520001580825148 -0.0023183771385725197 0 -0.070880632061138441 0.0013955779565758579 0 -0.067672068987670253 -0.00058803141545829465 0 -0.058026615776216844 -0.0031533107373504007 0 -0.056221929985216842 -0.0035624846116333641 0 -0.059361806286667998 -0.0033371105510817869 0 -0.076657613026563945 -0.0017364897642516872 0 -0.074145752406222912 -0.0019487733845054811 0 -0.075357106110423261 -0.00070945334099022919 0 -0.058026615776216844 -0.0031533107373504007 0 -0.059520001580825148 -0.0023183771385725197 0 -0.059361806286667998 -0.0033371105510817869 0 -0.074145752406222912 -0.0019487733845054811 0 -0.074111088480834239 -0.00037521041363179983 0 -0.075357106110423261 -0.00070945334099022919 0 -0.05704415767262648 -0.0016701230848186008 0 -0.058026615776216844 -0.0031533107373504007 0 -0.056221929985216842 -0.0035624846116333641 0 -0.076657613026563945 -0.0017364897642516872 0 -0.07665507412145578 0.0001096673770406668 0 -0.075357106110423261 -0.00070945334099022919 0 -0.070880632061138441 0.0013955779565758579 0 -0.075375680111985865 0.0017092948383984087 0 -0.063403836734278823 -0.0018920547660141087 0 -0.061548751958221688 -0.0010683422602304016 0 -0.062299048493018455 -0.0030360665183129377 0 -0.061548751958221688 -0.0010683422602304016 0 -0.060784201049021505 -0.0024750114203639147 0 -0.062299048493018455 -0.0030360665183129377 0 -0.019842597090787981 -0.0084348702839868173 0 -0.019927105971725707 -0.0083264993671187653 0 -0.019651025732614808 -0.0085870710530848351 0 -0.044534311863343577 -0.00016485931503283576 0 -0.041540877988668443 -0.0033024094984803122 0 -0.057819945126969322 -0.0016158006680951403 0 -0.061548751958221688 -0.0010683422602304016 0 -0.059520001580825148 -0.0023183771385725197 0 -0.059520001580825148 -0.0023183771385725197 0 -0.060784201049021505 -0.0024750114203639147 0 -0.059361806286667998 -0.0033371105510817869 0 -0.061548751958221688 -0.0010683422602304016 0 -0.059520001580825148 -0.0023183771385725197 0 -0.060784201049021505 -0.0024750114203639147 0 -0.067672068987670253 -0.00058803141545829465 0 -0.066985390705011458 -0.0014866745705380113 0 -0.074145752406222912 -0.0019487733845054811 0 -0.073113818065651259 -0.0012178225950048669 0 -0.071571514630797931 -0.0022088406816987123 0 -0.060784201049021505 -0.0024750114203639147 0 -0.059361806286667998 -0.0033371105510817869 0 -0.062299048493018455 -0.0030360665183129377 0 -0.074145752406222912 -0.0019487733845054811 0 -0.073113818065651259 -0.0012178225950048669 0 -0.074111088480834239 -0.00037521041363179983 0 -0.071571514630797931 -0.0022088406816987123 0 -0.07120319298766957 -0.00043891963750480119 0 -0.072604166709689805 -0.00035785070344006845 0 -0.073113818065651259 -0.0012178225950048669 0 -0.071571514630797931 -0.0022088406816987123 0 -0.072604166709689805 -0.00035785070344006845 0 -0.070117810905329883 -0.0011706163295316359 0 -0.071571514630797931 -0.0022088406816987123 0 -0.07120319298766957 -0.00043891963750480119 0 -0.071313412795398573 0.00096628904686302578 0 -0.072604166709689805 -0.00035785070344006845 0 -0.073982691934448841 0.0014482588426755893 0 -0.07120319298766957 -0.00043891963750480119 0 -0.071313412795398573 0.00096628904686302578 0 -0.072604166709689805 -0.00035785070344006845 0 -0.072604166709689805 -0.00035785070344006845 0 -0.074111088480834239 -0.00037521041363179983 0 -0.073982691934448841 0.0014482588426755893 0 -0.073113818065651259 -0.0012178225950048669 0 -0.072604166709689805 -0.00035785070344006845 0 -0.074111088480834239 -0.00037521041363179983 0 -0.071313412795398573 0.00096628904686302578 0 -0.072337429142296503 0.0032620253491273247 0 -0.069684585603852128 0.0027251526566556268 0 -0.071313412795398573 0.00096628904686302578 0 -0.074420266920694464 0.0015328110422875322 0 -0.072337429142296503 0.0032620253491273247 0 -0.073407837663209463 0.0013795955471555153 0 -0.075029308464407224 0.0017003814066152646 0 -0.081700332560674452 0.0023545313859606393 0 -0.081079683608708278 0.0018298064387518294 0 -0.081077436059939639 0.0024061197120225798 0 -0.07665507412145578 0.0001096673770406668 0 -0.075352472977277471 0.00048690609983046969 0 -0.076650951762904235 0.001959660141848701 0 -0.081700332560674452 0.0023545313859606393 0 -0.081077436059939639 0.0024061197120225798 0 -0.081158999191629139 0.0030131982766143676 0 -0.080474834798666142 0.0022732346328959646 0 -0.079893201104167658 0.0025878901859231083 0 -0.074111088480834239 -0.00037521041363179983 0 -0.073982691934448841 0.0014482588426755893 0 -0.075352472977277471 0.00048690609983046969 0 -0.07665507412145578 0.0001096673770406668 0 -0.075352472977277471 0.00048690609983046969 0 -0.075357106110423261 -0.00070945334099022919 0 -0.074111088480834239 -0.00037521041363179983 0 -0.075352472977277471 0.00048690609983046969 0 -0.075357106110423261 -0.00070945334099022919 0 -0.074420266920694464 0.0015328110422875322 0 -0.077463136216475978 0.0025710458434967743 0 -0.07746556293429363 0.0021225616403604676 0 -0.073982691934448841 0.0014482588426755893 0 -0.075352472977277471 0.00048690609983046969 0 -0.076650951762904235 0.001959660141848701 0 -0.075029308464407224 0.0017003814066152646 0 -0.079052731976070309 0.0025120412582219595 0 -0.075375680111985865 0.0017092948383984087 0 -0.079052731976070309 0.0025120412582219595 0 -0.081077436059939639 0.0024061197120225798 0 -0.081071291001023213 0.0029959395987609249 0 -0.081158999191629139 0.0030131982766143676 0 -0.084326447443615588 0.0035375655537926128 0 -0.086286913185419686 0.0039488017667316634 0 -0.08566707268847093 0.0031470511870469093 0 -0.081642134026257682 0.0029366871076917699 0 -0.079893201104167658 0.0025878901859231083 0 -0.080487874987960464 0.0012437451295141885 0 -0.080464638957862489 0.0055262076098285167 0 -0.077480512693611114 0.0049445103196359341 0 -0.079696009379893948 0.0027929870249287876 0 -0.079893201104167658 0.0025878901859231083 0 -0.079696009379893948 0.0027929870249287876 0 -0.079052731976070309 0.0025120412582219595 0 -0.079052731976070309 0.0025120412582219595 0 -0.079893201104167658 0.0025878901859231083 0 -0.086605671338021314 0.0035458608680160788 0 -0.086286913185419686 0.0039488017667316634 0 -0.08566707268847093 0.0031470511870469093 0 -0.074420266920694464 0.0015328110422875322 0 -0.077463136216475978 0.0025710458434967743 0 -0.075082703104772996 0.0054949535902658097 0 -0.084706030039418359 0.0019945770945446872 0 -0.08566707268847093 0.0031470511870469093 0 -0.086397300384820797 0.0026788031529092517 0 -0.079696009379893948 0.0027929870249287876 0 -0.079892885130964875 0.0027977104275155179 0 -0.086467646115811467 0.0026126866401106389 0 -0.086397300384820797 0.0026788031529092517 0 -0.086503386507158941 0.0026231220036315116 0 -0.086605671338021314 0.0035458608680160788 0 -0.086397300384820797 0.0026788031529092517 0 -0.086503386507158941 0.0026231220036315116 0 -0.086605671338021314 0.0035458608680160788 0 -0.08566707268847093 0.0031470511870469093 0 -0.086397300384820797 0.0026788031529092517 0 -0.086467646115811467 0.0026126866401106389 0 -0.086503386507158941 0.0026231220036315116 0 -0.086522870247900632 0.0025939376470902231 0 -0.086503386507158941 0.0026231220036315116 0 -0.086565612780448054 0.0025964883582799423 0 -0.086522870247900632 0.0025939376470902231 0 -0.079696009379893948 0.0027929870249287876 0 -0.082173880026689891 0.0041137996666716723 0 -0.086496420707749599 0.0026437617233137827 0 -0.086503386507158941 0.0026231220036315116 0 -0.086565612780448054 0.0025964883582799423 0 -0.086565612780448054 0.0025964883582799423 0 -0.086522870247900632 0.0025939376470902231 0 -0.086545933147300261 0.0025757414831467248 0 -0.086540270797758459 0.0025752487905844087 0 -0.086511327203277019 0.0025856002121986666 0 -0.086545933147300261 0.0025757414831467248 0 -0.086522870247900632 0.0025939376470902231 0 -0.086511327203277019 0.0025856002121986666 0 -0.086545933147300261 0.0025757414831467248 0 -0.086467646115811467 0.0026126866401106389 0 -0.086522870247900632 0.0025939376470902231 0 -0.086511327203277019 0.0025856002121986666 0 -0.074420266920694464 0.0015328110422875322 0 -0.075082703104772996 0.0054949535902658097 0 -0.072337429142296503 0.0032620253491273247 0 -0.072337429142296503 0.0032620253491273247 0 -0.071214439475071167 0.005569282065436461 0 -0.069684585603852128 0.0027251526566556268 0 -0.075082703104772996 0.0054949535902658097 0 -0.072337429142296503 0.0032620253491273247 0 -0.071214439475071167 0.005569282065436461 0 -0.075082703104772996 0.0054949535902658097 0 -0.071214439475071167 0.005569282065436461 0 -0.07274455469000958 0.0083885800916907952 0 -0.10255485514085531 0.0015507556997568924 0 -0.10236196558279648 0.001770638995085147 0 -0.10246535606527719 0.0017537425757763344 0 -0.10255485514085531 0.0015507556997568924 0 -0.10236196558279648 0.001770638995085147 0 -0.10213850972726311 0.0012352180119266762 0 -0.10236196558279648 0.001770638995085147 0 -0.10153048120078519 0.0010879086253273425 0 -0.10213850972726311 0.0012352180119266762 0 -0.10228078381066569 0.0015307809955933105 0 -0.10219060903898523 0.0014108008675768342 0 -0.10257324328538993 0.0018240454141041002 0 -0.10275550733153027 0.0019748350831285855 0 -0.10274484086911162 0.001884618889825307 0 -0.10236196558279648 0.001770638995085147 0 -0.10257324328538993 0.0018240454141041002 0 -0.10275550733153027 0.0019748350831285855 0 -0.10184424467864239 0.00095908273964535765 0 -0.10227215309924005 0.00068774385094080165 0 -0.10152719987766182 0.00074200110486756531 0 -0.10153048120078519 0.0010879086253273425 0 -0.10184424467864239 0.00095908273964535765 0 -0.10213850972726311 0.0012352180119266762 0 -0.10153048120078519 0.0010879086253273425 0 -0.10184424467864239 0.00095908273964535765 0 -0.10152719987766182 0.00074200110486756531 0 -0.10255485514085531 0.0015507556997568924 0 -0.10213850972726311 0.0012352180119266762 0 -0.10227215309924005 0.00068774385094080165 0 -0.086403489855244889 0.0031418257889037817 0 -0.083806105742364537 0.0023638183516744302 0 -0.10184424467864239 0.00095908273964535765 0 -0.10213850972726311 0.0012352180119266762 0 -0.10227215309924005 0.00068774385094080165 0 -0.071313412795398573 0.00096628904686302578 0 -0.069684585603852128 0.0027251526566556268 0 -0.069572155992492182 0.0004678903768506015 0 -0.083806105742364537 0.0023638183516744302 0 -0.079531258945424552 0.0011650671112750121 0 -0.10227215309924005 0.00068774385094080165 0 -0.10152719987766182 0.00074200110486756531 0 -0.10169543908842026 -0.00070548517898322467 0 -0.10152719987766182 0.00074200110486756531 0 -0.10169543908842026 -0.00070548517898322467 0 -0.10020497721026288 -0.00042395384777646781 0 -0.079531258945424552 0.0011650671112750121 0 -0.077642221332832245 0.00063214978499763442 0 -0.068446467176989961 -0.0012539890117263717 0 -0.068251015698443621 -2.7323429970690307e-05 0 -0.069572155992492182 0.0004678903768506015 0 -0.070117810905329883 -0.0011706163295316359 0 -0.068446467176989961 -0.0012539890117263717 0 -0.069572155992492182 0.0004678903768506015 0 -0.069684585603852128 0.0027251526566556268 0 -0.068257895507824545 -2.2261471020425286e-05 0 -0.069572155992492182 0.0004678903768506015 0 -0.070117810905329883 -0.0011706163295316359 0 -0.07120319298766957 -0.00043891963750480119 0 -0.069572155992492182 0.0004678903768506015 0 -0.07120319298766957 -0.00043891963750480119 0 -0.071313412795398573 0.00096628904686302578 0 -0.069572155992492182 0.0004678903768506015 0 -0.083236603514788454 -0.0011222963236210538 0 -0.093787630659870641 0.0027680593370554875 0 -0.10172836580183178 0.00075278617840463164 0 -0.10154504342265798 0.00075758227305495942 0 -0.10182814861691486 0.00077611248710516775 0 -0.10032936551944632 -0.0013053679835193363 0 -0.098757919310349829 -0.0018711966896191642 0 -0.10020497721026288 -0.00042395384777646781 0 -0.082207459424825616 -1.0364750472614948e-05 0 -0.079531258945424552 0.0011650671112750121 0 -0.10032936551944632 -0.0013053679835193363 0 -0.10169543908842026 -0.00070548517898322467 0 -0.10020497721026288 -0.00042395384777646781 0 -0.096219428196361992 0.0032502402528880388 0 -0.093787630659870641 0.0027680593370554875 0 -0.10152719987766182 0.00074200110486756531 0 -0.10154504342265798 0.00075758227305495942 0 -0.10152908287210713 0.00069753736552318401 0 -0.10205583494997432 0.0011945899057937677 0 -0.10195051034989862 0.0010606761225396936 0 -0.10154504342265798 0.00075758227305495942 0 -0.10152908287210713 0.00069753736552318401 0 -0.10182814861691486 0.00077611248710516775 0 -0.10271899653434952 0.0014952061087047527 0 -0.10241880807610058 0.0017653610811317283 0 -0.10205318163329621 0.0012814655197792547 0 -0.10271899653434952 0.0014952061087047527 0 -0.10182814861691486 0.00077611248710516775 0 -0.10205318163329621 0.0012814655197792547 0 -0.10271899653434952 0.0014952061087047527 0 -0.10241880807610058 0.0017653610811317283 0 -0.10272378071074791 0.0019102189646754018 0 -0.10241880807610058 0.0017653610811317283 0 -0.10272378071074791 0.0019102189646754018 0 -0.10260128792043202 0.0021489145616131189 0 -0.10241880807610058 0.0017653610811317283 0 -0.10260128792043202 0.0021489145616131189 0 -0.10223605213539802 0.002116644970769215 0 -0.10219060903898523 0.0014108008675768342 0 -0.10205583494997432 0.0011945899057937677 0 -0.10275550733153027 0.0019748350831285855 0 -0.10271899653434952 0.0014952061087047527 0 -0.10272378071074791 0.0019102189646754018 0 -0.10153048120078519 0.0010879086253273425 0 -0.10152719987766182 0.00074200110486756531 0 -0.10152908287210713 0.00069753736552318401 0 -0.10272378071074791 0.0019102189646754018 0 -0.10274484086911162 0.001884618889825307 0 -0.10260128792043202 0.0021489145616131189 0 -0.10275550733153027 0.0019748350831285855 0 -0.10272378071074791 0.0019102189646754018 0 -0.10274484086911162 0.001884618889825307 0 -0.10165649846792246 0.0029505732213316749 0 -0.10195480596578205 0.0028522063455147417 0 -0.10289019745984443 0.0026614702531685035 0 -0.10260128792043202 0.0021489145616131189 0 -0.10274012585304612 0.0027674255190649152 0 -0.10260128792043202 0.0021489145616131189 0 -0.10274012585304612 0.0027674255190649152 0 -0.10247126235533442 0.0026629720428134702 0 -0.10274012585304612 0.0027674255190649152 0 -0.10266428987368686 0.002965053815755494 0 -0.10247126235533442 0.0026629720428134702 0 -0.10266428987368686 0.002965053815755494 0 -0.1027225914856776 0.0027511810282305656 0 -0.10290434026413005 0.0025097578367520444 0 -0.10266428987368686 0.002965053815755494 0 -0.10290434026413005 0.0025097578367520444 0 -0.10267361793145562 0.0029344280619483672 0 -0.10274012585304612 0.0027674255190649152 0 -0.10266428987368686 0.002965053815755494 0 -0.1027225914856776 0.0027511810282305656 0 -0.1027225914856776 0.0027511810282305656 0 -0.10275273423660902 0.002728740037803309 0 -0.10275700905752003 0.0027607627949416949 0 -0.1027225914856776 0.0027511810282305656 0 -0.10278568170823552 0.0027251126811467866 0 -0.10275273423660902 0.002728740037803309 0 -0.10274012585304612 0.0027674255190649152 0 -0.1027225914856776 0.0027511810282305656 0 -0.10278568170823552 0.0027251126811467866 0 -0.10289019745984443 0.0026614702531685035 0 -0.10274012585304612 0.0027674255190649152 0 -0.10278568170823552 0.0027251126811467866 0 -0.10165649846792246 0.0029505732213316749 0 -0.099922392815163893 0.0029206346723457664 0 -0.10257324328538993 0.0018240454141041002 0 -0.10274484086911162 0.001884618889825307 0 -0.10243523805277534 0.0017173858424672955 0 -0.10289019745984443 0.0026614702531685035 0 -0.10274365965934978 0.0026915093068433727 0 -0.10257698974341507 0.002768439086407417 0 -0.10289019745984443 0.0026614702531685035 0 -0.10278568170823552 0.0027251126811467866 0 -0.10274365965934978 0.0026915093068433727 0 -0.10274365965934978 0.0026915093068433727 0 -0.10257698974341507 0.002768439086407417 0 -0.10256220457240746 0.0024420271301512364 0 -0.10243523805277534 0.0017173858424672955 0 -0.10245150281004639 0.0017774277331612518 0 -0.10247387611899719 0.0018584286191681101 0 -0.099922392815163893 0.0029206346723457664 0 -0.093382718219861466 0.0013860356924768325 0 -0.10241675490218 0.0017522437973743565 0 -0.10245150281004639 0.0017774277331612518 0 -0.10246535606527719 0.0017537425757763344 0 -0.10241675490218 0.0017522437973743565 0 -0.10243523805277534 0.0017173858424672955 0 -0.10245150281004639 0.0017774277331612518 0 -0.10236196558279648 0.001770638995085147 0 -0.10241675490218 0.0017522437973743565 0 -0.10246535606527719 0.0017537425757763344 0 -0.10236196558279648 0.001770638995085147 0 -0.10257324328538993 0.0018240454141041002 0 -0.10243523805277534 0.0017173858424672955 0 -0.10236196558279648 0.001770638995085147 0 -0.10241675490218 0.0017522437973743565 0 -0.10243523805277534 0.0017173858424672955 0 -0.10257698974341507 0.002768439086407417 0 -0.10194550017231888 0.0022723866159773524 0 -0.10155619349192531 0.0023701518834815514 0 -0.10194550017231888 0.0022723866159773524 0 -0.10232138711676855 0.0022713065270163371 0 -0.10209673461597875 0.0020943781718404265 0 -0.10257698974341507 0.002768439086407417 0 -0.10194550017231888 0.0022723866159773524 0 -0.10232138711676855 0.0022713065270163371 0 -0.10257698974341507 0.002768439086407417 0 -0.10232138711676855 0.0022713065270163371 0 -0.10256220457240746 0.0024420271301512364 0 -0.10232138711676855 0.0022713065270163371 0 -0.10246156825455102 0.0021164155372665598 0 -0.10256220457240746 0.0024420271301512364 0 -0.10232138711676855 0.0022713065270163371 0 -0.10224710226987219 0.0018788347670717783 0 -0.10246156825455102 0.0021164155372665598 0 -0.10224710226987219 0.0018788347670717783 0 -0.10246156825455102 0.0021164155372665598 0 -0.1027082228474457 0.0018631108669912837 0 -0.10232138711676855 0.0022713065270163371 0 -0.10224710226987219 0.0018788347670717783 0 -0.10209673461597875 0.0020943781718404265 0 -0.10224710226987219 0.0018788347670717783 0 -0.10209673461597875 0.0020943781718404265 0 -0.10187073142781304 0.0019536222956951519 0 -0.10194550017231888 0.0022723866159773524 0 -0.10209673461597875 0.0020943781718404265 0 -0.10187073142781304 0.0019536222956951519 0 -0.10297107405684834 0.0022454557595887581 0 -0.10298300149502339 0.0020352555506911582 0 -0.10274365965934978 0.0026915093068433727 0 -0.10275273423660902 0.002728740037803309 0 -0.10277509342677037 0.0027449784822620453 0 -0.10274365965934978 0.0026915093068433727 0 -0.10256220457240746 0.0024420271301512364 0 -0.1027082228474457 0.0018631108669912837 0 -0.10278568170823552 0.0027251126811467866 0 -0.10274365965934978 0.0026915093068433727 0 -0.10275273423660902 0.002728740037803309 0 -0.10246156825455102 0.0021164155372665598 0 -0.10256220457240746 0.0024420271301512364 0 -0.1027082228474457 0.0018631108669912837 0 -0.10275700905752003 0.0027607627949416949 0 -0.10277509342677037 0.0027449784822620453 0 -0.10278120356005128 0.0027809395933510064 0 -0.10298300149502339 0.0020352555506911582 0 -0.1030381868454926 0.0014851055265499694 0 -0.10275273423660902 0.002728740037803309 0 -0.10275700905752003 0.0027607627949416949 0 -0.10277509342677037 0.0027449784822620453 0 -0.10307047867659459 0.001944712910301682 0 -0.1030381868454926 0.0014851055265499694 0 -0.1027082228474457 0.0018631108669912837 0 -0.10224999424975191 0.0014046091658687053 0 -0.10255480831459358 0.00093559882831941712 0 -0.10224710226987219 0.0018788347670717783 0 -0.10224999424975191 0.0014046091658687053 0 -0.10181154966015898 0.0014848176275473626 0 -0.10224710226987219 0.0018788347670717783 0 -0.10187073142781304 0.0019536222956951519 0 -0.10181154966015898 0.0014848176275473626 0 -0.10224710226987219 0.0018788347670717783 0 -0.1027082228474457 0.0018631108669912837 0 -0.10224999424975191 0.0014046091658687053 0 -0.10224999424975191 0.0014046091658687053 0 -0.10190211168315559 0.0009686830501393957 0 -0.10181154966015898 0.0014848176275473626 0 -0.1030381868454926 0.0014851055265499694 0 -0.10266665521627343 0.00056960746787204284 0 -0.10190211168315559 0.0009686830501393957 0 -0.10255480831459358 0.00093559882831941712 0 -0.10175999464403965 0.00011990700402692397 0 -0.10224999424975191 0.0014046091658687053 0 -0.10190211168315559 0.0009686830501393957 0 -0.10255480831459358 0.00093559882831941712 0 -0.10235395771195041 0.0023497410572220364 0 -0.10260509876256607 0.0022664516091895604 0 -0.10229646485446282 0.0020046805401826287 0 -0.1025256899784654 0.0025340589606087107 0 -0.10235395771195041 0.0023497410572220364 0 -0.10260509876256607 0.0022664516091895604 0 -0.10357934367473884 0.0015183676421652071 0 -0.10334507157821265 0.0018243288209631068 0 -0.10290434026413005 0.0025097578367520444 0 -0.10349192686880253 0.0016470644655210379 0 -0.10350328107999926 0.0019331431447723198 0 -0.10334507157821265 0.0018243288209631068 0 -0.10290434026413005 0.0025097578367520444 0 -0.10309840545616709 0.0021889555172140435 0 -0.10334507157821265 0.0018243288209631068 0 -0.10355044689901183 0.001569085251456223 0 -0.10309840545616709 0.0021889555172140435 0 -0.10260509876256607 0.0022664516091895604 0 -0.10290434026413005 0.0025097578367520444 0 -0.10268970276610603 0.0025088285204427335 0 -0.1025256899784654 0.0025340589606087107 0 -0.10260509876256607 0.0022664516091895604 0 -0.10268970276610603 0.0025088285204427335 0 -0.1027225914856776 0.0027511810282305656 0 -0.10290434026413005 0.0025097578367520444 0 -0.10268970276610603 0.0025088285204427335 0 -0.10307947240756102 0.0020857575286671206 0 -0.10307047867659459 0.001944712910301682 0 -0.1027225914856776 0.0027511810282305656 0 -0.1025256899784654 0.0025340589606087107 0 -0.10268970276610603 0.0025088285204427335 0 -0.086568583988060485 0.0025644461425114451 0 -0.086590096779352269 0.0025581800543574224 0 -0.086600372941301032 0.002548745159444336 0 -0.08658394831635717 0.0025565734130061062 0 -0.086568583988060485 0.0025644461425114451 0 -0.086600372941301032 0.002548745159444336 0 -0.086568583988060485 0.0025644461425114451 0 -0.086545933147300261 0.0025757414831467248 0 -0.086577724985930332 0.0025669240482787733 0 -0.086540270797758459 0.0025752487905844087 0 -0.086568583988060485 0.0025644461425114451 0 -0.086545933147300261 0.0025757414831467248 0 -0.086565612780448054 0.0025964883582799423 0 -0.086545933147300261 0.0025757414831467248 0 -0.086577724985930332 0.0025669240482787733 0 -0.086568583988060485 0.0025644461425114451 0 -0.086577724985930332 0.0025669240482787733 0 -0.086590096779352269 0.0025581800543574224 0 -0.086577724985930332 0.0025669240482787733 0 -0.086590096779352269 0.0025581800543574224 0 -0.08659812238290461 0.002558294600333048 0 -0.086590096779352269 0.0025581800543574224 0 -0.08659812238290461 0.002558294600333048 0 -0.086613626223046636 0.0025545021118633096 0 -0.086608745266000334 0.0025548379091156386 0 -0.08659812238290461 0.002558294600333048 0 -0.086611009248178286 0.002566439731437158 0 -0.091396712112486359 0.0022261527868878768 0 -0.088136095836515271 0.0025668306786384436 0 -0.086608745266000334 0.0025548379091156386 0 -0.08659812238290461 0.002558294600333048 0 -0.086613626223046636 0.0025545021118633096 0 -0.091396712112486359 0.0022261527868878768 0 -0.090791960217375164 0.0020290476080209001 0 -0.086577724985930332 0.0025669240482787733 0 -0.08659812238290461 0.002558294600333048 0 -0.086611009248178286 0.002566439731437158 0 -0.082173880026689891 0.0041137996666716723 0 -0.088136095836515271 0.0025668306786384436 0 -0.086565612780448054 0.0025964883582799423 0 -0.086577724985930332 0.0025669240482787733 0 -0.086611009248178286 0.002566439731437158 0 -0.10255485514085531 0.0015507556997568924 0 -0.10253473592621079 0.001826654643554501 0 -0.10246535606527719 0.0017537425757763344 0 -0.086403489855244889 0.0031418257889037817 0 -0.088136095836515271 0.0025668306786384436 0 -0.10253473592621079 0.001826654643554501 0 -0.10248434171248882 0.0018139827652250765 0 -0.10247387611899719 0.0018584286191681101 0 -0.10245150281004639 0.0017774277331612518 0 -0.10248434171248882 0.0018139827652250765 0 -0.10247387611899719 0.0018584286191681101 0 -0.10253473592621079 0.001826654643554501 0 -0.10246535606527719 0.0017537425757763344 0 -0.10248434171248882 0.0018139827652250765 0 -0.10245150281004639 0.0017774277331612518 0 -0.10246535606527719 0.0017537425757763344 0 -0.10248434171248882 0.0018139827652250765 0 -0.09079514836638912 0.0036048083398075958 0 -0.08896828919133179 0.0001433814324771297 0 -0.087533472071962715 0.0019113017706889647 0 -0.10194550017231888 0.0022723866159773524 0 -0.10174018667709045 0.0022928115042388044 0 -0.10155619349192531 0.0023701518834815514 0 -0.10194550017231888 0.0022723866159773524 0 -0.10174018667709045 0.0022928115042388044 0 -0.1017063313117063 0.0021321694153075962 0 -0.10174018667709045 0.0022928115042388044 0 -0.10155619349192531 0.0023701518834815514 0 -0.1017063313117063 0.0021321694153075962 0 -0.088136095836515271 0.0025668306786384436 0 -0.093382718219861466 0.0013860356924768325 0 -0.10084525569284605 0.002013704131250378 0 -0.10155619349192531 0.0023701518834815514 0 -0.10140438327547718 0.0018939770318016039 0 -0.091396712112486359 0.0022261527868878768 0 -0.093382718219861466 0.0013860356924768325 0 -0.10140438327547718 0.0018939770318016039 0 -0.10187073142781304 0.0019536222956951519 0 -0.1017063313117063 0.0021321694153075962 0 -0.10155619349192531 0.0023701518834815514 0 -0.10140438327547718 0.0018939770318016039 0 -0.1017063313117063 0.0021321694153075962 0 -0.10194550017231888 0.0022723866159773524 0 -0.10187073142781304 0.0019536222956951519 0 -0.1017063313117063 0.0021321694153075962 0 -0.10190211168315559 0.0009686830501393957 0 -0.10181154966015898 0.0014848176275473626 0 -0.10107952861556332 0.00112438212157125 0 -0.10140438327547718 0.0018939770318016039 0 -0.10181154966015898 0.0014848176275473626 0 -0.10107952861556332 0.00112438212157125 0 -0.10140438327547718 0.0018939770318016039 0 -0.10187073142781304 0.0019536222956951519 0 -0.10181154966015898 0.0014848176275473626 0 -0.10107952861556332 0.00112438212157125 0 -0.10082314912590219 0.00025847922750778387 0 -0.10175999464403965 0.00011990700402692397 0 -0.10190211168315559 0.0009686830501393957 0 -0.10107952861556332 0.00112438212157125 0 -0.10175999464403965 0.00011990700402692397 0 -0.10107952861556332 0.00112438212157125 0 -0.10028517956284701 0.00095479434059570379 0 -0.10082314912590219 0.00025847922750778387 0 -0.086626135514766403 0.002558775839540815 0 -0.086613626223046636 0.0025545021118633096 0 -0.086625403655996247 0.0025373377748608619 0 -0.091396712112486359 0.0022261527868878768 0 -0.094565377612613077 0.0012981283225918993 0 -0.10084525569284605 0.002013704131250378 0 -0.10107952861556332 0.00112438212157125 0 -0.10028517956284701 0.00095479434059570379 0 -0.10084525569284605 0.002013704131250378 0 -0.10140438327547718 0.0018939770318016039 0 -0.10107952861556332 0.00112438212157125 0 -0.086607103989634268 0.0025497908979880239 0 -0.086625403655996247 0.0025373377748608619 0 -0.086600372941301032 0.002548745159444336 0 -0.086613626223046636 0.0025545021118633096 0 -0.086607103989634268 0.0025497908979880239 0 -0.086625403655996247 0.0025373377748608619 0 -0.086590096779352269 0.0025581800543574224 0 -0.086613626223046636 0.0025545021118633096 0 -0.086607103989634268 0.0025497908979880239 0 -0.086590096779352269 0.0025581800543574224 0 -0.086607103989634268 0.0025497908979880239 0 -0.086600372941301032 0.002548745159444336 0 -0.086625403655996247 0.0025373377748608619 0 -0.086619195991316469 0.0025352615042093323 0 -0.086642703502915808 0.0025196880179601039 0 -0.086625403655996247 0.0025373377748608619 0 -0.086619195991316469 0.0025352615042093323 0 -0.086600372941301032 0.002548745159444336 0 -0.086600245838150264 0.0025451338499878494 0 -0.086619195991316469 0.0025352615042093323 0 -0.086600372941301032 0.002548745159444336 0 -0.1049706386519895 0.00012152130673252018 0 -0.1050316314117065 0.0001517813853765628 0 -0.10500707219082979 6.9804331476274405e-05 0 -0.09856929566476845 0.00041586609582498492 0 -0.10291370283419282 0.00064921435666701283 0 -0.10493609475728455 -0.00017934874856657986 0 -0.10494153864688922 -8.8033877751782705e-05 0 -0.10499456673408064 -6.3260881919075191e-05 0 -0.08661746422892494 0.0025292416325632004 0 -0.086619195991316469 0.0025352615042093323 0 -0.086642703502915808 0.0025196880179601039 0 -0.1049677627341167 0.00019376075505789806 0 -0.1049706386519895 0.00012152130673252018 0 -0.1050316314117065 0.0001517813853765628 0 -0.097505748575470619 0.0019839488958468608 0 -0.09856929566476845 0.00041586609582498492 0 -0.10028517956284701 0.00095479434059570379 0 -0.09972730873048348 -0.00010340669872342557 0 -0.10082314912590219 0.00025847922750778387 0 -0.094565377612613077 0.0012981283225918993 0 -0.09856929566476845 0.00041586609582498492 0 -0.09856929566476845 0.00041586609582498492 0 -0.10277724125406064 0.00010064861051832317 0 -0.10493609475728455 -0.00017934874856657986 0 -0.10482144837914487 -0.00012814577010781956 0 -0.10494153864688922 -8.8033877751782705e-05 0 -0.09972730873048348 -0.00010340669872342557 0 -0.10096920943054702 -0.00069183397626177237 0 -0.10082314912590219 0.00025847922750778387 0 -0.10096920943054702 -0.00069183397626177237 0 -0.10082314912590219 0.00025847922750778387 0 -0.10175999464403965 0.00011990700402692397 0 -0.10277724125406064 0.00010064861051832317 0 -0.10266665521627343 0.00056960746787204284 0 -0.10493642824255936 -0.00013140299378395321 0 -0.10483570296349659 -8.3217007285807225e-05 0 -0.1046436975420089 -0.00037274672058573791 0 -0.10316187235340211 0.00078433990535144594 0 -0.10311715910990621 0.0006451289714499356 0 -0.10324324536011406 0.00074962701743528845 0 -0.10305581566873769 0.00067400441957767389 0 -0.10316187235340211 0.00078433990535144594 0 -0.10311715910990621 0.0006451289714499356 0 -0.10277724125406064 0.00010064861051832317 0 -0.10359103179209625 4.5021483339343946e-05 0 -0.10359103179209625 4.5021483339343946e-05 0 -0.10369491970365999 6.9407932248158931e-06 0 -0.10491523823285594 -9.3023744662470894e-05 0 -0.10494479885451613 2.5349084368530395e-05 0 -0.10485849740032578 1.7454540702534978e-05 0 -0.10491523823285594 -9.3023744662470894e-05 0 -0.10483570296349659 -8.3217007285807225e-05 0 -0.10485849740032578 1.7454540702534978e-05 0 -0.10494479885451613 2.5349084368530395e-05 0 -0.10485849740032578 1.7454540702534978e-05 0 -0.10491759452417762 6.9223067320699685e-05 0 -0.10491759452417762 6.9223067320699685e-05 0 -0.10500003471825999 4.8359301145148211e-08 0 -0.10499942541380547 2.0098268521055157e-07 0 -0.10494479885451613 2.5349084368530395e-05 0 -0.10491759452417762 6.9223067320699685e-05 0 -0.10500003471825999 4.8359301145148211e-08 0 -0.10485849740032578 1.7454540702534978e-05 0 -0.10491759452417762 6.9223067320699685e-05 0 -0.10471061999098225 0.00014646855750155731 0 -0.10494479885451613 2.5349084368530395e-05 0 -0.10500003471825999 4.8359301145148211e-08 0 -0.10500295416552724 1.2238359885235865e-05 0 -0.10491523823285594 -9.3023744662470894e-05 0 -0.10494479885451613 2.5349084368530395e-05 0 -0.10500295416552724 1.2238359885235865e-05 0 -0.10479723178669384 -0.00016575073050161568 0 -0.10472960409776684 -0.00013459233499491587 0 -0.1048748757041738 -2.8223066579472876e-05 0 -0.10479723178669384 -0.00016575073050161568 0 -0.1048748757041738 -2.8223066579472876e-05 0 -0.10489632200860446 -6.4110734735704889e-05 0 -0.10359103179209625 4.5021483339343946e-05 0 -0.10457934690970427 0.00012499662877925229 0 -0.10277724125406064 0.00010064861051832317 0 -0.10340261225506298 0.00037415259914670533 0 -0.10482144837914487 -0.00012814577010781956 0 -0.10494153864688922 -8.8033877751782705e-05 0 -0.10489632200860446 -6.4110734735704889e-05 0 -0.1048748757041738 -2.8223066579472876e-05 0 -0.10489632200860446 -6.4110734735704889e-05 0 -0.104970222265478 -3.4435926973843684e-05 0 -0.10494153864688922 -8.8033877751782705e-05 0 -0.10489632200860446 -6.4110734735704889e-05 0 -0.104970222265478 -3.4435926973843684e-05 0 -0.1048748757041738 -2.8223066579472876e-05 0 -0.10499979645905265 -3.8578074382056257e-09 0 -0.104970222265478 -3.4435926973843684e-05 0 -0.10500003471825999 4.8359301145148211e-08 0 -0.10500295416552724 1.2238359885235865e-05 0 -0.10499997484794162 -1.993101504937228e-08 0 -0.10457934690970427 0.00012499662877925229 0 -0.10499945649906674 3.7741828307762381e-07 0 -0.10500015037494442 -2.0783261081410047e-10 0 -0.10499979645905265 -3.8578074382056257e-09 0 -0.104970222265478 -3.4435926973843684e-05 0 -0.10500015037494442 -2.0783261081410047e-10 0 -0.104970222265478 -3.4435926973843684e-05 0 -0.10499456673408064 -6.3260881919075191e-05 0 -0.10494153864688922 -8.8033877751782705e-05 0 -0.104970222265478 -3.4435926973843684e-05 0 -0.10499456673408064 -6.3260881919075191e-05 0 -0.10420866830352309 0.0008119871896630483 0 -0.10382720665918214 0.0012470440146864889 0 -0.10419306718678742 0.00078948132961140975 0 -0.10420866830352309 0.0008119871896630483 0 -0.10400195449748424 0.0010463517819697709 0 -0.10382720665918214 0.0012470440146864889 0 -0.10400195449748424 0.0010463517819697709 0 -0.10355044689901183 0.001569085251456223 0 -0.10382720665918214 0.0012470440146864889 0 -0.10334507157821265 0.0018243288209631068 0 -0.10355044689901183 0.001569085251456223 0 -0.10382720665918214 0.0012470440146864889 0 -0.10400195449748424 0.0010463517819697709 0 -0.10355044689901183 0.001569085251456223 0 -0.1037254507388343 0.0013574523088990241 0 -0.10357934367473884 0.0015183676421652071 0 -0.10334507157821265 0.0018243288209631068 0 -0.10382720665918214 0.0012470440146864889 0 -0.10357934367473884 0.0015183676421652071 0 -0.10382720665918214 0.0012470440146864889 0 -0.10393770160012662 0.0010438852087924137 0 -0.10349192686880253 0.0016470644655210379 0 -0.10351982375247061 0.0009584336030372245 0 -0.10326910958224202 0.00089655758358174681 0 -0.10316187235340211 0.00078433990535144594 0 -0.10324324536011406 0.00074962701743528845 0 -0.1030381868454926 0.0014851055265499694 0 -0.10351982375247061 0.0009584336030372245 0 -0.10359103179209625 4.5021483339343946e-05 0 -0.10351982375247061 0.0009584336030372245 0 -0.10351982375247061 0.0009584336030372245 0 -0.10378435832279696 0.00068871329045529109 0 -0.10483570296349659 -8.3217007285807225e-05 0 -0.1046436975420089 -0.00037274672058573791 0 -0.10469113252919587 -0.00012223918671040764 0 -0.10393770160012662 0.0010438852087924137 0 -0.10415811378306311 0.00067688617127973695 0 -0.10419306718678742 0.00078948132961140975 0 -0.10382720665918214 0.0012470440146864889 0 -0.10393770160012662 0.0010438852087924137 0 -0.10419306718678742 0.00078948132961140975 0 -0.10420866830352309 0.0008119871896630483 0 -0.10419306718678742 0.00078948132961140975 0 -0.10452735825412356 0.00043453415240479986 0 -0.10419306718678742 0.00078948132961140975 0 -0.10447406779990279 0.0004191185348541305 0 -0.10452735825412356 0.00043453415240479986 0 -0.10447406779990279 0.0004191185348541305 0 -0.10452735825412356 0.00043453415240479986 0 -0.10472157711766919 0.00019822559038076148 0 -0.10415811378306311 0.00067688617127973695 0 -0.10447406779990279 0.0004191185348541305 0 -0.10471061999098225 0.00014646855750155731 0 -0.10485849740032578 1.7454540702534978e-05 0 -0.10469113252919587 -0.00012223918671040764 0 -0.10471061999098225 0.00014646855750155731 0 -0.10378435832279696 0.00068871329045529109 0 -0.10388345008233003 0.00062540263013586043 0 -0.10483570296349659 -8.3217007285807225e-05 0 -0.10485849740032578 1.7454540702534978e-05 0 -0.10469113252919587 -0.00012223918671040764 0 -0.10415811378306311 0.00067688617127973695 0 -0.10419306718678742 0.00078948132961140975 0 -0.10447406779990279 0.0004191185348541305 0 -0.10447406779990279 0.0004191185348541305 0 -0.10471061999098225 0.00014646855750155731 0 -0.10472157711766919 0.00019822559038076148 0 -0.10491759452417762 6.9223067320699685e-05 0 -0.10471061999098225 0.00014646855750155731 0 -0.10499942541380547 2.0098268521055157e-07 0 -0.10471061999098225 0.00014646855750155731 0 -0.10499942541380547 2.0098268521055157e-07 0 -0.10472157711766919 0.00019822559038076148 0 -0.10499942541380547 2.0098268521055157e-07 0 -0.10472157711766919 0.00019822559038076148 0 -0.10499923142292283 3.5305349844085745e-07 0 -0.10452735825412356 0.00043453415240479986 0 -0.10472157711766919 0.00019822559038076148 0 -0.10499923142292283 3.5305349844085745e-07 0 -0.10499923142292283 3.5305349844085745e-07 0 -0.1045032075242197 0.00049964642804947051 0 -0.10499946578135881 1.3051990813213327e-07 0 -0.10452735825412356 0.00043453415240479986 0 -0.10499923142292283 3.5305349844085745e-07 0 -0.1045032075242197 0.00049964642804947051 0 -0.10420866830352309 0.0008119871896630483 0 -0.10400195449748424 0.0010463517819697709 0 -0.1045032075242197 0.00049964642804947051 0 -0.10420866830352309 0.0008119871896630483 0 -0.10452735825412356 0.00043453415240479986 0 -0.1045032075242197 0.00049964642804947051 0 -0.10400195449748424 0.0010463517819697709 0 -0.1045032075242197 0.00049964642804947051 0 -0.10433354969549716 0.00070191679128545667 0 -0.1045032075242197 0.00049964642804947051 0 -0.10499946578135881 1.3051990813213327e-07 0 -0.10433354969549716 0.00070191679128545667 0 -0.10499946578135881 1.3051990813213327e-07 0 -0.10499863056953861 1.2943032715851032e-06 0 -0.10433354969549716 0.00070191679128545667 0 -0.10499863056953861 1.2943032715851032e-06 0 -0.10436478171819763 0.00069854160948135732 0 -0.10433354969549716 0.00070191679128545667 0 -0.10436478171819763 0.00069854160948135732 0 -0.10433354969549716 0.00070191679128545667 0 -0.10394885427474046 0.0011225799438485213 0 -0.10400195449748424 0.0010463517819697709 0 -0.10433354969549716 0.00070191679128545667 0 -0.1037254507388343 0.0013574523088990241 0 -0.10433354969549716 0.00070191679128545667 0 -0.10394885427474046 0.0011225799438485213 0 -0.1037254507388343 0.0013574523088990241 0 -0.10394885427474046 0.0011225799438485213 0 -0.10349515586316942 0.0016555111559297571 0 -0.1037254507388343 0.0013574523088990241 0 -0.10355044689901183 0.001569085251456223 0 -0.1037254507388343 0.0013574523088990241 0 -0.10309840545616709 0.0021889555172140435 0 -0.10349515586316942 0.0016555111559297571 0 -0.1037254507388343 0.0013574523088990241 0 -0.10309840545616709 0.0021889555172140435 0 -0.10374018373473191 0.001428189998043705 0 -0.10424297788912885 0.0011946766117929769 0 -0.10371944835079079 0.0017458205253200905 0 -0.10424297788912885 0.0011946766117929769 0 -0.10419059907625353 0.0016471614986712992 0 -0.10371944835079079 0.0017458205253200905 0 -0.10394885427474046 0.0011225799438485213 0 -0.10349515586316942 0.0016555111559297571 0 -0.10374018373473191 0.001428189998043705 0 -0.10349515586316942 0.0016555111559297571 0 -0.10374018373473191 0.001428189998043705 0 -0.10294893241042198 0.0023725248155857114 0 -0.10436478171819763 0.00069854160948135732 0 -0.10394885427474046 0.0011225799438485213 0 -0.1041454017977706 0.0009352976463977272 0 -0.10394885427474046 0.0011225799438485213 0 -0.10374018373473191 0.001428189998043705 0 -0.1041454017977706 0.0009352976463977272 0 -0.10374018373473191 0.001428189998043705 0 -0.1041454017977706 0.0009352976463977272 0 -0.10424297788912885 0.0011946766117929769 0 -0.1041454017977706 0.0009352976463977272 0 -0.10432904022263192 0.00084641142911221878 0 -0.10424297788912885 0.0011946766117929769 0 -0.10477742069900729 0.00019030943259002375 0 -0.10479821274992901 0.00044325730167915699 0 -0.10500016695064464 -6.2417351331396967e-08 0 -0.10495727507758466 5.627779598479435e-05 0 -0.10499947167471005 1.981851770809641e-07 0 -0.1041454017977706 0.0009352976463977272 0 -0.10438808034983368 0.00063692723510124394 0 -0.10432904022263192 0.00084641142911221878 0 -0.10436478171819763 0.00069854160948135732 0 -0.1041454017977706 0.0009352976463977272 0 -0.10438808034983368 0.00063692723510124394 0 -0.10499863056953861 1.2943032715851032e-06 0 -0.10436478171819763 0.00069854160948135732 0 -0.10438808034983368 0.00063692723510124394 0 -0.10499944047711882 3.3715334754591516e-07 0 -0.10477742069900729 0.00019030943259002375 0 -0.10495727507758466 5.627779598479435e-05 0 -0.10499947167471005 1.981851770809641e-07 0 -0.10480112567345176 0.00025038358369250413 0 -0.10499947167471005 1.981851770809641e-07 0 -0.10483143508836504 0.00031618782431914007 0 -0.1050004242496107 1.2713895627958293e-07 0 -0.10499947167471005 1.981851770809641e-07 0 -0.10483143508836504 0.00031618782431914007 0 -0.10480112567345176 0.00025038358369250413 0 -0.10483143508836504 0.00031618782431914007 0 -0.1050004242496107 1.2713895627958293e-07 0 -0.10495607945982777 0.00034079802180605432 0 -0.1050004242496107 1.2713895627958293e-07 0 -0.10495607945982777 0.00034079802180605432 0 -0.10474147749589177 0.00024973279004737319 0 -0.10417104939387849 0.0015160033986618309 0 -0.10401180319328629 0.0011651856722107233 0 -0.10362907578473685 0.0012666395172420495 0 -0.10417104939387849 0.0015160033986618309 0 -0.10446108601846632 0.0012216938440781074 0 -0.10470197680012354 0.00094136603895198846 0 -0.10483143508836504 0.00031618782431914007 0 -0.10495607945982777 0.00034079802180605432 0 -0.10470197680012354 0.00094136603895198846 0 -0.10431729573640081 0.0008263472057749347 0 -0.10436897696295812 0.0008570322353818262 0 -0.10446108601846632 0.0012216938440781074 0 -0.10401180319328629 0.0011651856722107233 0 -0.10442550319457236 0.001266796441872663 0 -0.10453959717736379 0.0012487604272451837 0 -0.10446108601846632 0.0012216938440781074 0 -0.10460202610656588 0.0011370299185083812 0 -0.10446108601846632 0.0012216938440781074 0 -0.10470197680012354 0.00094136603895198846 0 -0.10460202610656588 0.0011370299185083812 0 -0.10453959717736379 0.0012487604272451837 0 -0.10446108601846632 0.0012216938440781074 0 -0.10442550319457236 0.001266796441872663 0 -0.10453959717736379 0.0012487604272451837 0 -0.10455528548675259 0.0013877204959772725 0 -0.10442550319457236 0.001266796441872663 0 -0.10417104939387849 0.0015160033986618309 0 -0.10446108601846632 0.0012216938440781074 0 -0.10401180319328629 0.0011651856722107233 0 -0.10432904022263192 0.00084641142911221878 0 -0.10443408533950284 0.0010112417875453681 0 -0.10424297788912885 0.0011946766117929769 0 -0.10432904022263192 0.00084641142911221878 0 -0.10443408533950284 0.0010112417875453681 0 -0.10466763010620878 0.00088880718457122108 0 -0.10479821274992901 0.00044325730167915699 0 -0.10487231378472449 0.00058801450252676747 0 -0.10443408533950284 0.0010112417875453681 0 -0.104545210486808 0.0010570282356821309 0 -0.10442309673146542 0.0012530726409467636 0 -0.10483143508836504 0.00031618782431914007 0 -0.10470197680012354 0.00094136603895198846 0 -0.10466763010620878 0.00088880718457122108 0 -0.10483143508836504 0.00031618782431914007 0 -0.10480112567345176 0.00025038358369250413 0 -0.10466763010620878 0.00088880718457122108 0 -0.10470197680012354 0.00094136603895198846 0 -0.10463429518933187 0.0010254690835599645 0 -0.10460202610656588 0.0011370299185083812 0 -0.10470197680012354 0.00094136603895198846 0 -0.10466763010620878 0.00088880718457122108 0 -0.10463429518933187 0.0010254690835599645 0 -0.10443408533950284 0.0010112417875453681 0 -0.10466763010620878 0.00088880718457122108 0 -0.104545210486808 0.0010570282356821309 0 -0.10463429518933187 0.0010254690835599645 0 -0.104545210486808 0.0010570282356821309 0 -0.10459545474517733 0.0011131655923695754 0 -0.10466763010620878 0.00088880718457122108 0 -0.10463429518933187 0.0010254690835599645 0 -0.104545210486808 0.0010570282356821309 0 -0.104545210486808 0.0010570282356821309 0 -0.10454136452268431 0.001231751632485481 0 -0.10442309673146542 0.0012530726409467636 0 -0.104545210486808 0.0010570282356821309 0 -0.10454136452268431 0.001231751632485481 0 -0.10459545474517733 0.0011131655923695754 0 -0.10463429518933187 0.0010254690835599645 0 -0.10460202610656588 0.0011370299185083812 0 -0.10459545474517733 0.0011131655923695754 0 -0.10460202610656588 0.0011370299185083812 0 -0.10459545474517733 0.0011131655923695754 0 -0.1045763758755139 0.0012233606424448739 0 -0.10454136452268431 0.001231751632485481 0 -0.10459545474517733 0.0011131655923695754 0 -0.1045763758755139 0.0012233606424448739 0 -0.10453959717736379 0.0012487604272451837 0 -0.10460202610656588 0.0011370299185083812 0 -0.1045763758755139 0.0012233606424448739 0 -0.10453959717736379 0.0012487604272451837 0 -0.1045763758755139 0.0012233606424448739 0 -0.10455528548675259 0.0013877204959772725 0 -0.10454136452268431 0.001231751632485481 0 -0.1045763758755139 0.0012233606424448739 0 -0.10455528548675259 0.0013877204959772725 0 -0.10454136452268431 0.001231751632485481 0 -0.10455528548675259 0.0013877204959772725 0 -0.10448809582118691 0.0014808801297169966 0 -0.10454136452268431 0.001231751632485481 0 -0.10448809582118691 0.0014808801297169966 0 -0.10442309673146542 0.0012530726409467636 0 -0.10448809582118691 0.0014808801297169966 0 -0.10442309673146542 0.0012530726409467636 0 -0.10419059907625353 0.0016471614986712992 0 -0.10443408533950284 0.0010112417875453681 0 -0.10442309673146542 0.0012530726409467636 0 -0.10424297788912885 0.0011946766117929769 0 -0.10442309673146542 0.0012530726409467636 0 -0.10424297788912885 0.0011946766117929769 0 -0.10419059907625353 0.0016471614986712992 0 -0.10448809582118691 0.0014808801297169966 0 -0.10456238354823351 0.0016605953449313018 0 -0.1044324272832944 0.0024436971666259044 0 -0.10448809582118691 0.0014808801297169966 0 -0.10419059907625353 0.0016471614986712992 0 -0.1044324272832944 0.0024436971666259044 0 -0.10455528548675259 0.0013877204959772725 0 -0.10448809582118691 0.0014808801297169966 0 -0.10456238354823351 0.0016605953449313018 0 -0.10455528548675259 0.0013877204959772725 0 -0.10456238354823351 0.0016605953449313018 0 -0.10442550319457236 0.001266796441872663 0 -0.10706186749912418 0.0031511250915347549 0 -0.1044324272832944 0.0024436971666259044 0 -0.10651764585104877 0.0049278289916171673 0 -0.10459600157441623 0.0024624509284840407 0 -0.10459970473267387 0.0024417998456674234 0 -0.10456238354823351 0.0016605953449313018 0 -0.10453044110356303 0.0015357180224128875 0 -0.1044324272832944 0.0024436971666259044 0 -0.10456238354823351 0.0016605953449313018 0 -0.10453044110356303 0.0015357180224128875 0 -0.10441104149123219 0.0013470158548582183 0 -0.10442550319457236 0.001266796441872663 0 -0.10441104149123219 0.0013470158548582183 0 -0.10406133118982197 0.0010898408598425916 0 -0.10401180319328629 0.0011651856722107233 0 -0.10442550319457236 0.001266796441872663 0 -0.10406133118982197 0.0010898408598425916 0 -0.10456238354823351 0.0016605953449313018 0 -0.10442550319457236 0.001266796441872663 0 -0.10441104149123219 0.0013470158548582183 0 -0.10453044110356303 0.0015357180224128875 0 -0.10441104149123219 0.0013470158548582183 0 -0.10432680746692576 0.0012073024848968366 0 -0.10459600157441623 0.0024624509284840407 0 -0.10256581980379756 0.0021457017015264609 0 -0.10225446504962442 0.0011668244313695886 0 -0.10233592616446788 0.0010763452638004811 0 -0.10233617921115092 0.0011932112056976072 0 -0.10256581980379756 0.0021457017015264609 0 -0.10296732336264029 0.0014454611782383972 0 -0.10441104149123219 0.0013470158548582183 0 -0.10432680746692576 0.0012073024848968366 0 -0.10406133118982197 0.0010898408598425916 0 -0.10075489323154888 0.00086995061788003661 0 -0.10086892629872476 0.0013644721103404837 0 -0.10159173748210418 0.0010736985187198879 0 -0.10256581980379756 0.0021457017015264609 0 -0.10210019511932318 0.0017123183849443394 0 -0.10086892629872476 0.0013644721103404837 0 -0.10098130733937627 0.0018681481961156348 0 -0.10159173748210418 0.0010736985187198879 0 -0.10966691539356881 0.0037958756871672868 0 -0.10775859750361103 0.0062559800194690717 0 -0.10651764585104877 0.0049278289916171673 0 -0.10075489323154888 0.00086995061788003661 0 -0.10086892629872476 0.0013644721103404837 0 -0.10014470386860969 0.00164795310632311 0 -0.10256581980379756 0.0021457017015264609 0 -0.098592263533583524 0.0034753976913827096 0 -0.10706186749912418 0.0031511250915347549 0 -0.10966691539356881 0.0037958756871672868 0 -0.10651764585104877 0.0049278289916171673 0 -0.098592263533583524 0.0034753976913827096 0 -0.092874845206905088 0.0022896253366720704 0 -0.08724363490300871 0.0061069451393340156 0 -0.089659326729271446 0.0076228391623262663 0 -0.089588333426501299 0.0039725498716707379 0 -0.10086892629872476 0.0013644721103404837 0 -0.10014470386860969 0.00164795310632311 0 -0.10098130733937627 0.0018681481961156348 0 -0.089078232551779324 0.0084111728082947139 0 -0.08724363490300871 0.0061069451393340156 0 -0.08268886951932064 0.0077940057646839322 0 -0.098592263533583524 0.0034753976913827096 0 -0.09850143250606655 0.003565880092876856 0 -0.089078232551779324 0.0084111728082947139 0 -0.08724363490300871 0.0061069451393340156 0 -0.089659326729271446 0.0076228391623262663 0 -0.1044324272832944 0.0024436971666259044 0 -0.10473527571483435 0.0054556335869155835 0 -0.10651764585104877 0.0049278289916171673 0 -0.10775859750361103 0.0062559800194690717 0 -0.10473527571483435 0.0054556335869155835 0 -0.10651764585104877 0.0049278289916171673 0 -0.098592263533583524 0.0034753976913827096 0 -0.099554109881006103 0.0046551122582231133 0 -0.089659326729271446 0.0076228391623262663 0 -0.093719147076308851 0.0053789978147176388 0 -0.089588333426501299 0.0039725498716707379 0 -0.08921605814607779 0.0082270019825487848 0 -0.095818049908422701 0.0074458846981237002 0 -0.089659326729271446 0.0076228391623262663 0 -0.095818049908422701 0.0074458846981237002 0 -0.089659326729271446 0.0076228391623262663 0 -0.093719147076308851 0.0053789978147176388 0 -0.095818049908422701 0.0074458846981237002 0 -0.093719147076308851 0.0053789978147176388 0 -0.098436367450104756 0.0043263895319536356 0 -0.1044324272832944 0.0024436971666259044 0 -0.10473527571483435 0.0054556335869155835 0 -0.10165152342139322 0.0047639396016900893 0 -0.095818049908422701 0.0074458846981237002 0 -0.098436367450104756 0.0043263895319536356 0 -0.10165152342139322 0.0047639396016900893 0 -0.099554109881006103 0.0046551122582231133 0 -0.099971121072713207 0.0048202125921877571 0 -0.10165152342139322 0.0047639396016900893 0 -0.10127412419628404 0.0038912805532125478 0 -0.10219804478831923 0.0035505985375576632 0 -0.10127412419628404 0.0038912805532125478 0 -0.10205444233631246 0.0030110016660660714 0 -0.10081816214031236 0.0027296020601426086 0 -0.098436367450104756 0.0043263895319536356 0 -0.10165152342139322 0.0047639396016900893 0 -0.10127412419628404 0.0038912805532125478 0 -0.098436367450104756 0.0043263895319536356 0 -0.10127412419628404 0.0038912805532125478 0 -0.10081816214031236 0.0027296020601426086 0 -0.10127412419628404 0.0038912805532125478 0 -0.10205444233631246 0.0030110016660660714 0 -0.10219804478831923 0.0035505985375576632 0 -0.10266428987368686 0.002965053815755494 0 -0.10205444233631246 0.0030110016660660714 0 -0.10219804478831923 0.0035505985375576632 0 -0.10266428987368686 0.002965053815755494 0 -0.10205444233631246 0.0030110016660660714 0 -0.10247126235533442 0.0026629720428134702 0 -0.10266428987368686 0.002965053815755494 0 -0.10219804478831923 0.0035505985375576632 0 -0.10267361793145562 0.0029344280619483672 0 -0.10165152342139322 0.0047639396016900893 0 -0.10219804478831923 0.0035505985375576632 0 -0.10252809341152086 0.0030873843348453709 0 -0.10219804478831923 0.0035505985375576632 0 -0.10252809341152086 0.0030873843348453709 0 -0.10267361793145562 0.0029344280619483672 0 -0.10290434026413005 0.0025097578367520444 0 -0.10267361793145562 0.0029344280619483672 0 -0.10309840545616709 0.0021889555172140435 0 -0.10252809341152086 0.0030873843348453709 0 -0.10267361793145562 0.0029344280619483672 0 -0.10309840545616709 0.0021889555172140435 0 -0.10252809341152086 0.0030873843348453709 0 -0.10309840545616709 0.0021889555172140435 0 -0.10294893241042198 0.0023725248155857114 0 -0.10349515586316942 0.0016555111559297571 0 -0.10309840545616709 0.0021889555172140435 0 -0.10294893241042198 0.0023725248155857114 0 -0.10374018373473191 0.001428189998043705 0 -0.10294893241042198 0.0023725248155857114 0 -0.10371944835079079 0.0017458205253200905 0 -0.10419059907625353 0.0016471614986712992 0 -0.1044324272832944 0.0024436971666259044 0 -0.10330515974521544 0.002504686071234143 0 -0.10294893241042198 0.0023725248155857114 0 -0.10371944835079079 0.0017458205253200905 0 -0.10330515974521544 0.002504686071234143 0 -0.10419059907625353 0.0016471614986712992 0 -0.10371944835079079 0.0017458205253200905 0 -0.10330515974521544 0.002504686071234143 0 -0.1044324272832944 0.0024436971666259044 0 -0.10165152342139322 0.0047639396016900893 0 -0.10330515974521544 0.002504686071234143 0 -0.10165152342139322 0.0047639396016900893 0 -0.10252809341152086 0.0030873843348453709 0 -0.10294893241042198 0.0023725248155857114 0 -0.10165152342139322 0.0047639396016900893 0 -0.10294893241042198 0.0023725248155857114 0 -0.10330515974521544 0.002504686071234143 0 -0.1049915328803889 -5.9497076075934465e-07 0 -0.10399114919051552 0.00017788947236796598 0 -0.10499754268927723 1.1135238846457286e-06 0 -0.1049915328803889 -5.9497076075934465e-07 0 -0.10059732459539533 -0.00019381408890269231 0 -0.084028881294098912 -6.5539217050590417e-07 0 -0.089371612208526102 0.00028974179339967104 0 -0.10059732459539533 -0.00019381408890269231 0 -0.084028881294098912 -6.5539217050590417e-07 0 -0.089371612208526102 0.00028974179339967104 0 -0.092565143616981607 -0.00050311554241489745 0 -0.10059732459539533 -0.00019381408890269231 0 -0.1049915328803889 -5.9497076075934465e-07 0 -0.10059732459539533 -0.00019381408890269231 0 -0.10399114919051552 0.00017788947236796598 0 -0.10317163959678145 -0.00045950493946560921 0 -0.10059732459539533 -0.00019381408890269231 0 -0.10399114919051552 0.00017788947236796598 0 -0.098193217078635042 0.00047382834381007316 0 -0.09847478108845352 0.00033109435610915343 0 -0.10399114919051552 0.00017788947236796598 0 -0.10374309642913575 0.00049364142929478642 0 -0.1036051106282317 0.00021491850118232685 0 -0.098193217078635042 0.00047382834381007316 0 -0.098576166298038212 0.00061383929515441223 0 -0.10317163959678145 -0.00045950493946560921 0 -0.10399114919051552 0.00017788947236796598 0 -0.10374309642913575 0.00049364142929478642 0 -0.089371612208526102 0.00028974179339967104 0 -0.092565143616981607 -0.00050311554241489745 0 -0.09130659628186133 0.0021462530346021513 0 -0.089371612208526102 0.00028974179339967104 0 -0.09130659628186133 0.0021462530346021513 0 -0.090827016093773846 -0.0004941142450663042 0 -0.09130659628186133 0.0021462530346021513 0 -0.095668184466131415 -0.00035446505868381084 0 -0.090827016093773846 -0.0004941142450663042 0 -0.098576166298038212 0.00061383929515441223 0 -0.099336027367575588 0.00047786114261370069 0 -0.09130659628186133 0.0021462530346021513 0 -0.099965774689220008 0.0015008308835380865 0 -0.095668184466131415 -0.00035446505868381084 0 -0.10374309642913575 0.00049364142929478642 0 -0.099965774689220008 0.0015008308835380865 0 -0.10225871921255647 0.00082611626793899673 0 -0.099965774689220008 0.0015008308835380865 0 -0.1022961651852092 0.001224271994031703 0 -0.10225871921255647 0.00082611626793899673 0 -0.099965774689220008 0.0015008308835380865 0 -0.1022961651852092 0.001224271994031703 0 -0.10243809981049973 0.0010183690664792324 0 -0.099965774689220008 0.0015008308835380865 0 -0.10243809981049973 0.0010183690664792324 0 -0.099982383610862383 -0.00091044979665504404 0 -0.1022961651852092 0.001224271994031703 0 -0.10225871921255647 0.00082611626793899673 0 -0.10289327945838196 0.0011164830813491053 0 -0.10225871921255647 0.00082611626793899673 0 -0.10358918526850228 0.00028975905387247864 0 -0.10289327945838196 0.0011164830813491053 0 -0.10225871921255647 0.00082611626793899673 0 -0.1036051106282317 0.00021491850118232685 0 -0.10358918526850228 0.00028975905387247864 0 -0.10374309642913575 0.00049364142929478642 0 -0.10225871921255647 0.00082611626793899673 0 -0.1036051106282317 0.00021491850118232685 0 -0.10499754268927723 1.1135238846457286e-06 0 -0.10358918526850228 0.00028975905387247864 0 -0.10474147749589177 0.00024973279004737319 0 -0.10399114919051552 0.00017788947236796598 0 -0.1036051106282317 0.00021491850118232685 0 -0.10499754268927723 1.1135238846457286e-06 0 -0.1036051106282317 0.00021491850118232685 0 -0.10499754268927723 1.1135238846457286e-06 0 -0.10358918526850228 0.00028975905387247864 0 -0.1050004242496107 1.2713895627958293e-07 0 -0.10499754268927723 1.1135238846457286e-06 0 -0.10474147749589177 0.00024973279004737319 0 -0.10398830982019845 0.00069781978897837777 0 -0.1041051549085526 0.00075968559423089806 0 -0.10417104939387849 0.0015160033986618309 0 -0.10362907578473685 0.0012666395172420495 0 -0.10304241965483961 0.0013892583210321438 0 -0.10362907578473685 0.0012666395172420495 0 -0.10304241965483961 0.0013892583210321438 0 -0.10343499977982482 0.0010679813942402669 0 -0.10431729573640081 0.0008263472057749347 0 -0.1041051549085526 0.00075968559423089806 0 -0.10358918526850228 0.00028975905387247864 0 -0.10304241965483961 0.0013892583210321438 0 -0.10289327945838196 0.0011164830813491053 0 -0.10304241965483961 0.0013892583210321438 0 -0.10289327945838196 0.0011164830813491053 0 -0.10343499977982482 0.0010679813942402669 0 -0.10290905221737166 0.0013217768333795949 0 -0.1029487616904569 0.0013226365803935311 0 -0.1022961651852092 0.001224271994031703 0 -0.10243809981049973 0.0010183690664792324 0 -0.10249219945733772 0.0010424004028878919 0 -0.1022961651852092 0.001224271994031703 0 -0.10289327945838196 0.0011164830813491053 0 -0.10249219945733772 0.0010424004028878919 0 -0.10401180319328629 0.0011651856722107233 0 -0.10343499977982482 0.0010679813942402669 0 -0.10406133118982197 0.0010898408598425916 0 -0.10401180319328629 0.0011651856722107233 0 -0.10362907578473685 0.0012666395172420495 0 -0.10343499977982482 0.0010679813942402669 0 -0.10249219945733772 0.0010424004028878919 0 -0.10233592616446788 0.0010763452638004811 0 -0.10242335494129959 0.0010610053727004595 0 -0.1029487616904569 0.0013226365803935311 0 -0.10296732336264029 0.0014454611782383972 0 -0.10243809981049973 0.0010183690664792324 0 -0.10249219945733772 0.0010424004028878919 0 -0.10242335494129959 0.0010610053727004595 0 -0.10243809981049973 0.0010183690664792324 0 -0.10242335494129959 0.0010610053727004595 0 -0.10246161757093207 0.00108661764296475 0 -0.10238286632265464 0.0011328344423719428 0 -0.10239633384290557 0.0013238484645889427 0 -0.10246161757093207 0.00108661764296475 0 -0.10242335494129959 0.0010610053727004595 0 -0.10238286632265464 0.0011328344423719428 0 -0.10246161757093207 0.00108661764296475 0 -0.10233592616446788 0.0010763452638004811 0 -0.10238286632265464 0.0011328344423719428 0 -0.10233617921115092 0.0011932112056976072 0 -0.10233592616446788 0.0010763452638004811 0 -0.10242335494129959 0.0010610053727004595 0 -0.10238286632265464 0.0011328344423719428 0 -0.08268886951932064 0.0077940057646839322 0 -0.076655915860894416 0.0064667430519706757 0 -0.077169008108360165 0.006195558526451728 0 -0.10098130733937627 0.0018681481961156348 0 -0.1019074043908057 0.0015523257383936793 0 -0.10180410797080797 0.0020597848870385336 0 -0.092874845206905088 0.0022896253366720704 0 -0.088615338944166649 0.00028064612320720817 0 -0.10098130733937627 0.0018681481961156348 0 -0.10159173748210418 0.0010736985187198879 0 -0.1019074043908057 0.0015523257383936793 0 -0.088316016409320186 -0.001431454798657236 0 -0.088615338944166649 0.00028064612320720817 0 -0.1019074043908057 0.0015523257383936793 0 -0.10239633384290557 0.0013238484645889427 0 -0.10255431301367522 0.0015550021501771992 0 -0.086230304789055801 0.0005928849997888059 0 -0.086211086879289731 0.00047562026804418418 0 -0.086379789377761473 0.00052613675348859689 0 -0.1019074043908057 0.0015523257383936793 0 -0.10255431301367522 0.0015550021501771992 0 -0.10180410797080797 0.0020597848870385336 0 -0.10159173748210418 0.0010736985187198879 0 -0.1019074043908057 0.0015523257383936793 0 -0.10239633384290557 0.0013238484645889427 0 -0.10238286632265464 0.0011328344423719428 0 -0.10233617921115092 0.0011932112056976072 0 -0.10239633384290557 0.0013238484645889427 0 -0.10210019511932318 0.0017123183849443394 0 -0.10214990006329244 0.0016366270475116601 0 -0.088316016409320186 -0.001431454798657236 0 -0.09519937290720995 -0.0012457825972241987 0 -0.10239633384290557 0.0013238484645889427 0 -0.10255431301367522 0.0015550021501771992 0 -0.10246161757093207 0.00108661764296475 0 -0.098888431670459603 -0.0087137317772383038 0 -0.10141803271743606 -0.013409870193546239 0 -0.10219332106738417 -0.0049216615507816685 0 -0.088316016409320186 -0.001431454798657236 0 -0.081602013262261769 -0.0018509158331396955 0 -0.073138857936536086 -0.003187200511021671 0 -0.074633225927045327 -0.0024244746542348788 0 -0.073655994963890886 -0.0019157844353735762 0 -0.073138857936536086 -0.003187200511021671 0 -0.074633225927045327 -0.0024244746542348788 0 -0.075439335237510258 -0.0047330025108564995 0 -0.074633225927045327 -0.0024244746542348788 0 -0.075439335237510258 -0.0047330025108564995 0 -0.076492619558858249 -0.0028501015968949201 0 -0.088316016409320186 -0.001431454798657236 0 -0.086497083900868438 -0.0035234288765494579 0 -0.098888431670459603 -0.0087137317772383038 0 -0.10141803271743606 -0.013409870193546239 0 -0.094420518021316513 -0.010320992163351654 0 -0.098888431670459603 -0.0087137317772383038 0 -0.094420518021316513 -0.010320992163351654 0 -0.096525755619649281 -0.0060140719726836118 0 -0.094420518021316513 -0.010320992163351654 0 -0.096525755619649281 -0.0060140719726836118 0 -0.091968567701461251 -0.0039684600404744823 0 -0.096525755619649281 -0.0060140719726836118 0 -0.096863195652957368 -0.002719291091449326 0 -0.091968567701461251 -0.0039684600404744823 0 -0.098888431670459603 -0.0087137317772383038 0 -0.096525755619649281 -0.0060140719726836118 0 -0.10219332106738417 -0.0049216615507816685 0 -0.096525755619649281 -0.0060140719726836118 0 -0.10219332106738417 -0.0049216615507816685 0 -0.096863195652957368 -0.002719291091449326 0 -0.10243809981049973 0.0010183690664792324 0 -0.10219332106738417 -0.0049216615507816685 0 -0.099982383610862383 -0.00091044979665504404 0 -0.097162751041256032 -8.9171836413894394e-05 0 -0.09519937290720995 -0.0012457825972241987 0 -0.10219332106738417 -0.0049216615507816685 0 -0.099982383610862383 -0.00091044979665504404 0 -0.096863195652957368 -0.002719291091449326 0 -0.095668184466131415 -0.00035446505868381084 0 -0.096863195652957368 -0.002719291091449326 0 -0.090827016093773846 -0.0004941142450663042 0 -0.099965774689220008 0.0015008308835380865 0 -0.099982383610862383 -0.00091044979665504404 0 -0.095668184466131415 -0.00035446505868381084 0 -0.099982383610862383 -0.00091044979665504404 0 -0.095668184466131415 -0.00035446505868381084 0 -0.096863195652957368 -0.002719291091449326 0 -0.096863195652957368 -0.002719291091449326 0 -0.090827016093773846 -0.0004941142450663042 0 -0.091968567701461251 -0.0039684600404744823 0 -0.089371612208526102 0.00028974179339967104 0 -0.088418868520052055 -0.00092670862077375233 0 -0.085751985933732705 -0.0016214395312067799 0 -0.089371612208526102 0.00028974179339967104 0 -0.090827016093773846 -0.0004941142450663042 0 -0.088418868520052055 -0.00092670862077375233 0 -0.090827016093773846 -0.0004941142450663042 0 -0.088418868520052055 -0.00092670862077375233 0 -0.087967127856464766 -0.0018975564069139762 0 -0.087967127856464766 -0.0018975564069139762 0 -0.085751985933732705 -0.0016214395312067799 0 -0.084547622864435956 -0.0045574275226141587 0 -0.088418868520052055 -0.00092670862077375233 0 -0.087967127856464766 -0.0018975564069139762 0 -0.085751985933732705 -0.0016214395312067799 0 -0.085751985933732705 -0.0016214395312067799 0 -0.084547622864435956 -0.0045574275226141587 0 -0.081219736260032135 -0.0043977855763735908 0 -0.090827016093773846 -0.0004941142450663042 0 -0.087967127856464766 -0.0018975564069139762 0 -0.091968567701461251 -0.0039684600404744823 0 -0.087967127856464766 -0.0018975564069139762 0 -0.084547622864435956 -0.0045574275226141587 0 -0.091968567701461251 -0.0039684600404744823 0 -0.094420518021316513 -0.010320992163351654 0 -0.084547622864435956 -0.0045574275226141587 0 -0.091968567701461251 -0.0039684600404744823 0 -0.075439335237510258 -0.0047330025108564995 0 -0.079471526690963079 -0.0037226579603780257 0 -0.076492619558858249 -0.0028501015968949201 0 -0.075439335237510258 -0.0047330025108564995 0 -0.084547622864435956 -0.0045574275226141587 0 -0.079471526690963079 -0.0037226579603780257 0 -0.086497083900868438 -0.0035234288765494579 0 -0.085386661507939318 -0.0036090871870644117 0 -0.079471526690963079 -0.0037226579603780257 0 -0.076492619558858249 -0.0028501015968949201 0 -0.077416891247264336 -0.002756317734710211 0 -0.076492619558858249 -0.0028501015968949201 0 -0.077416891247264336 -0.002756317734710211 0 -0.075241232937061503 -0.0022018759251740171 0 -0.074633225927045327 -0.0024244746542348788 0 -0.076492619558858249 -0.0028501015968949201 0 -0.075241232937061503 -0.0022018759251740171 0 -0.077416891247264336 -0.002756317734710211 0 -0.081219736260032135 -0.0043977855763735908 0 -0.076851288388395292 -0.0018714554895402147 0 -0.079471526690963079 -0.0037226579603780257 0 -0.077416891247264336 -0.002756317734710211 0 -0.081219736260032135 -0.0043977855763735908 0 -0.079200066527487095 -0.0017701621636902112 0 -0.077249235169159172 -0.00099856974808815581 0 -0.084547622864435956 -0.0045574275226141587 0 -0.079471526690963079 -0.0037226579603780257 0 -0.081219736260032135 -0.0043977855763735908 0 -0.080137294620789473 -0.0018741879546590576 0 -0.079200066527487095 -0.0017701621636902112 0 -0.085751985933732705 -0.0016214395312067799 0 -0.081713939556979809 -0.00028605989227160493 0 -0.084028881294098912 -6.5539217050590417e-07 0 -0.081713939556979809 -0.00028605989227160493 0 -0.084028881294098912 -6.5539217050590417e-07 0 -0.077564788713992 0.00012872559306528527 0 -0.089371612208526102 0.00028974179339967104 0 -0.085751985933732705 -0.0016214395312067799 0 -0.084028881294098912 -6.5539217050590417e-07 0 -0.084028881294098912 -6.5539217050590417e-07 0 -0.068347774196965763 -8.3880126169096378e-08 0 -0.072769935554159934 0.00016795703823873297 0 -0.068347774196965763 -8.3880126169096378e-08 0 -0.072769935554159934 0.00016795703823873297 0 -0.065259060303901009 0.00013248307690163713 0 -0.072769935554159934 0.00016795703823873297 0 -0.068964211322450439 0.00025718982363684797 0 -0.065259060303901009 0.00013248307690163713 0 -0.072769935554159934 0.00016795703823873297 0 -0.073230738443578386 0.00016642243258836359 0 -0.068964211322450439 0.00025718982363684797 0 -0.084028881294098912 -6.5539217050590417e-07 0 -0.072769935554159934 0.00016795703823873297 0 -0.077564788713992 0.00012872559306528527 0 -0.072769935554159934 0.00016795703823873297 0 -0.073230738443578386 0.00016642243258836359 0 -0.077564788713992 0.00012872559306528527 0 -0.072763784621795072 -0.00030228096648813745 0 -0.076851288388395292 -0.0018714554895402147 0 -0.072295149186480723 -0.00055135599132790866 0 -0.072763784621795072 -0.00030228096648813745 0 -0.072295149186480723 -0.00055135599132790866 0 -0.070662075982995357 3.8193109917667428e-05 0 -0.077416891247264336 -0.002756317734710211 0 -0.076851288388395292 -0.0018714554895402147 0 -0.072295149186480723 -0.00055135599132790866 0 -0.075313063546102024 -0.00026379172141073685 0 -0.077249235169159172 -0.00099856974808815581 0 -0.073841962937533423 -0.0017800311406559861 0 -0.075241232937061503 -0.0022018759251740171 0 -0.073738102650264065 -0.0012946676542396787 0 -0.07327922701179522 -0.0017776217582433683 0 -0.072225470294361604 -0.0010535618309497527 0 -0.074633225927045327 -0.0024244746542348788 0 -0.073841962937533423 -0.0017800311406559861 0 -0.075241232937061503 -0.0022018759251740171 0 -0.077416891247264336 -0.002756317734710211 0 -0.075241232937061503 -0.0022018759251740171 0 -0.073738102650264065 -0.0012946676542396787 0 -0.073841962937533423 -0.0017800311406559861 0 -0.073738102650264065 -0.0012946676542396787 0 -0.07189505295705087 -0.00094260005693199962 0 -0.070485923819560911 -0.00073845222106089833 0 -0.070535745901724706 -0.00088381551295321705 0 -0.07189505295705087 -0.00094260005693199962 0 -0.072295149186480723 -0.00055135599132790866 0 -0.070662075982995357 3.8193109917667428e-05 0 -0.068536544950973083 0.00044637752716812363 0 -0.073738102650264065 -0.0012946676542396787 0 -0.070485923819560911 -0.00073845222106089833 0 -0.07189505295705087 -0.00094260005693199962 0 -0.072225470294361604 -0.0010535618309497527 0 -0.070511206473421364 -0.0006507538241294304 0 -0.075313063546102024 -0.00026379172141073685 0 -0.074398448134669795 1.2551614447413032e-05 0 -0.072763784621795072 -0.00030228096648813745 0 -0.070662075982995357 3.8193109917667428e-05 0 -0.068964211322450439 0.00025718982363684797 0 -0.070662075982995357 3.8193109917667428e-05 0 -0.068964211322450439 0.00025718982363684797 0 -0.068536544950973083 0.00044637752716812363 0 -0.068964211322450439 0.00025718982363684797 0 -0.066463454030022809 -3.3555762007908785e-05 0 -0.065259060303901009 0.00013248307690163713 0 -0.068964211322450439 0.00025718982363684797 0 -0.068536544950973083 0.00044637752716812363 0 -0.066463454030022809 -3.3555762007908785e-05 0 -0.070485923819560911 -0.00073845222106089833 0 -0.069642284040566188 -0.0009730753118103744 0 -0.06828966412723779 -0.0011170097094193861 0 -0.070485923819560911 -0.00073845222106089833 0 -0.070535745901724706 -0.00088381551295321705 0 -0.069642284040566188 -0.0009730753118103744 0 -0.070535745901724706 -0.00088381551295321705 0 -0.070989210035104527 -0.0015617717704904507 0 -0.069767662550067944 -0.0013828561034300018 0 -0.070535745901724706 -0.00088381551295321705 0 -0.069642284040566188 -0.0009730753118103744 0 -0.069767662550067944 -0.0013828561034300018 0 -0.069642284040566188 -0.0009730753118103744 0 -0.069767662550067944 -0.0013828561034300018 0 -0.06828966412723779 -0.0011170097094193861 0 -0.070989210035104527 -0.0015617717704904507 0 -0.071005538603630458 -0.0021893356068225286 0 -0.069767662550067944 -0.0013828561034300018 0 -0.070989210035104527 -0.0015617717704904507 0 -0.072122926876770882 -0.0027189412667059268 0 -0.071005538603630458 -0.0021893356068225286 0 -0.072122926876770882 -0.0027189412667059268 0 -0.072151252750138381 -0.0030158731709964614 0 -0.071005538603630458 -0.0021893356068225286 0 -0.070989210035104527 -0.0015617717704904507 0 -0.072263828597546362 -0.0012181401967136006 0 -0.072122926876770882 -0.0027189412667059268 0 -0.070535745901724706 -0.00088381551295321705 0 -0.070989210035104527 -0.0015617717704904507 0 -0.071119512304883697 -0.00064160579827176342 0 -0.070989210035104527 -0.0015617717704904507 0 -0.072263828597546362 -0.0012181401967136006 0 -0.071119512304883697 -0.00064160579827176342 0 -0.072263828597546362 -0.0012181401967136006 0 -0.071119512304883697 -0.00064160579827176342 0 -0.073187662754857219 0.00060512878791321311 0 -0.070535745901724706 -0.00088381551295321705 0 -0.071119512304883697 -0.00064160579827176342 0 -0.07189505295705087 -0.00094260005693199962 0 -0.071119512304883697 -0.00064160579827176342 0 -0.07189505295705087 -0.00094260005693199962 0 -0.07194506379583207 -0.0013583640866064385 0 -0.073841962937533423 -0.0017800311406559861 0 -0.07189505295705087 -0.00094260005693199962 0 -0.07194506379583207 -0.0013583640866064385 0 -0.074633225927045327 -0.0024244746542348788 0 -0.073841962937533423 -0.0017800311406559861 0 -0.073655994963890886 -0.0019157844353735762 0 -0.073841962937533423 -0.0017800311406559861 0 -0.07194506379583207 -0.0013583640866064385 0 -0.070895126950260859 -0.0026356649133470987 0 -0.076728776491719275 -0.0027243926921841342 0 -0.081602013262261769 -0.0018509158331396955 0 -0.071119512304883697 -0.00064160579827176342 0 -0.07194506379583207 -0.0013583640866064385 0 -0.070895126950260859 -0.0026356649133470987 0 -0.071119512304883697 -0.00064160579827176342 0 -0.071443400197537824 0.0045595315181090048 0 -0.073187662754857219 0.00060512878791321311 0 -0.078629019931682656 -0.0010777424605159865 0 -0.081602013262261769 -0.0018509158331396955 0 -0.071443400197537824 0.0045595315181090048 0 -0.073187662754857219 0.00060512878791321311 0 -0.074764918256788382 0.0023281509481342453 0 -0.073187662754857219 0.00060512878791321311 0 -0.074880125437226372 0.00060854344554415129 0 -0.074764918256788382 0.0023281509481342453 0 -0.074880125437226372 0.00060854344554415129 0 -0.077101118060327073 0.00062193849429458545 0 -0.07458688235368123 -0.00099607256439190623 0 -0.074880125437226372 0.00060854344554415129 0 -0.074764918256788382 0.0023281509481342453 0 -0.077101118060327073 0.00062193849429458545 0 -0.071443400197537824 0.0045595315181090048 0 -0.074764918256788382 0.0023281509481342453 0 -0.076117454804211032 0.0046724158891688107 0 -0.081602013262261769 -0.0018509158331396955 0 -0.088615338944166649 0.00028064612320720817 0 -0.071443400197537824 0.0045595315181090048 0 -0.076117454804211032 0.0046724158891688107 0 -0.076700929739086834 0.0063689296834317875 0 -0.074764918256788382 0.0023281509481342453 0 -0.076117454804211032 0.0046724158891688107 0 -0.077603596526370208 0.0029160860181042378 0 -0.08268886951932064 0.0077940057646839322 0 -0.080410466809812342 0.0048373165045667698 0 -0.077169008108360165 0.006195558526451728 0 -0.080410466809812342 0.0048373165045667698 0 -0.077169008108360165 0.006195558526451728 0 -0.078089150328646134 0.0043688559623076793 0 -0.076117454804211032 0.0046724158891688107 0 -0.077169008108360165 0.006195558526451728 0 -0.078089150328646134 0.0043688559623076793 0 -0.076117454804211032 0.0046724158891688107 0 -0.076700929739086834 0.0063689296834317875 0 -0.077169008108360165 0.006195558526451728 0 -0.088615338944166649 0.00028064612320720817 0 -0.088534652856513157 0.00032099208636768246 0 -0.076117454804211032 0.0046724158891688107 0 -0.078089150328646134 0.0043688559623076793 0 -0.077603596526370208 0.0029160860181042378 0 -0.078089150328646134 0.0043688559623076793 0 -0.079146119096055692 0.0034427904546694239 0 -0.077603596526370208 0.0029160860181042378 0 -0.080410466809812342 0.0048373165045667698 0 -0.078089150328646134 0.0043688559623076793 0 -0.079146119096055692 0.0034427904546694239 0 -0.080410466809812342 0.0048373165045667698 0 -0.079146119096055692 0.0034427904546694239 0 -0.080303504000189735 0.0018815874016308181 0 -0.079146119096055692 0.0034427904546694239 0 -0.077603596526370208 0.0029160860181042378 0 -0.080303504000189735 0.0018815874016308181 0 -0.077603596526370208 0.0029160860181042378 0 -0.077101118060327073 0.00062193849429458545 0 -0.080303504000189735 0.0018815874016308181 0 -0.074764918256788382 0.0023281509481342453 0 -0.077603596526370208 0.0029160860181042378 0 -0.077101118060327073 0.00062193849429458545 0 -0.077101118060327073 0.00062193849429458545 0 -0.080415235401088025 -0.00033026436893635454 0 -0.080303504000189735 0.0018815874016308181 0 -0.077101118060327073 0.00062193849429458545 0 -0.079033864064416648 -0.0027676120316915509 0 -0.080415235401088025 -0.00033026436893635454 0 -0.077101118060327073 0.00062193849429458545 0 -0.079033864064416648 -0.0027676120316915509 0 -0.07458688235368123 -0.00099607256439190623 0 -0.079033864064416648 -0.0027676120316915509 0 -0.07458688235368123 -0.00099607256439190623 0 -0.072122926876770882 -0.0027189412667059268 0 -0.072263828597546362 -0.0012181401967136006 0 -0.07458688235368123 -0.00099607256439190623 0 -0.072122926876770882 -0.0027189412667059268 0 -0.072263828597546362 -0.0012181401967136006 0 -0.073187662754857219 0.00060512878791321311 0 -0.07458688235368123 -0.00099607256439190623 0 -0.073187662754857219 0.00060512878791321311 0 -0.074880125437226372 0.00060854344554415129 0 -0.07458688235368123 -0.00099607256439190623 0 -0.07774031626624571 -0.0013315376278018728 0 -0.072122926876770882 -0.0027189412667059268 0 -0.073256112416737476 -0.0038671822217957903 0 -0.072122926876770882 -0.0027189412667059268 0 -0.073256112416737476 -0.0038671822217957903 0 -0.072151252750138381 -0.0030158731709964614 0 -0.079584331830620636 -0.0018222321358501883 0 -0.076397002052107296 -0.0029038136497351202 0 -0.073256112416737476 -0.0038671822217957903 0 -0.071346164064284914 -0.0035440223466639332 0 -0.069816809533475438 -0.0055173888309224053 0 -0.07774031626624571 -0.0013315376278018728 0 -0.073256112416737476 -0.0038671822217957903 0 -0.081155881130031651 -0.0053059022468504346 0 -0.07502229094731129 -0.0045324552317775818 0 -0.076008305343905833 -0.0044465217760536226 0 -0.071346164064284914 -0.0035440223466639332 0 -0.07234976755703669 -0.0029344380406011433 0 -0.072085456352559252 -0.0025985588843546173 0 -0.073256112416737476 -0.0038671822217957903 0 -0.071346164064284914 -0.0035440223466639332 0 -0.07234976755703669 -0.0029344380406011433 0 -0.073256112416737476 -0.0038671822217957903 0 -0.072151252750138381 -0.0030158731709964614 0 -0.07234976755703669 -0.0029344380406011433 0 -0.072151252750138381 -0.0030158731709964614 0 -0.07234976755703669 -0.0029344380406011433 0 -0.071305015612978126 -0.0027273304121431131 0 -0.065008122647721156 -0.0050826007345239734 0 -0.06472790040487239 -0.00578327143605698 0 -0.07234976755703669 -0.0029344380406011433 0 -0.071397334210514418 -0.0045281946077662099 0 -0.071305015612978126 -0.0027273304121431131 0 -0.07234976755703669 -0.0029344380406011433 0 -0.072085456352559252 -0.0025985588843546173 0 -0.071397334210514418 -0.0045281946077662099 0 -0.058639333872824412 -0.0068740786126570905 0 -0.058643378124149111 -0.0077890415622431704 0 -0.05820710054718866 -0.0078760630509999551 0 -0.058639333872824412 -0.0068740786126570905 0 -0.058643378124149111 -0.0077890415622431704 0 -0.060027739064918574 -0.0072687535413259825 0 -0.058643378124149111 -0.0077890415622431704 0 -0.059758974939196997 -0.0088981365569241119 0 -0.057375827209698867 -0.008048110250478243 0 -0.058643378124149111 -0.0077890415622431704 0 -0.05820710054718866 -0.0078760630509999551 0 -0.057375827209698867 -0.008048110250478243 0 -0.058639333872824412 -0.0068740786126570905 0 -0.05820710054718866 -0.0078760630509999551 0 -0.058735353467613133 -0.0083271518801212342 0 -0.05820710054718866 -0.0078760630509999551 0 -0.060215159957276929 -0.0067566509569662158 0 -0.059017158253510907 -0.0059653778095047081 0 -0.05820710054718866 -0.0078760630509999551 0 -0.058735353467613133 -0.0083271518801212342 0 -0.060215159957276929 -0.0067566509569662158 0 -0.060215159957276929 -0.0067566509569662158 0 -0.063316349999312779 -0.0070370028595942678 0 -0.061381055066636124 -0.00658985566750688 0 -0.071397334210514418 -0.0045281946077662099 0 -0.063316349999312779 -0.0070370028595942678 0 -0.06717652007318807 -0.0040885202087613658 0 -0.06472790040487239 -0.00578327143605698 0 -0.064192914428659167 -0.0061975561208668112 0 -0.058735353467613133 -0.0083271518801212342 0 -0.060215159957276929 -0.0067566509569662158 0 -0.063316349999312779 -0.0070370028595942678 0 -0.063316349999312779 -0.0070370028595942678 0 -0.06717652007318807 -0.0040885202087613658 0 -0.064536672585663618 -0.004748784528832809 0 -0.06717652007318807 -0.0040885202087613658 0 -0.066952125368862886 -0.0026626921507360494 0 -0.064536672585663618 -0.004748784528832809 0 -0.066952125368862886 -0.0026626921507360494 0 -0.064946601218662775 -0.0019549023322512531 0 -0.064536672585663618 -0.004748784528832809 0 -0.066952125368862886 -0.0026626921507360494 0 -0.066834767331464706 -0.0017083415208063192 0 -0.068393984454276982 -0.0018514238685144637 0 -0.066952125368862886 -0.0026626921507360494 0 -0.066834767331464706 -0.0017083415208063192 0 -0.064946601218662775 -0.0019549023322512531 0 -0.066952125368862886 -0.0026626921507360494 0 -0.069186539261780824 -0.0027751826854949817 0 -0.068393984454276982 -0.0018514238685144637 0 -0.06717652007318807 -0.0040885202087613658 0 -0.066952125368862886 -0.0026626921507360494 0 -0.069186539261780824 -0.0027751826854949817 0 -0.071397334210514418 -0.0045281946077662099 0 -0.06717652007318807 -0.0040885202087613658 0 -0.069186539261780824 -0.0027751826854949817 0 -0.071397334210514418 -0.0045281946077662099 0 -0.069186539261780824 -0.0027751826854949817 0 -0.071305015612978126 -0.0027273304121431131 0 -0.069186539261780824 -0.0027751826854949817 0 -0.069902165433210595 -0.0019795479991920823 0 -0.071305015612978126 -0.0027273304121431131 0 -0.069902165433210595 -0.0019795479991920823 0 -0.071305015612978126 -0.0027273304121431131 0 -0.071005538603630458 -0.0021893356068225286 0 -0.072151252750138381 -0.0030158731709964614 0 -0.071305015612978126 -0.0027273304121431131 0 -0.071005538603630458 -0.0021893356068225286 0 -0.069902165433210595 -0.0019795479991920823 0 -0.071005538603630458 -0.0021893356068225286 0 -0.069767662550067944 -0.0013828561034300018 0 -0.069902165433210595 -0.0019795479991920823 0 -0.069767662550067944 -0.0013828561034300018 0 -0.068393984454276982 -0.0018514238685144637 0 -0.069767662550067944 -0.0013828561034300018 0 -0.06828966412723779 -0.0011170097094193861 0 -0.068393984454276982 -0.0018514238685144637 0 -0.066834767331464706 -0.0017083415208063192 0 -0.06828966412723779 -0.0011170097094193861 0 -0.068393984454276982 -0.0018514238685144637 0 -0.069186539261780824 -0.0027751826854949817 0 -0.069902165433210595 -0.0019795479991920823 0 -0.068393984454276982 -0.0018514238685144637 0 -0.068536544950973083 0.00044637752716812363 0 -0.066463454030022809 -3.3555762007908785e-05 0 -0.065888497711744001 -0.0012032804878983076 0 -0.070511206473421364 -0.0006507538241294304 0 -0.069608529018926002 -0.00091144349366715377 0 -0.070485923819560911 -0.00073845222106089833 0 -0.06828966412723779 -0.0011170097094193861 0 -0.065888497711744001 -0.0012032804878983076 0 -0.066463454030022809 -3.3555762007908785e-05 0 -0.065288616977929245 -0.00060852628593502161 0 -0.065888497711744001 -0.0012032804878983076 0 -0.066834767331464706 -0.0017083415208063192 0 -0.06828966412723779 -0.0011170097094193861 0 -0.065888497711744001 -0.0012032804878983076 0 -0.066463454030022809 -3.3555762007908785e-05 0 -0.064451054640440042 -0.00028564209185346414 0 -0.065259060303901009 0.00013248307690163713 0 -0.066463454030022809 -3.3555762007908785e-05 0 -0.064451054640440042 -0.00028564209185346414 0 -0.065288616977929245 -0.00060852628593502161 0 -0.064135806763606265 -0.00098876338429648995 0 -0.062397660618365713 -0.00070571274236157656 0 -0.061652445206149278 -0.00019203072539587663 0 -0.064451054640440042 -0.00028564209185346414 0 -0.064135806763606265 -0.00098876338429648995 0 -0.061652445206149278 -0.00019203072539587663 0 -0.064451054640440042 -0.00028564209185346414 0 -0.065288616977929245 -0.00060852628593502161 0 -0.064135806763606265 -0.00098876338429648995 0 -0.064135806763606265 -0.00098876338429648995 0 -0.064946601218662775 -0.0019549023322512531 0 -0.062397660618365713 -0.00070571274236157656 0 -0.065288616977929245 -0.00060852628593502161 0 -0.064135806763606265 -0.00098876338429648995 0 -0.065888497711744001 -0.0012032804878983076 0 -0.064135806763606265 -0.00098876338429648995 0 -0.065888497711744001 -0.0012032804878983076 0 -0.064946601218662775 -0.0019549023322512531 0 -0.066834767331464706 -0.0017083415208063192 0 -0.065888497711744001 -0.0012032804878983076 0 -0.064946601218662775 -0.0019549023322512531 0 -0.061906855125329265 -0.0018990589873177915 0 -0.061024276052731148 -0.002628480818453694 0 -0.063316349999312779 -0.0070370028595942678 0 -0.064536672585663618 -0.004748784528832809 0 -0.061852292735778969 -0.0073938136800010606 0 -0.064946601218662775 -0.0019549023322512531 0 -0.060450177826945214 -0.00013322724182916466 0 -0.062397660618365713 -0.00070571274236157656 0 -0.064946601218662775 -0.0019549023322512531 0 -0.064536672585663618 -0.004748784528832809 0 -0.061852292735778969 -0.0073938136800010606 0 -0.063316349999312779 -0.0070370028595942678 0 -0.061852292735778969 -0.0073938136800010606 0 -0.061381055066636124 -0.00658985566750688 0 -0.060450177826945214 -0.00013322724182916466 0 -0.059837129249077331 -4.6046070144081942e-05 0 -0.05755137385124675 0.00018077539377168682 0 -0.060450177826945214 -0.00013322724182916466 0 -0.059837129249077331 -4.6046070144081942e-05 0 -0.062397660618365713 -0.00070571274236157656 0 -0.059837129249077331 -4.6046070144081942e-05 0 -0.062397660618365713 -0.00070571274236157656 0 -0.061652445206149278 -0.00019203072539587663 0 -0.061652445206149278 -0.00019203072539587663 0 -0.05719229112682904 0.00011583578788646866 0 -0.056710689478617592 5.3716507831996106e-06 0 -0.059837129249077331 -4.6046070144081942e-05 0 -0.061652445206149278 -0.00019203072539587663 0 -0.05719229112682904 0.00011583578788646866 0 -0.068347774196965763 -8.3880126169096378e-08 0 -0.056710689478617592 5.3716507831996106e-06 0 -0.065259060303901009 0.00013248307690163713 0 -0.061652445206149278 -0.00019203072539587663 0 -0.056710689478617592 5.3716507831996106e-06 0 -0.065259060303901009 0.00013248307690163713 0 -0.064451054640440042 -0.00028564209185346414 0 -0.061652445206149278 -0.00019203072539587663 0 -0.065259060303901009 0.00013248307690163713 0 -0.1011945867085209 0.0011185132131139681 0 -0.10134302628545197 0.0011621554421888346 0 -0.10127466473506261 0.0012835479931265531 0 -0.084507948873694491 0.0016387844151553187 0 -0.085596997905209221 0.0018012946541554851 0 -0.084507948873694491 0.0016387844151553187 0 -0.080404924185135451 -0.0020061686441367032 0 -0.10160189241952723 -0.0020200503217213108 0 -0.096318710278366249 -0.0032175117444631553 0 -0.098687891913772391 -0.00098221416438087883 0 -0.064789895475351009 -0.0048755485049583576 0 -0.064128361653988691 -0.0052617934729996714 0 -0.064528841894514799 -0.0051993539731270419 0 -0.064128361653988691 -0.0052617934729996714 0 -0.064528841894514799 -0.0051993539731270419 0 -0.064413683414306977 -0.0052580911585167053 0 -0.064647751428992567 -0.0053066516335003675 0 -0.064528841894514799 -0.0051993539731270419 0 -0.064413683414306977 -0.0052580911585167053 0 -0.064647751428992567 -0.0053066516335003675 0 -0.064528841894514799 -0.0051993539731270419 0 -0.064888077923653614 -0.0052925507067944372 0 -0.064789895475351009 -0.0048755485049583576 0 -0.064528841894514799 -0.0051993539731270419 0 -0.064888077923653614 -0.0052925507067944372 0 -0.084507948873694491 0.0016387844151553187 0 -0.08085769879616303 -0.0025177034818804063 0 -0.10121914749836176 0.0011391290238851044 0 -0.10129310353531468 0.00072689290052368473 0 -0.10138151236711306 0.00096975518123422792 0 -0.10129310353531468 0.00072689290052368473 0 -0.10152609521682662 0.00067525190525028833 0 -0.10147102115931599 0.00081391651588802417 0 -0.10152609521682662 0.00067525190525028833 0 -0.10162756131790254 0.00078677803947811676 0 -0.10168285486141376 0.0006953942569763342 0 -0.10152609521682662 0.00067525190525028833 0 -0.10162756131790254 0.00078677803947811676 0 -0.10147102115931599 0.00081391651588802417 0 -0.10162756131790254 0.00078677803947811676 0 -0.10151613457862739 0.00092224818483385631 0 -0.10147102115931599 0.00081391651588802417 0 -0.10162756131790254 0.00078677803947811676 0 -0.10151613457862739 0.00092224818483385631 0 -0.10170148414031845 0.00096485371074683845 0 -0.10151613457862739 0.00092224818483385631 0 -0.10147102115931599 0.00081391651588802417 0 -0.10138151236711306 0.00096975518123422792 0 -0.10129310353531468 0.00072689290052368473 0 -0.10147102115931599 0.00081391651588802417 0 -0.10138151236711306 0.00096975518123422792 0 -0.10172836580183178 0.00075278617840463164 0 -0.10182814861691486 0.00077611248710516775 0 -0.10168285486141376 0.0006953942569763342 0 -0.10162756131790254 0.00078677803947811676 0 -0.10182814861691486 0.00077611248710516775 0 -0.10168285486141376 0.0006953942569763342 0 -0.10162756131790254 0.00078677803947811676 0 -0.10182814861691486 0.00077611248710516775 0 -0.10170148414031845 0.00096485371074683845 0 -0.10182814861691486 0.00077611248710516775 0 -0.10170148414031845 0.00096485371074683845 0 -0.10205318163329621 0.0012814655197792547 0 -0.10170148414031845 0.00096485371074683845 0 -0.10205318163329621 0.0012814655197792547 0 -0.10172073693035832 0.0011996078973522271 0 -0.10205318163329621 0.0012814655197792547 0 -0.10172073693035832 0.0011996078973522271 0 -0.10194911353308489 0.0015179942696416948 0 -0.10138151236711306 0.00096975518123422792 0 -0.10150999062641981 0.0010791203159822027 0 -0.10134302628545197 0.0011621554421888346 0 -0.10121914749836176 0.0011391290238851044 0 -0.10138151236711306 0.00096975518123422792 0 -0.10134302628545197 0.0011621554421888346 0 -0.10151613457862739 0.00092224818483385631 0 -0.10138151236711306 0.00096975518123422792 0 -0.10150999062641981 0.0010791203159822027 0 -0.10151613457862739 0.00092224818483385631 0 -0.10170148414031845 0.00096485371074683845 0 -0.10150999062641981 0.0010791203159822027 0 -0.10170148414031845 0.00096485371074683845 0 -0.10150999062641981 0.0010791203159822027 0 -0.10172073693035832 0.0011996078973522271 0 -0.1015685234145314 0.0013088889470254687 0 -0.10172073693035832 0.0011996078973522271 0 -0.10194911353308489 0.0015179942696416948 0 -0.10150999062641981 0.0010791203159822027 0 -0.1015685234145314 0.0013088889470254687 0 -0.10172073693035832 0.0011996078973522271 0 -0.10150999062641981 0.0010791203159822027 0 -0.1015685234145314 0.0013088889470254687 0 -0.10134302628545197 0.0011621554421888346 0 -0.1015685234145314 0.0013088889470254687 0 -0.10134302628545197 0.0011621554421888346 0 -0.10127466473506261 0.0012835479931265531 0 -0.1015685234145314 0.0013088889470254687 0 -0.10127466473506261 0.0012835479931265531 0 -0.10167419717083749 0.0018199695620151244 0 -0.1015685234145314 0.0013088889470254687 0 -0.10167419717083749 0.0018199695620151244 0 -0.10194911353308489 0.0015179942696416948 0 -0.10127466473506261 0.0012835479931265531 0 -0.10167419717083749 0.0018199695620151244 0 -0.10088909189335014 0.0012377288005846543 0 -0.10241880807610058 0.0017653610811317283 0 -0.10205318163329621 0.0012814655197792547 0 -0.10194911353308489 0.0015179942696416948 0 -0.10167419717083749 0.0018199695620151244 0 -0.10194911353308489 0.0015179942696416948 0 -0.10223605213539802 0.002116644970769215 0 -0.10241880807610058 0.0017653610811317283 0 -0.10194911353308489 0.0015179942696416948 0 -0.10223605213539802 0.002116644970769215 0 -0.10205444233631246 0.0030110016660660714 0 -0.10247126235533442 0.0026629720428134702 0 -0.10223605213539802 0.002116644970769215 0 -0.10260128792043202 0.0021489145616131189 0 -0.10247126235533442 0.0026629720428134702 0 -0.10223605213539802 0.002116644970769215 0 -0.10205444233631246 0.0030110016660660714 0 -0.10167419717083749 0.0018199695620151244 0 -0.10223605213539802 0.002116644970769215 0 -0.10205444233631246 0.0030110016660660714 0 -0.10167419717083749 0.0018199695620151244 0 -0.10081816214031236 0.0027296020601426086 0 -0.10081816214031236 0.0027296020601426086 0 -0.10088909189335014 0.0012377288005846543 0 -0.098711860792048689 0.0020347393706065223 0 -0.10167419717083749 0.0018199695620151244 0 -0.10081816214031236 0.0027296020601426086 0 -0.10088909189335014 0.0012377288005846543 0 -0.084507948873694491 0.0016387844151553187 0 -0.086314094134816846 0.00068946990594357998 0 -0.1011945867085209 0.0011185132131139681 0 -0.10127466473506261 0.0012835479931265531 0 -0.10088909189335014 0.0012377288005846543 0 -0.10160189241952723 -0.0020200503217213108 0 -0.098687891913772391 -0.00098221416438087883 0 -0.10088909189335014 0.0012377288005846543 0 -0.098687891913772391 -0.00098221416438087883 0 -0.098711860792048689 0.0020347393706065223 0 -0.093746233837735102 0.0022812645959803726 0 -0.098687891913772391 -0.00098221416438087883 0 -0.10088909189335014 0.0012377288005846543 0 -0.098711860792048689 0.0020347393706065223 0 -0.098436367450104756 0.0043263895319536356 0 -0.10081816214031236 0.0027296020601426086 0 -0.098711860792048689 0.0020347393706065223 0 -0.098436367450104756 0.0043263895319536356 0 -0.098711860792048689 0.0020347393706065223 0 -0.093746233837735102 0.0022812645959803726 0 -0.093719147076308851 0.0053789978147176388 0 -0.098436367450104756 0.0043263895319536356 0 -0.093746233837735102 0.0022812645959803726 0 -0.093719147076308851 0.0053789978147176388 0 -0.093746233837735102 0.0022812645959803726 0 -0.089588333426501299 0.0039725498716707379 0 -0.089053274719524692 0.0016845483896727393 0 -0.085467402240110568 0.00029805667949423773 0 -0.093746233837735102 0.0022812645959803726 0 -0.086249952860614792 0.0010921194202840041 0 -0.091222375995687596 -0.00081331142414648838 0 -0.093746233837735102 0.0022812645959803726 0 -0.089588333426501299 0.0039725498716707379 0 -0.086660451007311387 -0.00082290926283930125 0 -0.096318710278366249 -0.0032175117444631553 0 -0.098687891913772391 -0.00098221416438087883 0 -0.093746233837735102 0.0022812645959803726 0 -0.096318710278366249 -0.0032175117444631553 0 -0.093746233837735102 0.0022812645959803726 0 -0.091222375995687596 -0.00081331142414648838 0 -0.08724363490300871 0.0061069451393340156 0 -0.08268886951932064 0.0077940057646839322 0 -0.084482946482809615 0.0039262016374180982 0 -0.080410466809812342 0.0048373165045667698 0 -0.084482946482809615 0.0039262016374180982 0 -0.080303504000189735 0.0018815874016308181 0 -0.08268886951932064 0.0077940057646839322 0 -0.080410466809812342 0.0048373165045667698 0 -0.084482946482809615 0.0039262016374180982 0 -0.089588333426501299 0.0039725498716707379 0 -0.084482946482809615 0.0039262016374180982 0 -0.086660451007311387 -0.00082290926283930125 0 -0.08724363490300871 0.0061069451393340156 0 -0.089588333426501299 0.0039725498716707379 0 -0.084482946482809615 0.0039262016374180982 0 -0.084482946482809615 0.0039262016374180982 0 -0.086660451007311387 -0.00082290926283930125 0 -0.080303504000189735 0.0018815874016308181 0 -0.086660451007311387 -0.00082290926283930125 0 -0.080415235401088025 -0.00033026436893635454 0 -0.080303504000189735 0.0018815874016308181 0 -0.07774031626624571 -0.0013315376278018728 0 -0.085178426331292703 -0.0026636014265950503 0 -0.081155881130031651 -0.0053059022468504346 0 -0.079584331830620636 -0.0018222321358501883 0 -0.085467402240110568 0.00029805667949423773 0 -0.079033864064416648 -0.0027676120316915509 0 -0.086660451007311387 -0.00082290926283930125 0 -0.080415235401088025 -0.00033026436893635454 0 -0.07774031626624571 -0.0013315376278018728 0 -0.086249952860614792 0.0010921194202840041 0 -0.085178426331292703 -0.0026636014265950503 0 -0.086249952860614792 0.0010921194202840041 0 -0.085178426331292703 -0.0026636014265950503 0 -0.091222375995687596 -0.00081331142414648838 0 -0.085178426331292703 -0.0026636014265950503 0 -0.081155881130031651 -0.0053059022468504346 0 -0.089766165301185696 -0.0047337488155313155 0 -0.076008305343905833 -0.0044465217760536226 0 -0.077892882765344867 -0.0037673303004159822 0 -0.06742260598086891 -0.004816982638729767 0 -0.069816809533475438 -0.0055173888309224053 0 -0.065459085708443124 -0.0060494845441194153 0 -0.080404924185135451 -0.0020061686441367032 0 -0.077892882765344867 -0.0037673303004159822 0 -0.096318710278366249 -0.0032175117444631553 0 -0.091222375995687596 -0.00081331142414648838 0 -0.089766165301185696 -0.0047337488155313155 0 -0.085178426331292703 -0.0026636014265950503 0 -0.091222375995687596 -0.00081331142414648838 0 -0.089766165301185696 -0.0047337488155313155 0 -0.06742260598086891 -0.004816982638729767 0 -0.065459085708443124 -0.0060494845441194153 0 -0.06406885761174369 -0.0047143232670980003 0 -0.064128361653988691 -0.0052617934729996714 0 -0.065459085708443124 -0.0060494845441194153 0 -0.06406885761174369 -0.0047143232670980003 0 -0.064128361653988691 -0.0052617934729996714 0 -0.06406885761174369 -0.0047143232670980003 0 -0.064413683414306977 -0.0052580911585167053 0 -0.06406885761174369 -0.0047143232670980003 0 -0.064221384909606716 -0.0056254981187537547 0 -0.064413683414306977 -0.0052580911585167053 0 -0.06406885761174369 -0.0047143232670980003 0 -0.06319979927612257 -0.0059822345830695895 0 -0.064221384909606716 -0.0056254981187537547 0 -0.06406885761174369 -0.0047143232670980003 0 -0.06319979927612257 -0.0059822345830695895 0 -0.060891456604320153 -0.0053445493881769451 0 -0.064398813154568038 -0.0047122172798947908 0 -0.064686746854238322 -0.0047128535771171192 0 -0.06319979927612257 -0.0059822345830695895 0 -0.061603397258597488 -0.0067311761137466381 0 -0.062570183092701293 -0.0074227284363890958 0 -0.06319979927612257 -0.0059822345830695895 0 -0.064221384909606716 -0.0056254981187537547 0 -0.064154919736880353 -0.0065710172007418096 0 -0.06319979927612257 -0.0059822345830695895 0 -0.064154919736880353 -0.0065710172007418096 0 -0.062570183092701293 -0.0074227284363890958 0 -0.071346164064284914 -0.0035440223466639332 0 -0.072085456352559252 -0.0025985588843546173 0 -0.068303125278003127 -0.0026433653963893735 0 -0.071346164064284914 -0.0035440223466639332 0 -0.069816809533475438 -0.0055173888309224053 0 -0.068303125278003127 -0.0026433653963893735 0 -0.06742260598086891 -0.004816982638729767 0 -0.069816809533475438 -0.0055173888309224053 0 -0.068303125278003127 -0.0026433653963893735 0 -0.06742260598086891 -0.004816982638729767 0 -0.06406885761174369 -0.0047143232670980003 0 -0.068303125278003127 -0.0026433653963893735 0 -0.060891456604320153 -0.0053445493881769451 0 -0.061603397258597488 -0.0067311761137466381 0 -0.060027739064918574 -0.0072687535413259825 0 -0.06319979927612257 -0.0059822345830695895 0 -0.060891456604320153 -0.0053445493881769451 0 -0.061603397258597488 -0.0067311761137466381 0 -0.058639333872824412 -0.0068740786126570905 0 -0.060891456604320153 -0.0053445493881769451 0 -0.060027739064918574 -0.0072687535413259825 0 -0.065008122647721156 -0.0050826007345239734 0 -0.064686746854238322 -0.0047128535771171192 0 -0.061603397258597488 -0.0067311761137466381 0 -0.060027739064918574 -0.0072687535413259825 0 -0.061196523143071016 -0.0078614763703005949 0 -0.061603397258597488 -0.0067311761137466381 0 -0.061196523143071016 -0.0078614763703005949 0 -0.062570183092701293 -0.0074227284363890958 0 -0.061196523143071016 -0.0078614763703005949 0 -0.062173980737440418 -0.0088733816247425212 0 -0.059758974939196997 -0.0088981365569241119 0 -0.053248349854232636 -0.0098054413996440156 0 -0.055012196988155092 -0.0094854091481521956 0 -0.058643378124149111 -0.0077890415622431704 0 -0.060027739064918574 -0.0072687535413259825 0 -0.059758974939196997 -0.0088981365569241119 0 -0.060027739064918574 -0.0072687535413259825 0 -0.061196523143071016 -0.0078614763703005949 0 -0.059758974939196997 -0.0088981365569241119 0 -0.06542001650676664 -0.007869957244488272 0 -0.064440171329463294 -0.0079980393182428489 0 -0.063934144299354942 -0.0069731423908254092 0 -0.062570183092701293 -0.0074227284363890958 0 -0.06418955383437408 -0.0084552785048351634 0 -0.061196523143071016 -0.0078614763703005949 0 -0.062570183092701293 -0.0074227284363890958 0 -0.062173980737440418 -0.0088733816247425212 0 -0.062570183092701293 -0.0074227284363890958 0 -0.062173980737440418 -0.0088733816247425212 0 -0.06418955383437408 -0.0084552785048351634 0 -0.044378956944408694 -0.012080643955941654 0 -0.038707564828095647 -0.012934242510709241 0 -0.041538274766946895 -0.0091704374730827362 0 -0.053248349854232636 -0.0098054413996440156 0 -0.051517095338876925 -0.0097366075564733964 0 -0.06418955383437408 -0.0084552785048351634 0 -0.066007077635229131 -0.0081092648641172636 0 -0.065270848986719726 -0.0074105922733307588 0 -0.038707564828095647 -0.012934242510709241 0 -0.033443586051818602 -0.013727527560948338 0 -0.035169964816199502 -0.010664586869092442 0 -0.051517095338876925 -0.0097366075564733964 0 -0.050380044284625489 -0.0089640822624221968 0 -0.033443586051818602 -0.013727527560948338 0 -0.031588445538382484 -0.010562352813783813 0 -0.035169964816199502 -0.010664586869092442 0 -0.066007077635229131 -0.0081092648641172636 0 -0.066200722494244496 -0.0074849908723312302 0 -0.066866275734186048 -0.0075049260987685535 0 -0.066007077635229131 -0.0081092648641172636 0 -0.066200722494244496 -0.0074849908723312302 0 -0.065270848986719726 -0.0074105922733307588 0 -0.065985919451995168 -0.006934669543717081 0 -0.065270848986719726 -0.0074105922733307588 0 -0.065283985757067911 -0.0065042824970701525 0 -0.066200722494244496 -0.0074849908723312302 0 -0.065985919451995168 -0.006934669543717081 0 -0.065270848986719726 -0.0074105922733307588 0 -0.066200722494244496 -0.0074849908723312302 0 -0.065985919451995168 -0.006934669543717081 0 -0.066420570305224177 -0.0069868851003804106 0 -0.063934144299354942 -0.0069731423908254092 0 -0.06418955383437408 -0.0084552785048351634 0 -0.065270848986719726 -0.0074105922733307588 0 -0.063934144299354942 -0.0069731423908254092 0 -0.065270848986719726 -0.0074105922733307588 0 -0.065283985757067911 -0.0065042824970701525 0 -0.06542001650676664 -0.007869957244488272 0 -0.068385772568678935 -0.0075892270901111378 0 -0.064221384909606716 -0.0056254981187537547 0 -0.064154919736880353 -0.0065710172007418096 0 -0.064737718864638111 -0.0059494599442925554 0 -0.064737718864638111 -0.0059494599442925554 0 -0.064782695320630815 -0.0055148452935483445 0 -0.065060960628190057 -0.0057058077426113806 0 -0.065985919451995168 -0.006934669543717081 0 -0.065283985757067911 -0.0065042824970701525 0 -0.066628592088063265 -0.0060242638966685382 0 -0.068385772568678935 -0.0075892270901111378 0 -0.076220311476367431 -0.0064420522800092399 0 -0.065985919451995168 -0.006934669543717081 0 -0.066628592088063265 -0.0060242638966685382 0 -0.066420570305224177 -0.0069868851003804106 0 -0.064888077923653614 -0.0052925507067944372 0 -0.064782695320630815 -0.0055148452935483445 0 -0.065060960628190057 -0.0057058077426113806 0 -0.064647751428992567 -0.0053066516335003675 0 -0.064888077923653614 -0.0052925507067944372 0 -0.064782695320630815 -0.0055148452935483445 0 -0.064647751428992567 -0.0053066516335003675 0 -0.064782695320630815 -0.0055148452935483445 0 -0.064413683414306977 -0.0052580911585167053 0 -0.064737718864638111 -0.0059494599442925554 0 -0.064782695320630815 -0.0055148452935483445 0 -0.064413683414306977 -0.0052580911585167053 0 -0.064221384909606716 -0.0056254981187537547 0 -0.064737718864638111 -0.0059494599442925554 0 -0.064413683414306977 -0.0052580911585167053 0 -0.10172836580183178 0.00075278617840463164 0 -0.10168285486141376 0.0006953942569763342 0 -0.10159928435753875 0.00058266368825076462 0 -0.083236603514788454 -0.0011222963236210538 0 -0.077199252569690499 -0.0044118908791259603 0 -0.10152609521682662 0.00067525190525028833 0 -0.10156725750751019 0.0002828842595924194 0 -0.10130677660764371 0.00018843653950803771 0 -0.079498432109396319 -0.0042134785305009016 0 -0.077199252569690499 -0.0044118908791259603 0 -0.10152609521682662 0.00067525190525028833 0 -0.10168285486141376 0.0006953942569763342 0 -0.10159928435753875 0.00058266368825076462 0 -0.08085769879616303 -0.0025177034818804063 0 -0.076220311476367431 -0.0064420522800092399 0 -0.10129310353531468 0.00072689290052368473 0 -0.10152609521682662 0.00067525190525028833 0 -0.10130677660764371 0.00018843653950803771 0 -0.077199252569690499 -0.0044118908791259603 0 -0.070027617163998454 -0.0057401972611715131 0 -0.077199252569690499 -0.0044118908791259603 0 -0.076220311476367431 -0.0064420522800092399 0 -0.066628592088063265 -0.0060242638966685382 0 -0.066420570305224177 -0.0069868851003804106 0 -0.066866275734186048 -0.0075049260987685535 0 -0.066645238921208716 -0.0059810353983219423 0 -0.06756349709103443 -0.0065416935561795602 0 -0.066926042442062378 -0.007211691503578652 0 -0.067360642564975579 -0.0057198348163445953 0 -0.066645238921208716 -0.0059810353983219423 0 -0.06756349709103443 -0.0065416935561795602 0 -0.076220311476367431 -0.0064420522800092399 0 -0.074562396900457836 -0.0061899076483545243 0 -0.070027617163998454 -0.0057401972611715131 0 -0.069535987650052783 -0.0061572447527862596 0 -0.083236603514788454 -0.0011222963236210538 0 -0.070027617163998454 -0.0057401972611715131 0 -0.0778476941370638 -0.00098836665322416645 0 -0.073853085851377023 -0.0024528090555730403 0 -0.074432657414208278 -0.0047022156394026758 0 -0.067064592285667773 -0.001971613691744532 0 -0.067072716740283117 -0.0016065153127159057 0 -0.067630470163992554 -0.0015509190705069854 0 -0.070027617163998454 -0.0057401972611715131 0 -0.0525269006915869 -0.0064439925706207034 0 -0.067072716740283117 -0.0016065153127159057 0 -0.067630470163992554 -0.0015509190705069854 0 -0.067529258752979729 -0.0010392332719310012 0 -0.066007077635229131 -0.0081092648641172636 0 -0.067813949009992658 -0.007767730297965964 0 -0.066866275734186048 -0.0075049260987685535 0 -0.067513518355856242 -0.0065693707346314283 0 -0.067813949009992658 -0.007767730297965964 0 -0.066926042442062378 -0.007211691503578652 0 -0.050380044284625489 -0.0089640822624221968 0 -0.0525269006915869 -0.0064439925706207034 0 -0.066645238921208716 -0.0059810353983219423 0 -0.066926042442062378 -0.007211691503578652 0 -0.066866275734186048 -0.0075049260987685535 0 -0.066200722494244496 -0.0074849908723312302 0 -0.066420570305224177 -0.0069868851003804106 0 -0.066866275734186048 -0.0075049260987685535 0 -0.067813949009992658 -0.007767730297965964 0 -0.066926042442062378 -0.007211691503578652 0 -0.066866275734186048 -0.0075049260987685535 0 -0.033443586051818602 -0.013727527560948338 0 -0.028293078899513914 -0.014607531758042523 0 -0.031588445538382484 -0.010562352813783813 0 -0.0525269006915869 -0.0064439925706207034 0 -0.038987070512481868 -0.0047912142528321704 0 -0.028293078899513914 -0.014607531758042523 0 -0.026838580152585317 -0.0091878420030661098 0 -0.031588445538382484 -0.010562352813783813 0 -0.024919246975143826 -0.0072178730569889904 0 -0.026406815175209191 -0.0081466643144047206 0 -0.025768619399988903 -0.0057846184033046545 0 -0.026838580152585317 -0.0091878420030661098 0 -0.031588445538382484 -0.010562352813783813 0 -0.031443920434751332 -0.0072930367774626768 0 -0.031443920434751332 -0.0072930367774626768 0 -0.029571936808377774 -0.0044520196057488059 0 -0.033425479285803507 -0.0044451884580630199 0 -0.026838580152585317 -0.0091878420030661098 0 -0.031443920434751332 -0.0072930367774626768 0 -0.029571936808377774 -0.0044520196057488059 0 -0.026838580152585317 -0.0091878420030661098 0 -0.029571936808377774 -0.0044520196057488059 0 -0.025418847603765768 -0.0035724767448855011 0 -0.029571936808377774 -0.0044520196057488059 0 -0.028605789931888316 -0.00071732002044075024 0 -0.025418847603765768 -0.0035724767448855011 0 -0.029571936808377774 -0.0044520196057488059 0 -0.031674382414508831 -0.0020412909440580334 0 -0.028605789931888316 -0.00071732002044075024 0 -0.029571936808377774 -0.0044520196057488059 0 -0.031674382414508831 -0.0020412909440580334 0 -0.033425479285803507 -0.0044451884580630199 0 -0.031674382414508831 -0.0020412909440580334 0 -0.028605789931888316 -0.00071732002044075024 0 -0.03292840039306684 0.001062398739182127 0 -0.028605789931888316 -0.00071732002044075024 0 -0.025418847603765768 -0.0035724767448855011 0 -0.025241090689024196 -0.0010539304001773902 0 -0.028605789931888316 -0.00071732002044075024 0 -0.025241090689024196 -0.0010539304001773902 0 -0.025721719147325104 0.0018717123755558488 0 -0.036857721084043303 0.00033672097928430457 0 -0.034352040346402539 -0.0016958167836361793 0 -0.036868054246665956 -0.0041421793644408718 0 -0.031674382414508831 -0.0020412909440580334 0 -0.034352040346402539 -0.0016958167836361793 0 -0.03292840039306684 0.001062398739182127 0 -0.036857721084043303 0.00033672097928430457 0 -0.034352040346402539 -0.0016958167836361793 0 -0.03292840039306684 0.001062398739182127 0 -0.034352040346402539 -0.0016958167836361793 0 -0.033425479285803507 -0.0044451884580630199 0 -0.036868054246665956 -0.0041421793644408718 0 -0.031674382414508831 -0.0020412909440580334 0 -0.034352040346402539 -0.0016958167836361793 0 -0.033425479285803507 -0.0044451884580630199 0 -0.036857721084043303 0.00033672097928430457 0 -0.036868054246665956 -0.0041421793644408718 0 -0.040488403716681012 -0.0018627060035037238 0 -0.036868054246665956 -0.0041421793644408718 0 -0.034297202103586083 -0.0076873456967245313 0 -0.03791253281103505 -0.0084061896077735516 0 -0.036868054246665956 -0.0041421793644408718 0 -0.03791253281103505 -0.0084061896077735516 0 -0.04085649818404434 -0.0055231778397582506 0 -0.033425479285803507 -0.0044451884580630199 0 -0.036868054246665956 -0.0041421793644408718 0 -0.034297202103586083 -0.0076873456967245313 0 -0.031443920434751332 -0.0072930367774626768 0 -0.033425479285803507 -0.0044451884580630199 0 -0.034297202103586083 -0.0076873456967245313 0 -0.031588445538382484 -0.010562352813783813 0 -0.034297202103586083 -0.0076873456967245313 0 -0.035169964816199502 -0.010664586869092442 0 -0.031588445538382484 -0.010562352813783813 0 -0.031443920434751332 -0.0072930367774626768 0 -0.034297202103586083 -0.0076873456967245313 0 -0.034297202103586083 -0.0076873456967245313 0 -0.035169964816199502 -0.010664586869092442 0 -0.03791253281103505 -0.0084061896077735516 0 -0.038707564828095647 -0.012934242510709241 0 -0.035169964816199502 -0.010664586869092442 0 -0.03791253281103505 -0.0084061896077735516 0 -0.038707564828095647 -0.012934242510709241 0 -0.03791253281103505 -0.0084061896077735516 0 -0.041538274766946895 -0.0091704374730827362 0 -0.044378956944408694 -0.012080643955941654 0 -0.041538274766946895 -0.0091704374730827362 0 -0.0461418637718203 -0.0068536695941201061 0 -0.041538274766946895 -0.0091704374730827362 0 -0.04085649818404434 -0.0055231778397582506 0 -0.0461418637718203 -0.0068536695941201061 0 -0.04085649818404434 -0.0055231778397582506 0 -0.0461418637718203 -0.0068536695941201061 0 -0.043835002306363093 -0.0033908079782532471 0 -0.03791253281103505 -0.0084061896077735516 0 -0.041538274766946895 -0.0091704374730827362 0 -0.04085649818404434 -0.0055231778397582506 0 -0.050623252798047573 -0.010776511917657062 0 -0.0461418637718203 -0.0068536695941201061 0 -0.051784429778678406 -0.0060686735033929585 0 -0.044378956944408694 -0.012080643955941654 0 -0.050623252798047573 -0.010776511917657062 0 -0.0461418637718203 -0.0068536695941201061 0 -0.051784429778678406 -0.0060686735033929585 0 -0.050383779184583678 -0.0016792352542485786 0 -0.056184694672480086 -0.0041855834683447585 0 -0.0461418637718203 -0.0068536695941201061 0 -0.051784429778678406 -0.0060686735033929585 0 -0.050383779184583678 -0.0016792352542485786 0 -0.0461418637718203 -0.0068536695941201061 0 -0.050383779184583678 -0.0016792352542485786 0 -0.043835002306363093 -0.0033908079782532471 0 -0.050383779184583678 -0.0016792352542485786 0 -0.043835002306363093 -0.0033908079782532471 0 -0.04461280586385024 -9.0183911869530636e-05 0 -0.050477625293033526 -0.0036672005489049257 0 -0.04461280586385024 -9.0183911869530636e-05 0 -0.049164949603900249 0.0026174958622741718 0 -0.050929490370814345 -0.0026786462633836329 0 -0.048435708376831969 -0.0014576781336763749 0 -0.050477625293033526 -0.0036672005489049257 0 -0.052275309506869261 -0.00060491578908220434 0 -0.049164949603900249 0.0026174958622741718 0 -0.04085649818404434 -0.0055231778397582506 0 -0.040488403716681012 -0.0018627060035037238 0 -0.043835002306363093 -0.0033908079782532471 0 -0.036868054246665956 -0.0041421793644408718 0 -0.04085649818404434 -0.0055231778397582506 0 -0.040488403716681012 -0.0018627060035037238 0 -0.040488403716681012 -0.0018627060035037238 0 -0.043835002306363093 -0.0033908079782532471 0 -0.04461280586385024 -9.0183911869530636e-05 0 -0.040488403716681012 -0.0018627060035037238 0 -0.04461280586385024 -9.0183911869530636e-05 0 -0.040189922670446812 0.0019443613639726746 0 -0.036857721084043303 0.00033672097928430457 0 -0.040488403716681012 -0.0018627060035037238 0 -0.040189922670446812 0.0019443613639726746 0 -0.040189922670446812 0.0019443613639726746 0 -0.042883337473910217 0.0034842125596970903 0 -0.04126079651134338 0.0064107147999772048 0 -0.04461280586385024 -9.0183911869530636e-05 0 -0.040189922670446812 0.0019443613639726746 0 -0.042883337473910217 0.0034842125596970903 0 -0.03825303724577931 0.0066382396223731719 0 -0.039834240415966712 0.0058211921029882345 0 -0.042883337473910217 0.0034842125596970903 0 -0.04126079651134338 0.0064107147999772048 0 -0.044003665309818037 0.0045198382626787702 0 -0.040189922670446812 0.0019443613639726746 0 -0.04126079651134338 0.0064107147999772048 0 -0.036411179684542737 0.0037958860041753134 0 -0.043914396936418305 0.004307569308695902 0 -0.042775744871050729 0.0046000195045724597 0 -0.043233256114255485 0.0041606612538635755 0 -0.043914396936418305 0.004307569308695902 0 -0.044003665309818037 0.0045198382626787702 0 -0.043233256114255485 0.0041606612538635755 0 -0.046078095831386091 0.0028476191657092072 0 -0.047757868256209077 0.0022701932552791023 0 -0.052275309506869261 -0.00060491578908220434 0 -0.049164949603900249 0.0026174958622741718 0 -0.054650541737959225 0.000819979050018816 0 -0.042883337473910217 0.0034842125596970903 0 -0.043914396936418305 0.004307569308695902 0 -0.044003665309818037 0.0045198382626787702 0 -0.044738292139302548 0.0031013210145136088 0 -0.046078095831386091 0.0028476191657092072 0 -0.04461280586385024 -9.0183911869530636e-05 0 -0.042883337473910217 0.0034842125596970903 0 -0.049164949603900249 0.0026174958622741718 0 -0.036325842082841044 0.0066411570536259266 0 -0.037979485253341341 0.0069575602879127368 0 -0.037074896344361667 0.0079551860629441494 0 -0.039834240415966712 0.0058211921029882345 0 -0.04094660365486244 0.0052063423881675373 0 -0.036325842082841044 0.0066411570536259266 0 -0.037979485253341341 0.0069575602879127368 0 -0.03896062278801124 0.0053358295387566177 0 -0.037979485253341341 0.0069575602879127368 0 -0.038525130884022991 0.0082737398790701227 0 -0.037074896344361667 0.0079551860629441494 0 -0.036325842082841044 0.0066411570536259266 0 -0.037074896344361667 0.0079551860629441494 0 -0.03567204107841708 0.0082954655442151592 0 -0.037074896344361667 0.0079551860629441494 0 -0.03567204107841708 0.0082954655442151592 0 -0.037508991663453325 0.010697066826508983 0 -0.036095160382683039 0.008460670348401908 0 -0.036154099319975853 0.0083690651941172103 0 -0.03567204107841708 0.0082954655442151592 0 -0.035286963448566591 0.0084548587172092338 0 -0.035055542037756494 0.0085345589414644527 0 -0.03924383644982618 0.0097259758805529253 0 -0.039205820401495756 0.010960803613089938 0 -0.037508991663453325 0.010697066826508983 0 -0.038525130884022991 0.0082737398790701227 0 -0.037074896344361667 0.0079551860629441494 0 -0.037508991663453325 0.010697066826508983 0 -0.038525130884022991 0.0082737398790701227 0 -0.03924383644982618 0.0097259758805529253 0 -0.037508991663453325 0.010697066826508983 0 -0.03518904071659517 0.0078692202451053576 0 -0.035301492976661228 0.0082776536436709267 0 -0.035607498269970873 0.0078361260803700913 0 -0.03825303724577931 0.0066382396223731719 0 -0.037195106456270347 0.0070892418044680456 0 -0.03518904071659517 0.0078692202451053576 0 -0.03567204107841708 0.0082954655442151592 0 -0.035301492976661228 0.0082776536436709267 0 -0.03518904071659517 0.0078692202451053576 0 -0.036325842082841044 0.0066411570536259266 0 -0.03567204107841708 0.0082954655442151592 0 -0.035301492976661228 0.0082776536436709267 0 -0.035185746665308694 0.0085668769417684767 0 -0.035055542037756494 0.0085345589414644527 0 -0.03567204107841708 0.0082954655442151592 0 -0.035301492976661228 0.0082776536436709267 0 -0.035055542037756494 0.0085345589414644527 0 -0.035301492976661228 0.0082776536436709267 0 -0.035607498269970873 0.0078361260803700913 0 -0.035185746665308694 0.0085668769417684767 0 -0.035607498269970873 0.0078361260803700913 0 -0.034035888769141168 0.0085444646477989168 0 -0.034906503094632051 0.0089405025083961389 0 -0.035607498269970873 0.0078361260803700913 0 -0.034906503094632051 0.0089405025083961389 0 -0.035185746665308694 0.0085668769417684767 0 -0.035607498269970873 0.0078361260803700913 0 -0.032551323290841337 0.0071980343044509808 0 -0.032704496805514315 0.0046672258538458461 0 -0.035607498269970873 0.0078361260803700913 0 -0.034035888769141168 0.0085444646477989168 0 -0.032551323290841337 0.0071980343044509808 0 -0.032894595263198871 0.008597550949744924 0 -0.034035888769141168 0.0085444646477989168 0 -0.032551323290841337 0.0071980343044509808 0 -0.032894595263198871 0.008597550949744924 0 -0.034035888769141168 0.0085444646477989168 0 -0.034101318988345515 0.0093726115122634464 0 -0.027193016351774395 0.0085124614310700987 0 -0.027434196293917641 0.0082911018977271499 0 -0.029240643183806085 0.011931233628951234 0 -0.032894595263198871 0.008597550949744924 0 -0.030972323893817575 0.0086271794998636561 0 -0.034101318988345515 0.0093726115122634464 0 -0.029103142511379607 0.0079784437369677177 0 -0.030867008900723976 0.010259585456305075 0 -0.025077283886976734 0.010443565814457309 0 -0.023501834406954431 0.011843764160447504 0 -0.027193016351774395 0.0085124614310700987 0 -0.025316795780683164 0.011075945652201024 0 -0.025227551115893893 0.0080918252912808037 0 -0.027193016351774395 0.0085124614310700987 0 -0.026951922172271842 0.0053141949269236077 0 -0.025227551115893893 0.0080918252912808037 0 -0.027193016351774395 0.0085124614310700987 0 -0.027434196293917641 0.0082911018977271499 0 -0.026951922172271842 0.0053141949269236077 0 -0.029103142511379607 0.0079784437369677177 0 -0.028018426660019195 0.006553744811562923 0 -0.030972323893817575 0.0086271794998636561 0 -0.032551323290841337 0.0071980343044509808 0 -0.026951922172271842 0.0053141949269236077 0 -0.032894595263198871 0.008597550949744924 0 -0.030972323893817575 0.0086271794998636561 0 -0.032551323290841337 0.0071980343044509808 0 -0.032551323290841337 0.0071980343044509808 0 -0.026951922172271842 0.0053141949269236077 0 -0.032704496805514315 0.0046672258538458461 0 -0.026951922172271842 0.0053141949269236077 0 -0.029353319847671703 0.0024105030214266014 0 -0.032704496805514315 0.0046672258538458461 0 -0.026951922172271842 0.0053141949269236077 0 -0.029353319847671703 0.0024105030214266014 0 -0.025721719147325104 0.0018717123755558488 0 -0.028605789931888316 -0.00071732002044075024 0 -0.029353319847671703 0.0024105030214266014 0 -0.025721719147325104 0.0018717123755558488 0 -0.028605789931888316 -0.00071732002044075024 0 -0.029353319847671703 0.0024105030214266014 0 -0.03292840039306684 0.001062398739182127 0 -0.029353319847671703 0.0024105030214266014 0 -0.03292840039306684 0.001062398739182127 0 -0.032704496805514315 0.0046672258538458461 0 -0.03292840039306684 0.001062398739182127 0 -0.036411179684542737 0.0037958860041753134 0 -0.032704496805514315 0.0046672258538458461 0 -0.036857721084043303 0.00033672097928430457 0 -0.040189922670446812 0.0019443613639726746 0 -0.036411179684542737 0.0037958860041753134 0 -0.036857721084043303 0.00033672097928430457 0 -0.03292840039306684 0.001062398739182127 0 -0.036411179684542737 0.0037958860041753134 0 -0.035607498269970873 0.0078361260803700913 0 -0.036411179684542737 0.0037958860041753134 0 -0.032704496805514315 0.0046672258538458461 0 -0.04126079651134338 0.0064107147999772048 0 -0.035607498269970873 0.0078361260803700913 0 -0.036411179684542737 0.0037958860041753134 0 -0.056710689478617592 5.3716507831996106e-06 0 -0.041685365439742224 -1.4598781825258486e-05 0 -0.052792456649213705 0.00018811725541945039 0 -0.04166693085594083 -1.3888661615084473e-06 0 -0.043639858026327832 -0.00056804615804920079 0 -0.041658311593080366 -4.2163195683447496e-06 0 -0.03642517818266066 -0.0012014205585158758 0 -0.038137629756487469 0.00025043523774422613 0 -0.051285116988272726 -0.0045484660056900987 0 -0.052792456649213705 0.00018811725541945039 0 -0.056847635170375416 -0.0033455703443731658 0 -0.041685365439742224 -1.4598781825258486e-05 0 -0.051285116988272726 -0.0045484660056900987 0 -0.052792456649213705 0.00018811725541945039 0 -0.05719229112682904 0.00011583578788646866 0 -0.056710689478617592 5.3716507831996106e-06 0 -0.052792456649213705 0.00018811725541945039 0 -0.05719229112682904 0.00011583578788646866 0 -0.052792456649213705 0.00018811725541945039 0 -0.05755137385124675 0.00018077539377168682 0 -0.052792456649213705 0.00018811725541945039 0 -0.05755137385124675 0.00018077539377168682 0 -0.056847635170375416 -0.0033455703443731658 0 -0.059757730366320247 -0.0031817833875076242 0 -0.059009869343288911 -0.0038838615384191835 0 -0.059837129249077331 -4.6046070144081942e-05 0 -0.05719229112682904 0.00011583578788646866 0 -0.05755137385124675 0.00018077539377168682 0 -0.061852292735778969 -0.0073938136800010606 0 -0.061381055066636124 -0.00658985566750688 0 -0.060832656503711904 -0.0047567107329766645 0 -0.061024276052731148 -0.002628480818453694 0 -0.059757730366320247 -0.0031817833875076242 0 -0.061381055066636124 -0.00658985566750688 0 -0.060832656503711904 -0.0047567107329766645 0 -0.060367806921143394 -0.0058772765024853024 0 -0.060832656503711904 -0.0047567107329766645 0 -0.059418977453044898 -0.0038093184167202602 0 -0.05992435459458155 -0.004780994929675186 0 -0.060832656503711904 -0.0047567107329766645 0 -0.05992435459458155 -0.004780994929675186 0 -0.060367806921143394 -0.0058772765024853024 0 -0.059488387439458799 -0.003868335283836045 0 -0.059418977453044898 -0.0038093184167202602 0 -0.059652704546057332 -0.0040437584625865747 0 -0.059488387439458799 -0.003868335283836045 0 -0.059093651820578519 -0.0039595481607117853 0 -0.059616048569133988 -0.0037831153501649141 0 -0.059488387439458799 -0.003868335283836045 0 -0.059418977453044898 -0.0038093184167202602 0 -0.059093651820578519 -0.0039595481607117853 0 -0.059418977453044898 -0.0038093184167202602 0 -0.059093651820578519 -0.0039595481607117853 0 -0.058331148626233065 -0.004031444570418815 0 -0.059418977453044898 -0.0038093184167202602 0 -0.056847635170375416 -0.0033455703443731658 0 -0.058331148626233065 -0.004031444570418815 0 -0.060832656503711904 -0.0047567107329766645 0 -0.059418977453044898 -0.0038093184167202602 0 -0.056847635170375416 -0.0033455703443731658 0 -0.051285116988272726 -0.0045484660056900987 0 -0.056847635170375416 -0.0033455703443731658 0 -0.057676659260133732 -0.0055991806805190843 0 -0.043639858026327832 -0.00056804615804920079 0 -0.044563932076628551 -0.00024069104989418751 0 -0.03642517818266066 -0.0012014205585158758 0 -0.033370573837852489 -0.0002963495490121779 0 -0.032712067565452967 -0.00057605742744109721 0 -0.056847635170375416 -0.0033455703443731658 0 -0.057676659260133732 -0.0055991806805190843 0 -0.058331148626233065 -0.004031444570418815 0 -0.033370573837852489 -0.0002963495490121779 0 -0.032712067565452967 -0.00057605742744109721 0 -0.032841698084577244 -0.00019750132635214601 0 -0.032712067565452967 -0.00057605742744109721 0 -0.032841698084577244 -0.00019750132635214601 0 -0.032565036099559318 -0.00026029212604016167 0 -0.057676659260133732 -0.0055991806805190843 0 -0.058966973931935521 -0.0043829266586320149 0 -0.059942433229267823 -0.0039734281394297718 0 -0.044563932076628551 -0.00024069104989418751 0 -0.044142382422354728 0.0013099765201673836 0 -0.032712067565452967 -0.00057605742744109721 0 -0.032565036099559318 -0.00026029212604016167 0 -0.032281321574684642 -0.00014778658486063517 0 -0.059553986703222879 -0.0039588593563124209 0 -0.058966973931935521 -0.0043829266586320149 0 -0.059819061875183446 -0.0039102561373159659 0 -0.058966973931935521 -0.0043829266586320149 0 -0.059819061875183446 -0.0039102561373159659 0 -0.059942433229267823 -0.0039734281394297718 0 -0.059553986703222879 -0.0039588593563124209 0 -0.05937203256546069 -0.0040129834480384513 0 -0.058966973931935521 -0.0043829266586320149 0 -0.05937203256546069 -0.0040129834480384513 0 -0.059093651820578519 -0.0039595481607117853 0 -0.058966973931935521 -0.0043829266586320149 0 -0.05937203256546069 -0.0040129834480384513 0 -0.059093651820578519 -0.0039595481607117853 0 -0.059616048569133988 -0.0037831153501649141 0 -0.059553986703222879 -0.0039588593563124209 0 -0.05937203256546069 -0.0040129834480384513 0 -0.05967504141131439 -0.0037816396963103525 0 -0.059093651820578519 -0.0039595481607117853 0 -0.058331148626233065 -0.004031444570418815 0 -0.058966973931935521 -0.0043829266586320149 0 -0.057676659260133732 -0.0055991806805190843 0 -0.058331148626233065 -0.004031444570418815 0 -0.058966973931935521 -0.0043829266586320149 0 -0.059842259538697595 -0.0035245743341584907 0 -0.059190874205875738 -0.0028861766749083053 0 -0.058333337540874351 -0.0013117127350736166 0 -0.044142382422354728 0.0013099765201673836 0 -0.048180432979906304 0.0015867990441414763 0 -0.059416246399304748 -0.0033447842326092907 0 -0.059190874205875738 -0.0028861766749083053 0 -0.059057175860906745 -0.0030961486261021484 0 -0.059416246399304748 -0.0033447842326092907 0 -0.059057175860906745 -0.0030961486261021484 0 -0.059481659528010128 -0.0036243278448949306 0 -0.059416246399304748 -0.0033447842326092907 0 -0.059594498210172368 -0.003610438830305688 0 -0.059481659528010128 -0.0036243278448949306 0 -0.059616048569133988 -0.0037831153501649141 0 -0.059594498210172368 -0.003610438830305688 0 -0.059481659528010128 -0.0036243278448949306 0 -0.05937203256546069 -0.0040129834480384513 0 -0.059616048569133988 -0.0037831153501649141 0 -0.05967504141131439 -0.0037816396963103525 0 -0.059616048569133988 -0.0037831153501649141 0 -0.05967504141131439 -0.0037816396963103525 0 -0.059594498210172368 -0.003610438830305688 0 -0.05967504141131439 -0.0037816396963103525 0 -0.059594498210172368 -0.003610438830305688 0 -0.059662904371265486 -0.0035089818277408342 0 -0.059416246399304748 -0.0033447842326092907 0 -0.059594498210172368 -0.003610438830305688 0 -0.059662904371265486 -0.0035089818277408342 0 -0.059662904371265486 -0.0035089818277408342 0 -0.059842259538697595 -0.0035245743341584907 0 -0.059190874205875738 -0.0028861766749083053 0 -0.059553986703222879 -0.0039588593563124209 0 -0.05967504141131439 -0.0037816396963103525 0 -0.059741026369272865 -0.003769824110418572 0 -0.059553986703222879 -0.0039588593563124209 0 -0.059741026369272865 -0.003769824110418572 0 -0.059819061875183446 -0.0039102561373159659 0 -0.05967504141131439 -0.0037816396963103525 0 -0.059662904371265486 -0.0035089818277408342 0 -0.059741026369272865 -0.003769824110418572 0 -0.059662904371265486 -0.0035089818277408342 0 -0.059775507096736478 -0.0036983369198886878 0 -0.059842259538697595 -0.0035245743341584907 0 -0.059741026369272865 -0.003769824110418572 0 -0.059775507096736478 -0.0036983369198886878 0 -0.059819061875183446 -0.0039102561373159659 0 -0.059662904371265486 -0.0035089818277408342 0 -0.059741026369272865 -0.003769824110418572 0 -0.059775507096736478 -0.0036983369198886878 0 -0.044203154457393826 0.0012466962783771413 0 -0.044142382422354728 0.0013099765201673836 0 -0.059775507096736478 -0.0036983369198886878 0 -0.059819061875183446 -0.0039102561373159659 0 -0.059842259538697595 -0.0035245743341584907 0 -0.059416246399304748 -0.0033447842326092907 0 -0.059662904371265486 -0.0035089818277408342 0 -0.059190874205875738 -0.0028861766749083053 0 -0.059190874205875738 -0.0028861766749083053 0 -0.058725245953477882 -0.0024688913721302892 0 -0.058333337540874351 -0.0013117127350736166 0 -0.059190874205875738 -0.0028861766749083053 0 -0.058725245953477882 -0.0024688913721302892 0 -0.059057175860906745 -0.0030961486261021484 0 -0.058322600043744885 -0.0025490553577556018 0 -0.057572832020604967 -0.0019679841879389759 0 -0.058333337540874351 -0.0013117127350736166 0 -0.058725245953477882 -0.0024688913721302892 0 -0.058322600043744885 -0.0025490553577556018 0 -0.058333337540874351 -0.0013117127350736166 0 -0.058322600043744885 -0.0025490553577556018 0 -0.058717805779114368 -0.0034444368175682457 0 -0.057198148268259197 -0.0032542130656435667 0 -0.059057175860906745 -0.0030961486261021484 0 -0.058717805779114368 -0.0034444368175682457 0 -0.059481659528010128 -0.0036243278448949306 0 -0.058725245953477882 -0.0024688913721302892 0 -0.058322600043744885 -0.0025490553577556018 0 -0.059057175860906745 -0.0030961486261021484 0 -0.058322600043744885 -0.0025490553577556018 0 -0.059057175860906745 -0.0030961486261021484 0 -0.058717805779114368 -0.0034444368175682457 0 -0.058717805779114368 -0.0034444368175682457 0 -0.059001824553906256 -0.0044122379891994943 0 -0.059481659528010128 -0.0036243278448949306 0 -0.058717805779114368 -0.0034444368175682457 0 -0.059001824553906256 -0.0044122379891994943 0 -0.057198148268259197 -0.0032542130656435667 0 -0.059001824553906256 -0.0044122379891994943 0 -0.059481659528010128 -0.0036243278448949306 0 -0.059652704546057332 -0.0040437584625865747 0 -0.059001824553906256 -0.0044122379891994943 0 -0.059652704546057332 -0.0040437584625865747 0 -0.05992435459458155 -0.004780994929675186 0 -0.059488387439458799 -0.003868335283836045 0 -0.059616048569133988 -0.0037831153501649141 0 -0.059652704546057332 -0.0040437584625865747 0 -0.059616048569133988 -0.0037831153501649141 0 -0.059481659528010128 -0.0036243278448949306 0 -0.059652704546057332 -0.0040437584625865747 0 -0.059418977453044898 -0.0038093184167202602 0 -0.059652704546057332 -0.0040437584625865747 0 -0.05992435459458155 -0.004780994929675186 0 -0.05992435459458155 -0.004780994929675186 0 -0.060367806921143394 -0.0058772765024853024 0 -0.059017158253510907 -0.0059653778095047081 0 -0.060215159957276929 -0.0067566509569662158 0 -0.061381055066636124 -0.00658985566750688 0 -0.060367806921143394 -0.0058772765024853024 0 -0.060215159957276929 -0.0067566509569662158 0 -0.060367806921143394 -0.0058772765024853024 0 -0.059017158253510907 -0.0059653778095047081 0 -0.059001824553906256 -0.0044122379891994943 0 -0.05992435459458155 -0.004780994929675186 0 -0.059017158253510907 -0.0059653778095047081 0 -0.059017158253510907 -0.0059653778095047081 0 -0.057375827209698867 -0.008048110250478243 0 -0.056184694672480086 -0.0041855834683447585 0 -0.059001824553906256 -0.0044122379891994943 0 -0.059017158253510907 -0.0059653778095047081 0 -0.055471625971001755 -0.005426877189719413 0 -0.056494158112482352 -0.0052967500124556565 0 -0.054679421003758624 -0.0044513687548462903 0 -0.05820710054718866 -0.0078760630509999551 0 -0.059017158253510907 -0.0059653778095047081 0 -0.057375827209698867 -0.008048110250478243 0 -0.055012196988155092 -0.0094854091481521956 0 -0.056073054768964084 -0.0091647670783905882 0 -0.050623252798047573 -0.010776511917657062 0 -0.051784429778678406 -0.0060686735033929585 0 -0.057375827209698867 -0.008048110250478243 0 -0.051784429778678406 -0.0060686735033929585 0 -0.057375827209698867 -0.008048110250478243 0 -0.056184694672480086 -0.0041855834683447585 0 -0.050477625293033526 -0.0036672005489049257 0 -0.055471625971001755 -0.005426877189719413 0 -0.054544001316961702 -0.0021803263018001311 0 -0.050929490370814345 -0.0026786462633836329 0 -0.054679421003758624 -0.0044513687548462903 0 -0.059001824553906256 -0.0044122379891994943 0 -0.055471625971001755 -0.005426877189719413 0 -0.057198148268259197 -0.0032542130656435667 0 -0.055471625971001755 -0.005426877189719413 0 -0.057198148268259197 -0.0032542130656435667 0 -0.054544001316961702 -0.0021803263018001311 0 -0.057198148268259197 -0.0032542130656435667 0 -0.056446413426031225 -0.0012282722528571888 0 -0.054544001316961702 -0.0021803263018001311 0 -0.058322600043744885 -0.0025490553577556018 0 -0.057198148268259197 -0.0032542130656435667 0 -0.057572832020604967 -0.0019679841879389759 0 -0.057198148268259197 -0.0032542130656435667 0 -0.057572832020604967 -0.0019679841879389759 0 -0.056446413426031225 -0.0012282722528571888 0 -0.057572832020604967 -0.0019679841879389759 0 -0.056446413426031225 -0.0012282722528571888 0 -0.058333337540874351 -0.0013117127350736166 0 -0.050477625293033526 -0.0036672005489049257 0 -0.052275309506869261 -0.00060491578908220434 0 -0.054544001316961702 -0.0021803263018001311 0 -0.052275309506869261 -0.00060491578908220434 0 -0.054544001316961702 -0.0021803263018001311 0 -0.054650541737959225 0.000819979050018816 0 -0.056446413426031225 -0.0012282722528571888 0 -0.054544001316961702 -0.0021803263018001311 0 -0.054650541737959225 0.000819979050018816 0 -0.04094660365486244 0.0052063423881675373 0 -0.041463048705851317 0.0049677192901491926 0 -0.042775744871050729 0.0046000195045724597 0 -0.043233256114255485 0.0041606612538635755 0 -0.042145196002503313 0.0046149620872975566 0 -0.03896062278801124 0.0053358295387566177 0 -0.042145196002503313 0.0046149620872975566 0 -0.040736678003646061 0.0058748429296105274 0 -0.056446413426031225 -0.0012282722528571888 0 -0.054650541737959225 0.000819979050018816 0 -0.058333337540874351 -0.0013117127350736166 0 -0.047757868256209077 0.0022701932552791023 0 -0.048180432979906304 0.0015867990441414763 0 -0.042775744871050729 0.0046000195045724597 0 -0.042145196002503313 0.0046149620872975566 0 -0.042031065212959309 0.004692304644766181 0 -0.042145196002503313 0.0046149620872975566 0 -0.040736678003646061 0.0058748429296105274 0 -0.041928450661448083 0.0056982778525706103 0 -0.042145196002503313 0.0046149620872975566 0 -0.041928450661448083 0.0056982778525706103 0 -0.042139186976946096 0.0048316923123898452 0 -0.040736678003646061 0.0058748429296105274 0 -0.041928450661448083 0.0056982778525706103 0 -0.040974853334172279 0.0068739980149159054 0 -0.041928450661448083 0.0056982778525706103 0 -0.040974853334172279 0.0068739980149159054 0 -0.042237283024624581 0.0082262604185333339 0 -0.040736678003646061 0.0058748429296105274 0 -0.040974853334172279 0.0068739980149159054 0 -0.039592882038318025 0.0069713334519021517 0 -0.03896062278801124 0.0053358295387566177 0 -0.040736678003646061 0.0058748429296105274 0 -0.039592882038318025 0.0069713334519021517 0 -0.037979485253341341 0.0069575602879127368 0 -0.03896062278801124 0.0053358295387566177 0 -0.039592882038318025 0.0069713334519021517 0 -0.037979485253341341 0.0069575602879127368 0 -0.038525130884022991 0.0082737398790701227 0 -0.039592882038318025 0.0069713334519021517 0 -0.038525130884022991 0.0082737398790701227 0 -0.039592882038318025 0.0069713334519021517 0 -0.040310409601196404 0.0083406195341361091 0 -0.038525130884022991 0.0082737398790701227 0 -0.040310409601196404 0.0083406195341361091 0 -0.03924383644982618 0.0097259758805529253 0 -0.040974853334172279 0.0068739980149159054 0 -0.039592882038318025 0.0069713334519021517 0 -0.040310409601196404 0.0083406195341361091 0 -0.040310409601196404 0.0083406195341361091 0 -0.03924383644982618 0.0097259758805529253 0 -0.040787044549831425 0.010616476242787888 0 -0.03924383644982618 0.0097259758805529253 0 -0.040787044549831425 0.010616476242787888 0 -0.039205820401495756 0.010960803613089938 0 -0.040310409601196404 0.0083406195341361091 0 -0.042237283024624581 0.0082262604185333339 0 -0.040787044549831425 0.010616476242787888 0 -0.03196761157765609 -0.00024630737355244313 0 -0.031957030982572354 -0.00012537510908472408 0 -0.031895040850160872 -0.00014203101085099134 0 -0.036933840973022825 0.003894202007498051 0 -0.035509246804852755 0.0045927502292062343 0 -0.040974853334172279 0.0068739980149159054 0 -0.040310409601196404 0.0083406195341361091 0 -0.042237283024624581 0.0082262604185333339 0 -0.03196761157765609 -0.00024630737355244313 0 -0.032022369902075007 -0.000192196906186906 0 -0.031957030982572354 -0.00012537510908472408 0 -0.032022369902075007 -0.000192196906186906 0 -0.032065215354250783 -0.00027013926478586015 0 -0.032100585249060148 -0.00023511599178240272 0 -0.03196761157765609 -0.00024630737355244313 0 -0.032022369902075007 -0.000192196906186906 0 -0.032065215354250783 -0.00027013926478586015 0 -0.03196761157765609 -0.00024630737355244313 0 -0.032065215354250783 -0.00027013926478586015 0 -0.032030991705697363 -0.0003177841226695388 0 -0.034601965404004453 0.00023970271023778729 0 -0.038332737936598943 0.0030292417132909435 0 -0.032432589207953583 0.00018741980104982917 0 -0.032264384431361107 0.00013593813592424248 0 -0.032402591308577651 0.00015777048186046622 0 -0.032264384431361107 0.00013593813592424248 0 -0.032351133344376358 3.1306241133974795e-05 0 -0.032402591308577651 0.00015777048186046622 0 -0.041928450661448083 0.0056982778525706103 0 -0.042237283024624581 0.0082262604185333339 0 -0.042579238400757044 0.0058513322741344494 0 -0.036933840973022825 0.003894202007498051 0 -0.038332737936598943 0.0030292417132909435 0 -0.042237283024624581 0.0082262604185333339 0 -0.043441419591579565 0.0059402134058979096 0 -0.042579238400757044 0.0058513322741344494 0 -0.038332737936598943 0.0030292417132909435 0 -0.039185168714124766 0.0038625582772832479 0 -0.043504000947922228 0.0044451612301452514 0 -0.04236511500544296 0.0050006604997691832 0 -0.042031065212959309 0.004692304644766181 0 -0.043441419591579565 0.0059402134058979096 0 -0.042579238400757044 0.0058513322741344494 0 -0.04236511500544296 0.0050006604997691832 0 -0.041928450661448083 0.0056982778525706103 0 -0.042579238400757044 0.0058513322741344494 0 -0.04236511500544296 0.0050006604997691832 0 -0.041928450661448083 0.0056982778525706103 0 -0.04236511500544296 0.0050006604997691832 0 -0.042139186976946096 0.0048316923123898452 0 -0.042145196002503313 0.0046149620872975566 0 -0.042139186976946096 0.0048316923123898452 0 -0.042031065212959309 0.004692304644766181 0 -0.04236511500544296 0.0050006604997691832 0 -0.042139186976946096 0.0048316923123898452 0 -0.042031065212959309 0.004692304644766181 0 -0.044142382422354728 0.0013099765201673836 0 -0.038332737936598943 0.0030292417132909435 0 -0.043504000947922228 0.0044451612301452514 0 -0.042817620130796555 0.0055692345374002581 0 -0.04236511500544296 0.0050006604997691832 0 -0.032281321574684642 -0.00014778658486063517 0 -0.032264384431361107 0.00013593813592424248 0 -0.032351133344376358 3.1306241133974795e-05 0 -0.032281321574684642 -0.00014778658486063517 0 -0.032351133344376358 3.1306241133974795e-05 0 -0.032382032474265007 -5.2776381510202442e-05 0 -0.03256520178094479 3.0223437797910776e-05 0 -0.032440814515001692 5.3533507770470843e-05 0 -0.032472467213414825 -0.00011378945776997451 0 -0.03256520178094479 3.0223437797910776e-05 0 -0.032656079048262489 6.9477394351848091e-05 0 -0.032518072450837029 0.00013584525220813813 0 -0.03256520178094479 3.0223437797910776e-05 0 -0.032440814515001692 5.3533507770470843e-05 0 -0.032518072450837029 0.00013584525220813813 0 -0.032351133344376358 3.1306241133974795e-05 0 -0.032440814515001692 5.3533507770470843e-05 0 -0.032402591308577651 0.00015777048186046622 0 -0.032351133344376358 3.1306241133974795e-05 0 -0.032440814515001692 5.3533507770470843e-05 0 -0.032382032474265007 -5.2776381510202442e-05 0 -0.032281321574684642 -0.00014778658486063517 0 -0.032382032474265007 -5.2776381510202442e-05 0 -0.032472467213414825 -0.00011378945776997451 0 -0.032565036099559318 -0.00026029212604016167 0 -0.032281321574684642 -0.00014778658486063517 0 -0.032472467213414825 -0.00011378945776997451 0 -0.032440814515001692 5.3533507770470843e-05 0 -0.032382032474265007 -5.2776381510202442e-05 0 -0.032472467213414825 -0.00011378945776997451 0 -0.032565036099559318 -0.00026029212604016167 0 -0.032472467213414825 -0.00011378945776997451 0 -0.032702122040349259 -9.1751932186429091e-05 0 -0.03256520178094479 3.0223437797910776e-05 0 -0.032472467213414825 -0.00011378945776997451 0 -0.032702122040349259 -9.1751932186429091e-05 0 -0.033370573837852489 -0.0002963495490121779 0 -0.032841698084577244 -0.00019750132635214601 0 -0.032861249626257125 6.0427409958421747e-06 0 -0.032841698084577244 -0.00019750132635214601 0 -0.032565036099559318 -0.00026029212604016167 0 -0.032702122040349259 -9.1751932186429091e-05 0 -0.033370573837852489 -0.0002963495490121779 0 -0.032861249626257125 6.0427409958421747e-06 0 -0.032211853306133346 0.00024455596108609144 0 -0.032841698084577244 -0.00019750132635214601 0 -0.032702122040349259 -9.1751932186429091e-05 0 -0.032861249626257125 6.0427409958421747e-06 0 -0.032702122040349259 -9.1751932186429091e-05 0 -0.032861249626257125 6.0427409958421747e-06 0 -0.032656079048262489 6.9477394351848091e-05 0 -0.03256520178094479 3.0223437797910776e-05 0 -0.032702122040349259 -9.1751932186429091e-05 0 -0.032656079048262489 6.9477394351848091e-05 0 -0.032861249626257125 6.0427409958421747e-06 0 -0.032656079048262489 6.9477394351848091e-05 0 -0.032547125707905161 0.00016779984028408962 0 -0.032656079048262489 6.9477394351848091e-05 0 -0.032547125707905161 0.00016779984028408962 0 -0.032518072450837029 0.00013584525220813813 0 -0.032547125707905161 0.00016779984028408962 0 -0.032412847092292432 0.00021576029526554466 0 -0.032205472584371037 0.00022691761474520196 0 -0.032547125707905161 0.00016779984028408962 0 -0.032412847092292432 0.00021576029526554466 0 -0.032518072450837029 0.00013584525220813813 0 -0.032432589207953583 0.00018741980104982917 0 -0.032412847092292432 0.00021576029526554466 0 -0.032402591308577651 0.00015777048186046622 0 -0.032412847092292432 0.00021576029526554466 0 -0.032518072450837029 0.00013584525220813813 0 -0.032402591308577651 0.00015777048186046622 0 -0.032440814515001692 5.3533507770470843e-05 0 -0.032518072450837029 0.00013584525220813813 0 -0.032402591308577651 0.00015777048186046622 0 -0.032432589207953583 0.00018741980104982917 0 -0.032412847092292432 0.00021576029526554466 0 -0.032423518642893716 -9.9078243111011519e-06 0 -0.034601965404004453 0.00023970271023778729 0 -0.033381274950148226 -0.00040365061722258611 0 -0.032100585249060148 -0.00023511599178240272 0 -0.032142093859095243 -0.00039234635244414002 0 -0.032073942762979812 -0.00018453276054874559 0 -0.032022369902075007 -0.000192196906186906 0 -0.032100585249060148 -0.00023511599178240272 0 -0.032073942762979812 -0.00018453276054874559 0 -0.033381274950148226 -0.00040365061722258611 0 -0.033066643483295813 -0.00054378558071007527 0 -0.032423518642893716 -9.9078243111011519e-06 0 -0.032130574289461214 -8.4772001371723814e-05 0 -0.032142093859095243 -0.00039234635244414002 0 -0.032423518642893716 -9.9078243111011519e-06 0 -0.032130574289461214 -8.4772001371723814e-05 0 -0.032205472584371037 0.00022691761474520196 0 -0.032412847092292432 0.00021576029526554466 0 -0.032423518642893716 -9.9078243111011519e-06 0 -0.032205472584371037 0.00022691761474520196 0 -0.032205472584371037 0.00022691761474520196 0 -0.031975843155454813 0.00041792123904725213 0 -0.031481456170078609 3.8212933409432035e-05 0 -0.032130574289461214 -8.4772001371723814e-05 0 -0.032205472584371037 0.00022691761474520196 0 -0.031481456170078609 3.8212933409432035e-05 0 -0.032130574289461214 -8.4772001371723814e-05 0 -0.031481456170078609 3.8212933409432035e-05 0 -0.031560072123166236 -0.00092072490223875391 0 -0.031481456170078609 3.8212933409432035e-05 0 -0.028538048330359202 -2.8602463803142779e-07 0 -0.031560072123166236 -0.00092072490223875391 0 -0.028519549226399227 6.6992718020817439e-07 0 -0.027233118812592261 0.00037108984581687017 0 -0.031975843155454813 0.00041792123904725213 0 -0.031481456170078609 3.8212933409432035e-05 0 -0.028538048330359202 -2.8602463803142779e-07 0 -0.031975843155454813 0.00041792123904725213 0 -0.028538048330359202 -2.8602463803142779e-07 0 -0.032637191519083703 9.0456758512510754e-07 0 -0.031975843155454813 0.00041792123904725213 0 -0.032637191519083703 9.0456758512510754e-07 0 -0.032211853306133346 0.00024455596108609144 0 -0.032658258672859104 -1.9389248343832518e-06 0 -0.037109025509289247 0.0009401478315931908 0 -0.037157025057077242 3.2811567574392727e-06 0 -0.032653465072066151 7.243620109814081e-07 0 -0.033558637674311928 0.00036528042702993051 0 -0.032547125707905161 0.00016779984028408962 0 -0.031975843155454813 0.00041792123904725213 0 -0.032211853306133346 0.00024455596108609144 0 -0.032547125707905161 0.00016779984028408962 0 -0.032205472584371037 0.00022691761474520196 0 -0.031975843155454813 0.00041792123904725213 0 -0.033285973895405274 -1.429308431535604e-05 0 -0.033558637674311928 0.00036528042702993051 0 -0.032861249626257125 6.0427409958421747e-06 0 -0.032547125707905161 0.00016779984028408962 0 -0.032211853306133346 0.00024455596108609144 0 -0.03642517818266066 -0.0012014205585158758 0 -0.033370573837852489 -0.0002963495490121779 0 -0.037109025509289247 0.0009401478315931908 0 -0.03642517818266066 -0.0012014205585158758 0 -0.037109025509289247 0.0009401478315931908 0 -0.038137629756487469 0.00025043523774422613 0 -0.041658311593080366 -4.2163195683447496e-06 0 -0.038137629756487469 0.00025043523774422613 0 -0.037157025057077242 3.2811567574392727e-06 0 -0.037109025509289247 0.0009401478315931908 0 -0.038137629756487469 0.00025043523774422613 0 -0.037157025057077242 3.2811567574392727e-06 0 -0.017189627132007012 0.00029956691489607358 0 -0.014930625334689132 -2.1693501214697663e-06 0 -0.018610604373213047 -0.0019452689786043876 0 -0.014917841226226559 -5.8357272599778572e-07 0 -0.014145191228666419 -0.00027933600679844233 0 -0.017189627132007012 0.00029956691489607358 0 -0.020377509267121282 -0.0019401364130580553 0 -0.018610604373213047 -0.0019452689786043876 0 -0.020547408533955331 -0.0010268155857224646 0 -0.020977040508637981 -0.0010953146472297212 0 -0.020377509267121282 -0.0019401364130580553 0 -0.020547408533955331 -0.0010268155857224646 0 -0.020977040508637981 -0.0010953146472297212 0 -0.021111410358921383 -0.00046860534217181462 0 -0.019430323585554191 -0.00048522169584898096 0 -0.019897379217402873 -0.0010800551359015495 0 -0.020547408533955331 -0.0010268155857224646 0 -0.021111410358921383 -0.00046860534217181462 0 -0.02124362473186326 0.00022865539511457791 0 -0.021111410358921383 -0.00046860534217181462 0 -0.02124362473186326 0.00022865539511457791 0 -0.021526989111202145 0.00022899496106687235 0 -0.020547408533955331 -0.0010268155857224646 0 -0.01921400570569997 -1.61983985275207e-06 0 -0.02124362473186326 0.00022865539511457791 0 -0.019430323585554191 -0.00048522169584898096 0 -0.019205262766783898 -2.8621270254658372e-07 0 -0.017189627132007012 0.00029956691489607358 0 -0.014930625334689132 -2.1693501214697663e-06 0 -0.019195682550073923 2.3065071653006441e-06 0 -0.023861895536751655 2.2512509563339291e-06 0 -0.022436238654080846 -0.0002258083797451415 0 -0.02124362473186326 0.00022865539511457791 0 -0.01921400570569997 -1.61983985275207e-06 0 -0.023861895536751655 2.2512509563339291e-06 0 -0.02124362473186326 0.00022865539511457791 0 -0.028516663095285427 -2.9571887480877963e-06 0 -0.023861895536751655 2.2512509563339291e-06 0 -0.022436238654080846 -0.0002258083797451415 0 -0.022436238654080846 -0.0002258083797451415 0 -0.02124362473186326 0.00022865539511457791 0 -0.021526989111202145 0.00022899496106687235 0 -0.027233118812592261 0.00037108984581687017 0 -0.027028030976250422 0.00019909244668838612 0 -0.032276559541215055 -7.4734665653117662e-05 0 -0.032142093859095243 -0.00039234635244414002 0 -0.032105900089378255 -1.2420201900994665e-05 0 -0.031560072123166236 -0.00092072490223875391 0 -0.032276559541215055 -7.4734665653117662e-05 0 -0.032142093859095243 -0.00039234635244414002 0 -0.032130574289461214 -8.4772001371723814e-05 0 -0.031560072123166236 -0.00092072490223875391 0 -0.032142093859095243 -0.00039234635244414002 0 -0.032142093859095243 -0.00039234635244414002 0 -0.032073942762979812 -0.00018453276054874559 0 -0.032105900089378255 -1.2420201900994665e-05 0 -0.032276559541215055 -7.4734665653117662e-05 0 -0.032105900089378255 -1.2420201900994665e-05 0 -0.032121078408446205 0.000777582011931143 0 -0.027028030976250422 0.00019909244668838612 0 -0.027073755928855584 -5.369217534100021e-05 0 -0.021111410358921383 -0.00046860534217181462 0 -0.021526989111202145 0.00022899496106687235 0 -0.021555652028009482 -0.0006387654275012176 0 -0.021526989111202145 0.00022899496106687235 0 -0.02268811434811013 -0.00050456561534535259 0 -0.021555652028009482 -0.0006387654275012176 0 -0.020977040508637981 -0.0010953146472297212 0 -0.021111410358921383 -0.00046860534217181462 0 -0.021555652028009482 -0.0006387654275012176 0 -0.020977040508637981 -0.0010953146472297212 0 -0.021555652028009482 -0.0006387654275012176 0 -0.022036647230907574 -0.0015789716667418017 0 -0.020977040508637981 -0.0010953146472297212 0 -0.022036647230907574 -0.0015789716667418017 0 -0.020377509267121282 -0.0019401364130580553 0 -0.02268811434811013 -0.00050456561534535259 0 -0.021555652028009482 -0.0006387654275012176 0 -0.022036647230907574 -0.0015789716667418017 0 -0.02268811434811013 -0.00050456561534535259 0 -0.022036647230907574 -0.0015789716667418017 0 -0.024022352848826697 -0.0016955319398411352 0 -0.032121078408446205 0.000777582011931143 0 -0.031901563968453374 0.0012751204653081822 0 -0.031846069755389124 0.0010038658153838931 0 -0.027073755928855584 -5.369217534100021e-05 0 -0.026697930146139755 -0.00018493755032816041 0 -0.031901563968453374 0.0012751204653081822 0 -0.031846069755389124 0.0010038658153838931 0 -0.03179060245541003 0.0012908630049777235 0 -0.032121078408446205 0.000777582011931143 0 -0.031846069755389124 0.0010038658153838931 0 -0.031880188707511276 0.0005015875060416121 0 -0.032356931623119381 0.0015850849089631958 0 -0.032350125124811557 0.0018756951645223867 0 -0.032105900089378255 -1.2420201900994665e-05 0 -0.032121078408446205 0.000777582011931143 0 -0.031880188707511276 0.0005015875060416121 0 -0.032073942762979812 -0.00018453276054874559 0 -0.032105900089378255 -1.2420201900994665e-05 0 -0.031997159366623062 -6.1410350268180152e-05 0 -0.032022369902075007 -0.000192196906186906 0 -0.032073942762979812 -0.00018453276054874559 0 -0.031997159366623062 -6.1410350268180152e-05 0 -0.032022369902075007 -0.000192196906186906 0 -0.031997159366623062 -6.1410350268180152e-05 0 -0.031957030982572354 -0.00012537510908472408 0 -0.032350125124811557 0.0018756951645223867 0 -0.032517437922606827 0.0027816251827241486 0 -0.031997159366623062 -6.1410350268180152e-05 0 -0.031957030982572354 -0.00012537510908472408 0 -0.03192760379725558 -5.2592474928520245e-05 0 -0.031846069755389124 0.0010038658153838931 0 -0.031880188707511276 0.0005015875060416121 0 -0.031808117513600222 0.00085963048479632798 0 -0.03192760379725558 -5.2592474928520245e-05 0 -0.031882684109703359 -7.4515295413339435e-05 0 -0.031840203309415574 -3.6575659750648584e-05 0 -0.031808117513600222 0.00085963048479632798 0 -0.031415496829313466 0.00093233367375743464 0 -0.031786392304600043 0.0013337011614057909 0 -0.032517437922606827 0.0027816251827241486 0 -0.033747655650638433 0.0046448107082461198 0 -0.031957030982572354 -0.00012537510908472408 0 -0.03192760379725558 -5.2592474928520245e-05 0 -0.031882684109703359 -7.4515295413339435e-05 0 -0.031957030982572354 -0.00012537510908472408 0 -0.031882684109703359 -7.4515295413339435e-05 0 -0.031895040850160872 -0.00014203101085099134 0 -0.040787044549831425 0.010616476242787888 0 -0.039205820401495756 0.010960803613089938 0 -0.039333690625234986 0.012951169337962512 0 -0.031882684109703359 -7.4515295413339435e-05 0 -0.031895040850160872 -0.00014203101085099134 0 -0.031840203309415574 -3.6575659750648584e-05 0 -0.035509246804852755 0.0045927502292062343 0 -0.033747655650638433 0.0046448107082461198 0 -0.039205820401495756 0.010960803613089938 0 -0.039333690625234986 0.012951169337962512 0 -0.037508991663453325 0.010697066826508983 0 -0.035387304657991552 0.0086436063245727817 0 -0.035381475001085003 0.0086581681769399583 0 -0.035277961608188572 0.008584560645636655 0 -0.031829996840108954 0.0012280280056440483 0 -0.031804086106339093 0.0012248846714502835 0 -0.031806570181179598 0.0013589926439967108 0 -0.033747655650638433 0.0046448107082461198 0 -0.033496336921330049 0.0049032709891197145 0 -0.031804086106339093 0.0012248846714502835 0 -0.031806570181179598 0.0013589926439967108 0 -0.031345417669331389 0.0018377756828380574 0 -0.033747655650638433 0.0046448107082461198 0 -0.032565655809473203 0.0030259552921679733 0 -0.031829996840108954 0.0012280280056440483 0 -0.031806570181179598 0.0013589926439967108 0 -0.031786392304600043 0.0013337011614057909 0 -0.031828903096585197 0.0015569766881244865 0 -0.031943739488605807 0.0017479655741025008 0 -0.031345417669331389 0.0018377756828380574 0 -0.031806570181179598 0.0013589926439967108 0 -0.031828903096585197 0.0015569766881244865 0 -0.031345417669331389 0.0018377756828380574 0 -0.031786392304600043 0.0013337011614057909 0 -0.031803764130108797 0.0014461457373094013 0 -0.031943739488605807 0.0017479655741025008 0 -0.031828903096585197 0.0015569766881244865 0 -0.031786392304600043 0.0013337011614057909 0 -0.031943739488605807 0.0017479655741025008 0 -0.031806570181179598 0.0013589926439967108 0 -0.031828903096585197 0.0015569766881244865 0 -0.031786392304600043 0.0013337011614057909 0 -0.031846069755389124 0.0010038658153838931 0 -0.031808117513600222 0.00085963048479632798 0 -0.031786392304600043 0.0013337011614057909 0 -0.031846069755389124 0.0010038658153838931 0 -0.031786392304600043 0.0013337011614057909 0 -0.03179060245541003 0.0012908630049777235 0 -0.031786392304600043 0.0013337011614057909 0 -0.031803764130108797 0.0014461457373094013 0 -0.03179060245541003 0.0012908630049777235 0 -0.031803764130108797 0.0014461457373094013 0 -0.03179060245541003 0.0012908630049777235 0 -0.031794057099676698 0.0013141093543438107 0 -0.027884798236601775 0.0033905572805843194 0 -0.027016289159635085 0.0031709910533309462 0 -0.031943739488605807 0.0017479655741025008 0 -0.032666448063439435 0.0028359668886524104 0 -0.031596549016219271 0.002927519525210026 0 -0.031803764130108797 0.0014461457373094013 0 -0.031943739488605807 0.0017479655741025008 0 -0.031794057099676698 0.0013141093543438107 0 -0.031793700187823737 0.0034050056870117769 0 -0.032293844655421594 0.0036754102136234302 0 -0.03139899294748378 0.0036958616509333358 0 -0.031793700187823737 0.0034050056870117769 0 -0.032666448063439435 0.0028359668886524104 0 -0.032293844655421594 0.0036754102136234302 0 -0.031793700187823737 0.0034050056870117769 0 -0.032666448063439435 0.0028359668886524104 0 -0.031596549016219271 0.002927519525210026 0 -0.03179060245541003 0.0012908630049777235 0 -0.031794057099676698 0.0013141093543438107 0 -0.031785405802222201 0.0013551576260928809 0 -0.032666448063439435 0.0028359668886524104 0 -0.033204930001808033 0.0036158734900458888 0 -0.032293844655421594 0.0036754102136234302 0 -0.027016289159635085 0.0031709910533309462 0 -0.023543627235461429 0.0015612890402853046 0 -0.023543627235461429 0.0015612890402853046 0 -0.021639297990738347 0.0042572350233621567 0 -0.016855211171296704 -0.0010425039621615667 0 -0.013224037217885209 0.0022776858984550645 0 -0.016465604026852921 0.0023032862718675605 0 -0.032293844655421594 0.0036754102136234302 0 -0.032163486573907919 0.004644634249907716 0 -0.03139899294748378 0.0036958616509333358 0 -0.033204930001808033 0.0036158734900458888 0 -0.032293844655421594 0.0036754102136234302 0 -0.032163486573907919 0.004644634249907716 0 -0.013224037217885209 0.0022776858984550645 0 -0.012477989252168918 0.0051856808976134478 0 -0.015403014319365917 0.0053723636844679847 0 -0.011145608237868252 0.0078094353914913593 0 -0.012477989252168918 0.0051856808976134478 0 -0.015403014319365917 0.0053723636844679847 0 -0.0035520274386670156 0.0044643125833909621 0 -0.0093266150649569442 0.0022691641608775805 0 -0.0032534972635652787 0.00055211666239827974 0 -0.0033291505010349764 0.00054669767183927916 0 -0.0033739209106650988 -2.2612540117773338e-05 0 -0.0037780718531316725 0.0003918043575006229 0 -0.0033739209106650988 -2.2612540117773338e-05 0 -0.0044508901944369395 -3.283143834827351e-05 0 -0.0033291505010349764 0.00054669767183927916 0 -0.0037780718531316725 0.0003918043575006229 0 -0.0033739209106650988 -2.2612540117773338e-05 0 -0.015403014319365917 0.0053723636844679847 0 -0.016465604026852921 0.0023032862718675605 0 -0.019632938207225323 0.0029480927387560913 0 -0.013224037217885209 0.0022776858984550645 0 -0.015403014319365917 0.0053723636844679847 0 -0.016465604026852921 0.0023032862718675605 0 -0.0093266150649569442 0.0022691641608775805 0 -0.014851384944110828 -8.1027691124933984e-05 0 -0.0033739209106650988 -2.2612540117773338e-05 0 -0.0047367046879599976 -0.001077566193500637 0 -0.0044508901944369395 -3.283143834827351e-05 0 -0.0047367046879599976 -0.001077566193500637 0 -0.0044508901944369395 -3.283143834827351e-05 0 -0.0055720638463759983 -6.5945099610429097e-05 0 -0.0051308518536013611 0.00091025329601695279 0 -0.0044508901944369395 -3.283143834827351e-05 0 -0.0055720638463759983 -6.5945099610429097e-05 0 -0.014851384944110828 -8.1027691124933984e-05 0 -0.014790094429981289 -0.00079782485931573634 0 -0.0055454861223131879 -0.00028307845220362408 0 -0.0061970473898811228 -0.00038291843410897907 0 -0.0061208337920107036 -0.00015076121525751837 0 -0.0055454861223131879 -0.00028307845220362408 0 -0.0055720638463759983 -6.5945099610429097e-05 0 -0.0061208337920107036 -0.00015076121525751837 0 -0.014851384944110828 -8.1027691124933984e-05 0 -0.013015939265653021 -0.0012296428459042316 0 -0.024229740574697393 -0.0042208956222858449 0 -0.023971841792766839 -0.0030248269024818878 0 -0.022975091681932753 -0.0035192097087430796 0 -0.023971841792766839 -0.0030248269024818878 0 -0.022978735240385056 -0.0025880102462779511 0 -0.022975091681932753 -0.0035192097087430796 0 -0.023543627235461429 0.0015612890402853046 0 -0.014851384944110828 -8.1027691124933984e-05 0 -0.016855211171296704 -0.0010425039621615667 0 -0.016465604026852921 0.0023032862718675605 0 -0.019632938207225323 0.0029480927387560913 0 -0.025220536782885314 -0.002834805512210626 0 -0.024229740574697393 -0.0042208956222858449 0 -0.023971841792766839 -0.0030248269024818878 0 -0.031901563968453374 0.0012751204653081822 0 -0.03179060245541003 0.0012908630049777235 0 -0.031785405802222201 0.0013551576260928809 0 -0.026697930146139755 -0.00018493755032816041 0 -0.023543627235461429 0.0015612890402853046 0 -0.024022352848826697 -0.0016955319398411352 0 -0.025220536782885314 -0.002834805512210626 0 -0.023971841792766839 -0.0030248269024818878 0 -0.024022352848826697 -0.0016955319398411352 0 -0.023971841792766839 -0.0030248269024818878 0 -0.022978735240385056 -0.0025880102462779511 0 -0.022036647230907574 -0.0015789716667418017 0 -0.024022352848826697 -0.0016955319398411352 0 -0.022978735240385056 -0.0025880102462779511 0 -0.022036647230907574 -0.0015789716667418017 0 -0.022978735240385056 -0.0025880102462779511 0 -0.021726777120870591 -0.0029949761741837068 0 -0.022036647230907574 -0.0015789716667418017 0 -0.021726777120870591 -0.0029949761741837068 0 -0.020377509267121282 -0.0019401364130580553 0 -0.006832660142157344 -0.00021529775291655824 0 -0.0066762460453641684 -4.6952477648674709e-05 0 -0.0069920909170090723 0.00044752955478028953 0 -0.014395739680569343 -0.00072588305884979155 0 -0.014790094429981289 -0.00079782485931573634 0 -0.022978735240385056 -0.0025880102462779511 0 -0.021726777120870591 -0.0029949761741837068 0 -0.022975091681932753 -0.0035192097087430796 0 -0.006832660142157344 -0.00021529775291655824 0 -0.0061970473898811228 -0.00038291843410897907 0 -0.0066762460453641684 -4.6952477648674709e-05 0 -0.0061970473898811228 -0.00038291843410897907 0 -0.0061208337920107036 -0.00015076121525751837 0 -0.0066762460453641684 -4.6952477648674709e-05 0 -0.0064495733612443835 0.00023879766082289937 0 -0.0055720638463759983 -6.5945099610429097e-05 0 -0.0061208337920107036 -0.00015076121525751837 0 -0.0064495733612443835 0.00023879766082289937 0 -0.0061208337920107036 -0.00015076121525751837 0 -0.0066762460453641684 -4.6952477648674709e-05 0 -0.0019223054739802344 0.00056146893631728746 0 -0.0017909470811643996 0.00032897713614800681 0 -0.0064495733612443835 0.00023879766082289937 0 -0.0066762460453641684 -4.6952477648674709e-05 0 -0.0065897342507432108 -0.00048432037896836472 0 -0.0066762460453641684 -4.6952477648674709e-05 0 -0.0065897342507432108 -0.00048432037896836472 0 -0.0069920909170090723 0.00044752955478028953 0 -0.0065897342507432108 -0.00048432037896836472 0 -0.00320974150119067 -8.8799374509340669e-05 0 -0.0069920909170090723 0.00044752955478028953 0 0.0031971376840994594 2.6017132592455891e-06 0 0.00079200689903526262 0.0003553331586783581 0 -0.0028428805802404472 -2.7258437041023342e-06 0 0.0034054597818857051 -0.0001171591162642297 0 0.00079200689903526262 0.0003553331586783581 0 -0.00320974150119067 -8.8799374509340669e-05 0 -0.0017909470811643996 0.00032897713614800681 0 -0.0019538894890775214 0.00023087393319218036 0 0.00079200689903526262 0.0003553331586783581 0 -0.00320974150119067 -8.8799374509340669e-05 0 -0.0028428805802404472 -2.7258437041023342e-06 0 -0.00320974150119067 -8.8799374509340669e-05 0 -0.0028428805802404472 -2.7258437041023342e-06 0 -0.0088824305492273253 3.545660351159335e-06 0 -0.00320974150119067 -8.8799374509340669e-05 0 -0.0088824305492273253 3.545660351159335e-06 0 -0.0069920909170090723 0.00044752955478028953 0 -0.0088824305492273253 3.545660351159335e-06 0 -0.0069920909170090723 0.00044752955478028953 0 -0.0087948365518199113 -0.00047337639701820137 0 -0.006832660142157344 -0.00021529775291655824 0 -0.0069920909170090723 0.00044752955478028953 0 -0.0087948365518199113 -0.00047337639701820137 0 -0.021726777120870591 -0.0029949761741837068 0 -0.020377509267121282 -0.0019401364130580553 0 -0.018610604373213047 -0.0019452689786043876 0 -0.014395739680569343 -0.00072588305884979155 0 -0.014145191228666419 -0.00027933600679844233 0 -0.014910551330021666 -5.1252258812012252e-06 0 -0.0088824305492273253 3.545660351159335e-06 0 -0.0087948365518199113 -0.00047337639701820137 0 -0.029000898898980814 0.018580967194739836 0 -0.031623236313498844 0.019165316172824985 0 -0.031712579922124659 0.015607868387828168 0 -0.029000898898980814 0.018580967194739836 0 -0.027347916735099505 0.015633120831721123 0 -0.031712579922124659 0.015607868387828168 0 -0.031623236313498844 0.019165316172824985 0 -0.031712579922124659 0.015607868387828168 0 -0.034328948225045869 0.019340839030297922 0 -0.032133542059564466 0.012295316444535392 0 -0.032235389498485784 0.014044266704163536 0 -0.031623236313498844 0.019165316172824985 0 -0.034328948225045869 0.019340839030297922 0 -0.032932682936864174 0.0220204851763133 0 -0.031623236313498844 0.019165316172824985 0 -0.03059126965443679 0.020245180375050652 0 -0.032932682936864174 0.0220204851763133 0 -0.03059126965443679 0.020245180375050652 0 -0.028779855147809771 0.021163804597860433 0 -0.032932682936864174 0.0220204851763133 0 -0.029000898898980814 0.018580967194739836 0 -0.031623236313498844 0.019165316172824985 0 -0.03059126965443679 0.020245180375050652 0 -0.029000898898980814 0.018580967194739836 0 -0.03059126965443679 0.020245180375050652 0 -0.028779855147809771 0.021163804597860433 0 -0.028116744111587846 0.019344100333429079 0 -0.02661656782915698 0.019338194588521061 0 -0.029000898898980814 0.018580967194739836 0 -0.028779855147809771 0.021163804597860433 0 -0.024175338511918047 0.020047024000287433 0 -0.024175338511918047 0.020047024000287433 0 -0.027347916735099505 0.015633120831721123 0 -0.023261114449139725 0.01563003505964318 0 -0.029000898898980814 0.018580967194739836 0 -0.024175338511918047 0.020047024000287433 0 -0.027347916735099505 0.015633120831721123 0 -0.027347916735099505 0.015633120831721123 0 -0.026089314022094037 0.012444161174661869 0 -0.029240643183806085 0.011931233628951234 0 -0.027347916735099505 0.015633120831721123 0 -0.023261114449139725 0.01563003505964318 0 -0.026089314022094037 0.012444161174661869 0 -0.027193016351774395 0.0085124614310700987 0 -0.026089314022094037 0.012444161174661869 0 -0.022705301562336532 0.011523548310052015 0 -0.023261114449139725 0.01563003505964318 0 -0.026089314022094037 0.012444161174661869 0 -0.022705301562336532 0.011523548310052015 0 -0.027193016351774395 0.0085124614310700987 0 -0.026089314022094037 0.012444161174661869 0 -0.029240643183806085 0.011931233628951234 0 -0.034035888769141168 0.0085444646477989168 0 -0.034101318988345515 0.0093726115122634464 0 -0.034906503094632051 0.0089405025083961389 0 -0.034101318988345515 0.0093726115122634464 0 -0.035386128082825201 0.0087126006983034455 0 -0.034906503094632051 0.0089405025083961389 0 -0.030867008900723976 0.010259585456305075 0 -0.032133542059564466 0.012295316444535392 0 -0.027347916735099505 0.015633120831721123 0 -0.029240643183806085 0.011931233628951234 0 -0.031712579922124659 0.015607868387828168 0 -0.035386128082825201 0.0087126006983034455 0 -0.034906503094632051 0.0089405025083961389 0 -0.034975070566659626 0.0087320985552111745 0 -0.034906503094632051 0.0089405025083961389 0 -0.035185746665308694 0.0085668769417684767 0 -0.034975070566659626 0.0087320985552111745 0 -0.035185746665308694 0.0085668769417684767 0 -0.034975070566659626 0.0087320985552111745 0 -0.035055542037756494 0.0085345589414644527 0 -0.03439295480310129 0.0085736013125153783 0 -0.034975070566659626 0.0087320985552111745 0 -0.035055542037756494 0.0085345589414644527 0 -0.03439295480310129 0.0085736013125153783 0 -0.034975070566659626 0.0087320985552111745 0 -0.03482252414389863 0.0078388056270866958 0 -0.035386128082825201 0.0087126006983034455 0 -0.034975070566659626 0.0087320985552111745 0 -0.03482252414389863 0.0078388056270866958 0 -0.033747655650638433 0.0046448107082461198 0 -0.036154099319975853 0.0083690651941172103 0 -0.035387304657991552 0.0086436063245727817 0 -0.035286963448566591 0.0084548587172092338 0 -0.035277961608188572 0.008584560645636655 0 -0.035286963448566591 0.0084548587172092338 0 -0.035055542037756494 0.0085345589414644527 0 -0.035277961608188572 0.008584560645636655 0 -0.035055542037756494 0.0085345589414644527 0 -0.035137704770136328 0.0086907210397794334 0 -0.035277961608188572 0.008584560645636655 0 -0.03439295480310129 0.0085736013125153783 0 -0.035055542037756494 0.0085345589414644527 0 -0.035137704770136328 0.0086907210397794334 0 -0.033482807911503196 0.0068136826234093889 0 -0.033164908220350335 0.0064335777242036218 0 -0.033496336921330049 0.0049032709891197145 0 -0.033164908220350335 0.0064335777242036218 0 -0.035381475001085003 0.0086581681769399583 0 -0.035137704770136328 0.0086907210397794334 0 -0.035277961608188572 0.008584560645636655 0 -0.028161336376048292 0.0095849057086366211 0 -0.031134745066469446 0.0092233957412232101 0 -0.029837484896514405 0.0067674779859930615 0 -0.033496336921330049 0.0049032709891197145 0 -0.032201664391324963 0.0048186629975890492 0 -0.03439295480310129 0.0085736013125153783 0 -0.031134745066469446 0.0092233957412232101 0 -0.0326836768534291 0.0074692191264433203 0 -0.029837484896514405 0.0067674779859930615 0 -0.0326836768534291 0.0074692191264433203 0 -0.031603307098457052 0.0059209224831684986 0 -0.031134745066469446 0.0092233957412232101 0 -0.029837484896514405 0.0067674779859930615 0 -0.0326836768534291 0.0074692191264433203 0 -0.029837484896514405 0.0067674779859930615 0 -0.031603307098457052 0.0059209224831684986 0 -0.031347204369731367 0.0037401021845508251 0 -0.0326836768534291 0.0074692191264433203 0 -0.031603307098457052 0.0059209224831684986 0 -0.033409461807212902 0.0061780479624577644 0 -0.032112707670551417 0.0048724845163967542 0 -0.031603307098457052 0.0059209224831684986 0 -0.033409461807212902 0.0061780479624577644 0 -0.032112707670551417 0.0048724845163967542 0 -0.031603307098457052 0.0059209224831684986 0 -0.031347204369731367 0.0037401021845508251 0 -0.032201664391324963 0.0048186629975890492 0 -0.032103166165823732 0.0044051284661686379 0 -0.031943739488605807 0.0017479655741025008 0 -0.031345417669331389 0.0018377756828380574 0 -0.031596549016219271 0.002927519525210026 0 -0.031345417669331389 0.0018377756828380574 0 -0.031596549016219271 0.002927519525210026 0 -0.031347204369731367 0.0037401021845508251 0 -0.035386128082825201 0.0087126006983034455 0 -0.03482252414389863 0.0078388056270866958 0 -0.035599234014354698 0.0067641876893045896 0 -0.03439295480310129 0.0085736013125153783 0 -0.0326836768534291 0.0074692191264433203 0 -0.03482252414389863 0.0078388056270866958 0 -0.0326836768534291 0.0074692191264433203 0 -0.03482252414389863 0.0078388056270866958 0 -0.033409461807212902 0.0061780479624577644 0 -0.033409461807212902 0.0061780479624577644 0 -0.035599234014354698 0.0067641876893045896 0 -0.03407873049716352 0.0036318662467752392 0 -0.032112707670551417 0.0048724845163967542 0 -0.033409461807212902 0.0061780479624577644 0 -0.032825099179245372 0.0045499412192109723 0 -0.032235389498485784 0.014044266704163536 0 -0.03009512113563596 0.015652422930587419 0 -0.03482252414389863 0.0078388056270866958 0 -0.033409461807212902 0.0061780479624577644 0 -0.035599234014354698 0.0067641876893045896 0 -0.03009512113563596 0.015652422930587419 0 -0.030179551230602054 0.018556011026575885 0 -0.028705949561750176 0.021397732844678125 0 -0.028206547331088051 0.021674969598447651 0 -0.027907159297151332 0.021204569394826133 0 -0.034328948225045869 0.019340839030297922 0 -0.036901511025778259 0.022947080882311458 0 -0.032932682936864174 0.0220204851763133 0 -0.03009512113563596 0.015652422930587419 0 -0.029974178548164251 0.013606702233900977 0 -0.033409461807212902 0.0061780479624577644 0 -0.032825099179245372 0.0045499412192109723 0 -0.03407873049716352 0.0036318662467752392 0 -0.032825099179245372 0.0045499412192109723 0 -0.03407873049716352 0.0036318662467752392 0 -0.031888210774341182 0.0036305215047080382 0 -0.029375666327561611 0.014444001746315287 0 -0.029021010171888111 0.01395139538472232 0 -0.028531393100031725 0.014234833096330413 0 -0.028705949561750176 0.021397732844678125 0 -0.029002577397329241 0.021801585071191995 0 -0.028206547331088051 0.021674969598447651 0 -0.028133402443184848 0.015247385414265853 0 -0.027035200074649639 0.018817263181099095 0 -0.028056599137329965 0.022194646467388848 0 -0.027684055763878484 0.022434455700171108 0 -0.027977086532857205 0.02250410628719849 0 -0.03009512113563596 0.015652422930587419 0 -0.028133402443184848 0.015247385414265853 0 -0.029002577397329241 0.021801585071191995 0 -0.028206547331088051 0.021674969598447651 0 -0.028366599446753137 0.022190808240949829 0 -0.028206547331088051 0.021674969598447651 0 -0.028366599446753137 0.022190808240949829 0 -0.027847935488408949 0.022044240999581938 0 -0.031596549016219271 0.002927519525210026 0 -0.031359008500856531 0.0034245724788393842 0 -0.031347204369731367 0.0037401021845508251 0 -0.031793700187823737 0.0034050056870117769 0 -0.031359008500856531 0.0034245724788393842 0 -0.03139899294748378 0.0036958616509333358 0 -0.031793700187823737 0.0034050056870117769 0 -0.031596549016219271 0.002927519525210026 0 -0.031359008500856531 0.0034245724788393842 0 -0.031359008500856531 0.0034245724788393842 0 -0.031416060177775783 0.0032775955316713444 0 -0.03139899294748378 0.0036958616509333358 0 -0.03407873049716352 0.0036318662467752392 0 -0.031602636592950081 0.0030436857883303224 0 -0.031888210774341182 0.0036305215047080382 0 -0.031359008500856531 0.0034245724788393842 0 -0.031350513184587064 0.0034747980526428587 0 -0.031416060177775783 0.0032775955316713444 0 -0.031350513184587064 0.0034747980526428587 0 -0.031416060177775783 0.0032775955316713444 0 -0.031888210774341182 0.0036305215047080382 0 -0.031416060177775783 0.0032775955316713444 0 -0.031602636592950081 0.0030436857883303224 0 -0.031888210774341182 0.0036305215047080382 0 -0.030016548210163814 0.013560756884953307 0 -0.029974178548164251 0.013606702233900977 0 -0.031359008500856531 0.0034245724788393842 0 -0.031350513184587064 0.0034747980526428587 0 -0.031347204369731367 0.0037401021845508251 0 -0.031350513184587064 0.0034747980526428587 0 -0.031347204369731367 0.0037401021845508251 0 -0.031888210774341182 0.0036305215047080382 0 -0.032112707670551417 0.0048724845163967542 0 -0.031347204369731367 0.0037401021845508251 0 -0.031888210774341182 0.0036305215047080382 0 -0.032112707670551417 0.0048724845163967542 0 -0.032825099179245372 0.0045499412192109723 0 -0.031888210774341182 0.0036305215047080382 0 -0.031416060177775783 0.0032775955316713444 0 -0.031412197759719429 0.0032516210586332832 0 -0.03139899294748378 0.0036958616509333358 0 -0.028133402443184848 0.015247385414265853 0 -0.029974178548164251 0.013606702233900977 0 -0.029451949144844371 0.0039059745396214131 0 -0.030261589347084613 0.0034277943971848372 0 -0.030189346642316407 0.003955628064311897 0 -0.029451949144844371 0.0039059745396214131 0 -0.030189346642316407 0.003955628064311897 0 -0.030395985793519754 0.0044785945434307022 0 -0.029451949144844371 0.0039059745396214131 0 -0.030395985793519754 0.0044785945434307022 0 -0.030206655143980573 0.004944212079478952 0 -0.028133402443184848 0.015247385414265853 0 -0.022348504363361103 0.013759977654331762 0 -0.030189346642316407 0.003955628064311897 0 -0.030395985793519754 0.0044785945434307022 0 -0.030647988329298905 0.0040071372680540165 0 -0.030261589347084613 0.0034277943971848372 0 -0.030189346642316407 0.003955628064311897 0 -0.030647988329298905 0.0040071372680540165 0 -0.032163486573907919 0.004644634249907716 0 -0.031163159826370752 0.0043659553104972559 0 -0.03139899294748378 0.0036958616509333358 0 -0.030261589347084613 0.0034277943971848372 0 -0.030647988329298905 0.0040071372680540165 0 -0.03139899294748378 0.0036958616509333358 0 -0.029974178548164251 0.013606702233900977 0 -0.029889369471372412 0.012513217024285069 0 -0.030647988329298905 0.0040071372680540165 0 -0.031163159826370752 0.0043659553104972559 0 -0.03139899294748378 0.0036958616509333358 0 -0.030395985793519754 0.0044785945434307022 0 -0.030647988329298905 0.0040071372680540165 0 -0.031163159826370752 0.0043659553104972559 0 -0.021639297990738347 0.0042572350233621567 0 -0.015971941171443915 0.010294065347030925 0 -0.032163486573907919 0.004644634249907716 0 -0.031113068234168834 0.0049762476330057221 0 -0.030926715934159972 0.0058493139601059566 0 -0.032163486573907919 0.004644634249907716 0 -0.031163159826370752 0.0043659553104972559 0 -0.031113068234168834 0.0049762476330057221 0 -0.013224037217885209 0.0022776858984550645 0 -0.012477989252168918 0.0051856808976134478 0 -0.0095731147327266161 0.0056222444629288153 0 -0.030395985793519754 0.0044785945434307022 0 -0.031163159826370752 0.0043659553104972559 0 -0.031113068234168834 0.0049762476330057221 0 -0.031113068234168834 0.0049762476330057221 0 -0.030225452973648315 0.0048865715305474716 0 -0.030926715934159972 0.0058493139601059566 0 -0.022348504363361103 0.013759977654331762 0 -0.019562791174679475 0.016309985470027027 0 -0.028280513881341951 0.022513143009406544 0 -0.028127191879463605 0.022896347294808658 0 -0.027977086532857205 0.02250410628719849 0 -0.022348504363361103 0.013759977654331762 0 -0.015971941171443915 0.010294065347030925 0 -0.030395985793519754 0.0044785945434307022 0 -0.031113068234168834 0.0049762476330057221 0 -0.030225452973648315 0.0048865715305474716 0 -0.0227528780823371 0.012968024996230568 0 -0.022348504363361103 0.013759977654331762 0 -0.014371869116007401 0.01652026917786734 0 -0.015971941171443915 0.010294065347030925 0 -0.017689085614343632 0.01657845940580004 0 -0.018155547357764236 0.013917461121390228 0 -0.020983601940745372 0.013548017869760915 0 -0.019268559063589246 0.011164113130954651 0 -0.018155547357764236 0.013917461121390228 0 -0.020983601940745372 0.013548017869760915 0 -0.011145608237868252 0.0078094353914913593 0 -0.012477989252168918 0.0051856808976134478 0 -0.0095731147327266161 0.0056222444629288153 0 -0.011674895237135913 0.011512562644031426 0 -0.013909403798646825 0.010660888094899039 0 -0.012395718383354216 0.0085739796046429614 0 -0.0035520274386670156 0.0044643125833909621 0 -0.015971941171443915 0.010294065347030925 0 -0.027035200074649639 0.018817263181099095 0 -0.026702450465420094 0.02042059988046923 0 -0.027684055763878484 0.022434455700171108 0 -0.027562967347914649 0.022762918416690883 0 -0.027328639238632595 0.022671652602918441 0 -0.027684055763878484 0.022434455700171108 0 -0.027826780845843894 0.022759827561884497 0 -0.027562967347914649 0.022762918416690883 0 -0.027684055763878484 0.022434455700171108 0 -0.027977086532857205 0.02250410628719849 0 -0.027826780845843894 0.022759827561884497 0 -0.028127191879463605 0.022896347294808658 0 -0.027977086532857205 0.02250410628719849 0 -0.027826780845843894 0.022759827561884497 0 -0.028056599137329965 0.022194646467388848 0 -0.028280513881341951 0.022513143009406544 0 -0.027977086532857205 0.02250410628719849 0 -0.028127191879463605 0.022896347294808658 0 -0.027826780845843894 0.022759827561884497 0 -0.02790613688482034 0.022988042623762882 0 -0.027973624870805031 0.023267935775965243 0 -0.028127191879463605 0.022896347294808658 0 -0.02790613688482034 0.022988042623762882 0 -0.027826780845843894 0.022759827561884497 0 -0.02790613688482034 0.022988042623762882 0 -0.027681064066932895 0.023028395653064127 0 -0.027681064066932895 0.023028395653064127 0 -0.027562967347914649 0.022762918416690883 0 -0.027253633461972362 0.023035942116981369 0 -0.027826780845843894 0.022759827561884497 0 -0.027681064066932895 0.023028395653064127 0 -0.027562967347914649 0.022762918416690883 0 -0.027253633461972362 0.023035942116981369 0 -0.02699065193492067 0.022887922484948284 0 -0.027328639238632595 0.022671652602918441 0 -0.027562967347914649 0.022762918416690883 0 -0.027253633461972362 0.023035942116981369 0 -0.027328639238632595 0.022671652602918441 0 -0.026821118632399738 0.02315122039103314 0 -0.027253633461972362 0.023035942116981369 0 -0.02699065193492067 0.022887922484948284 0 -0.026561633069640544 0.020918935567378727 0 -0.026702450465420094 0.02042059988046923 0 -0.02699065193492067 0.022887922484948284 0 -0.027669553311548384 0.022565047528985967 0 -0.026712863529077736 0.022097049283932638 0 -0.028366599446753137 0.022190808240949829 0 -0.027669553311548384 0.022565047528985967 0 -0.027847935488408949 0.022044240999581938 0 -0.027669553311548384 0.022565047528985967 0 -0.027847935488408949 0.022044240999581938 0 -0.02735191192184017 0.021749312550739919 0 -0.028206547331088051 0.021674969598447651 0 -0.027847935488408949 0.022044240999581938 0 -0.02735191192184017 0.021749312550739919 0 -0.027669553311548384 0.022565047528985967 0 -0.02735191192184017 0.021749312550739919 0 -0.026712863529077736 0.022097049283932638 0 -0.02735191192184017 0.021749312550739919 0 -0.027046892918975288 0.021054771912175495 0 -0.026712863529077736 0.022097049283932638 0 -0.028116744111587846 0.019344100333429079 0 -0.030179551230602054 0.018556011026575885 0 -0.026465711183473344 0.022300606101141093 0 -0.025929495854683304 0.023552252991741015 0 -0.026853364401562982 0.020949280058440437 0 -0.027046892918975288 0.021054771912175495 0 -0.027907159297151332 0.021204569394826133 0 -0.02735191192184017 0.021749312550739919 0 -0.027046892918975288 0.021054771912175495 0 -0.027907159297151332 0.021204569394826133 0 -0.028206547331088051 0.021674969598447651 0 -0.02735191192184017 0.021749312550739919 0 -0.027907159297151332 0.021204569394826133 0 -0.024175338511918047 0.020047024000287433 0 -0.024998690253050699 0.022439931334005767 0 -0.021988206639920755 0.023197505752169643 0 -0.026853364401562982 0.020949280058440437 0 -0.024175338511918047 0.020047024000287433 0 -0.024998690253050699 0.022439931334005767 0 -0.027046892918975288 0.021054771912175495 0 -0.024998690253050699 0.022439931334005767 0 -0.025951078028182369 0.0248329612271685 0 -0.026853364401562982 0.020949280058440437 0 -0.027046892918975288 0.021054771912175495 0 -0.024998690253050699 0.022439931334005767 0 -0.024998690253050699 0.022439931334005767 0 -0.025951078028182369 0.0248329612271685 0 -0.023448978503322154 0.024836593665651868 0 -0.024998690253050699 0.022439931334005767 0 -0.023448978503322154 0.024836593665651868 0 -0.021988206639920755 0.023197505752169643 0 -0.023448978503322154 0.024836593665651868 0 -0.021359531949182241 0.02645810073564241 0 -0.021988206639920755 0.023197505752169643 0 -0.023448978503322154 0.024836593665651868 0 -0.024193771167447749 0.0289154709023971 0 -0.021359531949182241 0.02645810073564241 0 -0.02699065193492067 0.022887922484948284 0 -0.026712863529077736 0.022097049283932638 0 -0.026443949239614132 0.022966359134395046 0 -0.025951078028182369 0.0248329612271685 0 -0.023448978503322154 0.024836593665651868 0 -0.024193771167447749 0.0289154709023971 0 -0.025929495854683304 0.023552252991741015 0 -0.024771689622606036 0.025762824820673789 0 -0.026821118632399738 0.02315122039103314 0 -0.02699065193492067 0.022887922484948284 0 -0.026443949239614132 0.022966359134395046 0 -0.024193771167447749 0.0289154709023971 0 -0.020647772075010711 0.028940217977991785 0 -0.021359531949182241 0.02645810073564241 0 -0.021189917378039599 0.030926078207429371 0 -0.024193771167447749 0.0289154709023971 0 -0.020647772075010711 0.028940217977991785 0 -0.020647772075010711 0.028940217977991785 0 -0.018634343668403795 0.029283795522146043 0 -0.019024634148800942 0.027015074326052102 0 -0.019391585560776321 0.030969078251967784 0 -0.020647772075010711 0.028940217977991785 0 -0.018634343668403795 0.029283795522146043 0 -0.016773285369780216 0.030827934537546158 0 -0.018634343668403795 0.029283795522146043 0 -0.016910667250061778 0.028063440366919851 0 -0.018634343668403795 0.029283795522146043 0 -0.019024634148800942 0.027015074326052102 0 -0.016910667250061778 0.028063440366919851 0 -0.019024634148800942 0.027015074326052102 0 -0.017514328528329095 0.025750566828357559 0 -0.016910667250061778 0.028063440366919851 0 -0.019024634148800942 0.027015074326052102 0 -0.017514328528329095 0.025750566828357559 0 -0.019163495256369626 0.023956049411698096 0 -0.020647772075010711 0.028940217977991785 0 -0.019024634148800942 0.027015074326052102 0 -0.021359531949182241 0.02645810073564241 0 -0.019024634148800942 0.027015074326052102 0 -0.021359531949182241 0.02645810073564241 0 -0.019163495256369626 0.023956049411698096 0 -0.016773285369780216 0.030827934537546158 0 -0.014484278053579536 0.029252565926555289 0 -0.016910667250061778 0.028063440366919851 0 -0.014484278053579536 0.029252565926555289 0 -0.016910667250061778 0.028063440366919851 0 -0.015166255274430933 0.026228240780198142 0 -0.017514328528329095 0.025750566828357559 0 -0.016910667250061778 0.028063440366919851 0 -0.015166255274430933 0.026228240780198142 0 -0.015166255274430933 0.026228240780198142 0 -0.01318314055854534 0.025136720792815068 0 -0.012377519313387817 0.027172730582862795 0 -0.014484278053579536 0.029252565926555289 0 -0.015166255274430933 0.026228240780198142 0 -0.012377519313387817 0.027172730582862795 0 -0.015970861494117861 0.022908384239200746 0 -0.012487336866691663 0.022798214646589553 0 -0.01318314055854534 0.025136720792815068 0 -0.015166255274430933 0.026228240780198142 0 -0.015970861494117861 0.022908384239200746 0 -0.01318314055854534 0.025136720792815068 0 -0.017514328528329095 0.025750566828357559 0 -0.015166255274430933 0.026228240780198142 0 -0.015970861494117861 0.022908384239200746 0 -0.017514328528329095 0.025750566828357559 0 -0.015970861494117861 0.022908384239200746 0 -0.019163495256369626 0.023956049411698096 0 -0.015970861494117861 0.022908384239200746 0 -0.019208028233321277 0.021365416233525735 0 -0.016751225377809573 0.020394370391461622 0 -0.015970861494117861 0.022908384239200746 0 -0.013811002762680588 0.020363359420167336 0 -0.012487336866691663 0.022798214646589553 0 -0.015970861494117861 0.022908384239200746 0 -0.016751225377809573 0.020394370391461622 0 -0.013811002762680588 0.020363359420167336 0 -0.024175338511918047 0.020047024000287433 0 -0.021988206639920755 0.023197505752169643 0 -0.019208028233321277 0.021365416233525735 0 -0.021359531949182241 0.02645810073564241 0 -0.021988206639920755 0.023197505752169643 0 -0.019163495256369626 0.023956049411698096 0 -0.015970861494117861 0.022908384239200746 0 -0.019163495256369626 0.023956049411698096 0 -0.019208028233321277 0.021365416233525735 0 -0.021988206639920755 0.023197505752169643 0 -0.019163495256369626 0.023956049411698096 0 -0.019208028233321277 0.021365416233525735 0 -0.024175338511918047 0.020047024000287433 0 -0.019208028233321277 0.021365416233525735 0 -0.020065027435498154 0.018236626076816618 0 -0.024175338511918047 0.020047024000287433 0 -0.023261114449139725 0.01563003505964318 0 -0.020065027435498154 0.018236626076816618 0 -0.023261114449139725 0.01563003505964318 0 -0.020065027435498154 0.018236626076816618 0 -0.019124216785168523 0.014735662187094234 0 -0.020065027435498154 0.018236626076816618 0 -0.016134198948067627 0.017778808788173686 0 -0.019124216785168523 0.014735662187094234 0 -0.019208028233321277 0.021365416233525735 0 -0.020065027435498154 0.018236626076816618 0 -0.016751225377809573 0.020394370391461622 0 -0.020065027435498154 0.018236626076816618 0 -0.016751225377809573 0.020394370391461622 0 -0.016134198948067627 0.017778808788173686 0 -0.017643327382442314 0.017077805720098437 0 -0.016010839903622235 0.018504089964372687 0 -0.016751225377809573 0.020394370391461622 0 -0.016134198948067627 0.017778808788173686 0 -0.013811002762680588 0.020363359420167336 0 -0.014834949344915076 0.016060735095651837 0 -0.018238063624323616 0.017460442935856933 0 -0.013811002762680588 0.020363359420167336 0 -0.017643327382442314 0.017077805720098437 0 -0.020587322829759305 0.014455625914371408 0 -0.018238063624323616 0.017460442935856933 0 -0.018094540119608871 0.013713964044098434 0 -0.022030497213876614 0.014251818644049346 0 -0.014834949344915076 0.016060735095651837 0 -0.018094540119608871 0.013713964044098434 0 -0.013176900969584805 0.01233970817698499 0 -0.014834949344915076 0.016060735095651837 0 -0.018238063624323616 0.017460442935856933 0 -0.018094540119608871 0.013713964044098434 0 -0.018094540119608871 0.013713964044098434 0 -0.013176900969584805 0.01233970817698499 0 -0.017306165015808058 0.010276605999129051 0 -0.018094540119608871 0.013713964044098434 0 -0.021518083775022744 0.0099204558936009709 0 -0.017306165015808058 0.010276605999129051 0 -0.018094540119608871 0.013713964044098434 0 -0.022030497213876614 0.014251818644049346 0 -0.021518083775022744 0.0099204558936009709 0 -0.025316795780683164 0.011075945652201024 0 -0.022030497213876614 0.014251818644049346 0 -0.021518083775022744 0.0099204558936009709 0 -0.023501834406954431 0.011843764160447504 0 -0.020587322829759305 0.014455625914371408 0 -0.023261114449139725 0.01563003505964318 0 -0.022705301562336532 0.011523548310052015 0 -0.019124216785168523 0.014735662187094234 0 -0.0084196473107386836 0.014813204241937016 0 -0.0077447193613954853 0.011945488832363087 0 -0.0099514553523642486 0.012961017638018853 0 -0.0084196473107386836 0.014813204241937016 0 -0.0056045186074613635 0.014871298630116018 0 -0.0077447193613954853 0.011945488832363087 0 -0.0062854912873828977 0.0075159997817930216 0 -0.0056495759855742129 0.0093334529242110296 0 -0.0053938943973468522 0.0149246148279374 0 -0.0058261308672973369 0.013993912423742167 0 -0.0077447193613954853 0.011945488832363087 0 -0.02394234138810699 0.0044491629101259785 0 -0.023991741302708657 0.0043809942639800063 0 -0.0240952975507914 0.0044988583127111926 0 -0.0062854912873828977 0.0075159997817930216 0 -0.0059896992664772962 0.0055817490651042141 0 0.0012777728752693131 0.0073869141032926414 0 0.0016103938243365278 0.0078059754231347214 0 0.0014127168379282557 0.0078437793878091879 0 -0.02394234138810699 0.0044491629101259785 0 -0.023952516304462695 0.0045487166114293971 0 -0.0240952975507914 0.0044988583127111926 0 -0.0053938943973468522 0.0149246148279374 0 -0.0058261308672973369 0.013993912423742167 0 -0.005410914572784367 0.013249377038816989 0 -0.0062854912873828977 0.0075159997817930216 0 -0.009957938382799186 0.0074062125700028025 0 -0.0099635342404513442 0.0075396649942737915 0 -0.009957938382799186 0.0074062125700028025 0 -0.0054034669720283068 0.013258521395505823 0 -0.0077447193613954853 0.011945488832363087 0 -0.005378449716107566 0.0082284539658215756 0 -0.017032658422908957 0.0063469745838712881 0 -0.016547787261911175 0.0054374239173513948 0 -0.017070884810061741 0.0050384837408925893 0 -0.0058261308672973369 0.013993912423742167 0 -0.0054034669720283068 0.013258521395505823 0 -0.0077447193613954853 0.011945488832363087 0 -0.023952516304462695 0.0045487166114293971 0 -0.0240952975507914 0.0044988583127111926 0 -0.02411921324961858 0.0047399463671288005 0 -0.009957938382799186 0.0074062125700028025 0 -0.01587629344254108 0.0065877488667744821 0 -0.009957938382799186 0.0074062125700028025 0 -0.012191268706340993 0.0062481505221318933 0 -0.0077447193613954853 0.011945488832363087 0 -0.0099514553523642486 0.012961017638018853 0 -0.0092010007637242444 0.0093230906444258972 0 -0.0099514553523642486 0.012961017638018853 0 -0.013176900969584805 0.01233970817698499 0 -0.0092010007637242444 0.0093230906444258972 0 -0.014834949344915076 0.016060735095651837 0 -0.013176900969584805 0.01233970817698499 0 -0.011080603417550947 0.016366339169746821 0 -0.0099514553523642486 0.012961017638018853 0 -0.013176900969584805 0.01233970817698499 0 -0.011080603417550947 0.016366339169746821 0 -0.0084196473107386836 0.014813204241937016 0 -0.0099514553523642486 0.012961017638018853 0 -0.011080603417550947 0.016366339169746821 0 -0.0084196473107386836 0.014813204241937016 0 -0.011080603417550947 0.016366339169746821 0 -0.0082382181138707638 0.018096773789733907 0 -0.011080603417550947 0.016366339169746821 0 -0.010451963619519916 0.020499946165309268 0 -0.0082382181138707638 0.018096773789733907 0 -0.014834949344915076 0.016060735095651837 0 -0.011080603417550947 0.016366339169746821 0 -0.013811002762680588 0.020363359420167336 0 -0.011080603417550947 0.016366339169746821 0 -0.013811002762680588 0.020363359420167336 0 -0.010451963619519916 0.020499946165309268 0 -0.010451963619519916 0.020499946165309268 0 -0.0082382181138707638 0.018096773789733907 0 -0.0081048594633153764 0.021835905299120995 0 -0.0082382181138707638 0.018096773789733907 0 -0.0057159128142036837 0.019796505149631157 0 -0.0081048594633153764 0.021835905299120995 0 -0.0084196473107386836 0.014813204241937016 0 -0.0056045186074613635 0.014871298630116018 0 -0.0082382181138707638 0.018096773789733907 0 -0.0056045186074613635 0.014871298630116018 0 -0.0082382181138707638 0.018096773789733907 0 -0.0057159128142036837 0.019796505149631157 0 0.0012777728752693131 0.0073869141032926414 0 0.0014127168379282557 0.0078437793878091879 0 0.0013236296587207739 0.0094679068297265061 0 -0.0062854912873828977 0.0075159997817930216 0 -0.00054606486528426543 0.013519189644606902 0 0.0014127168379282557 0.0078437793878091879 0 0.0013236296587207739 0.0094679068297265061 0 0.0023927159139952442 0.0087913085060267772 0 0.0016122762457128985 0.0078068093323472344 0 0.0014127168379282557 0.0078437793878091879 0 0.0023927159139952442 0.0087913085060267772 0 -0.0059896992664772962 0.0055817490651042141 0 -0.005894483949088679 0.0055766458673518161 0 0.0013236296587207739 0.0094679068297265061 0 0.0022533331539216746 0.010638103917502716 0 0.0022827816917056565 0.0096661061924194613 0 0.0013236296587207739 0.0094679068297265061 0 0.0013547788771213533 0.01151218780156456 0 0.0022533331539216746 0.010638103917502716 0 -0.0057159128142036837 0.019796505149631157 0 -0.0081048594633153764 0.021835905299120995 0 -0.0058177203711943541 0.024280333902663296 0 -0.00054606486528426543 0.013519189644606902 0 0.0065232654414442513 0.013761659302971943 0 -0.0081048594633153764 0.021835905299120995 0 -0.0087458328591425577 0.02436309048771558 0 -0.0099932470038498044 0.023141927929564255 0 -0.0081048594633153764 0.021835905299120995 0 -0.0087458328591425577 0.02436309048771558 0 -0.0058177203711943541 0.024280333902663296 0 -0.0087458328591425577 0.02436309048771558 0 -0.0058177203711943541 0.024280333902663296 0 -0.0088963849334836899 0.027111329754991184 0 0.028051824180548794 0.0060509798349701344 0 0.028294428332065667 0.005391194044629689 0 0.026319198748313951 0.007339980982786847 0 0.0067118586530493102 0.013482271144072756 0 0.0065232654414442513 0.013761659302971943 0 0.028051824180548794 0.0060509798349701344 0 0.028718415555769119 0.0070578946167762103 0 0.028910478041271077 0.0062750331696964593 0 0.028051824180548794 0.0060509798349701344 0 0.028047885938903911 0.0059625791890854738 0 0.028910478041271077 0.0062750331696964593 0 0.0065232654414442513 0.013761659302971943 0 0.011546545182607823 0.0091624206221036925 0 0.028047885938903911 0.0059625791890854738 0 0.029134537092033268 0.0050319004768942495 0 0.028910478041271077 0.0062750331696964593 0 -0.013811002762680588 0.020363359420167336 0 -0.010451963619519916 0.020499946165309268 0 -0.012487336866691663 0.022798214646589553 0 -0.010451963619519916 0.020499946165309268 0 -0.012487336866691663 0.022798214646589553 0 -0.0099932470038498044 0.023141927929564255 0 -0.010451963619519916 0.020499946165309268 0 -0.0081048594633153764 0.021835905299120995 0 -0.0099932470038498044 0.023141927929564255 0 -0.012487336866691663 0.022798214646589553 0 -0.0099932470038498044 0.023141927929564255 0 -0.01084566962672702 0.025337930817695732 0 -0.0087458328591425577 0.02436309048771558 0 -0.0099932470038498044 0.023141927929564255 0 -0.01084566962672702 0.025337930817695732 0 -0.012487336866691663 0.022798214646589553 0 -0.01084566962672702 0.025337930817695732 0 -0.01318314055854534 0.025136720792815068 0 -0.01084566962672702 0.025337930817695732 0 -0.01318314055854534 0.025136720792815068 0 -0.012377519313387817 0.027172730582862795 0 -0.01084566962672702 0.025337930817695732 0 -0.012377519313387817 0.027172730582862795 0 -0.0088963849334836899 0.027111329754991184 0 -0.0087458328591425577 0.02436309048771558 0 -0.01084566962672702 0.025337930817695732 0 -0.0088963849334836899 0.027111329754991184 0 -0.011612245351119961 0.029845052044693121 0 -0.012377519313387817 0.027172730582862795 0 -0.0088963849334836899 0.027111329754991184 0 -0.001218211138083044 0.022656204108684026 0 0.0043506999062742913 0.017363670511019308 0 0.01063726313127861 0.014215458744059948 0 0.02249863633852469 0.0069286835274750651 0 0.021795890775914796 0.012915001683132019 0 -0.011612245351119961 0.029845052044693121 0 -0.014484278053579536 0.029252565926555289 0 -0.012377519313387817 0.027172730582862795 0 0.028794911069266165 0.0082539528497501298 0 0.026319198748313951 0.007339980982786847 0 0.02814031865806603 0.010028878532063204 0 0.028794911069266165 0.0082539528497501298 0 0.028014460721576713 0.0071242801647796675 0 0.026319198748313951 0.007339980982786847 0 0.028051824180548794 0.0060509798349701344 0 0.028718415555769119 0.0070578946167762103 0 0.028014460721576713 0.0071242801647796675 0 0.028794911069266165 0.0082539528497501298 0 0.028718415555769119 0.0070578946167762103 0 0.028014460721576713 0.0071242801647796675 0 0.028051824180548794 0.0060509798349701344 0 0.028014460721576713 0.0071242801647796675 0 0.026319198748313951 0.007339980982786847 0 0.0065232654414442513 0.013761659302971943 0 0.0043506999062742913 0.017363670511019308 0 0.02249863633852469 0.0069286835274750651 0 0.026319198748313951 0.007339980982786847 0 0.02814031865806603 0.010028878532063204 0 0.028294428332065667 0.005391194044629689 0 0.02249863633852469 0.0069286835274750651 0 0.026319198748313951 0.007339980982786847 0 0.02249863633852469 0.0069286835274750651 0 0.021795890775914796 0.012915001683132019 0 0.02814031865806603 0.010028878532063204 0 0.028794911069266165 0.0082539528497501298 0 0.02814031865806603 0.010028878532063204 0 0.029526573121209144 0.0096360591554378559 0 0.028794911069266165 0.0082539528497501298 0 0.029526573121209144 0.0096360591554378559 0 0.029855037277121861 0.0087027938708427541 0 0.028794911069266165 0.0082539528497501298 0 0.0296908259938529 0.0077665065636764513 0 0.029855037277121861 0.0087027938708427541 0 0.028794911069266165 0.0082539528497501298 0 0.028718415555769119 0.0070578946167762103 0 0.0296908259938529 0.0077665065636764513 0 0.029855037277121861 0.0087027938708427541 0 0.030110776599304823 0.0086456319871410989 0 0.029964665698442361 0.0079769329331501326 0 0.0296908259938529 0.0077665065636764513 0 0.029855037277121861 0.0087027938708427541 0 0.029964665698442361 0.0079769329331501326 0 0.030110776599304823 0.0086456319871410989 0 0.030213048820132291 0.0082638712376334016 0 0.029964665698442361 0.0079769329331501326 0 0.029855037277121861 0.0087027938708427541 0 0.029939303756855398 0.0092703657779623881 0 0.030110776599304823 0.0086456319871410989 0 0.029526573121209144 0.0096360591554378559 0 0.029855037277121861 0.0087027938708427541 0 0.029939303756855398 0.0092703657779623881 0 0.029939303756855398 0.0092703657779623881 0 0.03034038772358472 0.0090201614988560264 0 0.030110776599304823 0.0086456319871410989 0 0.03034038772358472 0.0090201614988560264 0 0.030489867910105502 0.0086597043299235423 0 0.030293492955408036 0.0086489200993657579 0 0.03034038772358472 0.0090201614988560264 0 0.030110776599304823 0.0086456319871410989 0 0.030293492955408036 0.0086489200993657579 0 0.03034038772358472 0.0090201614988560264 0 0.030489867910105502 0.0086597043299235423 0 0.030853375326790642 0.0091922993097660003 0 0.030489867910105502 0.0086597043299235423 0 0.030853375326790642 0.0091922993097660003 0 0.030717420841728817 0.0083259906185589126 0 0.030489867910105502 0.0086597043299235423 0 0.02983296097312901 0.0080146919851295448 0 0.030717420841728817 0.0083259906185589126 0 0.026030694149719934 0.010603444876106795 0 0.02408280033554925 0.010438006522761716 0 0.030489867910105502 0.0086597043299235423 0 0.030213048820132291 0.0082638712376334016 0 0.030259005152982056 0.0078903819597670611 0 0.030489867910105502 0.0086597043299235423 0 0.030293492955408036 0.0086489200993657579 0 0.030213048820132291 0.0082638712376334016 0 0.030110776599304823 0.0086456319871410989 0 0.030293492955408036 0.0086489200993657579 0 0.030213048820132291 0.0082638712376334016 0 0.030489867910105502 0.0086597043299235423 0 0.02983296097312901 0.0080146919851295448 0 0.029573809659681687 0.0079622325829377828 0 0.030213048820132291 0.0082638712376334016 0 0.030259005152982056 0.0078903819597670611 0 0.030084937326456031 0.0079478654280220815 0 0.02983296097312901 0.0080146919851295448 0 0.029573809659681687 0.0079622325829377828 0 0.029574620545552543 0.008062873599849172 0 0.0089033258905309321 0.0076849340160458799 0 0.018848842715947119 0.010615220953399706 0 0.02983296097312901 0.0080146919851295448 0 0.03056440717994599 0.0070295014142550466 0 0.030717420841728817 0.0083259906185589126 0 0.017555834128925887 0.0035483464618090619 0 0.0089033258905309321 0.0076849340160458799 0 0.029149407379358967 0.0081360383744641784 0 0.029574620545552543 0.008062873599849172 0 0.029510918951088115 0.0081927847139414596 0 0.02983296097312901 0.0080146919851295448 0 0.029149407379358967 0.0081360383744641784 0 0.029574620545552543 0.008062873599849172 0 0.029573809659681687 0.0079622325829377828 0 0.029574620545552543 0.008062873599849172 0 0.029623866996906369 0.0081950316698460521 0 0.029574620545552543 0.008062873599849172 0 0.029510918951088115 0.0081927847139414596 0 0.029623866996906369 0.0081950316698460521 0 0.029853574815113047 0.0074144771390239825 0 0.029984402642939077 0.0078113845372699778 0 0.029788352189032401 0.0077684627543510099 0 0.015586012321091521 0.007957810241882711 0 0.019926865039139596 0.0059857829254647337 0 0.029573809659681687 0.0079622325829377828 0 0.029623866996906369 0.0081950316698460521 0 0.029787287648987637 0.0081882454773470597 0 0.030629170132317696 0.0043712181524077623 0 0.030018714483133639 0.0049406644788821284 0 0.030241294868545231 0.0057787502294227707 0 0.02408280033554925 0.010438006522761716 0 0.015586012321091521 0.007957810241882711 0 0.030259005152982056 0.0078903819597670611 0 0.029853574815113047 0.0074144771390239825 0 0.029984402642939077 0.0078113845372699778 0 0.030629170132317696 0.0043712181524077623 0 0.030018714483133639 0.0049406644788821284 0 0.030293245730049812 0.0039344784864691496 0 0.0022533331539216746 0.010638103917502716 0 0.0022827816917056565 0.0096661061924194613 0 0.0031642401781122346 0.0097643926967073726 0 0.011546545182607823 0.0091624206221036925 0 0.012453822738814751 0.0077771693326000304 0 0.029134537092033268 0.0050319004768942495 0 0.030018714483133639 0.0049406644788821284 0 0.030293245730049812 0.0039344784864691496 0 0.029134537092033268 0.0050319004768942495 0 0.030018714483133639 0.0049406644788821284 0 0.030241294868545231 0.0057787502294227707 0 0.0296908259938529 0.0077665065636764513 0 0.028910478041271077 0.0062750331696964593 0 0.030241294868545231 0.0057787502294227707 0 0.021138187088851876 0.0057630505937264816 0 0.019926865039139596 0.0059857829254647337 0 0.029134537092033268 0.0050319004768942495 0 0.028910478041271077 0.0062750331696964593 0 0.030241294868545231 0.0057787502294227707 0 0.028718415555769119 0.0070578946167762103 0 0.0296908259938529 0.0077665065636764513 0 0.028910478041271077 0.0062750331696964593 0 0.0296908259938529 0.0077665065636764513 0 0.029964665698442361 0.0079769329331501326 0 0.029788352189032401 0.0077684627543510099 0 0.030084937326456031 0.0079478654280220815 0 0.029964665698442361 0.0079769329331501326 0 0.029984402642939077 0.0078113845372699778 0 0.030213048820132291 0.0082638712376334016 0 0.030084937326456031 0.0079478654280220815 0 0.029964665698442361 0.0079769329331501326 0 0.030259005152982056 0.0078903819597670611 0 0.030084937326456031 0.0079478654280220815 0 0.029984402642939077 0.0078113845372699778 0 0.029964665698442361 0.0079769329331501326 0 0.029984402642939077 0.0078113845372699778 0 0.029788352189032401 0.0077684627543510099 0 0.015801456491841465 0.013278136675661391 0 0.017261347475801343 0.013487342701728194 0 0.017221121975952231 0.011978365982613304 0 0.017261347475801343 0.013487342701728194 0 0.017221121975952231 0.011978365982613304 0 0.018937559887986264 0.012998401739666522 0 0.017221121975952231 0.011978365982613304 0 0.019726932181514133 0.011749644653849971 0 0.018937559887986264 0.012998401739666522 0 0.017261347475801343 0.013487342701728194 0 0.018937559887986264 0.012998401739666522 0 0.01857839215788849 0.01414518988105253 0 0.018937559887986264 0.012998401739666522 0 0.020128333129568358 0.013638106628921051 0 0.01857839215788849 0.01414518988105253 0 0.018937559887986264 0.012998401739666522 0 0.020128333129568358 0.013638106628921051 0 0.020199661562469731 0.012236306553420258 0 0.020128333129568358 0.013638106628921051 0 0.020199661562469731 0.012236306553420258 0 0.020902058229972199 0.012765570969501924 0 0.020593257026048445 0.011958475732514882 0 0.02134639163553937 0.011517181585048421 0 0.021499243864542453 0.010729576824120828 0 0.019726932181514133 0.011749644653849971 0 0.021433651925214705 0.012536802913281941 0 0.019726932181514133 0.011749644653849971 0 0.018937559887986264 0.012998401739666522 0 0.021433651925214705 0.012536802913281941 0 0.020199661562469731 0.012236306553420258 0 0.021575263750839072 0.011489319734563075 0 0.020902058229972199 0.012765570969501924 0 0.021575263750839072 0.011489319734563075 0 0.020902058229972199 0.012765570969501924 0 0.021710256745790697 0.0137122292384103 0 0.02134639163553937 0.011517181585048421 0 0.023107607242061481 0.010365038133689162 0 0.023107607242061481 0.010365038133689162 0 0.018848842715947119 0.010615220953399706 0 0.020128333129568358 0.013638106628921051 0 0.020902058229972199 0.012765570969501924 0 0.021710256745790697 0.0137122292384103 0 0.020128333129568358 0.013638106628921051 0 0.021710256745790697 0.0137122292384103 0 0.020679311568877205 0.014954301526693773 0 0.02192144660471243 0.016226457309719756 0 0.021710256745790697 0.0137122292384103 0 0.020679311568877205 0.014954301526693773 0 0.02192144660471243 0.016226457309719756 0 0.020679311568877205 0.014954301526693773 0 0.019829158316478256 0.016400432482681988 0 0.019829158316478256 0.016400432482681988 0 0.019454901282004861 0.015022810321343078 0 0.01817542298252544 0.015720920324404308 0 0.020679311568877205 0.014954301526693773 0 0.019829158316478256 0.016400432482681988 0 0.019454901282004861 0.015022810321343078 0 0.020128333129568358 0.013638106628921051 0 0.020679311568877205 0.014954301526693773 0 0.019454901282004861 0.015022810321343078 0 0.020128333129568358 0.013638106628921051 0 0.019454901282004861 0.015022810321343078 0 0.01857839215788849 0.01414518988105253 0 0.019454901282004861 0.015022810321343078 0 0.01857839215788849 0.01414518988105253 0 0.01817542298252544 0.015720920324404308 0 0.01857839215788849 0.01414518988105253 0 0.01817542298252544 0.015720920324404308 0 0.017403736827241337 0.01452005276678496 0 0.017261347475801343 0.013487342701728194 0 0.01857839215788849 0.01414518988105253 0 0.017403736827241337 0.01452005276678496 0 0.019829158316478256 0.016400432482681988 0 0.01817542298252544 0.015720920324404308 0 0.018474821477695726 0.017718958741303227 0 0.01817542298252544 0.015720920324404308 0 0.016667458764149268 0.015428158947247941 0 0.017403736827241337 0.01452005276678496 0 0.01817542298252544 0.015720920324404308 0 0.016667458764149268 0.015428158947247941 0 0.017006821211231048 0.017068500323348102 0 0.016667458764149268 0.015428158947247941 0 0.016190895927232461 0.014089709789435615 0 0.017403736827241337 0.01452005276678496 0 0.015801456491841465 0.013278136675661391 0 0.017261347475801343 0.013487342701728194 0 0.016190895927232461 0.014089709789435615 0 0.015166953182653284 0.0149962519519068 0 0.016667458764149268 0.015428158947247941 0 0.016190895927232461 0.014089709789435615 0 0.017261347475801343 0.013487342701728194 0 0.016190895927232461 0.014089709789435615 0 0.017403736827241337 0.01452005276678496 0 0.015067372779219016 0.017954235636028576 0 0.016850155591089797 0.018639014346007718 0 0.016050081233752105 0.020418907260948586 0 0.0098693367438658832 0.01864976390762518 0 0.012248650530715513 0.016488802091154092 0 0.015067372779219016 0.017954235636028576 0 0.016667458764149268 0.015428158947247941 0 0.017006821211231048 0.017068500323348102 0 0.015067372779219016 0.017954235636028576 0 0.016850155591089797 0.018639014346007718 0 0.017006821211231048 0.017068500323348102 0 0.016850155591089797 0.018639014346007718 0 0.017006821211231048 0.017068500323348102 0 0.018474821477695726 0.017718958741303227 0 0.01817542298252544 0.015720920324404308 0 0.017006821211231048 0.017068500323348102 0 0.018474821477695726 0.017718958741303227 0 0.016850155591089797 0.018639014346007718 0 0.018865188363465405 0.020356329414583658 0 0.016050081233752105 0.020418907260948586 0 0.016850155591089797 0.018639014346007718 0 0.018474821477695726 0.017718958741303227 0 0.018865188363465405 0.020356329414583658 0 -0.023439837403587432 0.005484138201588838 0 -0.023599668662109156 0.0065421101835895622 0 -0.024300447806386127 0.006579384024881809 0 0.018474821477695726 0.017718958741303227 0 0.020502359863029493 0.018195344159495357 0 0.018865188363465405 0.020356329414583658 0 0.0007916736803907418 0.011761728100460925 0 -0.0035087333974541698 0.012672832368113476 0 0.019829158316478256 0.016400432482681988 0 0.018474821477695726 0.017718958741303227 0 0.020502359863029493 0.018195344159495357 0 0.0089033258905309321 0.0076849340160458799 0 0.0007916736803907418 0.011761728100460925 0 0.02192144660471243 0.016226457309719756 0 0.019829158316478256 0.016400432482681988 0 0.020502359863029493 0.018195344159495357 0 -0.022458795421637662 0.0043852252346152651 0 -0.023439837403587432 0.005484138201588838 0 -0.022512581938514468 0.0056905918750516519 0 -0.023439837403587432 0.005484138201588838 0 -0.023005679054420108 0.0063381081828333373 0 -0.022512581938514468 0.0056905918750516519 0 -0.023439837403587432 0.005484138201588838 0 -0.023005679054420108 0.0063381081828333373 0 -0.023599668662109156 0.0065421101835895622 0 -0.023005679054420108 0.0063381081828333373 0 -0.022512581938514468 0.0056905918750516519 0 -0.022548006910105563 0.0070032783426338266 0 -0.023005679054420108 0.0063381081828333373 0 -0.023181007042063113 0.0070247577701568649 0 -0.023599668662109156 0.0065421101835895622 0 -0.023005679054420108 0.0063381081828333373 0 -0.023181007042063113 0.0070247577701568649 0 -0.022548006910105563 0.0070032783426338266 0 -0.012360181385121946 0.009927078243801974 0 -0.010225340306027132 0.0099468660648448955 0 -0.023181007042063113 0.0070247577701568649 0 -0.023613122166552779 0.007741437947791063 0 -0.022591634952451235 0.0070010772718968458 0 -0.018405978720350002 0.011474408979432943 0 -0.010225340306027132 0.0099468660648448955 0 -0.023181007042063113 0.0070247577701568649 0 -0.023613122166552779 0.007741437947791063 0 -0.023963530683813905 0.0071768540079117362 0 -0.02571303070877359 0.0089390460828271089 0 -0.026621795311319713 0.0098461527415377101 0 -0.026703262066833947 0.0081787231904849166 0 -0.023613122166552779 0.007741437947791063 0 -0.023963530683813905 0.0071768540079117362 0 -0.024431092216638278 0.0077210006676805996 0 -0.023963530683813905 0.0071768540079117362 0 -0.023599668662109156 0.0065421101835895622 0 -0.024300447806386127 0.006579384024881809 0 -0.023181007042063113 0.0070247577701568649 0 -0.023963530683813905 0.0071768540079117362 0 -0.023599668662109156 0.0065421101835895622 0 -0.0035087333974541698 0.012672832368113476 0 -0.0080947945704132607 0.012931562103586161 0 0.018865188363465405 0.020356329414583658 0 0.017023736928781796 0.022617494009905505 0 0.016050081233752105 0.020418907260948586 0 -0.023963530683813905 0.0071768540079117362 0 -0.024300447806386127 0.006579384024881809 0 -0.024890926716693261 0.0075189535909182979 0 -0.023963530683813905 0.0071768540079117362 0 -0.024431092216638278 0.0077210006676805996 0 -0.024890926716693261 0.0075189535909182979 0 -0.024431092216638278 0.0077210006676805996 0 -0.024890926716693261 0.0075189535909182979 0 -0.024717797771219296 0.0079056337393480867 0 0.014505596016741293 0.022767274648536208 0 0.017023736928781796 0.022617494009905505 0 0.016050081233752105 0.020418907260948586 0 0.014505596016741293 0.022767274648536208 0 0.015083971906653577 0.024885754812035896 0 0.017023736928781796 0.022617494009905505 0 0.011667556838558203 0.00684535754585428 0 0.0081270129023841113 0.0083444588422729882 0 0.0011137944577842189 0.0067800390358618854 0 0.00097865142644956802 0.0054831145276170046 0 0.00019236345077704181 0.0077972111628489072 0 0.0015569777296149056 0.0063347359827030164 0 0.0011137944577842189 0.0067800390358618854 0 0.00097865142644956802 0.0054831145276170046 0 0.0015569777296149056 0.0063347359827030164 0 0.0011137944577842189 0.0067800390358618854 0 0.0017215897967204556 0.0075000432272191633 0 0.0034441524152759345 0.0071592603862700123 0 0.002563938634809504 0.0060060944662523935 0 0.0017215897967204556 0.0075000432272191633 0 0.0015569777296149056 0.0063347359827030164 0 0.002563938634809504 0.0060060944662523935 0 0.0017215897967204556 0.0075000432272191633 0 -0.0059896992664772962 0.0055817490651042141 0 0.003157696177649094 0.0067852664625574523 0 0.003157696177649094 0.0067852664625574523 0 0.012453822738814751 0.0077771693326000304 0 0.0015569777296149056 0.0063347359827030164 0 0.002563938634809504 0.0060060944662523935 0 0.0016719060248397909 0.0048259157091483729 0 0.0023927159139952442 0.0087913085060267772 0 0.0022827816917056565 0.0096661061924194613 0 0.0031642401781122346 0.0097643926967073726 0 0.0013236296587207739 0.0094679068297265061 0 0.0023927159139952442 0.0087913085060267772 0 0.0022827816917056565 0.0096661061924194613 0 0.015586012321091521 0.007957810241882711 0 0.012453822738814751 0.0077771693326000304 0 0.015586012321091521 0.007957810241882711 0 0.011667556838558203 0.00684535754585428 0 0.012453822738814751 0.0077771693326000304 0 0.011667556838558203 0.00684535754585428 0 0.0015569777296149056 0.0063347359827030164 0 0.0016719060248397909 0.0048259157091483729 0 0.00097865142644956802 0.0054831145276170046 0 0.014414494282023427 0.0056729939086084249 0 0.015303468984084292 0.0068152949692787982 0 0.01344615409173586 0.0086061447050656947 0 0.029623866996906369 0.0081950316698460521 0 0.029787287648987637 0.0081882454773470597 0 0.029747770857051908 0.0084024756249299198 0 0.029623866996906369 0.0081950316698460521 0 0.029747770857051908 0.0084024756249299198 0 0.029459269467378722 0.0084381666040633848 0 0.029510918951088115 0.0081927847139414596 0 0.029623866996906369 0.0081950316698460521 0 0.029459269467378722 0.0084381666040633848 0 0.0089033258905309321 0.0076849340160458799 0 0.0003313100717230211 0.0078960340677839899 0 0.029149407379358967 0.0081360383744641784 0 0.029459269467378722 0.0084381666040633848 0 0.029018925999280767 0.0085935220208987074 0 0.029149407379358967 0.0081360383744641784 0 0.029510918951088115 0.0081927847139414596 0 0.029459269467378722 0.0084381666040633848 0 0.029459269467378722 0.0084381666040633848 0 0.029018925999280767 0.0085935220208987074 0 0.029425545941857759 0.0087507420774560786 0 0.029018925999280767 0.0085935220208987074 0 0.029425545941857759 0.0087507420774560786 0 0.028957527013609291 0.0091400355949853695 0 0.029747770857051908 0.0084024756249299198 0 0.029459269467378722 0.0084381666040633848 0 0.029425545941857759 0.0087507420774560786 0 0.011667556838558203 0.00684535754585428 0 0.0062750612043762938 0.0056243591071313461 0 0.0011896990591790293 0.0050306439565107721 0 -0.00053585170418135608 0.0066511695596968732 0 0.00019236345077704181 0.0077972111628489072 0 -0.00053585170418135608 0.0066511695596968732 0 -4.6134571038124036e-05 0.0078991266546540959 0 -0.0022355177327602945 0.0082978003697151692 0 -0.00053585170418135608 0.0066511695596968732 0 0.00019236345077704181 0.0077972111628489072 0 -4.6134571038124036e-05 0.0078991266546540959 0 -0.031787296322612908 0.0066666116333571586 0 -0.031171808270150612 0.0062418445776393173 0 -0.030430694178886476 0.0064464874504648511 0 0.0062750612043762938 0.0056243591071313461 0 -0.0090425623823692722 0.0093933832825666679 0 0.029018925999280767 0.0085935220208987074 0 0.028910661751033625 0.0091746261847310082 0 0.028957527013609291 0.0091400355949853695 0 0.0003313100717230211 0.0078960340677839899 0 -0.010225340306027132 0.0099468660648448955 0 -0.016970270682531034 0.0068017398282078324 0 -0.0090425623823692722 0.0093933832825666679 0 -0.031171808270150612 0.0062418445776393173 0 -0.030335360723934456 0.0063550084530015717 0 -0.030430694178886476 0.0064464874504648511 0 -0.010225340306027132 0.0099468660648448955 0 -0.0090425623823692722 0.0093933832825666679 0 -0.010225340306027132 0.0099468660648448955 0 -0.023313451742756494 0.0067000329565502581 0 -0.031171808270150612 0.0062418445776393173 0 -0.030335360723934456 0.0063550084530015717 0 -0.031031542024395828 0.0053097734325966896 0 -0.030335360723934456 0.0063550084530015717 0 -0.031031542024395828 0.0053097734325966896 0 -0.030452757970916847 0.0045299306445443846 0 -0.031787296322612908 0.0066666116333571586 0 -0.031171808270150612 0.0062418445776393173 0 -0.031890318340733012 0.005051681235135907 0 -0.016970270682531034 0.0068017398282078324 0 -0.024093510093435383 0.0049597202262460401 0 -0.031171808270150612 0.0062418445776393173 0 -0.031031542024395828 0.0053097734325966896 0 -0.031890318340733012 0.005051681235135907 0 -0.024464606969891663 0.0044785415039181181 0 -0.024299787381191554 0.0046144558100431341 0 -0.024483623390052733 0.004726934396992068 0 -0.024464606969891663 0.0044785415039181181 0 -0.024299787381191554 0.0046144558100431341 0 -0.024243128495814704 0.0044274931608737659 0 -0.016970270682531034 0.0068017398282078324 0 -0.011452744653132325 0.0061440095632492742 0 0.0011137944577842189 0.0067800390358618854 0 0.00019236345077704181 0.0077972111628489072 0 0.0017215897967204556 0.0075000432272191633 0 0.00019236345077704181 0.0077972111628489072 0 -4.6134571038124036e-05 0.0078991266546540959 0 0.0017215897967204556 0.0075000432272191633 0 -0.023991741302708657 0.0043809942639800063 0 -0.024243128495814704 0.0044274931608737659 0 -0.0240952975507914 0.0044988583127111926 0 -0.0059896992664772962 0.0055817490651042141 0 -0.011452744653132325 0.0061440095632492742 0 -0.024299787381191554 0.0046144558100431341 0 -0.024243128495814704 0.0044274931608737659 0 -0.0240952975507914 0.0044988583127111926 0 -0.024299787381191554 0.0046144558100431341 0 -0.0240952975507914 0.0044988583127111926 0 -0.02411921324961858 0.0047399463671288005 0 -0.02411921324961858 0.0047399463671288005 0 -0.024300968374015644 0.0048782243057759744 0 -0.024362615422723371 0.0048102572203190036 0 -0.01587629344254108 0.0065877488667744821 0 -0.019253598332103064 0.005138559890609704 0 -0.024299787381191554 0.0046144558100431341 0 -0.02411921324961858 0.0047399463671288005 0 -0.024362615422723371 0.0048102572203190036 0 -0.016547787261911175 0.0054374239173513948 0 -0.016051599741831124 0.0045221723746752393 0 -0.016726653934747787 0.0044516695786455257 0 -0.016051599741831124 0.0045221723746752393 0 -0.016304178642879637 0.0038564199984848909 0 -0.016726653934747787 0.0044516695786455257 0 -0.024452081195145307 0.0048825495855714879 0 -0.024362615422723371 0.0048102572203190036 0 -0.024458174039072904 0.0050097426981183827 0 -0.024300968374015644 0.0048782243057759744 0 -0.024452081195145307 0.0048825495855714879 0 -0.024441085429269815 0.0049413044614740531 0 -0.024300968374015644 0.0048782243057759744 0 -0.024452081195145307 0.0048825495855714879 0 -0.024362615422723371 0.0048102572203190036 0 -0.024299787381191554 0.0046144558100431341 0 -0.024362615422723371 0.0048102572203190036 0 -0.024483623390052733 0.004726934396992068 0 -0.031890318340733012 0.005051681235135907 0 -0.031306885954054786 0.0043612778084032196 0 -0.032024317162634229 0.0034070028324431388 0 -0.024093510093435383 0.0049597202262460401 0 -0.028851457435391081 0.0037261332363274463 0 -0.024362615422723371 0.0048102572203190036 0 -0.024483623390052733 0.004726934396992068 0 -0.024458174039072904 0.0050097426981183827 0 -0.031031542024395828 0.0053097734325966896 0 -0.031890318340733012 0.005051681235135907 0 -0.031306885954054786 0.0043612778084032196 0 -0.031031542024395828 0.0053097734325966896 0 -0.031306885954054786 0.0043612778084032196 0 -0.030452757970916847 0.0045299306445443846 0 -0.023313451742756494 0.0067000329565502581 0 -0.032452804695249915 0.0051890493936617129 0 -0.030452757970916847 0.0045299306445443846 0 -0.031202816945971844 0.0034827723584402682 0 -0.030594736864288208 0.0026666210096161361 0 -0.026703262066833947 0.0081787231904849166 0 -0.02638804128901134 0.0075699677661051406 0 -0.026697326884838599 0.0073990360533813916 0 -0.031306885954054786 0.0043612778084032196 0 -0.030452757970916847 0.0045299306445443846 0 -0.031202816945971844 0.0034827723584402682 0 -0.031306885954054786 0.0043612778084032196 0 -0.031202816945971844 0.0034827723584402682 0 -0.032024317162634229 0.0034070028324431388 0 -0.024452081195145307 0.0048825495855714879 0 -0.024458174039072904 0.0050097426981183827 0 -0.024540404503677404 0.0047119429578494562 0 -0.024458174039072904 0.0050097426981183827 0 -0.024540404503677404 0.0047119429578494562 0 -0.024598333272470393 0.0022462819723304138 0 -0.028851457435391081 0.0037261332363274463 0 -0.033970347361452623 0.0017654448447671153 0 -0.024540404503677404 0.0047119429578494562 0 -0.024932938768769813 0.0033281794030629815 0 -0.024598333272470393 0.0022462819723304138 0 -0.032024317162634229 0.0034070028324431388 0 -0.031443631577209925 0.0025877368030883326 0 -0.032151201032002953 0.0017299158456118139 0 -0.031202816945971844 0.0034827723584402682 0 -0.032024317162634229 0.0034070028324431388 0 -0.031443631577209925 0.0025877368030883326 0 -0.031202816945971844 0.0034827723584402682 0 -0.031443631577209925 0.0025877368030883326 0 -0.030594736864288208 0.0026666210096161361 0 -0.031443631577209925 0.0025877368030883326 0 -0.030594736864288208 0.0026666210096161361 0 -0.031337506713981771 0.0017442347070099628 0 -0.02638804128901134 0.0075699677661051406 0 -0.02818088902068332 0.0094768526109275976 0 -0.025665478425537257 0.013884014617940872 0 -0.032452804695249915 0.0051890493936617129 0 -0.04467331200494494 0.00022043153373802737 0 -0.030594736864288208 0.0026666210096161361 0 -0.031337506713981771 0.0017442347070099628 0 -0.030735019142632276 0.00078842499364397702 0 -0.031337506713981771 0.0017442347070099628 0 -0.031541107823842153 0.00096084809124483226 0 -0.030735019142632276 0.00078842499364397702 0 -0.024932938768769813 0.0033281794030629815 0 -0.024598333272470393 0.0022462819723304138 0 -0.02510235306219288 0.0028046289789823327 0 -0.024598333272470393 0.0022462819723304138 0 -0.025401266331965846 0.002230107936893341 0 -0.02510235306219288 0.0028046289789823327 0 -0.031443631577209925 0.0025877368030883326 0 -0.031337506713981771 0.0017442347070099628 0 -0.032151201032002953 0.0017299158456118139 0 -0.031337506713981771 0.0017442347070099628 0 -0.031780958521495623 0.0012776433857773334 0 -0.031541107823842153 0.00096084809124483226 0 -0.031337506713981771 0.0017442347070099628 0 -0.032151201032002953 0.0017299158456118139 0 -0.031780958521495623 0.0012776433857773334 0 -0.025665710359303345 0.0012318675656754045 0 -0.027013854666818472 0.0010367837361660052 0 -0.025608819512250757 -0.00025239321006177826 0 -0.025401266331965846 0.002230107936893341 0 -0.027013854666818472 0.0010367837361660052 0 -0.026643618816305576 0.0043959310042872039 0 -0.027013854666818472 0.0010367837361660052 0 -0.02958560892699489 0.0018983323315485182 0 -0.026643618816305576 0.0043959310042872039 0 -0.025665710359303345 0.0012318675656754045 0 -0.025401266331965846 0.002230107936893341 0 -0.027013854666818472 0.0010367837361660052 0 -0.024598333272470393 0.0022462819723304138 0 -0.025665710359303345 0.0012318675656754045 0 -0.025608819512250757 -0.00025239321006177826 0 -0.024598333272470393 0.0022462819723304138 0 -0.025665710359303345 0.0012318675656754045 0 -0.025401266331965846 0.002230107936893341 0 -0.025401266331965846 0.002230107936893341 0 -0.02510235306219288 0.0028046289789823327 0 -0.025980536140226908 0.0036029242359360693 0 -0.022539320274836391 0.0038612346969045374 0 -0.022223293003746404 0.0038203446716459648 0 -0.027013854666818472 0.0010367837361660052 0 -0.02958560892699489 0.0018983323315485182 0 -0.028020762827057278 -0.00022884349099532348 0 -0.022053667758104287 0.0016329410856698837 0 -0.022223293003746404 0.0038203446716459648 0 -0.016328995822364193 0.002919340323330597 0 -0.016304178642879637 0.0038564199984848909 0 -0.015542293822934171 0.003601076425018594 0 -0.016051599741831124 0.0045221723746752393 0 -0.016304178642879637 0.0038564199984848909 0 -0.015542293822934171 0.003601076425018594 0 -0.016328995822364193 0.002919340323330597 0 -0.016304178642879637 0.0038564199984848909 0 -0.016870738328817303 0.0037753903584933413 0 -0.019253598332103064 0.005138559890609704 0 -0.022223293003746404 0.0038203446716459648 0 -0.024540404503677404 0.0047119429578494562 0 -0.024932938768769813 0.0033281794030629815 0 -0.025980536140226908 0.0036029242359360693 0 -0.024452081195145307 0.0048825495855714879 0 -0.024540404503677404 0.0047119429578494562 0 -0.024441085429269815 0.0049413044614740531 0 -0.022721003384440473 0.003679913796018603 0 -0.022223293003746404 0.0038203446716459648 0 -0.024932938768769813 0.0033281794030629815 0 -0.02510235306219288 0.0028046289789823327 0 -0.025980536140226908 0.0036029242359360693 0 -0.016791351839730202 0.014141791220099073 0 -0.026393730555592916 0.0092514050678886295 0 -0.044402789818065523 0.00035287675942405561 0 -0.037996275271092297 0.004657627389021572 0 -0.041297018254901702 0.0050099620092190341 0 -0.021194251963532466 0.0146950964485497 0 -0.033144991124004097 0.0072952749255397889 0 -0.038245904235427369 0.0043488247310156988 0 -0.034712068368263835 0.0046900821799455749 0 -0.035107227083056747 0.0065651384139445686 0 -0.038245904235427369 0.0043488247310156988 0 -0.037682566463349228 0.0036614231062973581 0 -0.034712068368263835 0.0046900821799455749 0 -0.016791351839730202 0.014141791220099073 0 -0.0080947945704132607 0.012931562103586161 0 -0.025090669258030981 0.0080228608122161864 0 -0.024890926716693261 0.0075189535909182979 0 -0.024717797771219296 0.0079056337393480867 0 -0.025090669258030981 0.0080228608122161864 0 -0.024717797771219296 0.0079056337393480867 0 -0.024614281758354433 0.0080581932830565538 0 -0.024717797771219296 0.0079056337393480867 0 -0.024741704741864681 0.0081106709992358073 0 -0.024614281758354433 0.0080581932830565538 0 -0.024431092216638278 0.0077210006676805996 0 -0.024717797771219296 0.0079056337393480867 0 -0.024741704741864681 0.0081106709992358073 0 -0.034712068368263835 0.0046900821799455749 0 -0.031327791075607084 0.0057192254512094748 0 -0.035107227083056747 0.0065651384139445686 0 -0.024741704741864681 0.0081106709992358073 0 -0.024614281758354433 0.0080581932830565538 0 -0.025328833525350928 0.0075202798447495276 0 -0.026393730555592916 0.0092514050678886295 0 -0.027796308656817429 0.0080526864247123294 0 -0.025328833525350928 0.0075202798447495276 0 -0.02562829346174892 0.0082124709424151038 0 -0.026151080604707409 0.0078489922227866823 0 -0.024741704741864681 0.0081106709992358073 0 -0.025328833525350928 0.0075202798447495276 0 -0.02562829346174892 0.0082124709424151038 0 -0.02571303070877359 0.0089390460828271089 0 -0.024741704741864681 0.0081106709992358073 0 -0.02562829346174892 0.0082124709424151038 0 -0.023613122166552779 0.007741437947791063 0 -0.024431092216638278 0.0077210006676805996 0 -0.024741704741864681 0.0081106709992358073 0 -0.018405978720350002 0.011474408979432943 0 -0.020184212677762454 0.01134155656079458 0 -0.02571303070877359 0.0089390460828271089 0 -0.026703262066833947 0.0081787231904849166 0 -0.02562829346174892 0.0082124709424151038 0 -0.026703262066833947 0.0081787231904849166 0 -0.02562829346174892 0.0082124709424151038 0 -0.026151080604707409 0.0078489922227866823 0 -0.026703262066833947 0.0081787231904849166 0 -0.026151080604707409 0.0078489922227866823 0 -0.026697326884838599 0.0073990360533813916 0 -0.025328833525350928 0.0075202798447495276 0 -0.026151080604707409 0.0078489922227866823 0 -0.026697326884838599 0.0073990360533813916 0 -0.031327791075607084 0.0057192254512094748 0 -0.026697326884838599 0.0073990360533813916 0 -0.029450786147272364 0.0079903365317330298 0 -0.029450786147272364 0.0079903365317330298 0 -0.02818088902068332 0.0094768526109275976 0 -0.031603674894768605 0.0092692079486945533 0 -0.027796308656817429 0.0080526864247123294 0 -0.027583384899308363 0.0079343238033448508 0 -0.02638804128901134 0.0075699677661051406 0 -0.026697326884838599 0.0073990360533813916 0 -0.02818088902068332 0.0094768526109275976 0 -0.026697326884838599 0.0073990360533813916 0 -0.029450786147272364 0.0079903365317330298 0 -0.02818088902068332 0.0094768526109275976 0 -0.02818088902068332 0.0094768526109275976 0 -0.029487976223001394 0.012073170844461883 0 -0.031603674894768605 0.0092692079486945533 0 -0.02818088902068332 0.0094768526109275976 0 -0.029487976223001394 0.012073170844461883 0 -0.025665478425537257 0.013884014617940872 0 -0.031603674894768605 0.0092692079486945533 0 -0.03393431127860784 0.011321835542503298 0 -0.036534092191776807 0.0100056269284865 0 -0.029487976223001394 0.012073170844461883 0 -0.031603674894768605 0.0092692079486945533 0 -0.032483992300916947 0.01277375035384368 0 -0.031603674894768605 0.0092692079486945533 0 -0.032483992300916947 0.01277375035384368 0 -0.03393431127860784 0.011321835542503298 0 -0.032483992300916947 0.01277375035384368 0 -0.03393431127860784 0.011321835542503298 0 -0.034506751646939095 0.01268050141187713 0 -0.031327791075607084 0.0057192254512094748 0 -0.031603674894768605 0.0092692079486945533 0 -0.035107227083056747 0.0065651384139445686 0 -0.031327791075607084 0.0057192254512094748 0 -0.029450786147272364 0.0079903365317330298 0 -0.031603674894768605 0.0092692079486945533 0 -0.033054492443440289 0.0075593031811957328 0 -0.033144991124004097 0.0072952749255397889 0 -0.031603674894768605 0.0092692079486945533 0 -0.037410197370265158 0.0074518597486005998 0 -0.036534092191776807 0.0100056269284865 0 -0.031603674894768605 0.0092692079486945533 0 -0.037996275271092297 0.004657627389021572 0 -0.037410197370265158 0.0074518597486005998 0 -0.037410197370265158 0.0074518597486005998 0 -0.036534092191776807 0.0100056269284865 0 -0.040177877999927496 0.0082574568095752764 0 -0.03393431127860784 0.011321835542503298 0 -0.036945739823360295 0.012260661307796085 0 -0.036534092191776807 0.0100056269284865 0 -0.03393431127860784 0.011321835542503298 0 -0.034506751646939095 0.01268050141187713 0 -0.036945739823360295 0.012260661307796085 0 -0.036945739823360295 0.012260661307796085 0 -0.036534092191776807 0.0100056269284865 0 -0.039708630323478038 0.010765071937540652 0 -0.036534092191776807 0.0100056269284865 0 -0.039708630323478038 0.010765071937540652 0 -0.040177877999927496 0.0082574568095752764 0 -0.039708630323478038 0.010765071937540652 0 -0.042440571313004931 0.0097284142052569342 0 -0.040177877999927496 0.0082574568095752764 0 -0.036945739823360295 0.012260661307796085 0 -0.039708630323478038 0.010765071937540652 0 -0.04250808480118904 0.01359034399318328 0 -0.039708630323478038 0.010765071937540652 0 -0.042440571313004931 0.0097284142052569342 0 -0.04250808480118904 0.01359034399318328 0 -0.043474871013780891 0.006238437441371654 0 -0.042440571313004931 0.0097284142052569342 0 -0.040177877999927496 0.0082574568095752764 0 -0.037410197370265158 0.0074518597486005998 0 -0.040177877999927496 0.0082574568095752764 0 -0.041297018254901702 0.0050099620092190341 0 -0.037996275271092297 0.004657627389021572 0 -0.037410197370265158 0.0074518597486005998 0 -0.041297018254901702 0.0050099620092190341 0 -0.043474871013780891 0.006238437441371654 0 -0.040177877999927496 0.0082574568095752764 0 -0.041297018254901702 0.0050099620092190341 0 -0.043474871013780891 0.006238437441371654 0 -0.043940479337933346 0.0038785266622508494 0 -0.041297018254901702 0.0050099620092190341 0 -0.09684013428036313 -0.0026885996903067721 0 -0.097056593101065874 -0.002735739790758676 0 -0.097097950697708352 -0.0027976225287791021 0 -0.097056593101065874 -0.002735739790758676 0 -0.097097950697708352 -0.0027976225287791021 0 -0.097147214980739902 -0.0028326095988933735 0 -0.088610905816574811 -0.0032334643811235213 0 -0.089907417185434602 -0.0082894017746598658 0 -0.080835159355323302 -0.0069079832137703802 0 -0.088610905816574811 -0.0032334643811235213 0 -0.080835159355323302 -0.0069079832137703802 0 -0.07978970429625358 -0.0049251601467398855 0 -0.066451950370077853 0.0040383749508292694 0 -0.065540890119268419 0.00040867313310818449 0 -0.088884966709920299 -0.00074881686916906367 0 -0.069959361199705111 -0.0015242957144593636 0 -0.036945739823360295 0.012260661307796085 0 -0.04250808480118904 0.01359034399318328 0 -0.034250811314357595 0.01464143743453945 0 -0.034506751646939095 0.01268050141187713 0 -0.036945739823360295 0.012260661307796085 0 -0.034250811314357595 0.01464143743453945 0 -0.097056593101065874 -0.002735739790758676 0 -0.09711970036275322 -0.0027751835085012971 0 -0.097147214980739902 -0.0028326095988933735 0 -0.069959361199705111 -0.0015242957144593636 0 -0.073873789038782903 -0.002950364161517869 0 -0.09711970036275322 -0.0027751835085012971 0 -0.097131741590724588 -0.00285765106402032 0 -0.097147214980739902 -0.0028326095988933735 0 -0.061817923173755993 0.0015688064064734069 0 -0.062761401249424018 0.0017699122429539426 0 -0.062499358500807005 0.00025468491024793852 0 -0.065540890119268419 0.00040867313310818449 0 -0.055058135335162801 -1.8699015750053319e-05 0 -0.032483992300916947 0.01277375035384368 0 -0.034250811314357595 0.01464143743453945 0 -0.029696176188947168 0.014977452315492116 0 -0.067986516660046681 -0.0024219877772115738 0 -0.066721066667867548 -1.6868930958689477e-05 0 -0.060968426353062759 -0.0012300049573475615 0 -0.065540890119268419 0.00040867313310818449 0 -0.069959361199705111 -0.0015242957144593636 0 -0.032483992300916947 0.01277375035384368 0 -0.034506751646939095 0.01268050141187713 0 -0.034250811314357595 0.01464143743453945 0 -0.029487976223001394 0.012073170844461883 0 -0.032483992300916947 0.01277375035384368 0 -0.029696176188947168 0.014977452315492116 0 -0.069959361199705111 -0.0015242957144593636 0 -0.055058135335162801 -1.8699015750053319e-05 0 -0.050833850048751066 0.001599015919252601 0 -0.048196357447280826 0.0010472578026869794 0 -0.048161953989521306 0.0020551006840742411 0 -0.062761401249424018 0.0017699122429539426 0 -0.063299114211664204 0.00083042122871307758 0 -0.063922779259710905 0.0015630938473100546 0 -0.055058135335162801 -1.8699015750053319e-05 0 -0.048128680101684362 0.00043272879410475294 0 -0.055058135335162801 -1.8699015750053319e-05 0 -0.04467331200494494 0.00022043153373802737 0 -0.029487976223001394 0.012073170844461883 0 -0.029696176188947168 0.014977452315492116 0 -0.025665478425537257 0.013884014617940872 0 -0.062761401249424018 0.0017699122429539426 0 -0.063299114211664204 0.00083042122871307758 0 -0.062499358500807005 0.00025468491024793852 0 -0.06318793178291944 -0.0010594478045342125 0 -0.062499358500807005 0.00025468491024793852 0 -0.064012535496407605 -0.00026842538174410457 0 -0.063299114211664204 0.00083042122871307758 0 -0.062499358500807005 0.00025468491024793852 0 -0.064012535496407605 -0.00026842538174410457 0 -0.073863751451665585 -0.0029358954092014258 0 -0.073873789038782903 -0.002950364161517869 0 -0.097184200775114429 -0.0028587279972663239 0 -0.097043362250060855 -0.0028799982516663439 0 -0.097150386345706344 -0.0028734693820857151 0 -0.097184200775114429 -0.0028587279972663239 0 -0.097150386345706344 -0.0028734693820857151 0 -0.097204273619093923 -0.0028663514424282998 0 -0.097131741590724588 -0.00285765106402032 0 -0.097150386345706344 -0.0028734693820857151 0 -0.097147214980739902 -0.0028326095988933735 0 -0.097043362250060855 -0.0028799982516663439 0 -0.097131741590724588 -0.00285765106402032 0 -0.097150386345706344 -0.0028734693820857151 0 -0.097147214980739902 -0.0028326095988933735 0 -0.097204273619093923 -0.0028663514424282998 0 -0.097183855847256459 -0.0028380501478559176 0 -0.097150386345706344 -0.0028734693820857151 0 -0.097147214980739902 -0.0028326095988933735 0 -0.097204273619093923 -0.0028663514424282998 0 -0.097184200775114429 -0.0028587279972663239 0 -0.097204273619093923 -0.0028663514424282998 0 -0.097311861976600939 -0.0028552799809441779 0 -0.097251902918007588 -0.0028063997031617734 0 -0.097311861976600939 -0.0028552799809441779 0 -0.097183855847256459 -0.0028380501478559176 0 -0.097204273619093923 -0.0028663514424282998 0 -0.097311861976600939 -0.0028552799809441779 0 -0.097183855847256459 -0.0028380501478559176 0 -0.097097950697708352 -0.0027976225287791021 0 -0.097147214980739902 -0.0028326095988933735 0 -0.097183855847256459 -0.0028380501478559176 0 -0.09709326143135795 -0.0028042265257283813 0 -0.097097950697708352 -0.0027976225287791021 0 -0.097183855847256459 -0.0028380501478559176 0 -0.039433093518468784 -0.0031673937460620751 0 -0.04232393894952835 -0.00085722854340541173 0 -0.039433093518468784 -0.0031673937460620751 0 -0.054331143891425036 -0.0016411150124342087 0 -0.046376309137210137 -0.0031314850185171963 0 -0.047668297791010603 -0.0032968308806543248 0 -0.047635961426282042 -0.001604762671568965 0 -0.053342024942152469 -0.003724088229481998 0 -0.053875723740178419 -0.0042356617368041766 0 -0.053917274295477512 -0.0036355499332137637 0 -0.030506816882911809 -0.004650297912331766 0 -0.030562835794095387 -0.0032193885857060875 0 -0.028498270239164201 -0.0027205369607220978 0 -0.037745222439466201 -0.0045090430839674405 0 -0.039433093518468784 -0.0031673937460620751 0 -0.030562835794095387 -0.0032193885857060875 0 -0.028350413129969155 -0.0026948496228347959 0 -0.029637215169932302 -0.0010726776137312288 0 -0.037220756779445786 -0.0027888040432431471 0 -0.039433093518468784 -0.0031673937460620751 0 -0.02958560892699489 0.0018983323315485182 0 -0.029637215169932302 -0.0010726776137312288 0 -0.032409329809173992 -0.00054604036278958139 0 -0.039433093518468784 -0.0031673937460620751 0 -0.038349739894362626 -0.0036854133964924415 0 -0.02958560892699489 0.0018983323315485182 0 -0.029637215169932302 -0.0010726776137312288 0 -0.028020762827057278 -0.00022884349099532348 0 -0.0282828482588529 -0.0027512158781046198 0 -0.029637215169932302 -0.0010726776137312288 0 -0.028020762827057278 -0.00022884349099532348 0 -0.028441892562489829 -0.0028580100968218424 0 -0.025608819512250757 -0.00025239321006177826 0 -0.024679673269721487 -0.0023378449748271044 0 -0.027013854666818472 0.0010367837361660052 0 -0.028020762827057278 -0.00022884349099532348 0 -0.025608819512250757 -0.00025239321006177826 0 -0.0282828482588529 -0.0027512158781046198 0 -0.028020762827057278 -0.00022884349099532348 0 -0.025608819512250757 -0.00025239321006177826 0 -0.039433093518468784 -0.0031673937460620751 0 -0.034916747691264287 -0.00049031699880721703 0 -0.031780958521495623 0.0012776433857773334 0 -0.031541107823842153 0.00096084809124483226 0 -0.032222635303607472 0.00011635964230106452 0 -0.024598333272470393 0.0022462819723304138 0 -0.025608819512250757 -0.00025239321006177826 0 -0.024679673269721487 -0.0023378449748271044 0 -0.033970347361452623 0.0017654448447671153 0 -0.04232393894952835 -0.00085722854340541173 0 -0.032151201032002953 0.0017299158456118139 0 -0.031780958521495623 0.0012776433857773334 0 -0.032222635303607472 0.00011635964230106452 0 -0.048128680101684362 0.00043272879410475294 0 -0.04232393894952835 -0.00085722854340541173 0 -0.031541107823842153 0.00096084809124483226 0 -0.030844533645984093 0.00037824488363933642 0 -0.032222635303607472 0.00011635964230106452 0 -0.031541107823842153 0.00096084809124483226 0 -0.030834077414607423 0.00079611431313103271 0 -0.030844533645984093 0.00037824488363933642 0 -0.041878994353572806 -0.0001532844474712323 0 -0.04467331200494494 0.00022043153373802737 0 -0.04467331200494494 0.00022043153373802737 0 -0.048128680101684362 0.00043272879410475294 0 -0.048128680101684362 0.00043272879410475294 0 -0.057573541280776366 -9.8327088077578565e-05 0 -0.05454988917756718 9.944541805519755e-05 0 -0.054593914727139141 5.6382735330359804e-05 0 -0.054583713159359573 3.0990506321185377e-05 0 -0.063299114211664204 0.00083042122871307758 0 -0.063922779259710905 0.0015630938473100546 0 -0.064012535496407605 -0.00026842538174410457 0 -0.05454988917756718 9.944541805519755e-05 0 -0.054599717067945121 8.8234170732952958e-05 0 -0.054593914727139141 5.6382735330359804e-05 0 -0.054599717067945121 8.8234170732952958e-05 0 -0.054593914727139141 5.6382735330359804e-05 0 -0.054622776648544168 2.6657981381172002e-05 0 -0.04232393894952835 -0.00085722854340541173 0 -0.054331143891425036 -0.0016411150124342087 0 -0.054593914727139141 5.6382735330359804e-05 0 -0.054622776648544168 2.6657981381172002e-05 0 -0.054583713159359573 3.0990506321185377e-05 0 -0.064097397708262366 -0.0021079055610873556 0 -0.06318793178291944 -0.0010594478045342125 0 -0.064012535496407605 -0.00026842538174410457 0 -0.065718832424565124 -0.00031138723370955333 0 -0.057573541280776366 -9.8327088077578565e-05 0 -0.054629155914135911 -1.348319845043942e-05 0 -0.054583713159359573 3.0990506321185377e-05 0 -0.054619981651002993 5.6562137646383305e-06 0 -0.064059283994729682 -0.0012358727499764603 0 -0.054331143891425036 -0.0016411150124342087 0 -0.054622776648544168 2.6657981381172002e-05 0 -0.054583713159359573 3.0990506321185377e-05 0 -0.054619981651002993 5.6562137646383305e-06 0 -0.067865145985161301 -0.0014255102070326912 0 -0.068000993369119953 -0.0069736597074615374 0 -0.070364876718371897 -0.0040979852792051123 0 -0.054331143891425036 -0.0016411150124342087 0 -0.060412952239845004 -0.00095161180448747327 0 -0.054772395860595249 -0.0020737311953858951 0 -0.054765984944392956 -0.0031924174979854453 0 -0.053748080035783179 -0.0028667232507426006 0 -0.053875723740178419 -0.0042356617368041766 0 -0.054765984944392956 -0.0031924174979854453 0 -0.053917274295477512 -0.0036355499332137637 0 -0.054765984944392956 -0.0031924174979854453 0 -0.053917274295477512 -0.0036355499332137637 0 -0.053748080035783179 -0.0028667232507426006 0 -0.053342024942152469 -0.003724088229481998 0 -0.053917274295477512 -0.0036355499332137637 0 -0.053748080035783179 -0.0028667232507426006 0 -0.053342024942152469 -0.003724088229481998 0 -0.053748080035783179 -0.0028667232507426006 0 -0.052847270785223464 -0.0032590287890552519 0 -0.053645137827763659 -0.0019665146984066185 0 -0.052866824417214624 -0.0023079967503559676 0 -0.053748080035783179 -0.0028667232507426006 0 -0.041732208222850738 -0.00523466475220401 0 -0.042910879825683104 -0.0053730204546668771 0 -0.042359121573053098 -0.0018153104023259843 0 -0.052866824417214624 -0.0023079967503559676 0 -0.053748080035783179 -0.0028667232507426006 0 -0.052847270785223464 -0.0032590287890552519 0 -0.045112528361058848 -0.0038591194202857618 0 -0.033789275561190039 -0.0043659246545028115 0 -0.041732208222850738 -0.00523466475220401 0 -0.042359121573053098 -0.0018153104023259843 0 -0.04167624748571485 -0.0011799387398409721 0 -0.037049583959119309 -0.0054726764918560308 0 -0.030753339514488415 -0.004282245810275977 0 -0.022991309838345856 -0.0045386130130627171 0 -0.030753339514488415 -0.004282245810275977 0 -0.017636728451720061 -0.0066255973193577239 0 -0.015812526570864242 -0.0047998360062188753 0 -0.01737714708713697 -0.0048857574101051704 0 -0.019794350912576548 -0.008538984255311452 0 -0.019967345370525278 -0.00855058676272967 0 -0.020022449485429274 -0.0087039400885245664 0 -0.016838427636995296 -0.0043183200146808647 0 -0.016376389940182576 -0.0037553790830819511 0 -0.017661649163748766 -0.0038145962656157789 0 -0.016838427636995296 -0.0043183200146808647 0 -0.015812526570864242 -0.0047998360062188753 0 -0.01737714708713697 -0.0048857574101051704 0 -0.016838427636995296 -0.0043183200146808647 0 -0.016376389940182576 -0.0037553790830819511 0 -0.015812526570864242 -0.0047998360062188753 0 -0.030753339514488415 -0.004282245810275977 0 -0.027733234277218442 -0.0031221545643968329 0 -0.033789275561190039 -0.0043659246545028115 0 -0.027150118583821943 -0.0027956732973326509 0 -0.016039888325217071 -0.0047967221109141266 0 -0.015710491088639825 -0.0045106368193909832 0 -0.015594408162792613 -0.0030491552307588049 0 -0.030506816882911809 -0.004650297912331766 0 -0.032413337160785066 -0.0064404297621566417 0 -0.032403632434318166 -0.0035298020486586295 0 -0.016376389940182576 -0.0037553790830819511 0 -0.015812526570864242 -0.0047998360062188753 0 -0.015620094169595257 -0.00287995738058173 0 -0.030753339514488415 -0.004282245810275977 0 -0.033789275561190039 -0.0043659246545028115 0 -0.037745222439466201 -0.0045090430839674405 0 -0.033789275561190039 -0.0043659246545028115 0 -0.016039888325217071 -0.0047967221109141266 0 -0.015620094169595257 -0.00287995738058173 0 -0.015594408162792613 -0.0030491552307588049 0 -0.030562835794095387 -0.0032193885857060875 0 -0.032403632434318166 -0.0035298020486586295 0 -0.032409329809173992 -0.00054604036278958139 0 -0.030506816882911809 -0.004650297912331766 0 -0.030562835794095387 -0.0032193885857060875 0 -0.032403632434318166 -0.0035298020486586295 0 -0.015620094169595257 -0.00287995738058173 0 -0.015594408162792613 -0.0030491552307588049 0 -0.015582123969629881 -0.0016456527033252256 0 -0.016376389940182576 -0.0037553790830819511 0 -0.01712009305798139 -0.0029558512179934781 0 -0.017661649163748766 -0.0038145962656157789 0 -0.016376389940182576 -0.0037553790830819511 0 -0.015620094169595257 -0.00287995738058173 0 -0.01712009305798139 -0.0029558512179934781 0 -0.015620094169595257 -0.00287995738058173 0 -0.01712009305798139 -0.0029558512179934781 0 -0.015582123969629881 -0.0016456527033252256 0 -0.01712009305798139 -0.0029558512179934781 0 -0.01715421675109062 -0.0012460670516743308 0 -0.015512097166306176 -0.0015627294366942965 0 -0.019517239934354308 -0.00047592006978660261 0 -0.021321821938514542 -0.00068522506608368824 0 -0.030562835794095387 -0.0032193885857060875 0 -0.029637215169932302 -0.0010726776137312288 0 -0.032409329809173992 -0.00054604036278958139 0 -0.027150118583821943 -0.0027956732973326509 0 -0.021321821938514542 -0.00068522506608368824 0 -0.01882986720600276 -0.0025512686881689812 0 -0.020216696368642255 -0.0013735462942393295 0 -0.018622785688419796 -0.00087775825061508692 0 -0.01712009305798139 -0.0029558512179934781 0 -0.01715421675109062 -0.0012460670516743308 0 -0.01882986720600276 -0.0025512686881689812 0 -0.01715421675109062 -0.0012460670516743308 0 -0.01882986720600276 -0.0025512686881689812 0 -0.018622785688419796 -0.00087775825061508692 0 -0.01712009305798139 -0.0029558512179934781 0 -0.01882986720600276 -0.0025512686881689812 0 -0.017661649163748766 -0.0038145962656157789 0 -0.01882986720600276 -0.0025512686881689812 0 -0.018795134630358604 -0.0042840358096551262 0 -0.017661649163748766 -0.0038145962656157789 0 -0.01882986720600276 -0.0025512686881689812 0 -0.018795134630358604 -0.0042840358096551262 0 -0.02004007127119389 -0.0038536228844544096 0 -0.018795134630358604 -0.0042840358096551262 0 -0.019741714820799356 -0.0051793865751094325 0 -0.02004007127119389 -0.0038536228844544096 0 -0.018795134630358604 -0.0042840358096551262 0 -0.017661649163748766 -0.0038145962656157789 0 -0.01737714708713697 -0.0048857574101051704 0 -0.018795134630358604 -0.0042840358096551262 0 -0.01737714708713697 -0.0048857574101051704 0 -0.018530523182452033 -0.0055880492687105845 0 -0.016838427636995296 -0.0043183200146808647 0 -0.017661649163748766 -0.0038145962656157789 0 -0.01737714708713697 -0.0048857574101051704 0 -0.017636728451720061 -0.0066255973193577239 0 -0.01737714708713697 -0.0048857574101051704 0 -0.018530523182452033 -0.0055880492687105845 0 -0.018971905054310467 -0.0068002663589132586 0 -0.017636728451720061 -0.0066255973193577239 0 -0.018530523182452033 -0.0055880492687105845 0 -0.018795134630358604 -0.0042840358096551262 0 -0.018530523182452033 -0.0055880492687105845 0 -0.019741714820799356 -0.0051793865751094325 0 -0.019662592323337391 -0.0064141600866061401 0 -0.018971905054310467 -0.0068002663589132586 0 -0.018530523182452033 -0.0055880492687105845 0 -0.019662592323337391 -0.0064141600866061401 0 -0.018530523182452033 -0.0055880492687105845 0 -0.019741714820799356 -0.0051793865751094325 0 -0.019662592323337391 -0.0064141600866061401 0 -0.019741714820799356 -0.0051793865751094325 0 -0.020782895070103398 -0.0061017521727008105 0 -0.019741714820799356 -0.0051793865751094325 0 -0.020782895070103398 -0.0061017521727008105 0 -0.020815033670129646 -0.0048614944069272376 0 -0.020782895070103398 -0.0061017521727008105 0 -0.021992352186707181 -0.0055320384857455501 0 -0.020815033670129646 -0.0048614944069272376 0 -0.021994839879261343 -0.0071474245807861183 0 -0.020782895070103398 -0.0061017521727008105 0 -0.021992352186707181 -0.0055320384857455501 0 -0.021994839879261343 -0.0071474245807861183 0 -0.021992352186707181 -0.0055320384857455501 0 -0.023637256197798641 -0.0063851568441326972 0 -0.021495421799939008 -0.0039145403116246985 0 -0.023334128108348132 -0.004626055407542122 0 -0.022407231463777204 -0.0029841662770086373 0 -0.021992352186707181 -0.0055320384857455501 0 -0.021495421799939008 -0.0039145403116246985 0 -0.020815033670129646 -0.0048614944069272376 0 -0.021992352186707181 -0.0055320384857455501 0 -0.021495421799939008 -0.0039145403116246985 0 -0.023334128108348132 -0.004626055407542122 0 -0.021495421799939008 -0.0039145403116246985 0 -0.02004007127119389 -0.0038536228844544096 0 -0.020815033670129646 -0.0048614944069272376 0 -0.019741714820799356 -0.0051793865751094325 0 -0.02004007127119389 -0.0038536228844544096 0 -0.020815033670129646 -0.0048614944069272376 0 -0.025768619399988903 -0.0057846184033046545 0 -0.023637256197798641 -0.0063851568441326972 0 -0.023334128108348132 -0.004626055407542122 0 -0.024919246975143826 -0.0072178730569889904 0 -0.025768619399988903 -0.0057846184033046545 0 -0.023637256197798641 -0.0063851568441326972 0 -0.021992352186707181 -0.0055320384857455501 0 -0.023637256197798641 -0.0063851568441326972 0 -0.023334128108348132 -0.004626055407542122 0 -0.025768619399988903 -0.0057846184033046545 0 -0.023334128108348132 -0.004626055407542122 0 -0.025418847603765768 -0.0035724767448855011 0 -0.038987070512481868 -0.0047912142528321704 0 -0.035121000777542884 -0.0034382365574372087 0 -0.025418847603765768 -0.0035724767448855011 0 -0.022857103711112953 -0.0017182095597752386 0 -0.025241090689024196 -0.0010539304001773902 0 -0.023334128108348132 -0.004626055407542122 0 -0.025418847603765768 -0.0035724767448855011 0 -0.022407231463777204 -0.0029841662770086373 0 -0.025418847603765768 -0.0035724767448855011 0 -0.022407231463777204 -0.0029841662770086373 0 -0.022857103711112953 -0.0017182095597752386 0 -0.022857103711112953 -0.0017182095597752386 0 -0.025241090689024196 -0.0010539304001773902 0 -0.023569593114542136 0.0010094725425219685 0 -0.022407231463777204 -0.0029841662770086373 0 -0.022857103711112953 -0.0017182095597752386 0 -0.02152605741488714 -0.0017136990232586283 0 -0.01882986720600276 -0.0025512686881689812 0 -0.02004007127119389 -0.0038536228844544096 0 -0.020728343754884509 -0.0025518340649159977 0 -0.021495421799939008 -0.0039145403116246985 0 -0.02004007127119389 -0.0038536228844544096 0 -0.020728343754884509 -0.0025518340649159977 0 -0.021495421799939008 -0.0039145403116246985 0 -0.022407231463777204 -0.0029841662770086373 0 -0.020728343754884509 -0.0025518340649159977 0 -0.022407231463777204 -0.0029841662770086373 0 -0.020728343754884509 -0.0025518340649159977 0 -0.02152605741488714 -0.0017136990232586283 0 -0.02152605741488714 -0.0017136990232586283 0 -0.020216696368642255 -0.0013735462942393295 0 -0.021611058727511307 -0.00042469982494755954 0 -0.022857103711112953 -0.0017182095597752386 0 -0.02152605741488714 -0.0017136990232586283 0 -0.021611058727511307 -0.00042469982494755954 0 -0.020728343754884509 -0.0025518340649159977 0 -0.02152605741488714 -0.0017136990232586283 0 -0.020216696368642255 -0.0013735462942393295 0 -0.01882986720600276 -0.0025512686881689812 0 -0.020728343754884509 -0.0025518340649159977 0 -0.020216696368642255 -0.0013735462942393295 0 -0.01589623406375051 0.0002822256927189441 0 -0.021611058727511307 -0.00042469982494755954 0 -0.018676901764261018 0.0021125327308009778 0 -0.020216696368642255 -0.0013735462942393295 0 -0.019816648474858391 -0.00023541445172899552 0 -0.021611058727511307 -0.00042469982494755954 0 -0.01772933790051745 0.00083001734715343865 0 -0.019503721817752454 0.00026679434038390557 0 -0.021611058727511307 -0.00042469982494755954 0 -0.021552764272313837 0.00079749664291442154 0 -0.018676901764261018 0.0021125327308009778 0 -0.021552764272313837 0.00079749664291442154 0 -0.018676901764261018 0.0021125327308009778 0 -0.019469929013426028 0.0056081445420916596 0 -0.02089688789637055 0.0022995861570333539 0 -0.019507739580330939 0.0056874360506085284 0 -0.02077763372672305 0.0026684283275613765 0 -0.021453666085139215 0.0047385631811373945 0 -0.019163891646982477 0.0065515084739596408 0 -0.018676901764261018 0.0021125327308009778 0 -0.019469929013426028 0.0056081445420916596 0 -0.014755885143418107 0.0048705452303531658 0 -0.01589623406375051 0.0002822256927189441 0 -0.018676901764261018 0.0021125327308009778 0 -0.014755885143418107 0.0048705452303531658 0 -0.025241090689024196 -0.0010539304001773902 0 -0.025721719147325104 0.0018717123755558488 0 -0.023569593114542136 0.0010094725425219685 0 -0.025721719147325104 0.0018717123755558488 0 -0.023569593114542136 0.0010094725425219685 0 -0.023021894643334439 0.0034700423117616612 0 -0.021661010480903124 0.00045081267428143443 0 -0.02089688789637055 0.0022995861570333539 0 -0.022857103711112953 -0.0017182095597752386 0 -0.02077763372672305 0.0026684283275613765 0 -0.023569593114542136 0.0010094725425219685 0 -0.022857103711112953 -0.0017182095597752386 0 -0.021611058727511307 -0.00042469982494755954 0 -0.021552764272313837 0.00079749664291442154 0 -0.02077763372672305 0.0026684283275613765 0 -0.023569593114542136 0.0010094725425219685 0 -0.023021894643334439 0.0034700423117616612 0 -0.021453666085139215 0.0047385631811373945 0 -0.023021894643334439 0.0034700423117616612 0 -0.022886978677944807 0.0062323066183581962 0 -0.02077763372672305 0.0026684283275613765 0 -0.021453666085139215 0.0047385631811373945 0 -0.023021894643334439 0.0034700423117616612 0 -0.026951922172271842 0.0053141949269236077 0 -0.025721719147325104 0.0018717123755558488 0 -0.023021894643334439 0.0034700423117616612 0 -0.026951922172271842 0.0053141949269236077 0 -0.023021894643334439 0.0034700423117616612 0 -0.022886978677944807 0.0062323066183581962 0 -0.026951922172271842 0.0053141949269236077 0 -0.025227551115893893 0.0080918252912808037 0 -0.022886978677944807 0.0062323066183581962 0 -0.025227551115893893 0.0080918252912808037 0 -0.022886978677944807 0.0062323066183581962 0 -0.021518083775022744 0.0099204558936009709 0 -0.022886978677944807 0.0062323066183581962 0 -0.021518083775022744 0.0099204558936009709 0 -0.019163891646982477 0.0065515084739596408 0 -0.021453666085139215 0.0047385631811373945 0 -0.022886978677944807 0.0062323066183581962 0 -0.019163891646982477 0.0065515084739596408 0 -0.025316795780683164 0.011075945652201024 0 -0.025227551115893893 0.0080918252912808037 0 -0.021518083775022744 0.0099204558936009709 0 -0.019469929013426028 0.0056081445420916596 0 -0.017306165015808058 0.010276605999129051 0 -0.014755885143418107 0.0048705452303531658 0 -0.019507739580330939 0.0056874360506085284 0 -0.018657221952060307 0.0077591173363157151 0 -0.021518083775022744 0.0099204558936009709 0 -0.019163891646982477 0.0065515084739596408 0 -0.017306165015808058 0.010276605999129051 0 -0.013176900969584805 0.01233970817698499 0 -0.017306165015808058 0.010276605999129051 0 -0.012530329658268967 0.0082817845181473778 0 -0.017306165015808058 0.010276605999129051 0 -0.012530329658268967 0.0082817845181473778 0 -0.014755885143418107 0.0048705452303531658 0 -0.012530329658268967 0.0082817845181473778 0 -0.014755885143418107 0.0048705452303531658 0 -0.0094913388725572992 0.0057142741100685438 0 -0.013176900969584805 0.01233970817698499 0 -0.012530329658268967 0.0082817845181473778 0 -0.0092010007637242444 0.0093230906444258972 0 -0.012530329658268967 0.0082817845181473778 0 -0.0094913388725572992 0.0057142741100685438 0 -0.0092010007637242444 0.0093230906444258972 0 -0.0094913388725572992 0.0057142741100685438 0 -0.0092010007637242444 0.0093230906444258972 0 -0.005378449716107566 0.0082284539658215756 0 -0.0077447193613954853 0.011945488832363087 0 -0.0092010007637242444 0.0093230906444258972 0 -0.005378449716107566 0.0082284539658215756 0 -0.016547787261911175 0.0054374239173513948 0 -0.017070884810061741 0.0050384837408925893 0 -0.016726653934747787 0.0044516695786455257 0 -0.012191268706340993 0.0062481505221318933 0 -0.015080600587028091 0.0036279492454369218 0 -0.017070884810061741 0.0050384837408925893 0 -0.016726653934747787 0.0044516695786455257 0 -0.017101311309105485 0.0037169897386558838 0 -0.0094913388725572992 0.0057142741100685438 0 -0.005378449716107566 0.0082284539658215756 0 -0.0053743005298309676 0.0030529474517090745 0 -0.015080600587028091 0.0036279492454369218 0 -0.015025443105161646 0.0021093065464266023 0 -0.0094913388725572992 0.0057142741100685438 0 -0.0053743005298309676 0.0030529474517090745 0 -0.010490337896421264 0.0016928012292538892 0 -0.016328995822364193 0.002919340323330597 0 -0.016870738328817303 0.0037753903584933413 0 -0.017109351398895821 0.0037146096092884628 0 -0.016304178642879637 0.0038564199984848909 0 -0.016726653934747787 0.0044516695786455257 0 -0.016870738328817303 0.0037753903584933413 0 -0.016726653934747787 0.0044516695786455257 0 -0.016870738328817303 0.0037753903584933413 0 -0.017101311309105485 0.0037169897386558838 0 -0.015149495757698195 0.0036165015172630035 0 -0.015080600587028091 0.0036279492454369218 0 -0.021321821938514542 -0.00068522506608368824 0 -0.015080600587028091 0.0036279492454369218 0 -0.022053667758104287 0.0016329410856698837 0 -0.021321821938514542 -0.00068522506608368824 0 -0.016328995822364193 0.002919340323330597 0 -0.017136709579663369 0.0022301174130989598 0 -0.017109351398895821 0.0037146096092884628 0 -0.01715421675109062 -0.0012460670516743308 0 -0.015504523210770116 0.00088811191372141203 0 -0.017700038487050363 0.00032119465147184762 0 -0.01715421675109062 -0.0012460670516743308 0 -0.015512097166306176 -0.0015627294366942965 0 -0.015504523210770116 0.00088811191372141203 0 -0.01715421675109062 -0.0012460670516743308 0 -0.018622785688419796 -0.00087775825061508692 0 -0.017700038487050363 0.00032119465147184762 0 -0.019816648474858391 -0.00023541445172899552 0 -0.018622785688419796 -0.00087775825061508692 0 -0.017700038487050363 0.00032119465147184762 0 -0.01772933790051745 0.00083001734715343865 0 -0.015025443105161646 0.0021093065464266023 0 -0.020216696368642255 -0.0013735462942393295 0 -0.019816648474858391 -0.00023541445172899552 0 -0.018622785688419796 -0.00087775825061508692 0 -0.01589623406375051 0.0002822256927189441 0 -0.014755885143418107 0.0048705452303531658 0 -0.010490337896421264 0.0016928012292538892 0 -0.014755885143418107 0.0048705452303531658 0 -0.0094913388725572992 0.0057142741100685438 0 -0.010490337896421264 0.0016928012292538892 0 
</DataArray>
</PointData>
<CellData Scalars="region_id,cross_section_updated," Vectors="" Tensors="stress,">
<DataArray type="Float64" Name="region_id" format="ascii">
5 5 6 5 5 5 5 6 5 5 5 5 5 5 5 5 5 5 5 5 6 5 5 5 5 6 5 5 5 5 5 5 5 6 5 5 5 5 5 5 5 5 6 5 5 5 5 5 5 5 5 5 5 5 6 6 5 5 5 5 5 5 5 5 6 5 5 5 5 5 5 5 5 5 5 5 5 5 5 5 5 5 5 5 5 5 5 6 5 5 5 5 5 5 5 5 5 5 5 6 5 5 5 6 5 5 5 5 5 5 5 5 5 5 5 5 5 5 5 5 5 5 5 5 5 5 5 5 5 5 5 5 5 5 5 5 5 5 5 5 5 5 5 5 5 5 5 5 5 6 5 6 5 5 5 5 5 5 5 5 5 5 5 5 5 5 5 5 5 5 5 5 5 5 5 5 5 5 6 5 5 6 5 6 5 5 5 5 5 5 5 5 5 5 5 5 5 5 6 5 6 5 5 5 5 5 5 5 6 5 6 5 5 5 5 5 5 6 5 5 6 5 5 5 5 5 5 6 6 5 5 6 5 6 5 6 6 5 5 5 6 5 5 5 5 5 5 5 5 5 5 5 5 5 6 5 5 5 5 5 5 5 6 5 5 5 5 5 5 5 6 5 5 5 5 6 5 5 5 5 5 5 6 5 5 5 6 5 5 5 5 5 5 5 6 5 5 5 5 5 5 6 5 5 5 5 5 5 6 5 5 5 5 5 5 5 6 5 5 5 5 5 5 5 5 5 5 5 5 5 5 5 5 5 5 5 5 5 6 6 5 5 5 5 5 6 5 5 5 5 5 5 5 6 5 6 5 5 5 6 5 5 5 6 5 6 5 5 5 5 5 5 5 6 5 5 5 5 5 5 5 6 5 5 5 6 5 5 5 5 5 5 5 5 5 5 5 5 5 5 5 5 5 5 5 5 5 5 5 5 5 5 5 5 5 5 5 5 6 5 5 5 5 5 5 5 5 5 5 5 5 5 5 5 5 5 5 5 5 5 5 5 5 5 5 5 5 5 5 5 5 6 5 5 5 5 5 5 5 5 5 5 5 5 5 5 5 5 5 5 5 5 6 5 5 5 5 5 5 5 6 5 5 5 5 5 6 5 5 6 5 6 5 5 5 5 6 5 5 6 5 5 5 5 5 5 6 5 5 5 5 5 5 5 5 5 5 5 5 5 5 5 5 5 5 5 6 5 5 5 5 5 5 5 5 5 5 5 6 6 5 5 5 5 5 5 5 5 5 5 5 5 5 5 5 5 5 5 5 5 5 6 5 6 6 5 5 6 5 5 5 5 5 5 5 5 5 5 5 5 5 6 5 5 5 5 5 5 5 6 6 5 5 5 5 5 5 5 5 6 6 5 5 5 6 5 5 5 5 5 5 5 5 5 5 5 5 5 5 5 5 5 5 5 5 5 5 5 5 5 5 5 5 5 5 5 5 5 5 5 6 5 5 6 5 5 5 5 6 5 5 5 6 5 5 5 6 5 5 6 5 5 5 5 5 5 5 5 5 5 5 5 5 5 5 5 5 5 5 5 5 6 5 5 5 6 5 5 5 5 5 6 5 5 5 5 5 5 6 5 5 5 5 5 5 5 5 5 5 5 5 5 5 5 5 5 5 6 5 5 5 5 5 5 5 5 5 5 5 5 5 5 5 5 5 5 5 5 5 6 5 5 5 5 5 5 5 5 5 5 5 5 5 5 5 6 5 5 5 5 5 5 5 5 5 5 5 5 5 5 5 5 5 5 6 5 5 5 5 5 5 5 6 5 5 5 5 5 5 5 5 5 5 5 5 5 5 5 5 5 5 5 5 5 6 5 5 5 5 5 5 5 5 5 6 5 5 5 5 5 5 5 5 6 5 5 5 5 5 5 5 5 5 5 5 5 5 5 5 5 5 5 5 6 5 5 5 5 5 6 5 5 5 6 5 5 5 5 5 5 6 5 5 5 5 5 5 5 5 5 5 6 5 5 5 5 5 5 5 5 5 5 5 5 6 5 6 5 5 5 5 5 5 5 6 5 6 5 5 5 5 5 5 5 5 5 5 5 5 5 5 5 5 5 5 5 5 5 5 5 5 5 5 5 5 5 5 5 5 5 5 5 5 5 5 5 5 5 5 5 5 5 6 6 5 5 6 5 5 5 5 5 5 5 5 5 5 5 5 5 5 5 5 6 5 5 5 5 6 5 5 6 5 5 5 5 5 5 6 5 6 5 5 6 5 5 5 5 5 5 5 5 5 5 6 5 5 5 5 5 6 6 5 5 5 5 6 5 5 6 5 6 5 5 5 5 5 6 5 5 6 5 5 5 5 5 5 5 5 5 5 5 5 6 5 5 5 5 5 5 5 5 5 5 5 5 5 5 5 6 5 6 5 6 6 5 6 5 5 6 5 5 5 5 5 5 6 5 6 5 5 6 5 5 5 6 5 5 6 5 5 5 5 5 6 5 5 6 5 5 5 5 5 6 5 6 5 5 6 5 5 6 5 5 5 5 5 5 5 5 6 5 5 5 5 5 5 5 5 5 5 6 5 5 5 5 6 5 5 6 5 5 5 5 5 6 5 5 5 5 5 6 5 6 5 5 5 5 5 5 6 5 5 5 5 5 5 5 5 6 6 6 5 5 5 5 6 5 6 5 5 5 6 6 5 5 5 6 5 5 5 6 5 6 5 6 6 5 6 5 5 5 5 6 5 5 5 6 5 6 5 6 5 5 5 5 5 5 5 6 5 5 5 5 6 5 5 5 5 5 5 5 5 6 5 6 6 5 5 5 6 5 5 5 5 6 6 5 5 6 6 5 5 5 5 5 6 5 5 5 5 5 5 5 5 6 5 6 5 5 5 5 5 5 5 5 5 5 5 5 5 5 5 5 5 6 5 5 5 5 5 5 5 5 5 5 5 5 5 5 5 5 5 5 5 5 5 5 5 5 5 6 5 6 5 5 5 5 5 6 6 5 5 5 5 6 6 5 6 5 5 6 5 5 6 5 5 5 5 6 6 5 5 5 5 5 5 5 5 6 5 5 6 5 5 5 6 5 5 6 5 5 5 5 5 5 6 5 5 5 5 5 5 6 5 5 5 5 5 6 5 5 6 6 5 5 6 5 5 6 5 5 5 5 5 5 5 5 5 5 5 5 6 5 6 5 5 6 5 5 5 5 5 5 6 5 5 5 6 6 6 5 5 5 6 6 5 6 6 5 5 6 5 5 6 5 6 5 6 5 5 5 6 6 5 5 6 6 6 6 5 5 5 6 6 5 5 6 6 6 5 6 6 5 5 6 5 6 6 5 6 5 5 6 5 6 6 5 5 5 5 6 6 5 5 6 5 5 5 6 5 5 5 5 5 5 5 5 5 5 5 5 5 5 5 5 5 5 5 5 5 5 5 5 5 5 5 5 5 5 5 5 5 5 5 5 5 5 5 5 5 5 5 5 5 5 5 5 5 5 5 5 5 5 5 5 5 5 6 5 6 5 5 5 5 5 5 5 5 5 5 5 5 5 5 6 5 5 5 5 5 5 5 5 5 5 6 5 5 5 5 5 5 5 5 5 5 5 5 5 5 5 5 5 5 5 5 5 5 5 5 5 5 5 5 5 5 5 5 5 5 5 5 5 5 5 5 5 5 5 5 5 5 6 5 5 5 6 5 6 5 5 5 5 5 6 5 6 5 5 5 5 5 5 5 5 5 5 5 5 5 5 5 5 5 5 5 5 5 5 5 5 5 6 5 5 5 5 5 5 6 5 6 5 5 5 6 5 5 6 5 5 5 5 5 5 5 5 5 5 5 5 5 5 5 5 5 5 5 5 5 5 5 5 5 5 5 5 5 5 5 5 5 5 5 5 5 6 5 6 5 5 5 5 5 5 5 5 5 5 6 5 5 5 5 5 5 5 5 5 5 5 5 5 5 5 5 5 6 5 5 5 6 6 5 6 5 5 5 5 5 5 5 5 6 5 5 5 5 6 5 5 5 5 5 5 5 6 5 5 6 5 6 5 5 6 5 5 6 6 5 5 5 5 5 5 5 5 5 5 5 5 5 5 5 6 5 6 5 5 5 6 5 6 5 5 5 5 5 5 5 5 5 5 5 5 6 5 6 5 5 5 5 5 5 5 5 6 5 5 6 5 5 5 6 6 5 5 5 5 5 5 5 5 5 5 5 5 5 5 5 5 5 5 5 5 5 6 5 5 5 5 5 6 5 6 5 5 5 5 6 5 5 6 5 5 5 5 5 6 5 5 5 5 6 5 5 5 5 5 5 5 6 5 5 5 6 5 5 5 5 5 5 5 5 5 5 5 6 5 5 5 5 5 5 5 5 6 5 5 5 5 5 5 6 5 5 5 5 5 5 6 5 5 5 5 5 5 5 5 5 5 5 6 5 5 5 6 5 5 5 6 5 6 5 5 5 5 5 5 6 5 5 5 5 5 5 5 5 5 5 5 5 5 5 5 6 5 5 5 5 5 6 5 5 5 5 5 5 5 5 6 5 5 5 5 5 5 5 5 5 5 5 5 5 5 5 5 6 5 5 5 5 6 5 5 5 5 5 5 5 5 5 5 5 5 5 5 5 5 5 5 5 5 5 5 5 5 5 5 6 5 5 5 6 5 6 5 5 5 5 6 5 6 5 5 5 5 5 6 5 5 5 5 5 5 5 5 5 6 5 5 5 5 5 5 5 5 5 5 5 5 5 5 5 5 5 5 5 5 5 5 5 5 6 6 5 5 5 5 5 6 5 5 5 6 5 5 5 6 5 5 6 5 6 5 5 5 5 6 5 5 5 5 6 6 5 5 5 5 5 5 5 5 5 5 5 5 6 5 5 5 5 6 5 5 5 5 5 6 5 5 6 5 5 5 5 5 5 5 5 5 5 5 5 5 5 5 5 6 5 5 6 5 5 5 6 5 5 5 5 5 5 5 5 5 5 5 6 5 5 5 5 5 5 5 5 5 5 5 5 5 5 5 5 6 5 5 6 5 6 5 5 6 5 6 5 6 5 5 5 5 5 5 5 5 5 5 5 5 5 6 5 6 6 5 5 6 6 5 5 6 6 5 5 5 6 5 6 5 5 6 5 5 5 5 6 6 5 6 5 5 6 6 5 5 6 5 5 5 6 5 5 5 6 6 6 5 5 6 5 6 6 5 5 5 5 5 5 5 5 5 5 5 6 6 5 6 5 6 5 6 5 5 5 6 5 5 5 5 5 6 5 5 5 5 5 5 5 5 5 5 5 5 5 5 5 5 5 5 5 5 5 5 5 5 6 5 5 5 5 5 5 5 5 5 5 5 5 5 5 5 5 5 5 6 5 5 5 5 5 5 5 5 5 5 5 6 5 5 5 5 5 6 5 5 5 5 5 5 5 5 5 5 5 5 5 5 6 5 5 5 5 5 5 5 5 5 5 5 5 5 5 6 5 6 5 5 5 5 6 5 5 5 5 5 5 5 5 5 5 5 5 6 5 6 5 5 5 5 6 5 5 5 5 5 5 5 6 5 5 5 5 5 5 5 6 5 5 5 6 5 6 5 5 5 5 5 5 5 5 5 6 5 5 5 5 5 5 5 5 5 5 5 5 5 5 5 5 5 5 5 5 5 5 5 5 5 5 5 5 5 5 5 5 5 5 5 5 5 5 5 5 5 5 5 6 5 5 6 5 5 5 5 5 5 5 5 5 5 6 5 5 5 5 5 6 5 5 6 5 5 5 5 5 5 6 5 5 5 5 6 5 5 6 5 6 5 5 5 5 5 5 5 5 5 5 5 6 5 6 5 5 5 5 6 5 5 5 5 5 5 5 5 5 5 5 5 5 5 5 5 5 5 5 5 5 6 5 5 5 5 6 5 5 5 5 5 5 5 6 5 5 5 5 5 6 5 5 5 6 5 5 5 6 5 5 6 5 5 5 6 5 5 6 5 5 5 5 5 5 5 5 5 5 5 5 5 5 5 5 5 5 5 5 5 5 5 5 5 5 5 5 5 5 5 6 5 5 5 5 5 5 5 5 5 5 5 6 5 5 5 5 5 5 5 5 5 5 5 5 5 5 5 6 6 5 5 5 6 5 5 5 5 6 5 5 6 5 5 5 5 5 5 5 5 5 5 5 5 5 6 6 5 5 5 5 5 5 5 5 5 5 5 6 5 5 6 5 5 5 5 5 5 5 5 5 5 5 5 5 5 5 5 5 5 5 6 5 5 5 6 5 5 5 5 5 6 5 5 5 5 5 5 5 5 5 5 5 5 5 5 5 5 5 5 5 5 6 5 5 6 5 5 5 5 5 5 5 5 5 5 5 5 5 5 5 5 5 5 5 6 5 5 5 5 5 5 5 5 5 5 5 5 5 5 5 5 5 5 5 5 5 5 5 5 5 5 5 5 5 5 5 5 6 5 5 5 5 5 5 6 5 5 5 5 5 6 5 5 5 5 6 5 5 5 5 5 5 5 5 5 5 5 5 5 5 5 5 5 5 5 5 5 5 6 5 5 5 5 5 5 5 6 5 5 6 5 5 6 5 5 5 5 5 5 6 5 5 5 5 5 5 5 5 5 5 6 5 6 5 5 5 5 5 5 5 5 6 5 5 6 5 5 5 6 5 5 5 6 5 5 5 6 6 5 5 6 5 5 6 5 5 6 5 5 5 5 5 5 5 5 5 6 5 5 5 6 5 5 5 6 5 5 5 6 5 6 5 5 6 5 5 5 5 5 5 5 5 6 5 5 6 5 5 5 5 5 5 5 5 5 5 5 5 5 6 5 6 5 5 5 6 6 5 6 5 5 5 5 6 5 6 5 5 5 5 5 5 5 5 5 6 5 5 5 5 5 5 5 5 5 5 5 5 5 5 5 5 5 5 5 5 5 5 5 5 5 5 5 5 6 5 5 5 5 5 5 6 5 5 5 5 5 5 6 5 5 5 5 5 5 6 5 5 5 6 5 5 5 6 5 5 6 5 5 5 5 5 5 6 5 5 5 6 6 5 5 5 5 5 5 5 5 5 5 5 5 5 5 5 5 5 6 5 5 5 5 5 5 5 6 5 5 5 5 5 6 5 5 5 5 5 6 5 5 6 5 5 5 5 6 5 5 5 5 5 5 6 5 6 5 6 6 5 6 5 5 5 6 5 5 5 5 5 6 5 5 5 6 5 5 5 5 6 6 6 5 5 5 5 6 6 5 6 5 5 5 5 5 5 6 5 6 5 5 6 5 5 5 6 5 5 6 5 5 5 5 5 5 5 5 5 5 5 5 6 5 5 5 5 6 5 5 5 5 6 5 5 5 5 5 5 5 5 5 6 6 6 5 5 5 6 6 5 5 6 5 6 5 5 5 5 5 5 5 6 5 5 5 5 5 5 5 5 5 5 5 5 5 5 5 5 6 5 5 5 5 5 5 5 5 5 6 5 5 6 5 6 5 6 5 5 6 5 5 5 6 6 5 5 6 5 5 5 6 5 5 5 5 6 5 5 5 5 5 5 5 5 5 5 5 6 6 5 5 5 5 5 5 5 5 5 5 5 5 5 5 5 5 5 5 5 5 5 5 5 5 5 5 5 5 5 5 5 5 6 5 5 5 5 5 5 5 5 5 5 5 5 5 5 5 5 5 5 5 6 5 5 5 5 5 5 6 6 5 5 6 6 5 5 5 6 5 5 5 5 5 5 5 5 5 5 5 5 5 5 5 5 5 5 5 5 5 5 5 6 5 6 5 6 5 5 5 5 5 5 6 5 6 6 5 5 6 5 5 5 5 5 5 6 6 5 5 6 6 5 5 6 6 5 5 5 5 5 5 5 5 6 5 5 5 5 5 6 5 5 6 5 5 5 6 5 5 5 5 5 5 5 5 5 5 5 5 5 5 5 5 5 5 5 5 5 5 5 5 5 5 5 5 5 5 5 5 5 5 6 5 5 6 5 6 6 5 5 5 5 5 5 5 5 5 6 5 5 5 5 5 6 5 5 5 5 5 5 5 6 5 5 5 5 5 5 5 5 6 5 5 5 5 5 6 5 5 5 5 5 5 5 5 5 5 5 5 5 5 5 5 5 5 5 5 5 5 5 5 5 5 5 5 5 5 6 6 5 5 5 5 5 5 5 6 5 5 5 6 5 6 5 5 5 5 5 5 5 5 5 5 5 5 5 5 5 5 5 5 5 5 5 6 5 5 5 5 5 5 6 5 5 5 5 5 5 5 6 5 5 6 5 5 5 5 5 5 6 5 5 5 6 5 5 6 6 5 5 5 5 5 5 5 5 5 5 5 5 5 5 5 5 5 5 5 5 5 5 5 5 5 5 5 5 6 5 5 5 5 5 5 5 5 5 5 5 5 5 5 5 5 5 5 5 6 5 5 5 6 6 5 5 5 5 5 6 5 5 5 6 5 5 5 5 5 6 5 5 5 5 5 5 5 5 5 5 5 5 5 5 5 5 5 5 5 5 5 6 5 5 5 5 5 5 6 5 5 5 5 5 5 5 5 5 5 5 5 6 5 5 5 5 6 5 6 5 5 5 5 5 5 5 5 5 5 5 5 5 6 5 5 5 5 5 6 5 5 5 5 5 5 6 5 5 5 5 5 5 5 5 5 5 5 5 6 5 5 6 5 5 6 5 5 6 5 5 5 5 5 5 5 5 5 5 6 5 5 5 5 5 5 5 5 6 5 5 5 6 5 5 5 6 5 5 6 5 5 5 6 5 5 5 5 5 6 5 6 5 5 5 5 6 6 5 5 5 6 5 5 5 5 6 5 5 5 5 5 5 5 5 5 5 5 5 5 5 5 6 5 5 6 6 5 5 5 5 6 5 5 5 5 5 5 6 5 5 5 5 5 5 6 5 5 5 5 5 5 5 5 6 5 5 5 5 5 5 5 5 5 5 6 5 5 6 5 5 6 5 5 5 5 5 6 6 5 5 6 6 5 6 5 6 5 6 6 5 5 6 5 6 5 6 5 6 5 6 5 5 6 5 6 5 6 5 5 5 5 5 5 6 5 5 5 6 5 5 5 5 5 5 5 5 5 6 5 5 6 5 6 5 6 5 5 5 6 6 5 5 5 5 5 5 5 5 5 5 5 6 5 5 5 5 5 6 5 5 5 5 5 5 5 5 5 5 5 5 5 5 5 5 5 6 5 5 5 5 5 5 6 5 5 5 6 5 5 6 5 5 5 6 5 6 6 5 5 5 5 5 5 5 5 5 6 5 5 5 5 5 5 5 6 5 6 5 6 5 5 5 5 5 5 5 5 5 5 5 5 5 5 5 5 5 5 5 5 5 5 5 5 5 5 5 5 5 5 5 5 5 5 5 5 5 6 5 5 6 6 5 5 5 5 6 5 5 5 5 5 6 5 5 6 6 5 5 5 5 5 5 6 5 6 5 5 6 6 5 6 5 5 5 6 5 5 5 5 6 5 5 5 6 5 5 6 6 5 5 5 6 5 5 5 5 6 5 5 6 5 5 5 6 5 5 6 5 5 5 6 5 6 5 5 6 5 5 6 6 5 5 6 5 6 6 5 5 5 5 6 5 5 5 5 6 5 5 5 5 5 5 5 5 5 5 5 5 6 5 5 5 5 6 5 6 5 5 5 5 5 6 6 6 5 5 5 5 5 5 5 5 6 5 5 5 5 5 5 6 5 5 5 5 6 5 5 5 5 5 5 5 5 5 5 5 5 5 5 5 5 5 5 6 5 6 5 5 6 6 5 6 5 5 6 5 6 5 6 5 6 5 5 5 5 6 5 5 5 6 5 5 5 5 5 5 5 5 5 5 5 5 5 5 5 5 5 5 5 5 5 5 5 5 5 6 5 5 5 5 5 6 5 5 5 5 5 5 5 5 5 5 5 6 5 5 5 5 5 6 5 5 6 6 5 5 5 6 5 5 6 6 5 6 5 5 5 5 5 5 5 5 5 5 5 5 5 5 5 5 6 5 5 5 5 6 5 5 5 5 5 5 5 5 6 6 5 5 6 5 5 5 5 5 5 5 5 5 6 6 5 5 6 5 5 5 6 5 5 5 5 5 5 5 5 5 5 5 5 5 5 5 5 5 5 5 5 5 5 5 5 5 5 6 5 5 5 5 5 5 5 5 5 5 5 5 5 5 5 5 5 5 5 5 6 5 5 5 6 6 5 5 5 6 5 5 6 5 5 5 5 5 6 5 6 5 5 5 5 5 5 5 5 6 5 5 5 6 5 5 6 5 6 5 5 5 6 5 5 5 6 5 5 5 5 5 5 5 5 5 5 5 5 5 5 5 5 5 6 5 5 5 5 5 5 5 5 5 6 5 5 5 5 5 5 5 5 6 5 5 5 5 5 5 5 5 5 5 5 5 5 6 5 5 5 6 5 5 5 5 5 5 5 5 5 5 5 5 5 5 5 5 5 5 5 6 5 5 5 6 5 6 5 5 5 6 5 5 5 6 6 5 5 5 5 5 5 5 5 5 5 5 5 5 5 5 5 5 5 5 5 5 5 6 5 5 5 5 6 5 5 5 5 6 5 5 5 5 5 5 5 6 5 5 5 5 6 5 5 5 5 5 5 6 5 5 5 5 5 5 6 5 5 5 6 5 5 5 5 5 5 5 5 5 6 5 5 5 5 5 5 6 5 5 5 5 5 5 5 5 5 5 5 6 5 5 6 5 5 5 5 5 6 5 5 6 5 5 5 5 5 5 5 6 6 5 5 5 5 6 5 5 5 5 5 5 6 5 5 5 5 5 5 5 5 5 5 6 5 5 5 5 5 5 5 5 5 5 5 5 6 5 6 5 5 5 6 5 5 6 5 5 5 5 6 5 5 5 5 5 6 5 5 5 5 5 5 5 5 6 5 5 5 5 6 5 5 5 5 5 5 5 6 5 5 5 5 5 5 5 5 5 5 6 5 5 5 6 5 6 5 5 5 5 5 5 6 5 6 5 6 5 5 5 5 6 5 5 5 5 5 5 5 5 5 5 5 5 5 5 6 5 6 5 5 5 5 5 5 5 6 5 5 5 5 5 5 5 5 5 5 5 5 5 6 5 5 5 5 6 5 5 5 5 5 5 5 5 5 5 5 5 5 5 5 5 5 5 5 5 5 5 5 5 6 5 5 5 5 6 5 5 5 6 5 5 6 5 5 6 5 5 5 5 5 5 5 5 5 5 5 5 5 5 5 6 5 5 6 5 5 5 5 5 5 5 6 5 5 5 5 5 6 5 5 5 6 5 5 5 6 5 5 5 5 5 5 5 6 5 5 5 6 5 6 6 5 5 5 5 5 6 5 5 5 5 5 5 5 5 5 5 6 5 5 5 5 5 5 5 5 5 5 5 5 5 5 5 5 5 5 5 5 5 5 5 5 5 5 5 5 5 5 5 5 5 5 5 5 5 6 5 5 5 5 5 5 5 5 5 5 5 5 5 5 5 5 6 5 5 5 5 5 5 5 5 5 6 5 5 5 5 5 5 5 6 5 5 5 5 5 5 5 5 5 5 5 5 5 5 5 5 5 5 5 5 5 6 5 5 5 5 5 5 5 5 5 5 5 5 5 5 5 5 5 6 5 5 5 5 5 5 5 5 5 5 5 5 5 5 5 5 5 5 5 5 5 5 5 5 5 5 5 5 5 5 5 5 5 5 5 5 5 5 5 5 5 5 5 5 5 5 6 5 5 5 5 5 5 5 5 5 5 5 5 5 6 5 6 5 5 5 5 5 6 5 5 5 5 5 6 6 5 5 5 5 5 5 5 5 5 5 5 5 5 5 5 5 5 6 6 5 5 5 5 5 5 6 5 6 5 5 5 5 5 5 5 5 5 6 5 5 5 5 5 5 5 5 5 5 5 5 5 5 5 5 5 5 5 6 5 5 5 5 5 6 5 6 5 5 5 5 5 5 5 6 5 5 5 6 5 5 5 6 5 5 6 5 5 5 6 5 5 6 5 6 5 6 5 5 6 5 5 5 5 5 5 5 5 5 5 5 5 5 5 5 5 5 5 5 5 5 6 5 6 5 5 5 5 5 5 5 6 5 5 5 5 5 5 5 5 5 5 5 5 5 5 5 5 5 5 5 6 5 5 5 6 5 5 5 5 5 5 5 5 5 5 6 5 5 5 5 6 5 5 6 5 5 5 5 5 6 5 5 5 5 6 5 6 5 5 6 5 5 5 5 5 5 5 6 5 5 6 5 6 5 5 5 5 5 5 5 5 5 5 5 5 5 5 5 5 5 5 6 5 5 5 5 5 5 5 6 5 5 5 5 6 5 5 5 5 5 5 5 5 5 6 5 5 5 5 6 5 5 5 5 5 5 5 5 5 5 5 5 6 5 5 5 5 5 5 5 5 5 6 5 5 5 5 5 5 5 5 5 5 5 5 6 5 5 6 5 5 5 5 5 5 5 5 5 6 6 6 5 5 5 6 5 5 5 5 5 5 6 5 5 5 6 6 5 5 5 5 5 5 5 5 5 5 5 5 6 5 5 5 6 6 5 5 5 5 5 6 5 5 5 5 6 5 5 5 5 6 5 5 5 5 5 6 6 6 5 5 5 6 6 5 5 5 5 5 5 5 5 5 6 6 5 5 5 6 6 5 5 5 5 5 5 5 5 5 5 5 5 5 5 5 5 5 6 5 6 5 5 5 5 6 5 5 5 5 5 5 5 6 5 5 5 5 5 5 5 6 5 5 6 5 6 6 5 5 5 6 6 5 5 5 6 6 5 5 5 5 5 5 5 5 5 5 6 5 5 5 5 5 5 5 6 5 5 5 5 6 5 5 5 5 5 5 6 5 5 5 5 6 5 6 5 5 5 5 5 5 5 5 5 5 5 5 5 5 6 5 5 5 5 5 5 5 6 5 5 5 5 6 5 5 5 6 5 5 5 5 5 5 5 5 5 5 5 5 5 5 5 5 5 5 5 5 5 5 6 5 6 5 5 6 5 5 5 6 5 5 6 5 5 5 5 5 5 5 5 5 5 5 5 5 5 5 5 5 5 5 5 6 6 6 5 5 5 5 5 5 5 5 5 5 5 5 5 6 5 5 5 6 5 5 6 5 5 5 5 6 5 5 6 6 5 5 5 5 6 5 5 6 5 6 5 5 5 5 5 5 5 5 5 5 5 5 6 5 5 5 5 5 5 5 6 5 6 5 5 5 5 6 5 5 5 5 5 5 5 5 5 5 5 5 5 5 5 5 5 5 5 5 5 5 5 6 5 5 5 6 5 6 5 5 5 6 5 5 5 5 5 6 5 5 6 5 5 5 5 5 5 5 5 6 5 5 5 5 5 6 5 5 5 5 5 5 5 5 5 5 5 5 5 5 6 5 5 5 5 6 5 5 5 5 5 5 5 5 5 5 5 5 6 5 5 5 5 6 5 5 5 5 5 5 5 5 5 5 5 5 5 6 5 5 6 5 5 5 6 5 5 5 5 5 5 5 5 5 5 5 5 5 6 6 5 6 6 5 5 5 6 6 5 6 5 6 5 6 5 5 5 6 5 6 5 5 5 5 6 5 5 5 5 5 5 6 5 5 5 5 5 6 5 5 6 5 5 6 5 5 6 5 5 5 5 5 6 5 6 5 5 5 5 5 5 5 5 5 5 5 5 5 6 5 5 6 5 5 5 5 5 5 5 5 5 6 5 5 5 5 5 5 5 5 5 6 5 5 6 5 6 5 5 5 5 5 5 5 6 5 5 5 5 5 5 5 6 5 6 5 5 6 5 5 5 6 5 5 5 5 6 5 5 5 5 5 6 5 5 5 5 5 5 5 5 5 5 5 5 5 5 5 5 5 5 5 5 5 6 5 5 6 5 5 5 6 5 5 5 5 6 5 5 5 5 5 5 5 5 5 5 5 5 5 5 5 5 5 5 5 5 5 5 5 6 5 5 5 5 5 5 6 5 5 5 5 5 5 5 5 5 5 5 5 5 6 5 6 5 5 6 5 5 5 5 6 6 5 6 5 6 5 5 5 5 5 6 5 5 6 6 5 5 5 5 5 6 5 5 6 5 5 5 5 5 5 5 5 6 6 5 5 5 6 5 6 5 5 5 5 5 6 5 6 5 5 5 5 5 6 6 5 5 5 5 6 5 5 5 5 6 5 5 5 5 5 5 5 5 5 5 5 5 5 5 5 5 5 6 5 5 6 5 5 5 6 5 5 5 5 5 5 5 5 5 5 5 5 5 5 5 5 5 5 5 6 5 5 5 5 5 5 5 5 5 5 5 5 5 5 6 6 5 5 5 6 5 5 5 5 5 6 5 5 5 5 5 5 5 5 5 5 5 6 5 5 6 5 5 5 5 5 5 5 5 5 5 6 5 5 5 6 5 6 5 6 5 5 5 6 6 5 6 5 5 6 5 5 6 6 5 5 5 6 5 5 6 5 6 5 5 5 6 5 5 6 6 5 6 5 5 6 5 6 5 5 5 5 5 5 5 5 5 6 5 5 5 5 5 6 5 5 5 5 5 5 5 5 5 5 6 5 5 5 5 6 6 5 5 6 5 6 5 5 5 5 5 6 5 5 6 5 6 5 5 5 5 5 5 5 6 5 5 5 5 5 5 5 5 5 6 5 6 5 6 5 6 5 5 5 5 6 5 5 5 5 5 6 6 5 5 5 5 5 5 6 5 5 5 5 5 6 5 5 5 5 6 5 5 6 5 6 5 5 5 6 5 6 5 5 6 6 6 5 5 5 5 5 5 6 6 6 5 5 5 5 6 5 6 5 6 5 5 5 5 5 5 6 5 5 5 5 5 5 5 5 5 5 5 5 5 5 5 5 5 5 5 5 5 5 5 5 5 5 5 5 5 5 5 5 5 5 5 5 5 5 5 5 5 5 5 5 5 5 5 5 5 6 5 5 5 6 6 5 5 5 5 5 5 5 5 5 5 5 5 5 5 5 5 5 5 5 6 5 5 5 5 5 5 5 6 5 5 6 5 5 6 5 5 6 5 6 5 5 6 5 5 5 6 5 6 5 6 6 5 5 5 6 6 5 5 6 5 5 6 5 5 5 5 5 5 5 5 5 5 5 5 6 5 5 5 5 6 5 5 5 5 6 5 5 5 5 5 5 5 5 5 6 5 6 5 5 5 5 6 5 5 5 6 5 5 5 5 5 5 6 5 5 6 5 5 5 6 5 5 5 5 5 5 5 6 5 5 5 5 5 6 5 5 5 5 5 5 5 5 5 5 5 5 5 5 5 6 5 5 5 5 5 6 5 5 6 5 6 5 5 5 5 6 6 5 5 6 5 5 5 5 5 5 5 5 5 5 5 6 5 6 5 5 5 5 5 6 5 5 5 6 5 5 5 6 5 5 5 5 5 5 5 5 5 5 5 5 5 6 5 5 5 5 5 5 5 6 5 6 5 5 5 5 5 5 5 6 6 5 5 5 5 5 5 5 5 5 6 5 5 5 5 5 5 6 6 6 5 6 5 5 5 5 5 5 6 5 6 5 6 5 6 5 5 5 5 5 5 6 5 5 6 5 5 5 5 6 5 5 5 5 5 5 5 5 5 5 5 5 5 5 5 5 5 5 5 5 5 6 5 6 5 5 5 5 5 5 5 5 5 5 5 5 5 5 5 5 5 5 5 5 5 5 5 5 5 5 5 5 5 5 5 5 5 5 5 5 5 5 5 5 5 5 5 5 5 5 5 5 5 5 5 5 5 5 5 5 5 5 6 5 5 5 5 5 5 5 5 5 5 5 5 5 5 5 5 5 5 5 5 5 5 5 6 5 5 5 6 5 6 5 5 5 5 5 5 5 5 5 5 5 5 5 5 5 5 5 5 5 5 5 5 5 5 5 5 5 5 5 5 5 5 5 5 5 5 5 5 5 6 5 6 5 5 5 5 5 5 5 5 5 5 5 5 5 5 5 5 5 5 5 5 5 5 5 5 5 6 5 5 5 5 5 5 5 5 5 5 5 5 5 5 5 5 5 5 5 5 5 5 5 5 5 5 5 5 5 5 5 5 5 5 5 5 5 5 5 5 5 5 5 5 5 5 5 5 5 5 5 5 5 5 5 5 5 5 5 5 5 5 5 5 5 5 5 5 5 6 5 5 5 5 5 5 5 6 5 5 6 5 5 5 5 5 5 5 5 5 5 5 5 5 5 5 5 5 5 5 5 6 5 5 5 5 5 5 5 5 5 5 5 5 5 5 5 5 5 5 5 5 5 5 5 5 5 5 5 5 5 5 5 5 6 5 5 5 5 6 5 6 5 5 5 5 5 5 6 5 5 6 5 5 6 6 5 6 5 5 5 6 5 5 5 5 5 5 5 5 5 5 5 5 5 5 5 6 5 5 5 5 5 5 5 5 6 5 5 5 5 5 5 5 5 5 5 5 5 5 5 5 5 5 5 5 5 5 5 5 5 5 5 5 5 5 5 5 5 5 5 5 5 6 5 5 5 5 5 5 5 6 5 5 6 5 6 5 5 5 5 5 5 5 5 5 5 5 6 6 5 5 6 5 5 6 6 5 5 5 5 6 5 6 5 5 6 5 6 6 5 6 5 6 5 5 5 5 5 5 5 6 5 6 5 5 5 5 5 6 5 5 5 6 5 5 6 5 6 5 6 6 5 5 6 5 5 5 5 5 5 6 5 5 5 5 5 5 5 5 6 6 5 5 5 6 5 5 5 5 6 6 5 6 5 5 5 6 5 5 5 5 5 5 5 5 5 5 5 5 5 5 5 5 6 5 5 5 5 5 5 6 5 6 5 5 5 6 6 5 5 6 5 6 5 5 5 5 5 5 5 5 5 5 5 5 6 6 5 5 5 5 5 6 5 5 5 5 5 5 5 6 5 5 5 6 5 6 5 5 6 5 5 5 5 5 5 5 5 5 6 5 5 6 5 5 5 5 5 5 5 5 5 5 5 6 5 5 5 5 5 5 5 5 5 5 5 5 5 5 5 5 5 5 5 5 5 5 6 5 5 5 5 5 5 5 5 5 5 5 6 5 5 5 5 6 5 5 5 5 5 5 5 5 5 5 5 6 5 5 5 5 5 6 5 6 5 5 5 5 5 5 5 5 5 6 5 5 6 5 5 6 5 5 5 5 6 5 5 5 5 5 5 5 5 5 5 5 5 5 5 5 5 5 5 5 5 5 6 5 5 6 5 6 5 5 5 5 5 5 5 5 5 6 5 5 6 6 6 5 5 5 6 5 5 5 5 5 5 6 6 5 6 5 5 6 5 5 6 5 5 5 5 6 5 5 5 5 6 5 5 5 5 5 5 5 5 5 5 5 6 5 5 6 5 6 6 5 5 6 6 6 5 5 5 5 5 5 5 5 5 5 6 5 5 5 5 5 5 5 5 5 6 5 5 5 5 5 6 5 5 5 5 5 5 5 5 5 5 6 5 5 5 5 5 5 5 5 5 5 5 5 5 5 5 5 5 5 5 5 5 5 5 5 6 6 5 5 5 5 5 5 5 5 6 5 5 5 5 5 5 5 5 5 5 5 5 5 5 5 5 6 5 5 5 5 6 5 5 5 6 6 5 5 5 5 5 5 6 5 6 5 5 5 6 5 5 5 5 5 5 5 5 6 5 6 6 5 5 5 5 5 5 5 5 5 5 5 5 6 5 5 6 5 6 5 5 5 5 5 5 5 5 5 5 5 5 5 5 5 5 5 5 5 5 5 5 5 6 5 5 5 5 5 6 5 5 5 5 5 5 5 5 5 5 6 5 5 5 6 5 5 5 5 5 5 5 5 5 5 5 6 6 5 5 5 5 5 6 5 5 5 6 5 5 5 5 5 5 5 5 5 5 6 5 5 5 5 5 5 5 6 6 5 6 5 5 5 5 6 5 5 5 5 5 6 5 5 5 5 5 5 5 5 5 5 6 5 5 5 5 5 5 5 5 5 5 6 5 5 5 5 5 5 5 6 5 5 5 5 5 5 5 5 5 5 5 5 5 5 5 5 5 5 5 5 6 5 5 5 6 5 5 5 5 5 5 5 5 5 5 5 5 5 6 5 6 6 5 6 6 5 5 5 5 5 6 5 5 5 5 5 5 5 6 5 5 6 5 5 6 5 5 6 5 5 6 6 6 6 5 5 6 6 5 5 6 5 5 6 5 5 5 5 6 6 6 6 5 5 5 6 5 6 5 6 5 6 6 5 5 5 5 5 5 5 6 5 5 6 5 6 5 5 6 6 5 5 5 5 5 5 5 5 5 5 5 5 5 5 5 5 5 6 5 5 5 5 5 5 5 5 5 5 5 5 5 5 5 5 5 6 5 5 5 5 5 5 5 5 5 5 5 5 5 5 6 6 5 5 5 5 6 5 6 5 5 5 6 6 5 6 5 5 5 5 5 5 5 5 5 5 5 5 5 5 5 5 5 5 5 6 5 6 5 5 5 5 6 5 5 5 5 5 5 5 5 5 5 5 5 5 5 5 5 5 5 5 5 6 5 5 5 5 5 5 5 5 5 5 5 5 5 5 6 5 5 5 5 5 5 5 5 5 5 5 5 5 5 5 5 5 5 5 5 5 5 5 5 5 5 5 5 5 5 5 5 5 5 5 5 5 5 5 5 5 5 5 5 5 5 5 5 5 5 5 5 5 5 5 5 5 5 5 5 5 5 6 5 5 5 6 5 5 6 5 5 5 5 5 5 5 5 5 5 5 6 5 5 5 5 6 5 5 5 5 5 5 5 5 5 5 5 5 5 5 5 5 5 5 5 5 5 5 5 5 5 5 5 5 5 6 5 5 5 5 6 5 5 5 5 5 5 5 5 5 5 6 5 5 6 5 5 5 5 5 5 5 5 5 5 5 5 6 5 5 5 5 5 5 5 5 6 5 5 5 5 5 5 5 5 5 5 6 5 6 5 5 5 6 5 5 5 6 5 6 5 6 6 5 5 5 5 5 6 5 5 5 5 5 5 5 5 5 5 5 5 5 5 5 5 5 5 5 5 5 5 5 6 5 5 6 5 5 5 6 5 6 5 5 5 5 5 5 5 5 5 5 5 5 6 5 5 5 5 5 5 5 5 5 5 5 5 5 5 5 5 5 5 5 6 5 5 5 5 5 5 5 5 5 5 5 5 5 5 5 5 5 5 5 5 5 5 5 5 5 5 5 6 5 5 5 5 5 5 5 5 5 5 5 5 5 5 5 5 5 5 6 5 5 5 6 5 5 5 6 6 5 5 5 5 5 6 5 5 5 5 5 5 5 6 6 5 5 5 6 5 6 5 5 5 5 5 5 6 6 5 5 6 6 5 5 5 5 5 5 5 5 5 5 6 5 5 5 5 5 5 6 5 5 5 5 5 5 5 5 5 5 5 5 5 5 5 5 5 6 5 5 5 5 6 5 5 6 5 5 5 5 5 5 5 5 5 5 5 6 5 6 5 6 5 5 5 5 5 5 5 5 5 5 5 5 5 5 5 5 5 5 5 6 5 5 6 5 5 5 6 5 5 6 5 5 5 5 6 5 5 5 5 5 5 5 6 5 5 5 5 5 5 5 5 5 5 5 5 5 5 5 5 5 5 5 5 5 5 5 5 5 5 5 5 5 6 5 5 5 5 5 5 5 5 5 5 5 5 5 5 5 5 5 5 5 5 5 5 5 5 5 5 5 5 5 5 5 5 5 5 5 5 5 6 6 6 5 5 6 5 5 5 6 5 6 5 5 5 5 5 6 5 5 5 5 5 5 5 6 5 5 5 5 5 5 5 5 5 5 5 5 5 5 6 5 5 5 6 5 6 5 5 5 5 5 5 5 5 6 5 5 5 5 5 5 5 6 5 6 5 6 5 5 5 5 5 5 5 5 6 5 5 6 6 6 5 6 5 6 5 5 5 5 5 5 5 5 5 5 5 5 5 5 5 5 5 5 5 5 5 6 5 5 6 6 5 5 5 6 5 5 5 5 5 5 5 6 5 6 5 5 5 5 6 5 5 6 5 5 5 5 5 5 5 6 5 5 6 5 5 5 6 5 5 5 5 5 5 5 5 5 6 5 5 5 5 5 5 6 5 5 6 5 5 5 5 6 5 5 5 5 5 5 6 6 6 5 5 5 6 5 6 5 6 5 5 5 5 5 5 6 5 5 5 6 5 5 5 6 5 5 5 5 5 5 5 5 5 5 5 5 6 5 5 5 6 5 5 5 5 5 6 6 5 5 6 5 6 6 6 5 5 5 6 5 5 5 5 5 6 5 5 5 5 5 5 5 5 5 5 5 5 6 5 5 5 5 5 5 6 5 5 6 5 5 6 5 5 5 5 5 6 5 5 6 5 6 5 6 5 5 5 5 5 5 6 5 5 5 5 6 5 5 5 5 5 5 5 5 5 5 6 5 5 5 5 5 6 5 5 5 5 5 5 5 5 5 5 5 5 5 5 5 6 5 5 5 5 5 6 5 6 5 5 5 5 5 6 5 5 5 5 5 6 5 5 5 5 5 6 5 5 5 5 5 5 5 5 5 5 6 5 6 5 6 5 5 6 5 5 5 5 5 5 5 5 6 5 6 5 5 5 5 5 5 5 5 5 5 6 5 5 5 5 5 5 5 5 5 5 6 5 5 5 6 5 6 6 5 5 5 6 5 5 5 6 6 5 5 5 5 5 5 5 5 5 5 6 6 5 5 5 5 5 6 5 5 5 5 5 5 5 5 5 5 6 5 6 6 6 5 5 5 5 5 5 5 5 6 5 5 5 5 5 5 5 5 5 5 5 5 5 5 5 5 5 5 5 5 5 5 5 5 5 5 5 5 5 6 5 5 5 5 6 5 5 5 5 5 5 5 5 6 5 5 5 5 5 5 5 5 6 5 5 5 5 5 5 5 5 5 5 5 5 5 5 5 5 5 5 5 5 5 5 5 5 5 5 6 5 5 5 5 5 5 6 5 6 5 5 6 5 5 5 6 5 6 5 5 5 6 5 5 5 6 5 5 5 5 5 5 6 5 5 5 5 5 5 5 5 5 5 5 5 5 5 5 5 5 5 5 5 5 5 5 5 5 5 5 6 5 6 5 5 5 5 6 5 5 5 5 5 5 5 5 5 5 5 5 5 6 5 5 6 5 5 6 5 5 5 5 5 6 5 5 5 5 5 5 5 5 6 5 6 5 5 5 5 5 6 6 5 5 6 5 5 5 6 5 5 5 5 5 5 5 6 5 5 5 5 5 5 5 5 5 5 5 5 5 5 5 5 6 5 5 5 5 5 6 5 6 5 5 5 5 5 5 5 5 5 5 5 5 6 5 6 5 5 5 5 5 5 6 6 5 5 5 5 5 5 5 5 5 5 5 5 5 5 5 5 5 5 5 5 5 6 5 5 6 5 5 5 5 5 6 5 5 5 5 5 5 6 5 5 5 5 5 5 5 5 5 5 5 5 5 5 5 5 6 5 5 6 5 5 5 5 6 5 5 5 5 5 5 5 5 5 5 5 6 5 5 5 5 5 5 5 5 5 5 5 5 5 5 5 5 5 5 5 6 5 5 5 5 5 5 5 5 5 5 5 5 6 5 5 5 5 5 5 5 5 5 5 5 5 5 6 6 5 5 5 5 5 5 6 5 5 5 5 5 5 5 5 5 5 5 5 5 5 5 5 5 5 5 5 5 5 5 5 5 5 5 5 5 5 5 5 5 5 5 6 5 5 5 5 5 5 5 5 6 5 5 5 5 5 5 5 5 5 5 5 5 6 5 5 5 5 6 5 6 5 5 5 5 5 5 5 5 6 5 5 5 5 5 5 5 5 5 5 6 5 5 5 6 5 5 6 5 5 5 5 6 5 5 6 5 5 5 5 5 5 5 5 6 5 5 5 6 5 5 5 5 5 5 5 6 5 6 5 6 5 6 6 5 5 5 6 6 6 5 5 6 5 5 5 6 5 5 5 5 6 5 5 5 5 5 5 5 5 5 5 5 5 5 5 5 5 5 5 5 5 5 5 5 5 5 5 5 5 5 5 5 5 5 5 5 5 5 5 6 5 5 5 5 5 5 5 5 6 5 5 5 5 6 5 5 6 5 5 6 5 5 5 5 6 5 5 5 5 5 6 5 5 5 5 5 5 5 5 5 5 5 5 5 6 6 5 5 5 6 5 5 5 5 5 5 5 5 5 5 5 5 5 5 6 5 5 5 5 5 5 6 5 5 6 5 5 5 5 5 5 5 5 5 5 6 5 5 5 5 5 6 5 5 5 5 5 5 5 5 5 5 6 5 5 5 5 5 5 5 5 5 5 5 5 5 5 5 6 5 5 5 5 5 5 5 5 5 5 5 5 5 5 5 5 5 5 5 5 5 5 5 6 5 6 5 5 5 6 5 5 5 5 5 5 5 5 5 6 5 5 5 6 5 5 5 5 5 5 5 5 5 5 5 5 5 5 5 5 6 5 5 5 5 5 6 5 5 5 6 5 6 5 5 5 5 5 5 6 5 5 5 5 5 5 5 5 5 5 5 5 5 5 5 5 5 5 5 5 5 5 5 5 5 5 5 6 5 5 6 5 5 5 5 5 5 5 6 5 5 5 5 6 5 5 6 5 5 5 5 5 5 6 5 5 5 6 5 5 5 6 5 5 5 5 5 6 5 5 5 5 5 6 5 5 5 5 5 5 5 5 6 5 5 6 5 5 5 5 6 5 5 5 5 6 5 5 5 5 6 5 5 5 6 5 6 5 5 5 5 5 5 5 5 5 5 6 5 5 5 5 5 5 5 6 6 5 5 5 5 5 6 5 5 5 5 5 6 5 5 5 6 5 5 6 5 5 6 5 5 5 6 5 5 5 5 5 5 6 5 5 5 5 5 6 5 5 5 5 5 6 5 5 5 5 5 5 6 5 5 5 5 6 5 5 5 5 5 6 5 5 5 5 5 5 5 5 5 5 6 5 5 5 5 5 5 5 6 5 5 5 5 6 6 5 5 6 5 5 5 5 5 5 5 6 5 5 5 5 5 5 5 6 5 6 5 5 6 5 5 5 5 6 5 6 5 5 5 5 5 5 5 5 5 5 6 5 5 5 5 5 6 5 5 5 6 5 5 5 5 6 5 5 6 5 5 5 5 5 6 5 6 5 6 6 5 5 5 5 6 6 5 5 5 5 5 5 5 5 5 5 5 5 5 6 5 5 5 5 5 5 6 6 5 5 5 5 5 5 5 5 5 5 5 5 5 6 5 5 5 5 5 5 5 5 5 5 5 5 5 5 5 5 5 5 5 5 5 5 5 5 5 5 5 5 5 5 5 5 5 6 5 5 6 5 5 5 5 5 5 5 6 5 5 5 6 5 5 6 5 5 5 6 6 5 5 5 5 6 6 5 5 5 5 5 5 5 5 5 5 5 5 5 5 6 5 5 6 5 5 5 6 5 5 5 5 6 5 5 6 5 5 5 5 5 5 5 5 5 5 5 6 5 5 5 5 5 5 5 6 5 5 5 5 5 5 5 5 5 5 5 5 5 5 5 5 5 5 6 5 5 5 5 5 5 6 5 6 5 5 5 5 5 6 5 5 6 5 5 5 6 5 5 5 6 5 5 5 5 5 5 5 5 5 5 5 5 5 5 6 5 5 5 5 6 6 5 5 5 5 5 5 5 5 5 5 5 5 5 5 5 5 5 5 5 6 5 5 5 5 5 5 5 5 6 5 6 5 5 5 5 5 5 5 6 5 6 5 5 5 5 5 6 5 5 5 5 5 5 6 5 5 5 5 5 6 6 5 5 5 6 6 6 5 5 5 5 5 6 5 5 5 5 5 6 5 5 5 5 6 5 6 6 5 6 6 5 5 5 6 5 5 5 6 5 5 5 6 5 5 5 6 5 5 5 5 5 5 5 5 6 5 5 5 6 5 5 5 5 5 5 6 5 5 5 5 5 5 6 5 5 5 5 5 5 5 5 5 5 5 5 5 5 6 5 6 5 5 5 6 5 5 6 5 6 5 6 5 5 6 5 5 5 5 5 5 6 5 5 5 5 6 5 5 5 5 5 5 6 5 5 5 5 5 5 5 5 5 5 6 5 5 5 5 5 5 5 5 5 5 5 5 5 5 5 5 5 5 5 6 6 5 5 5 6 5 5 6 5 5 6 5 5 6 5 5 6 6 5 5 5 5 6 5 5 5 5 5 5 5 5 5 5 5 6 6 5 5 5 6 5 6 5 6 5 5 5 5 5 6 5 5 6 5 6 5 5 6 6 6 5 5 5 5 6 5 5 6 5 6 5 5 6 5 5 5 5 5 5 5 5 6 5 6 6 5 5 5 5 5 6 6 5 5 5 6 6 5 5 5 5 5 5 5 5 6 5 6 5 5 5 5 5 5 5 5 5 5 5 5 5 5 5 5 5 5 5 5 5 5 5 5 5 5 5 5 5 6 5 5 5 5 5 5 5 5 5 5 5 5 5 5 5 6 5 5 6 5 5 5 5 5 6 5 5 5 5 5 5 5 5 5 5 5 5 5 6 5 5 5 5 5 5 5 5 5 6 5 5 6 5 5 5 5 6 6 6 5 5 5 5 5 6 5 5 5 
</DataArray>
<DataArray type="Float64" Name="stress" NumberOfComponents="9" format="ascii">
-5290365400.5074158 1518964.4800140711 0 1518964.4800140711 -2085938.7152684696 0 0 0 0 -6609224575.1475677 1866965325.0471275 0 1866965325.0471275 231289.84575663926 0 0 0 0 -11754861.813361719 2047457.3159139901 0 2047457.3159139901 384204.08123962174 0 0 0 0 -6169239738.3887939 1822449528.766923 0 1822449528.766923 -141362581.23457527 0 0 0 0 -4639591918.6779022 679479004.31571698 0 679479004.31571698 -2579133.9796029753 0 0 0 0 -4332668774.4903259 1314782241.9847245 0 1314782241.9847245 416698411.95116699 0 0 0 0 -4548071933.6145935 930115370.85279191 0 930115370.85279191 -257365214.875938 0 0 0 0 -12127660.963556513 1693400.8814963922 0 1693400.8814963922 682244.69732985599 0 0 0 0 -5177311391.0291138 943154966.57028091 0 943154966.57028091 767547233.7147212 0 0 0 0 -4743858120.5819092 1571240664.2781739 0 1571240664.2781739 1164917544.95351 0 0 0 0 -4746131928.6928434 1301260249.5420456 0 1301260249.5420456 449618092.52953768 0 0 0 0 -3292826456.2122498 1561153602.0466766 0 1561153602.0466766 75746670.730888605 0 0 0 0 -4219248109.3823547 1722429168.9360907 0 1722429168.9360907 107563543.02241337 0 0 0 0 -4495312407.1043091 3105239352.502037 0 3105239352.502037 240881317.04888707 0 0 0 0 -6608220008.2134705 2265218504.3151922 0 2265218504.3151922 1081433938.4795938 0 0 0 0 -1539753043.1442871 559511868.86217511 0 559511868.86217511 -432519668.10277879 0 0 0 0 -3406289148.7346191 1286320535.5797949 0 1286320535.5797949 -164560884.91242936 0 0 0 0 -1908178970.362854 939456786.76190734 0 939456786.76190734 -215524158.00876337 0 0 0 0 -1999648875.5165863 149758697.89839441 0 149758697.89839441 -29447666.727686048 0 0 0 0 -1097025986.9884949 761827514.73086858 0 761827514.73086858 -549119468.92350256 0 0 0 0 -1256600.0790225416 235591.81090334803 0 235591.81090334803 -578189.57896479499 0 0 0 0 -3705757078.006134 564947092.47350407 0 564947092.47350407 327325491.74329317 0 0 0 0 -3566561604.2078857 638333728.58501828 0 638333728.58501828 -213991393.9991076 0 0 0 0 -4186754324.0133057 1110563074.3883829 0 1110563074.3883829 -147291333.43371597 0 0 0 0 -3752342684.2803192 604632392.96455133 0 604632392.96455133 1125005.2780862702 0 0 0 0 -2802468.4625621513 817260.83405900002 0 817260.83405900002 -341063.65648419294 0 0 0 0 -1315387705.6596069 176228946.53466681 0 176228946.53466681 53887378.930700511 0 0 0 0 -3411051801.1859741 775927080.95174778 0 775927080.95174778 -102017667.40883026 0 0 0 0 -1207587142.0820312 165067757.70344523 0 165067757.70344523 168651.5710189899 0 0 0 0 -1096920079.503418 211763478.460217 0 211763478.460217 -12669408.298639655 0 0 0 0 -1097060246.1200309 339346623.84908384 0 339346623.84908384 84018693.492899358 0 0 0 0 -1232464472.2341766 229706990.55425382 0 229706990.55425382 35740405.708141685 0 0 0 0 -439174177.15789795 -263242571.24153566 0 -263242571.24153566 221696135.65505737 0 0 0 0 -2325303.0461776704 -889745.30575189739 0 -889745.30575189739 153781.29607353781 0 0 0 0 -268373950.55654907 258071433.27089792 0 258071433.27089792 -158462396.75171486 0 0 0 0 -677711355.16589355 207266501.27920568 0 207266501.27920568 -59193.988440048139 0 0 0 0 -656128739.55307007 422545390.46040368 0 422545390.46040368 -72658264.135062218 0 0 0 0 -683868959.73049927 188837113.42087677 0 188837113.42087677 -47854731.67822279 0 0 0 0 -1636326163.2528381 779823383.06250858 0 779823383.06250858 -297171655.51976949 0 0 0 0 -2801105303.5080261 1146064567.325959 0 1146064567.325959 -40828019.18961215 0 0 0 0 -1669694037.0914917 67618173.674025774 0 67618173.674025774 506122105.2508359 0 0 0 0 -955811343.92930603 253252307.74213746 0 253252307.74213746 83897273.550835609 0 0 0 0 -5017407.2751083821 -2547548.9934301302 0 -2547548.9934301302 -251916.01329745783 0 0 0 0 -889990087.7354126 10700266.603885859 0 10700266.603885859 159491449.48696518 0 0 0 0 -194977192.49197388 -22517953.744742393 0 -22517953.744742393 97652627.20907712 0 0 0 0 -1061226176.8988342 -78031758.787343502 0 -78031758.787343502 267028269.65150833 0 0 0 0 -346061736.41949463 68798715.631173134 0 68798715.631173134 126197890.37561846 0 0 0 0 -1160319480.5668182 -349118967.50516701 0 -349118967.50516701 187579834.95959568 0 0 0 0 -1677909524.9109802 -47698795.044527054 0 -47698795.044527054 537179397.0282135 0 0 0 0 -2887345550.6248627 363699844.74666166 0 363699844.74666166 179727894.68922377 0 0 0 0 -1810144013.1942139 -32978692.67679736 0 -32978692.67679736 -57187633.153418064 0 0 0 0 -1130745971.8127441 312825074.15371126 0 312825074.15371126 -291186281.22049361 0 0 0 0 -1072608550.6098938 710034868.07923377 0 710034868.07923377 -292605852.00118202 0 0 0 0 -2357091.94921875 -347719135.17728662 0 -347719135.17728662 226374576.82522583 0 0 0 0 -5359598.731400162 -3386120.4384057149 0 -3386120.4384057149 -1010398.8958655123 0 0 0 0 356108.83781188726 -77433.505402646959 0 -77433.505402646959 -916019.20314615627 0 0 0 0 -2232488057.9987583 490286957.9604243 0 490286957.9604243 -755670954.54621792 0 0 0 0 -2272274486.7997131 958371392.26059079 0 958371392.26059079 -257414959.89271963 0 0 0 0 -1578005024.1351929 103935873.29420662 0 103935873.29420662 -543779056.54788876 0 0 0 0 -1519106235.4641418 130105287.39301181 0 130105287.39301181 -81751912.875263453 0 0 0 0 -1472102494.3899536 323493958.31744361 0 323493958.31744361 -285741093.182585 0 0 0 0 532177965.33614731 -217976798.04026312 0 -217976798.04026312 -311022626.19097424 0 0 0 0 -1279921164.5322571 -751799804.90488434 0 -751799804.90488434 -42134663.064715862 0 0 0 0 -869844752.4538269 -162545675.18943012 0 -162545675.18943012 -237718488.50011778 0 0 0 0 -1289752.8071727175 -2360942.8984514475 0 -2360942.8984514475 -3999667.4242676701 0 0 0 0 -1302438510.2765198 -142594117.15195513 0 -142594117.15195513 47389148.573889256 0 0 0 0 -943325991.22463989 -147245469.8102212 0 -147245469.8102212 25831131.977065086 0 0 0 0 -863594993.80988312 92670167.77105549 0 92670167.77105549 -68257576.019461155 0 0 0 0 -1098752315.1701431 186005852.61687952 0 186005852.61687952 -101778878.31191015 0 0 0 0 -1927494056.6843262 -460019529.7370677 0 -460019529.7370677 42256121.287356377 0 0 0 0 -1296236403.2731018 -117431111.77463341 0 -117431111.77463341 170353865.61975479 0 0 0 0 -967828372.11721802 -469549360.3332181 0 -469549360.3332181 49054948.790090561 0 0 0 0 -136593065.22677612 -249871778.07713509 0 -249871778.07713509 -29213409.697534561 0 0 0 0 -80684705.873077393 476697850.8074131 0 476697850.8074131 -390226258.81089211 0 0 0 0 -739533806.91574097 -9788119.2193870544 0 -9788119.2193870544 -238791091.92056942 0 0 0 0 -438311998.05010986 -403657380.06042814 0 -403657380.06042814 168592172.41330338 0 0 0 0 -869518105.03134918 -362732716.79788947 0 -362732716.79788947 -821702581.77937889 0 0 0 0 -1974415983.1231384 -191064014.71445084 0 -191064014.71445084 -353596112.50160408 0 0 0 0 -1909411725.2702789 -262841361.43986273 0 -262841361.43986273 -367346474.9588623 0 0 0 0 -1287201497.8852844 413719468.20957041 0 413719468.20957041 -899237418.19611549 0 0 0 0 -728103501.62246704 -288558190.16707277 0 -288558190.16707277 -106509185.78628731 0 0 0 0 -362180020.66055298 398480135.89382029 0 398480135.89382029 150245108.50089788 0 0 0 0 -403023806.06164551 -166455934.15539527 0 -166455934.15539527 344832643.06943607 0 0 0 0 -1108530593.9064636 473859405.82607222 0 473859405.82607222 -138811633.34223887 0 0 0 0 -1107536151.8080208 -288016837.1912086 0 -288016837.1912086 150466694.30691338 0 0 0 0 -1171917475.0737 -221470358.60663152 0 -221470358.60663152 134048550.03315067 0 0 0 0 612473816.74263 71383425.004350662 0 71383425.004350662 -477364977.94567776 0 0 0 0 -689053.31128813326 -1081878.1834795251 0 -1081878.1834795251 -2661060.7070070896 0 0 0 0 -426271346.06536865 541514406.04245615 0 541514406.04245615 272199004.52543187 0 0 0 0 -243910234.73513794 679763276.73972464 0 679763276.73972464 451552852.68738246 0 0 0 0 -676432555.71730423 322719741.86518377 0 322719741.86518377 545582799.6416235 0 0 0 0 -518042443.40609741 -155563293.62558794 0 -155563293.62558794 -194571924.95343685 0 0 0 0 -686957210.25872803 726576911.58816636 0 726576911.58816636 671091936.85633469 0 0 0 0 -318365518.10595703 309329715.94933677 0 309329715.94933677 98440792.113173962 0 0 0 0 -11691230.770568848 947702496.33433867 0 947702496.33433867 223744151.40324879 0 0 0 0 200379272.6913147 710972381.55551529 0 710972381.55551529 594240576.47350264 0 0 0 0 8222667.2569580078 1050658154.4699855 0 1050658154.4699855 794592051.63861465 0 0 0 0 765371294.84738159 938698790.79155922 0 938698790.79155922 538601358.60444069 0 0 0 0 756106590.55209351 1120332521.673954 0 1120332521.673954 547740279.74834156 0 0 0 0 -9521359.8705892228 5400602.7722972035 0 5400602.7722972035 -4918010.0251296889 0 0 0 0 -6615146240.9459534 309119120.70374107 0 309119120.70374107 -153421830.1885075 0 0 0 0 -5352607846.4664116 1943804311.6635308 0 1943804311.6635308 -708418456.934726 0 0 0 0 1190325359.3778534 824279614.74847412 0 824279614.74847412 481166009.19778538 0 0 0 0 -3201795.5813388266 1842744.2363662273 0 1842744.2363662273 -2075272.3041376742 0 0 0 0 2083612175.8867188 531253836.43753004 0 531253836.43753004 436093669.31326139 0 0 0 0 -10521759072.712692 3738024284.0544291 0 3738024284.0544291 -1179239863.8629389 0 0 0 0 5240531085.554657 1431377647.6130319 0 1431377647.6130319 -1441204267.7067242 0 0 0 0 -259006726.17224121 1041011909.0388861 0 1041011909.0388861 680204564.75128889 0 0 0 0 932617710.98190308 1688702939.9534411 0 1688702939.9534411 174640264.34080029 0 0 0 0 -141276072.04252625 1028708758.6765447 0 1028708758.6765447 -580672682.38417721 0 0 0 0 1722431380.5860596 3463630894.2904305 0 3463630894.2904305 -1787208530.7349434 0 0 0 0 -519784163.19061279 1430614879.0336771 0 1430614879.0336771 212029080.77532649 0 0 0 0 -3961635870.0976562 4167738836.8065863 0 4167738836.8065863 -920173578.24847186 0 0 0 0 -6617384735.7682648 5970062948.5020103 0 5970062948.5020103 -2034608291.2458749 0 0 0 0 -4774151045.18367 3314200187.500463 0 3314200187.500463 44068579.254487894 0 0 0 0 -4019458857.4176636 2956584270.6298022 0 2956584270.6298022 193187900.04408333 0 0 0 0 -2833951215.9273071 2018204511.2627079 0 2018204511.2627079 -477810473.23575044 0 0 0 0 -1662299869.7774124 1706694962.2503328 0 1706694962.2503328 -394995921.20144504 0 0 0 0 -2965899468.9483948 3694020647.6427641 0 3694020647.6427641 -711753809.66840935 0 0 0 0 -1879473923.6281738 913170928.15318799 0 913170928.15318799 -432726007.87038267 0 0 0 0 -1276227449.7460632 755632414.34989524 0 755632414.34989524 -285706096.54926205 0 0 0 0 -1171447220.0009766 818727199.99337339 0 818727199.99337339 -477586567.07906544 0 0 0 0 -1689712889.8910866 525291706.08908588 0 525291706.08908588 -392482290.16702092 0 0 0 0 -1216907582.927002 420714055.78218818 0 420714055.78218818 -374019103.65404212 0 0 0 0 -1418642223.7294006 512285768.72920138 0 512285768.72920138 -223183334.61493492 0 0 0 0 -1098673253.7857666 293163944.64318812 0 293163944.64318812 156628942.1966725 0 0 0 0 -772608603.56546021 346442876.1214934 0 346442876.1214934 -201811641.678092 0 0 0 0 -837878337.35359192 882471853.73181856 0 882471853.73181856 -270770504.50172043 0 0 0 0 -950576807.01416016 696705984.92121172 0 696705984.92121172 188194071.12478566 0 0 0 0 -1359096715.7243652 1645917208.6949403 0 1645917208.6949403 -774933334.08729339 0 0 0 0 18625768.009140015 -77332831.143537477 0 -77332831.143537477 71215721.733126193 0 0 0 0 -2500494.6765136719 -109005868.6328664 0 -109005868.6328664 172252311.72477549 0 0 0 0 147931478.14257812 -224973064.54377836 0 -224973064.54377836 224321968.84101504 0 0 0 0 -138084476.0925293 -100726800.95359404 0 -100726800.95359404 252158230.88079262 0 0 0 0 -123152675.28520584 -34041899.695589408 0 -34041899.695589408 239106518.19920349 0 0 0 0 -214761973.99819946 -22381801.735688403 0 -22381801.735688403 238060990.85112867 0 0 0 0 -40688432.840576172 -126053715.90119009 0 -126053715.90119009 231722492.39086476 0 0 0 0 -7294248.8564758301 -91951971.703258127 0 -91951971.703258127 260315636.12336564 0 0 0 0 -359886212.5080719 -53618148.607720487 0 -53618148.607720487 -747454.0746928046 0 0 0 0 -224495772.8208313 -155381304.16423881 0 -155381304.16423881 23710935.220545292 0 0 0 0 -100714390.99113464 -60678654.482995227 0 -60678654.482995227 8386174.5657155067 0 0 0 0 -150194147.99835968 -41247753.711553127 0 -41247753.711553127 181844896.80567342 0 0 0 0 -76711916.151504517 -106147001.94353795 0 -106147001.94353795 44517215.955410957 0 0 0 0 -105321570.04457092 -69402055.032241195 0 -69402055.032241195 177620.43084644206 0 0 0 0 -77794968.936060429 -75781023.929456115 0 -75781023.929456115 149814112.08414009 0 0 0 0 -140457133.52275085 -14937051.332508445 0 -14937051.332508445 388120103.42533892 0 0 0 0 -104502056.53533936 -63322969.469592556 0 -63322969.469592556 190619456.41497245 0 0 0 0 -63828900.797271729 15005633.838950947 0 15005633.838950947 168620906.19651097 0 0 0 0 37217007.189086914 184106956.26885152 0 184106956.26885152 351299554.98421419 0 0 0 0 -1727845.6796855927 -1497181.868932955 0 -1497181.868932955 -821632.11064179242 0 0 0 0 95353040.822769165 234628229.49715412 0 234628229.49715412 362193610.00178725 0 0 0 0 -1832438.1117369346 -752627.68621202558 0 -752627.68621202558 1572225.1450764125 0 0 0 0 -141617764.21569824 77847528.634301931 0 77847528.634301931 624486973.14551473 0 0 0 0 -138145362.37802124 -136073500.47767147 0 -136073500.47767147 189611181.28424641 0 0 0 0 -112181012.04273987 -166680140.64684692 0 -166680140.64684692 18240.046382756307 0 0 0 0 -203572018.75067139 22900698.616925813 0 22900698.616925813 -73312102.863565177 0 0 0 0 -597466289.00762939 -116196032.54776077 0 -116196032.54776077 -418724.60062241432 0 0 0 0 -268019580.89122009 -261717090.26072851 0 -261717090.26072851 183158143.86141449 0 0 0 0 -369930922.13137817 241251468.77657175 0 241251468.77657175 113548622.5546734 0 0 0 0 -1287437175.0614624 -112832959.71975188 0 -112832959.71975188 54546840.194975063 0 0 0 0 -1316732561.3204041 285553493.08384049 0 285553493.08384049 -39026731.391865253 0 0 0 0 -1465918636.71521 5517744.6041736305 0 5517744.6041736305 -372218781.365399 0 0 0 0 -2445573541.074707 413225183.37158263 0 413225183.37158263 48704.591448722902 0 0 0 0 -2573401148.5814209 -24804986.751132429 0 -24804986.751132429 54751107.489737928 0 0 0 0 -2002153554.0527954 -3883371.0586967468 0 -3883371.0586967468 387276681.10811692 0 0 0 0 -1517238352.0839081 361911577.17345446 0 361911577.17345446 76320552.246092081 0 0 0 0 -1623514878.4682007 -26501822.112268925 0 -26501822.112268925 649434452.06782079 0 0 0 0 -1415895680.3497009 188620508.13731194 0 188620508.13731194 421254292.99184966 0 0 0 0 -1414423678.0403137 215461246.62458491 0 215461246.62458491 864037450.80365109 0 0 0 0 -1289772957.2573547 -180658832.89528179 0 -180658832.89528179 786129200.85006905 0 0 0 0 -549086693.31599426 78974367.823337317 0 78974367.823337317 64454694.328220367 0 0 0 0 -1582588045.995636 82823147.121527195 0 82823147.121527195 464487977.75250101 0 0 0 0 -1335576030.4228134 -11441432.19780767 0 -11441432.19780767 468023434.40229607 0 0 0 0 -1854590956.7715874 112510808.34932691 0 112510808.34932691 -512291329.89312553 0 0 0 0 -2120801657.9048157 -179170371.33929729 0 -179170371.33929729 346909866.73678398 0 0 0 0 -1193900071.6949463 888059606.76981544 0 888059606.76981544 -398005310.22630882 0 0 0 0 -576782226.86402893 -41809730.476723194 0 -41809730.476723194 143019040.43499279 0 0 0 0 204559399.17755127 151908674.06613636 0 151908674.06613636 -260985067.38325906 0 0 0 0 -12946374.901024461 6402733.9754260862 0 6402733.9754260862 1746626.0583204883 0 0 0 0 -236072937.775177 -13826979.291810513 0 -13826979.291810513 182161849.72924805 0 0 0 0 -3905608949.0650024 618917800.06698322 0 618917800.06698322 -88066116.974185944 0 0 0 0 -1606479.984072715 -64194.383887524484 0 -64194.383887524484 671374.33364050137 0 0 0 0 -4104738830.8066101 -17154426.974779129 0 -17154426.974779129 -204689965.02863121 0 0 0 0 -2041757.8996570557 2313635.4682786912 0 2313635.4682786912 221758.98955033161 0 0 0 0 -1979518048.6772356 -422081278.80646342 0 -422081278.80646342 -1461330657.8497925 0 0 0 0 -3036771201.2754517 684955704.17721367 0 684955704.17721367 -1102598658.0804324 0 0 0 0 -2148137792.8830566 -1478877909.3703408 0 -1478877909.3703408 -1043774383.9058666 0 0 0 0 -4392619720.0349731 -1054541519.9880519 0 -1054541519.9880519 -202119190.64252472 0 0 0 0 -3233683316.0490112 -2278510457.4145775 0 -2278510457.4145775 -1362028570.9494696 0 0 0 0 -2322996063.1410217 -713868352.8431015 0 -713868352.8431015 186715220.54307842 0 0 0 0 -2894948943.2033691 -408327068.2684617 0 -408327068.2684617 33973340.383972168 0 0 0 0 -2086491208.5106812 285263121.3010025 0 285263121.3010025 -114108131.62236214 0 0 0 0 -1880703429.6264648 -379105242.60728359 0 -379105242.60728359 422593838.05354786 0 0 0 0 -1930241012.063385 -421930029.4998455 0 -421930029.4998455 761740951.29267883 0 0 0 0 -2176761559.0662079 -920174047.44598067 0 -920174047.44598067 199575370.48898602 0 0 0 0 -1965168232.4420166 -845832522.97838187 0 -845832522.97838187 -125828152.39552784 0 0 0 0 -81773799.888381958 12741147.81135273 0 12741147.81135273 29155706.144613266 0 0 0 0 -26645831.725494385 4251686.9372649193 0 4251686.9372649193 8635303.1390590668 0 0 0 0 -6154367.2750896662 -1535873.3844517693 0 -1535873.3844517693 12788900.586743979 0 0 0 0 29076277.767883301 41657852.222475052 0 41657852.222475052 -9007234.7151079178 0 0 0 0 -5346693.9049936105 4519268.780633226 0 4519268.780633226 -7720923.5367250098 0 0 0 0 -42402898.063552856 61034087.758939028 0 61034087.758939028 9829703.2004585266 0 0 0 0 20688730.021118164 -64728184.988021851 0 -64728184.988021851 -68665245.63975811 0 0 0 0 -27853118.315704346 6025022.1369752884 0 6025022.1369752884 -6927241.8464813232 0 0 0 0 -13551560.786834717 29924234.345304489 0 29924234.345304489 -19358271.206587791 0 0 0 0 -15009965.496109009 7469401.417755127 0 7469401.417755127 -8300848.8993241787 0 0 0 0 -10668166.439117432 4015448.3094627857 0 4015448.3094627857 -5554420.0835189819 0 0 0 0 -28482962.560943604 -1532033.9753277302 0 -1532033.9753277302 8382237.5785083771 0 0 0 0 -12007645.631714597 47190.787009170279 0 47190.787009170279 -4102809.5155869322 0 0 0 0 -50959150.5652771 170620740.23604774 0 170620740.23604774 -261354900.19122505 0 0 0 0 -7139897.1779574454 -299251.70159865916 0 -299251.70159865916 5413252.6735079968 0 0 0 0 -17710391.503318787 1589178.0718251169 0 1589178.0718251169 -2955890.9317271709 0 0 0 0 -16816640.36819458 -4666194.9494892359 0 -4666194.9494892359 -4116443.6309726238 0 0 0 0 -47261133.109481812 -13078904.532640219 0 -13078904.532640219 26330813.984868407 0 0 0 0 -48531530.95357132 -43225215.941068999 0 -43225215.941068999 -26589517.388858557 0 0 0 0 -69589933.68447876 33358799.602512687 0 33358799.602512687 139051762.60563877 0 0 0 0 -44773994.919555664 6564376.5883444846 0 6564376.5883444846 135696753.75019115 0 0 0 0 -6632606.3228447735 -5216251.5300261229 0 -5216251.5300261229 -2743594.3969085477 0 0 0 0 -42093437.095062256 -6951022.9836043771 0 -6951022.9836043771 151218297.84917662 0 0 0 0 -27425504.307037354 -22221421.7671538 0 -22221421.7671538 -7233104.3043551445 0 0 0 0 -11846442.72818397 -3580288.4707384398 0 -3580288.4707384398 -6843496.5094052739 0 0 0 0 -1832162.2373657227 3950729.6946277618 0 3950729.6946277618 -17310176.565819025 0 0 0 0 -8385970.7603988647 8086931.8611398339 0 8086931.8611398339 -18546028.661736488 0 0 0 0 5111759.4525604248 10550937.523790002 0 10550937.523790002 -18699586.959930897 0 0 0 0 14664128.128845215 -3236203.492903471 0 -3236203.492903471 -23359588.380685933 0 0 0 0 4396341.5312652588 6736988.1056185961 0 6736988.1056185961 -27076263.948415756 0 0 0 0 -5700435.9592285156 -3158829.7788282633 0 -3158829.7788282633 -23349650.593000889 0 0 0 0 -10449777.590383038 -8691822.3278465122 0 -8691822.3278465122 -14379224.970311288 0 0 0 0 -12422961.996011183 -14604932.278207555 0 -14604932.278207555 -24328367.791111991 0 0 0 0 -16577153.712554932 -57123447.416389465 0 -57123447.416389465 73134034.595870972 0 0 0 0 -1960679020.6015778 1579785066.8709297 0 1579785066.8709297 856203133.79366302 0 0 0 0 -1831288.2741491497 -4723790.0024882257 0 -4723790.0024882257 -5844934.4366347194 0 0 0 0 -395557988.43765259 -2239531922.0890446 0 -2239531922.0890446 -1884854668.8162403 0 0 0 0 -14067831.494253054 -12313279.520642355 0 -12313279.520642355 -12306283.512646809 0 0 0 0 -3020772761.7293625 2169667570.8731785 0 2169667570.8731785 1725553551.1239548 0 0 0 0 -179501.45141230524 -4275949.6557231583 0 -4275949.6557231583 -3182401.7983157742 0 0 0 0 -13786061.250007883 -9109807.4044701345 0 -9109807.4044701345 -6982170.8800781164 0 0 0 0 -1346128.3483886719 -51596048.247650288 0 -51596048.247650288 26421557.669215627 0 0 0 0 -6540705.3961486816 -7699751.7304592133 0 -7699751.7304592133 -2682613.888543129 0 0 0 0 -37953464.171264648 -22438740.783793867 0 -22438740.783793867 80020141.286549389 0 0 0 0 -16833514.221781462 -16403247.325422958 0 -16403247.325422958 -13056627.791274041 0 0 0 0 -8680842.8333892822 -45411447.739409283 0 -45411447.739409283 103096413.62756103 0 0 0 0 -2368939821.9260559 -109231230.14606476 0 -109231230.14606476 -32621166.787773132 0 0 0 0 -790008028.72280884 -185645792.66625786 0 -185645792.66625786 31509408.433403015 0 0 0 0 -648754560.2331543 -140457300.52885056 0 -140457300.52885056 -27679475.681529999 0 0 0 0 -305046705.19630432 -150963883.12559128 0 -150963883.12559128 -97602002.378250122 0 0 0 0 -302818902.12944794 -129534039.19944501 0 -129534039.19944501 66016835.184837341 0 0 0 0 -398964354.61723328 -195214747.24990845 0 -195214747.24990845 4865633.8321895599 0 0 0 0 -723168301.16474915 -52408135.621543884 0 -52408135.621543884 74919114.824466705 0 0 0 0 -787417590.27577209 77269054.607139587 0 77269054.607139587 67304457.097732544 0 0 0 0 -773455849.58460999 -221965367.30221939 0 -221965367.30221939 74377319.672111511 0 0 0 0 -516555193.71041107 53851450.521453857 0 53851450.521453857 128869728.33480453 0 0 0 0 192962199.53569031 -254426706.34747314 0 -254426706.34747314 18364041.637095451 0 0 0 0 -298619809.07888031 -28079921.179631233 0 -28079921.179631233 118711552.88685226 0 0 0 0 -10192052.569829345 -13196913.40440876 0 -13196913.40440876 -26123677.805247337 0 0 0 0 42480341.154907227 -1260745.7746369839 0 -1260745.7746369839 -25432783.049632192 0 0 0 0 119550373.62857056 -9922624.5986833572 0 -9922624.5986833572 -44981293.304155827 0 0 0 0 6399738.942199707 41901290.841618657 0 41901290.841618657 -21519772.703634739 0 0 0 0 -19742136.247894287 26991749.956389189 0 26991749.956389189 -14571214.52980423 0 0 0 0 50367045.425537109 -25013945.862395287 0 -25013945.862395287 -26767.466156959534 0 0 0 0 51736590.065734863 48944044.692533493 0 48944044.692533493 -31462510.722103596 0 0 0 0 481397949.96910095 -26463242.29724741 0 -26463242.29724741 -98633488.774134159 0 0 0 0 -10884766.947844818 -11857758.49178721 0 -11857758.49178721 -25973828.907854222 0 0 0 0 62951607.207580566 273980896.14466047 0 273980896.14466047 179319020.49430704 0 0 0 0 207698827.9468689 -66911895.372583389 0 -66911895.372583389 -87589832.292308807 0 0 0 0 323644821.17486572 -341253167.46807289 0 -341253167.46807289 91332754.270523071 0 0 0 0 72629701.949127197 -125563542.44615555 0 -125563542.44615555 -29672641.609104156 0 0 0 0 75146196.921875 -67062336.941589355 0 -67062336.941589355 -155330367.60268784 0 0 0 0 511152277.08067322 -239569255.91526413 0 -239569255.91526413 -92776350.448158264 0 0 0 0 311199218.80554199 -31810835.273208618 0 -31810835.273208618 -37891540.559967041 0 0 0 0 -14741958.697447538 -9343819.8112784922 0 -9343819.8112784922 -23680169.183899853 0 0 0 0 254344706.00253296 46184024.529489517 0 46184024.529489517 -1330128674.5916781 0 0 0 0 831236509.19729614 -613142606.06722736 0 -613142606.06722736 -1031760135.0646834 0 0 0 0 -574997177.99165344 -102652918.41616076 0 -102652918.41616076 286579849.66337681 0 0 0 0 -421167301.67755127 96070526.648918152 0 96070526.648918152 351701118.93271732 0 0 0 0 -145164.44121905789 -477329.24072041363 0 -477329.24072041363 -2063351.6973562841 0 0 0 0 262480962.05270386 -290398174.57625014 0 -290398174.57625014 -368612619.73361367 0 0 0 0 -787752235.98419189 -878568866.16884542 0 -878568866.16884542 -44091825.640607253 0 0 0 0 79221580.864196777 -538803590.97974169 0 -538803590.97974169 216783.34990596771 0 0 0 0 -720602548.05554199 -483973639.83658981 0 -483973639.83658981 52168442.920501709 0 0 0 0 -430326686.28900146 -194991076.6890955 0 -194991076.6890955 700410601.01748943 0 0 0 0 1477138890.1021729 554262417.07658279 0 554262417.07658279 -2059254491.8410373 0 0 0 0 -395231.98095691204 -403795.38533326983 0 -403795.38533326983 423052.08286818268 0 0 0 0 -214884074.65255737 -67192787.649497777 0 -67192787.649497777 -80722823.274067402 0 0 0 0 -180453433.415802 -85064227.805647373 0 -85064227.805647373 -123432203.88185883 0 0 0 0 38946760.703338623 164852758.53514004 0 164852758.53514004 -98671308.127671331 0 0 0 0 -911478.34094155952 110715.84023487568 0 110715.84023487568 -5214183.9782095486 0 0 0 0 -238207817.23707581 61799180.538146019 0 61799180.538146019 11052517.634315729 0 0 0 0 -73314488.091827393 21271959.551929712 0 21271959.551929712 -2866131.2575511932 0 0 0 0 -19696899.593547821 27810864.646254927 0 27810864.646254927 -30196798.288937092 0 0 0 0 -38838189.375091553 43007607.456085682 0 43007607.456085682 -21834276.700143814 0 0 0 0 -20113673.453735352 22580969.28168869 0 22580969.28168869 -19928385.023732901 0 0 0 0 161935579.45690918 130461069.91944814 0 130461069.91944814 -22223123.82267189 0 0 0 0 -237460746.29220581 188962506.77986431 0 188962506.77986431 238324314.15877533 0 0 0 0 -2368082.9244819861 1472908.8013450205 0 1472908.8013450205 -7039488.2665807791 0 0 0 0 -314124882.15179443 -54620586.661519527 0 -54620586.661519527 156935411.47178888 0 0 0 0 299399846.08024216 -63228432.175482333 0 -63228432.175482333 -401683058.75887966 0 0 0 0 -3271672753.5776062 1481866579.4349482 0 1481866579.4349482 750515186.25121164 0 0 0 0 961337249.97106934 -480680462.6907196 0 -480680462.6907196 -3206644589.1786971 0 0 0 0 -2090306270.2033081 -210823618.98972058 0 -210823618.98972058 593835440.54176259 0 0 0 0 -1297756570.0562592 732865895.99958217 0 732865895.99958217 1000359688.6719346 0 0 0 0 -2775267.7514977902 -641726.83600956947 0 -641726.83600956947 5434784.8716821773 0 0 0 0 -1239280228.0492859 -201251506.24175513 0 -201251506.24175513 774357648.5353229 0 0 0 0 -1932575890.8266602 -662267048.41567969 0 -662267048.41567969 1667381494.6087937 0 0 0 0 -3366056444.9770508 -114701712.92032194 0 -114701712.92032194 1906592786.4764614 0 0 0 0 -1523074563.3491669 -1287990196.2544725 0 -1287990196.2544725 2250378807.8572197 0 0 0 0 -4325011897.9450684 711674223.66235852 0 711674223.66235852 295966694.17532611 0 0 0 0 20708180.578048706 2096359242.3789511 0 2096359242.3789511 -4770874339.7000504 0 0 0 0 -10033940.429062992 3653724.7319528423 0 3653724.7319528423 501796.44938414608 0 0 0 0 -1349440089.1992493 -1644722570.4568019 0 -1644722570.4568019 -1979942024.9224741 0 0 0 0 -615946049.48327637 1134410335.501807 0 1134410335.501807 305266912.90622365 0 0 0 0 -1891679527.2353058 37169192.422110558 0 37169192.422110558 585984007.83459759 0 0 0 0 -478940598.4597168 216898249.80187225 0 216898249.80187225 597257204.09293723 0 0 0 0 339416267.45797729 1136210309.3921995 0 1136210309.3921995 161415901.31594849 0 0 0 0 1149218596.9724426 729769876.06496382 0 729769876.06496382 -107159719.50416183 0 0 0 0 -1560299442.8651505 582693786.297575 0 582693786.297575 -241479788.28980637 0 0 0 0 -4417742.6400717571 -3254250.5136872381 0 -3254250.5136872381 2099237.7558738645 0 0 0 0 295741170.55511475 43982810.05681324 0 43982810.05681324 300394127.54822445 0 0 0 0 -466526400.28460693 -34908957.438185692 0 -34908957.438185692 -170420873.85716701 0 0 0 0 -525938251.99072266 295930299.85771561 0 295930299.85771561 472471236.60027885 0 0 0 0 -115187150.77459717 390011734.11118698 0 390011734.11118698 490552838.11211252 0 0 0 0 -733349956.08502197 39214923.870797157 0 39214923.870797157 507377743.90981102 0 0 0 0 -383831434.40344238 165805336.64652824 0 165805336.64652824 488297332.44984508 0 0 0 0 -569117613.17483521 -102937719.39464283 0 -102937719.39464283 425562428.42867088 0 0 0 0 -343914052.71994019 131058035.21922207 0 131058035.21922207 490755219.2635231 0 0 0 0 262769512.44896698 268056560.79591024 0 268056560.79591024 335278814.67519379 0 0 0 0 -143721123.43017578 196173335.0527935 0 196173335.0527935 441897228.93445683 0 0 0 0 -103258123.31652832 156109719.41131401 0 156109719.41131401 380242090.76247978 0 0 0 0 -43718659.438415527 180737817.2422905 0 180737817.2422905 356375770.8808794 0 0 0 0 20292706.495300293 113706508.21540165 0 113706508.21540165 99625707.237401962 0 0 0 0 -99829527.920410156 112879415.30328083 0 112879415.30328083 311174099.17862701 0 0 0 0 -196525827.87042236 10974230.64455986 0 10974230.64455986 373727708.59864616 0 0 0 0 -243049612.1673584 151450615.6543808 0 151450615.6543808 426035183.17070007 0 0 0 0 -287805635.2532196 35179611.338069439 0 35179611.338069439 407530213.56929779 0 0 0 0 -124233217.70437622 58091387.020294666 0 58091387.020294666 209784881.75197601 0 0 0 0 -89529459.759674072 43868206.778276443 0 43868206.778276443 191862249.70936966 0 0 0 0 -112719679.83398438 108305207.00433922 0 108305207.00433922 309557737.33897305 0 0 0 0 -113951869.95259094 38293439.050846577 0 38293439.050846577 -18066245.040206909 0 0 0 0 -21590706.461747091 28003.732646808028 0 28003.732646808028 11500870.35115804 0 0 0 0 -8432477.2600067556 7457775.1299650557 0 7457775.1299650557 2421077.8886936745 0 0 0 0 -313596034.67541504 -188034006.42650414 0 -188034006.42650414 491250343.17315483 0 0 0 0 28900995.706207275 147830922.99341393 0 147830922.99341393 222294221.87631226 0 0 0 0 -91045072.361541748 -36605692.842166901 0 -36605692.842166901 225960360.81492615 0 0 0 0 34817035.152069092 62893119.67972374 0 62893119.67972374 345473037.15361309 0 0 0 0 14064868.478111267 306365598.58788061 0 306365598.58788061 -74110904.030578613 0 0 0 0 -38096843.875505865 23216054.271009117 0 23216054.271009117 -7549257.3329843329 0 0 0 0 -25436466.643539429 -3124069.5723410845 0 -3124069.5723410845 -22566351.886640549 0 0 0 0 -47991690.419067383 46939680.6417045 0 46939680.6417045 39770718.662632942 0 0 0 0 -71650830.536323547 22201239.655612409 0 22201239.655612409 53943417.926412821 0 0 0 0 -41383514.995697021 14345717.337706864 0 14345717.337706864 48470221.123991966 0 0 0 0 -13152740.855285645 47329197.736634254 0 47329197.736634254 37681221.701438904 0 0 0 0 -101141607.64059448 17557555.645500183 0 17557555.645500183 60093219.196856976 0 0 0 0 -44937525.23248291 18792245.386332035 0 18792245.386332035 2338940.6381595731 0 0 0 0 -23963639.505543031 5379727.0628960021 0 5379727.0628960021 1665454.5515892243 0 0 0 0 -38413652.079925537 -8544677.1690044403 0 -8544677.1690044403 -40193758.275915146 0 0 0 0 -42404012.106155418 18404605.731921311 0 18404605.731921311 -138808.31240560021 0 0 0 0 -1009784.1637268066 60122842.124303818 0 60122842.124303818 3785738.3667488098 0 0 0 0 -98282995.419189453 7090093.5024986267 0 7090093.5024986267 49686958.084026337 0 0 0 0 -82658441.166381836 23149331.95970726 0 23149331.95970726 56355807.884021759 0 0 0 0 -34266080.090169176 -6977127.3948749378 0 -6977127.3948749378 -3086815.4976539109 0 0 0 0 -36488600.393951416 18169381.674339294 0 18169381.674339294 19697270.874458313 0 0 0 0 -80675437.412261963 37090382.093852997 0 37090382.093852997 31395168.946002007 0 0 0 0 -50511508.435577393 -18196253.048145294 0 -18196253.048145294 -12929920.468432426 0 0 0 0 -17666226.284277931 -10303304.857787002 0 -10303304.857787002 8326217.4245229736 0 0 0 0 -67164878.333694458 22907652.072287053 0 22907652.072287053 100726089.48595184 0 0 0 0 -4049239.9824267477 174977.75527478755 0 174977.75527478755 1009023.4650563501 0 0 0 0 -71724301.439544678 24179261.440386415 0 24179261.440386415 99404707.391654819 0 0 0 0 -25787462.635177612 -17493329.45420754 0 -17493329.45420754 118414310.0858475 0 0 0 0 188641826.48147583 -94955619.055860698 0 -94955619.055860698 -215803501.26011449 0 0 0 0 -123719064.49298096 -146395302.38147926 0 -146395302.38147926 -2934625.9017848969 0 0 0 0 -143425149.4069519 -873251.78373336792 0 -873251.78373336792 184825501.47748533 0 0 0 0 -134364482.74789238 -77525899.607762665 0 -77525899.607762665 186247780.76952744 0 0 0 0 270022221.74972534 86871899.203861237 0 86871899.203861237 -20565633.652618408 0 0 0 0 -27967983.520053096 21012426.689928677 0 21012426.689928677 -14641673.308711272 0 0 0 0 267688681.98536682 98183066.193899155 0 98183066.193899155 -14460762.627441406 0 0 0 0 -49858669.163726807 60357279.649357796 0 60357279.649357796 84470079.516304016 0 0 0 0 278176808.18792725 54107860.615959167 0 54107860.615959167 11108648.068565369 0 0 0 0 276495964.68188477 68042629.383148193 0 68042629.383148193 -37589992.431747437 0 0 0 0 285189285.68914795 -358094.21767807007 0 -358094.21767807007 -54404747.376670837 0 0 0 0 300758165.16195679 -22493547.313407898 0 -22493547.313407898 -42270565.305404663 0 0 0 0 159756460.2717514 -384683224.20896828 0 -384683224.20896828 399627541.77383327 0 0 0 0 -24777080.317769349 -4755377.181839779 0 -4755377.181839779 -17670597.526277885 0 0 0 0 286449605.01275635 1596983.7577285767 0 1596983.7577285767 -61261284.83656311 0 0 0 0 300791430.20200658 -19773196.340258867 0 -19773196.340258867 -83521916.206924438 0 0 0 0 284617770.82232666 12270921.425888062 0 12270921.425888062 7782850.5615801811 0 0 0 0 -5573597.4808298349 -560273.17035730183 0 -560273.17035730183 1764390.7297433745 0 0 0 0 -95620203.503723145 -102012528.10450363 0 -102012528.10450363 -37579938.4685812 0 0 0 0 92035098.464508057 -27633544.340255737 0 -27633544.340255737 192672339.23487854 0 0 0 0 -104643548.05703735 -46459116.040753365 0 -46459116.040753365 239396446.92671204 0 0 0 0 -220329855.58056641 -53582561.603657722 0 -53582561.603657722 241209858.09850454 0 0 0 0 -145588125.34509277 -186913931.63295364 0 -186913931.63295364 458265423.0539093 0 0 0 0 -271016173.86138916 -39546125.049705505 0 -39546125.049705505 413951653.76629305 0 0 0 0 -298428145.32757568 -4920332.5099744797 0 -4920332.5099744797 460828746.67826843 0 0 0 0 -317419953.4888916 -102945467.89646816 0 -102945467.89646816 336340494.96600914 0 0 0 0 -250354231.97894287 -145564182.7255249 0 -145564182.7255249 279105677.28237343 0 0 0 0 -104638481.40441895 39354044.710749626 0 39354044.710749626 -311019150.42921519 0 0 0 0 -162049283.83953857 -32279804.67364645 0 -32279804.67364645 345666145.79233742 0 0 0 0 -378827279.51193237 242091239.34579325 0 242091239.34579325 569646874.98766136 0 0 0 0 -221807843.33614731 -307199769.73916328 0 -307199769.73916328 670438459.90364456 0 0 0 0 269345934.08221436 -174577085.8061676 0 -174577085.8061676 34562323.445482254 0 0 0 0 259328902.57696533 -23207770.766220093 0 -23207770.766220093 -14430675.032045364 0 0 0 0 157305614.97113037 2174107.9570503235 0 2174107.9570503235 -111577323.21362877 0 0 0 0 304917251.67978668 -86680813.3836689 0 -86680813.3836689 -181757985.49443817 0 0 0 0 7218127.0184936523 42782071.101804733 0 42782071.101804733 -201592197.87418747 0 0 0 0 113098723.67626953 -85340954.514548302 0 -85340954.514548302 -281261259.4532547 0 0 0 0 206400226.48342896 56771263.731327057 0 56771263.731327057 -124728670.58893204 0 0 0 0 274718354.64273071 27855814.986320496 0 27855814.986320496 -192933250.90734482 0 0 0 0 248880572.72607422 -82734012.602912903 0 -82734012.602912903 -120183172.49942017 0 0 0 0 289040965.36883545 -5602649.6468429565 0 -5602649.6468429565 -115464062.40631056 0 0 0 0 281031320.53427124 64654678.566066742 0 64654678.566066742 -72450119.088104248 0 0 0 0 278612806.75427246 76882746.037460327 0 76882746.037460327 -107168251.59118128 0 0 0 0 246709547.94772339 40926151.788087845 0 40926151.788087845 -135038968.66571808 0 0 0 0 206314306.83752441 160541120.23791504 0 160541120.23791504 -65649569.362480164 0 0 0 0 275927461.85458374 120919284.77104378 0 120919284.77104378 -151837703.87812042 0 0 0 0 281610751.21148682 114309652.09519196 0 114309652.09519196 -62806409.674093246 0 0 0 0 270376021.44708252 92486152.525733948 0 92486152.525733948 -51233149.132446289 0 0 0 0 272269728.7076416 159926779.34008789 0 159926779.34008789 -48148286.113835812 0 0 0 0 358001942.10491943 337858019.11724472 0 337858019.11724472 44581842.06864357 0 0 0 0 -25004829.264243081 22506325.776035648 0 22506325.776035648 -14449953.423104474 0 0 0 0 230181383.36175537 240311326.93994904 0 240311326.93994904 147519159.25076675 0 0 0 0 246762493.8901062 115372512.76791382 0 115372512.76791382 86179943.743362427 0 0 0 0 290840987.24499512 229508669.74867249 0 229508669.74867249 -28669541.416298866 0 0 0 0 227166931.0484314 164330000.18357277 0 164330000.18357277 -25425901.028640747 0 0 0 0 241033415.06361389 120603861.09917831 0 120603861.09917831 -21459696.865112305 0 0 0 0 176252887.53271484 232302124.15197754 0 232302124.15197754 -78565945.605624199 0 0 0 0 165093702.17160034 250629715.89610672 0 250629715.89610672 12495435.468200684 0 0 0 0 168946879.45230103 219371893.14639282 0 219371893.14639282 -76421487.061531067 0 0 0 0 46930220.059234619 208643241.27108765 0 208643241.27108765 -97081988.383293152 0 0 0 0 110598587.38189697 158195878.72208405 0 158195878.72208405 -68179097.642562866 0 0 0 0 168144288.14317322 153252567.43889999 0 153252567.43889999 -219118764.13828278 0 0 0 0 184008387.08685303 105867321.87202072 0 105867321.87202072 -102911406.38312531 0 0 0 0 205951116.27141047 37435981.554887593 0 37435981.554887593 -285848338.30724335 0 0 0 0 48317396.220245361 95545072.006019592 0 95545072.006019592 -168383955.1539917 0 0 0 0 -106185659.86755371 187854266.86910629 0 187854266.86910629 -209920581.94020844 0 0 0 0 57724218.217956543 99351583.688808441 0 99351583.688808441 -404487919.10671043 0 0 0 0 16334619.139129639 119227787.87979889 0 119227787.87979889 -195802671.45834351 0 0 0 0 -76763095.107635498 321038867.60718918 0 321038867.60718918 -69236495.65165329 0 0 0 0 -293373383.47460938 193758767.03555822 0 193758767.03555822 -466446575.59405518 0 0 0 0 -348817768.05267334 369552920.71836472 0 369552920.71836472 -121989225.75531387 0 0 0 0 -352221157.18281555 215042887.20599747 0 215042887.20599747 -575985679.67711639 0 0 0 0 -166389285.59477615 11371041.744258881 0 11371041.744258881 -356454510.677742 0 0 0 0 -512457724.33494568 -282914576.60796165 0 -282914576.60796165 -548749194.40102386 0 0 0 0 -131671953.4743042 -106503690.05086517 0 -106503690.05086517 -314721047.86898994 0 0 0 0 -196114172.56765747 -16797149.135349274 0 -16797149.135349274 -376421448.79271317 0 0 0 0 -212897766.19839478 -103636197.41648149 0 -103636197.41648149 -212044306.22595215 0 0 0 0 -210976337.35784912 -85591383.069534302 0 -85591383.069534302 -81628820.883548737 0 0 0 0 -563991027.02468872 -277026445.56635284 0 -277026445.56635284 -272048612.05799866 0 0 0 0 -641757369.54567719 -130773771.79378319 0 -130773771.79378319 -124645564.04831696 0 0 0 0 -678905278.02841949 -248005498.80678511 0 -248005498.80678511 -157293785.30184937 0 0 0 0 808599592.99101257 699536371.46053767 0 699536371.46053767 1079171058.2090945 0 0 0 0 549178216.32451057 -1426041177.3284247 0 -1426041177.3284247 415037794.17323351 0 0 0 0 3096247.5267628282 11969172.549739335 0 11969172.549739335 1862072.6429641733 0 0 0 0 -248414916.51989746 909292869.91669583 0 909292869.91669583 2401239425.9733644 0 0 0 0 -1038089715.2313843 -88662800.360546112 0 -88662800.360546112 3550884270.6733789 0 0 0 0 -629327089.00891113 -187416213.9266879 0 -187416213.9266879 1923325042.150923 0 0 0 0 -188467859.27252197 -133679408.93376887 0 -133679408.93376887 129550936.76680821 0 0 0 0 -689107009.47842407 10091237.36906369 0 10091237.36906369 163174905.77915737 0 0 0 0 -160429706.10357666 35400409.37388286 0 35400409.37388286 -1533789910.4008551 0 0 0 0 -350671094.22838593 -523259424.5144909 0 -523259424.5144909 -908857102.0369364 0 0 0 0 -1513116171.1124191 -1538856794.4164965 0 -1538856794.4164965 -53968712.261788741 0 0 0 0 -752638845.63189697 -361735036.16401285 0 -361735036.16401285 -110922184.85674629 0 0 0 0 277614522.63835144 -448121758.45368427 0 -448121758.45368427 -121668858.44119044 0 0 0 0 -2754618665.0055542 -824676725.11762178 0 -824676725.11762178 -312667157.63821906 0 0 0 0 -3745107413.1979218 -2347962900.8918242 0 -2347962900.8918242 34217249.599009007 0 0 0 0 -1366958079.6277771 -813632247.99632967 0 -813632247.99632967 280488323.03748715 0 0 0 0 -2162009579.8136292 -1784347282.0403318 0 -1784347282.0403318 -24033441.053779796 0 0 0 0 -3684594903.054184 -2476171245.0437679 0 -2476171245.0437679 258471761.31260538 0 0 0 0 -5841208053.9131775 -2622973638.7169309 0 -2622973638.7169309 301200345.15872574 0 0 0 0 -6618847218.2931519 -4555531385.4012308 0 -4555531385.4012308 -2740885752.859972 0 0 0 0 1661317673.6759186 -1266317673.1735153 0 -1266317673.1735153 -1781867476.0579166 0 0 0 0 -3693102479.4160461 -3900139227.0878878 0 -3900139227.0878878 -866531804.87245715 0 0 0 0 992685743.42184448 -2179571913.6492496 0 -2179571913.6492496 -2937019002.1337867 0 0 0 0 -261008.77081905305 -22298.064365146216 0 -22298.064365146216 704933.17161342665 0 0 0 0 -1633147235.7549438 -1145306877.0856986 0 -1145306877.0856986 1712144822.6838772 0 0 0 0 -1619841106.0219269 -317569214.93958783 0 -317569214.93958783 715286933.1508615 0 0 0 0 -1877876698.7663574 -2037080887.3066082 0 -2037080887.3066082 189270441.16650343 0 0 0 0 -154781749.22177124 505898680.51414204 0 505898680.51414204 -190092575.8007822 0 0 0 0 144658055.58633423 209030062.38871098 0 209030062.38871098 -511674578.86416554 0 0 0 0 -292548854.42399597 89229674.962266922 0 89229674.962266922 321918935.76018143 0 0 0 0 4616378.7756347656 27157492.358568192 0 27157492.358568192 62067910.273570061 0 0 0 0 -2766069.5682372656 -766562.86538946629 0 -766562.86538946629 -3182341.8594455114 0 0 0 0 -9007494329.4431 -1547460321.1736517 0 -1547460321.1736517 -668720971.97776842 0 0 0 0 -6612766332.0532227 431440881.74821007 0 431440881.74821007 312173685.72626287 0 0 0 0 -522801899.12724304 403413307.41458702 0 403413307.41458702 589208827.95906448 0 0 0 0 -106169388.6583252 -158926115.0272789 0 -158926115.0272789 568221152.83286738 0 0 0 0 131933244.33296204 -218682380.65202904 0 -218682380.65202904 353019488.52397537 0 0 0 0 -8003094.2173616225 -3665468.4370736107 0 -3665468.4370736107 -8062877.0142686283 0 0 0 0 -31916361.197570801 -77181358.828357697 0 -77181358.828357697 278628247.93208885 0 0 0 0 -5708281795.4530411 -1370500789.8792853 0 -1370500789.8792853 -334718052.16906291 0 0 0 0 443014.56586554646 -1762591.899126213 0 -1762591.899126213 -15099559.556311728 0 0 0 0 551468172.55383301 675302291.78019428 0 675302291.78019428 520886027.07602358 0 0 0 0 -32452880.153187186 6638542.7119261622 0 6638542.7119261622 -2624970.7838236992 0 0 0 0 468507554.52153015 818412557.58294713 0 818412557.58294713 901200628.92768669 0 0 0 0 165610871.03281403 683787173.8425504 0 683787173.8425504 1146871281.1850853 0 0 0 0 62282086.382873535 909824235.32579327 0 909824235.32579327 1465341075.1004601 0 0 0 0 195865524.35183716 1085410635.4353065 0 1085410635.4353065 1505258488.8038738 0 0 0 0 -41690564.479382977 7233951.4829874821 0 7233951.4829874821 1567148.5526183844 0 0 0 0 -54986380.708850861 258788046.96275014 0 258788046.96275014 129236361.92906857 0 0 0 0 -260334430.99441528 -78750939.153106689 0 -78750939.153106689 74275250.186183929 0 0 0 0 -50650539.182939321 6067921.0177680999 0 6067921.0177680999 5981876.0950251892 0 0 0 0 -27997804.268051147 620875326.62454963 0 620875326.62454963 1885410561.6425686 0 0 0 0 115210399.50035095 87545579.1778512 0 87545579.1778512 -32380400.78719902 0 0 0 0 -164737763.85951614 362095593.4303937 0 362095593.4303937 1098518783.692194 0 0 0 0 -84574683.567901611 920567897.96733093 0 920567897.96733093 937893016.1920619 0 0 0 0 456583473.30397034 914851095.16004753 0 914851095.16004753 1185828160.3739796 0 0 0 0 -519786500.42095947 459211635.5976162 0 459211635.5976162 1278693969.4857092 0 0 0 0 -349456.78962619975 84258.12007137388 0 84258.12007137388 -531323.29794825148 0 0 0 0 -776340670.4302063 305490058.82256687 0 305490058.82256687 1142327528.2827559 0 0 0 0 -409290669.25210571 469062032.47872877 0 469062032.47872877 2429791959.7655916 0 0 0 0 -147046135.40008545 70503048.853293419 0 70503048.853293419 1221703818.4725957 0 0 0 0 9359734.220916748 610888110.7925446 0 610888110.7925446 1934386237.7377195 0 0 0 0 -35341027.96723938 801370243.7651391 0 801370243.7651391 1378956438.7726679 0 0 0 0 13498031.700805664 344330046.57732201 0 344330046.57732201 1281165397.4191957 0 0 0 0 -286249678.70554352 219637178.00378668 0 219637178.00378668 2080123662.4280219 0 0 0 0 -175986579.60604858 182798703.63410926 0 182798703.63410926 370180986.17591715 0 0 0 0 -1098446851.1701813 -466702137.7692095 0 -466702137.7692095 1265113046.1010036 0 0 0 0 32589152.447597504 54365736.700661063 0 54365736.700661063 449329731.98157024 0 0 0 0 -286936906.72721863 72241789.67455709 0 72241789.67455709 1371441156.5064597 0 0 0 0 144350973.04406738 328917416.70574141 0 328917416.70574141 1406247281.14533 0 0 0 0 -570498611.04922485 56977545.602879524 0 56977545.602879524 3340807436.1340485 0 0 0 0 124951397.8263855 -330815466.45723414 0 -330815466.45723414 2286296572.4240856 0 0 0 0 209082337.54269409 195812063.08422256 0 195812063.08422256 1332875199.7778492 0 0 0 0 -376525237.27026367 543552623.47413909 0 543552623.47413909 2742630656.9834986 0 0 0 0 -568624418.14807129 1592576361.317982 0 1592576361.317982 -561780764.83919883 0 0 0 0 -590793041.87182617 1508753331.5170536 0 1508753331.5170536 -505879634.53240132 0 0 0 0 -274208503.07652283 1181250265.7455797 0 1181250265.7455797 -1267055706.1079502 0 0 0 0 -28364147.421137452 10108402.025161313 0 10108402.025161313 2183937.2457503839 0 0 0 0 -556746740.03106689 2169638932.4579473 0 2169638932.4579473 372759724.38616657 0 0 0 0 -285173091.58609009 100831383.13576508 0 100831383.13576508 687650180.19229794 0 0 0 0 84361963.611022949 2113121411.3957853 0 2113121411.3957853 -1466133094.8169951 0 0 0 0 -129591992.30276489 1679026925.778367 0 1679026925.778367 -1423701378.634562 0 0 0 0 -479480645.04168701 1795481657.0410914 0 1795481657.0410914 -215217187.93115139 0 0 0 0 -471639089.97775078 1579753376.7187603 0 1579753376.7187603 -681271788.96514583 0 0 0 0 -550083707.57489014 1290021021.4734373 0 1290021021.4734373 -1027568325.5181456 0 0 0 0 -693026563.15478516 1341578472.5749731 0 1341578472.5749731 -493327720.38405728 0 0 0 0 491223507.53048706 27762238.808922645 0 27762238.808922645 237881259.66207531 0 0 0 0 -244233937.55099487 -788654745.37125063 0 -788654745.37125063 2173618762.0508385 0 0 0 0 -505403856.27500916 1787680231.0128984 0 1787680231.0128984 1400803436.1336207 0 0 0 0 -1952104.6564053893 -5491807.4747960567 0 -5491807.4747960567 5507115.6459514508 0 0 0 0 -43651033.833785608 17392184.239855595 0 17392184.239855595 4220197.4171834635 0 0 0 0 -1224043446.1854553 1163110422.2717609 0 1163110422.2717609 3714566466.0518584 0 0 0 0 -299689028.45864868 -30567027.82781601 0 -30567027.82781601 107769664.67479339 0 0 0 0 1299460287.4180908 1540365273.1513205 0 1540365273.1513205 -223351829.70489621 0 0 0 0 -680703373.17263412 166917704.01537752 0 166917704.01537752 -5857479.1482474804 0 0 0 0 -603167365.78521729 1687651620.1551189 0 1687651620.1551189 -197013605.2665574 0 0 0 0 -1104674651.8255005 2588449736.9927549 0 2588449736.9927549 -1328405317.7951574 0 0 0 0 40473847.237091064 1554365962.6871433 0 1554365962.6871433 -2440695342.2683201 0 0 0 0 -2565555220.2188416 1885886448.4885502 0 1885886448.4885502 -1398000940.4600811 0 0 0 0 -1217089084.9183044 -157347976.4427762 0 -157347976.4427762 -2345369076.9053345 0 0 0 0 -1264022641.3136902 622690068.03071713 0 622690068.03071713 49635419.710156798 0 0 0 0 -485231151.24021912 -359231676.69260502 0 -359231676.69260502 -1647443002.3264933 0 0 0 0 -913084921.77869415 817166426.66148114 0 817166426.66148114 -2060596089.1742406 0 0 0 0 -893821888.97008514 981584948.48569155 0 981584948.48569155 -4975385535.6084824 0 0 0 0 -2787929644.4758911 3007855395.6844339 0 3007855395.6844339 -2618644401.2436228 0 0 0 0 -3752301224.3944092 633990039.18316507 0 633990039.18316507 -2352828778.1753139 0 0 0 0 -1498536064.5878296 587820129.72136307 0 587820129.72136307 -3347258288.7884521 0 0 0 0 -2818450026.6096725 3297525782.1989145 0 3297525782.1989145 -6671862695.9656811 0 0 0 0 -1421056019.308969 2738418913.495018 0 2738418913.495018 -3330701172.9315472 0 0 0 0 540065659.89251709 392943164.68638229 0 392943164.68638229 -4816708100.7585945 0 0 0 0 -417067530.86493683 -2049103252.4267342 0 -2049103252.4267342 -1852740787.6764069 0 0 0 0 -3344555790.5372925 -53758329.383075953 0 -53758329.383075953 867700966.63627791 0 0 0 0 -2830108.6233915389 1475625.8268680163 0 1475625.8268680163 -1214640.0891799019 0 0 0 0 -721771763.37365723 2311076478.5275822 0 2311076478.5275822 -7480624243.171093 0 0 0 0 -527018.19827901106 167162.02025213838 0 167162.02025213838 -1642880.3137290245 0 0 0 0 -4240084.5682092309 9355033.1394962668 0 9355033.1394962668 -7641456.5771645447 0 0 0 0 -5109007.1472787857 7489432.3229827136 0 7489432.3229827136 2129639.7121162415 0 0 0 0 -66835877.10551548 472136167.07817954 0 472136167.07817954 -801600812.14564991 0 0 0 0 -8654422.0758365542 2613981.9769815952 0 2613981.9769815952 -3834172.8234981587 0 0 0 0 -1645797922.1193085 387805670.44070911 0 387805670.44070911 380559418.09888697 0 0 0 0 -1165226132.9965477 1040632853.4354993 0 1040632853.4354993 -936824179.94415712 0 0 0 0 -1986895202.4808655 1559816607.9657786 0 1559816607.9657786 -644557502.40980601 0 0 0 0 119568910.08743286 1040545815.8756504 0 1040545815.8756504 -940006652.6077137 0 0 0 0 -667402820.28033447 341565924.25288582 0 341565924.25288582 -138411241.98206377 0 0 0 0 115421054.94024658 176927646.21821594 0 176927646.21821594 -335160340.66529083 0 0 0 0 -347030020.15087128 810435509.57036734 0 810435509.57036734 -1053489016.7789955 0 0 0 0 480433894.76968384 386938935.55708981 0 386938935.55708981 -1527288833.7802982 0 0 0 0 30227890.934143066 525653738.41376495 0 525653738.41376495 -1216333766.5099564 0 0 0 0 19023490.88924408 1392834290.0545392 0 1392834290.0545392 -2165048347.0209026 0 0 0 0 341997796.95394897 17421376.023223877 0 17421376.023223877 -1618354219.9271517 0 0 0 0 337803484.20861816 567213454.76130486 0 567213454.76130486 -1734179531.2918396 0 0 0 0 -501494974.84735107 257452086.87104034 0 257452086.87104034 -728943569.74283123 0 0 0 0 -16254612.67688556 10341643.824741587 0 10341643.824741587 -4231429.6941944957 0 0 0 0 -6332911.3347473145 10629216.789860725 0 10629216.789860725 3209583.21854496 0 0 0 0 -6016571.7401733398 3719061.2294139862 0 3719061.2294139862 -1776147.4724645615 0 0 0 0 313847718.68587685 -296171550.66273749 0 -296171550.66273749 -247989134.71118164 0 0 0 0 -136360245.28399658 302435192.55783081 0 302435192.55783081 209968777.95486069 0 0 0 0 17266692.963653564 295329578.73496246 0 295329578.73496246 -219123628.73113251 0 0 0 0 -41723302.343139648 -138183139.22933197 0 -138183139.22933197 9465881.4770498276 0 0 0 0 -34473824.4765625 37344010.560633302 0 37344010.560633302 -25128340.722978473 0 0 0 0 -24596184.668664768 9571720.0370077677 0 9571720.0370077677 499595.44907413982 0 0 0 0 -18384375.497023128 4252644.2437253222 0 4252644.2437253222 -994717.76804367034 0 0 0 0 -34739849.166561127 54717167.677938759 0 54717167.677938759 -22927085.49479866 0 0 0 0 15093105.568847656 -32365361.66887188 0 -32365361.66887188 37997893.117940918 0 0 0 0 -55070999.017976761 6472994.7317050099 0 6472994.7317050099 36559849.045192719 0 0 0 0 -60392422.274734497 43849087.303992271 0 43849087.303992271 90332208.288585424 0 0 0 0 -558999529.37574768 286731688.74152082 0 286731688.74152082 -747505665.56824064 0 0 0 0 -1407010090.1898956 743901463.19402552 0 743901463.19402552 -261771207.98662639 0 0 0 0 221294772.69796753 133461912.79644012 0 133461912.79644012 -400471426.18749928 0 0 0 0 -9386914.8126525879 5089992.8986530304 0 5089992.8986530304 -2303864.0827169418 0 0 0 0 -9300464.2720906064 1081983.4372464269 0 1081983.4372464269 -4981847.5527189495 0 0 0 0 -10022783.995327931 2317820.6534692124 0 2317820.6534692124 7671672.3575773584 0 0 0 0 -33117769.663803101 1053709.4706549644 0 1053709.4706549644 53863503.768864155 0 0 0 0 -96221186.335739136 -1470654.848690629 0 -1470654.848690629 33599617.297810078 0 0 0 0 -809633686.58534241 134710199.3069458 0 134710199.3069458 -15600205.881722212 0 0 0 0 -13325357.873461887 -3841721.3224894535 0 -3841721.3224894535 -2785736.049249649 0 0 0 0 -2011053434.4457397 1452039300.6025288 0 1452039300.6025288 -853463743.17480397 0 0 0 0 -715585197.32978821 753073630.5730648 0 753073630.5730648 -909093238.92858076 0 0 0 0 -2923334772.4385376 1197635241.7568457 0 1197635241.7568457 -710515521.67260659 0 0 0 0 -2316270919.3077087 983255992.96457314 0 983255992.96457314 -708645288.51316261 0 0 0 0 -3250656437.2314148 670193441.65246248 0 670193441.65246248 -517889797.83939868 0 0 0 0 -1500843202.1552734 1421145141.3252645 0 1421145141.3252645 -1013830593.4605837 0 0 0 0 -1435477921.0333099 988417266.02494466 0 988417266.02494466 -1139902942.6606462 0 0 0 0 -1013972291.9708252 996506777.64015305 0 996506777.64015305 -1554043487.1078968 0 0 0 0 -2229397257.0334015 932584374.20837462 0 932584374.20837462 -1136566838.3345642 0 0 0 0 -1062008067.4843445 1452592520.2926631 0 1452592520.2926631 -2615143924.8524861 0 0 0 0 -3463136451.9347076 311202111.38517362 0 311202111.38517362 -790140170.42577875 0 0 0 0 -2096671187.4959793 213232189.89507976 0 213232189.89507976 -804278786.86650944 0 0 0 0 -2171069201.1873169 403075057.23622394 0 403075057.23622394 -1287500536.3376656 0 0 0 0 -934064786.81997681 94578855.926708162 0 94578855.926708162 -1214204953.2463019 0 0 0 0 -2013846424.2052155 -243686205.56294924 0 -243686205.56294924 -953963236.94247782 0 0 0 0 -530086584.79449463 91940245.104740381 0 91940245.104740381 -1458863197.3387575 0 0 0 0 -515859450.94992065 783655397.09984398 0 783655397.09984398 -2337123968.9576473 0 0 0 0 -982895119.63541222 640449470.14815116 0 640449470.14815116 -2016664064.2710176 0 0 0 0 -6610632523.3121185 -1548071972.7955854 0 -1548071972.7955854 735205611.10481298 0 0 0 0 -3443679204.105011 -605037049.7028929 0 -605037049.7028929 -610424178.71376848 0 0 0 0 -1767753890.6559639 -822860664.15691543 0 -822860664.15691543 -611780651.72675455 0 0 0 0 -4346659651.3197479 -5037839.2526895702 0 -5037839.2526895702 -175163506.33392453 0 0 0 0 -4799818764.2067871 -1024380614.4772334 0 -1024380614.4772334 670936048.85575378 0 0 0 0 -5128425327.1104126 445633187.62866175 0 445633187.62866175 481397.06765471399 0 0 0 0 -6613997320.0261984 20240682.978893597 0 20240682.978893597 562718137.16644359 0 0 0 0 -5047735922.6118011 358516793.83274382 0 358516793.83274382 -172683516.08818159 0 0 0 0 -3462969364.0788727 253053497.31308877 0 253053497.31308877 -218815026.67522401 0 0 0 0 -3408593955.9426041 877752299.17161775 0 877752299.17161775 -572821995.03229356 0 0 0 0 -4837870764.5165253 830118962.85972965 0 830118962.85972965 -425428583.09778029 0 0 0 0 -6616675543.356926 871459280.73845398 0 871459280.73845398 -104163172.57994299 0 0 0 0 -5001600228.9666443 1307623513.6582956 0 1307623513.6582956 -1611924579.6027234 0 0 0 0 -4331968960.9727859 2487207781.8143744 0 2487207781.8143744 -921631528.38239956 0 0 0 0 -4546640786.0551949 -269150567.04907268 0 -269150567.04907268 -778919021.83317733 0 0 0 0 -6599320094.7107544 2889734981.1291203 0 2889734981.1291203 -165086011.50180298 0 0 0 0 -14022183.12322998 -366900867.65498269 0 -366900867.65498269 -1348748648.3228846 0 0 0 0 -4562042.9464894608 -1749597.1369303372 0 -1749597.1369303372 -1612814.507977854 0 0 0 0 -2938486192.1318054 1270894555.8058689 0 1270894555.8058689 -730401817.33680129 0 0 0 0 -1540301712.9010925 2640554619.6530023 0 2640554619.6530023 -2277964819.0581985 0 0 0 0 -3351867.2285459861 1152324.4043803737 0 1152324.4043803737 56496.143247468979 0 0 0 0 -333017613.93351746 -290239362.10638475 0 -290239362.10638475 -803164390.21421862 0 0 0 0 293397155.39347839 -1884976776.3695369 0 -1884976776.3695369 -647027606.86995423 0 0 0 0 -590905465.31021118 -1330771126.3689113 0 -1330771126.3689113 741620814.70741534 0 0 0 0 -639300599.31817436 -866977456.60997045 0 -866977456.60997045 649719929.47005272 0 0 0 0 -6269952.3567587063 1434555.7248025723 0 1434555.7248025723 1641418.5669180455 0 0 0 0 -8022501.6439743042 -176536001.76498756 0 -176536001.76498756 181969906.33231246 0 0 0 0 -1331588569.9080124 -998526576.38861787 0 -998526576.38861787 745710270.43381548 0 0 0 0 -1038580688.9563675 -27429998.56068325 0 -27429998.56068325 1841915457.9886353 0 0 0 0 -9571206.5947693512 3645358.3561679469 0 3645358.3561679469 -34787.344461794244 0 0 0 0 -535018370.54083252 1380887401.9965737 0 1380887401.9965737 2173741706.147747 0 0 0 0 398229085.36714172 91437602.213186026 0 91437602.213186026 1155876992.7137768 0 0 0 0 434532769.76281738 -707377672.09221542 0 -707377672.09221542 -327018407.18912232 0 0 0 0 -3554681.1462713033 1727242.8735725991 0 1727242.8735725991 -311159.42046274518 0 0 0 0 304780022.02146149 1167326741.3706217 0 1167326741.3706217 -601265566.82469583 0 0 0 0 942565983.15565491 653825091.57253456 0 653825091.57253456 -358639402.50802517 0 0 0 0 -5762866.5974939838 2305210.7940010987 0 2305210.7940010987 299194.6984022691 0 0 0 0 -3028313789.2950592 -2085660976.7703371 0 -2085660976.7703371 741030919.75677288 0 0 0 0 -1758184475.1687164 3318647478.4805322 0 3318647478.4805322 -801735670.32503653 0 0 0 0 -356643119.78500366 -1420763574.9396443 0 -1420763574.9396443 967819952.83991945 0 0 0 0 349100024.41304016 1273386095.6697171 0 1273386095.6697171 331673800.84540963 0 0 0 0 -615451231.67829895 107821657.16370487 0 107821657.16370487 299209062.04780287 0 0 0 0 -6605439495.4393005 -187657414.32852277 0 -187657414.32852277 1855804771.538202 0 0 0 0 -2799867279.4805145 57153.30224570632 0 57153.30224570632 1320484070.1903207 0 0 0 0 -6606748414.7052269 2007618070.0921383 0 2007618070.0921383 419988321.37966245 0 0 0 0 -2233191363.2291565 2811830834.3188057 0 2811830834.3188057 -3336367402.4000564 0 0 0 0 -459345399.40674591 183979630.41270134 0 183979630.41270134 -696563118.68600035 0 0 0 0 -302277549.28703308 708871901.72412992 0 708871901.72412992 -1007618949.0255795 0 0 0 0 -2647344514.8876801 1152384280.7288039 0 1152384280.7288039 16819644.901684761 0 0 0 0 -243529852.33577347 1153016411.7511568 0 1153016411.7511568 82603169.749710321 0 0 0 0 360575767.00816345 536902435.80087256 0 536902435.80087256 -466530099.39725775 0 0 0 0 -289397146.38800049 596504322.0900631 0 596504322.0900631 -286544447.63433075 0 0 0 0 404246051.84223938 1074323684.4600701 0 1074323684.4600701 -262562572.2481451 0 0 0 0 380645663.51654053 999632230.41676593 0 999632230.41676593 -210334787.6020816 0 0 0 0 -30224484.312576294 989241707.82878494 0 989241707.82878494 -59831890.37151742 0 0 0 0 427260641.67919731 982090558.09465599 0 982090558.09465599 -206260821.99428332 0 0 0 0 39821880.98197937 763515627.14457607 0 763515627.14457607 415421572.03889316 0 0 0 0 341137813.76335907 1442666685.2937188 0 1442666685.2937188 -971002938.48738575 0 0 0 0 -11444802.789360732 6153361.2812383166 0 6153361.2812383166 1038261.2573169065 0 0 0 0 -281885258.42597961 512221491.76288021 0 512221491.76288021 1135732098.330832 0 0 0 0 167730174.97291565 260892577.1014843 0 260892577.1014843 251737332.03203678 0 0 0 0 -275264012.29886627 403564783.56815314 0 403564783.56815314 -436023106.37974739 0 0 0 0 -14011844.294481583 5226328.3008197583 0 5226328.3008197583 697725.46243445342 0 0 0 0 168505963.93751526 335478854.97142363 0 335478854.97142363 -532733934.17354941 0 0 0 0 -2784113127.8705444 -575217980.65390289 0 -575217980.65390289 2256832969.7792411 0 0 0 0 850877312.02895355 1639611170.9503288 0 1639611170.9503288 -1726324931.8912311 0 0 0 0 802653939.66850281 901168009.00500679 0 901168009.00500679 -1857762602.2173944 0 0 0 0 -46266625.398864746 -211530656.12139332 0 -211530656.12139332 -61866072.204510048 0 0 0 0 -1747901.5073700473 3598004.4842213914 0 3598004.4842213914 -4164775.3100378602 0 0 0 0 -1174330009.4389055 1270835758.0243125 0 1270835758.0243125 -1080941646.9765496 0 0 0 0 -1169224873.5281754 715354269.37186265 0 715354269.37186265 44141390.337311774 0 0 0 0 -1907109874.5252953 1348375107.42839 0 1348375107.42839 -912538676.49870253 0 0 0 0 -1228439120.8880386 579492954.67756891 0 579492954.67756891 -599592174.4739542 0 0 0 0 -2955508791.294899 239371777.80869859 0 239371777.80869859 524525443.87134922 0 0 0 0 -1264515157.9479561 -2154860035.1989174 0 -2154860035.1989174 -51339162.652623966 0 0 0 0 -7164746.3718449622 3942536.222063452 0 3942536.222063452 -307715.81156064692 0 0 0 0 -6600874438.6927338 -257612572.89019457 0 -257612572.89019457 574383969.05850303 0 0 0 0 -135046201.39279175 1557857391.4601321 0 1557857391.4601321 -1059557542.8289034 0 0 0 0 -325993535.25777435 -402152710.68096507 0 -402152710.68096507 -514290239.78453636 0 0 0 0 -318903043.1365509 -283496177.71664059 0 -283496177.71664059 -21743474.111278117 0 0 0 0 -110825273.68130493 -585892715.39654994 0 -585892715.39654994 -296633332.99648285 0 0 0 0 -220228381.98518372 -484071734.39519024 0 -484071734.39519024 -25196193.582141876 0 0 0 0 -95606042.466567993 -412514879.55868721 0 -412514879.55868721 139191431.9668951 0 0 0 0 -132800085.63305664 -313553648.98324966 0 -313553648.98324966 260798539.93097305 0 0 0 0 -595992837.39993286 -262389750.26792669 0 -262389750.26792669 484676415.81581306 0 0 0 0 -255200134.24357605 -44125430.878367901 0 -44125430.878367901 308269769.81601334 0 0 0 0 -1489342890.9536743 -253077797.17714977 0 -253077797.17714977 275116321.44950032 0 0 0 0 -292440398.94709015 -218650222.98805237 0 -218650222.98805237 602033830.13507462 0 0 0 0 -382846856.75382996 173444460.67706347 0 173444460.67706347 573575507.83777642 0 0 0 0 184030941.72384644 1182653710.8506193 0 1182653710.8506193 782005273.72719479 0 0 0 0 -495588883.85765076 955875022.46213675 0 955875022.46213675 -1041387954.2875069 0 0 0 0 973420086.37442398 367044789.20690632 0 367044789.20690632 -826159856.43974686 0 0 0 0 -175803112.02978516 70818235.091187 0 70818235.091187 -1281392393.6863334 0 0 0 0 -514026285.35406494 1078409837.9420667 0 1078409837.9420667 -758741700.85229778 0 0 0 0 -4218381.8730153367 3035549.6849338915 0 3035549.6849338915 435115.22981770686 0 0 0 0 -1196023507.4109774 1863203727.1809907 0 1863203727.1809907 -3002806073.9787078 0 0 0 0 -661504062.91702271 -829857090.6120863 0 -829857090.6120863 1334698268.6752074 0 0 0 0 -257755811.73092651 915906145.509287 0 915906145.509287 601659405.29874289 0 0 0 0 -670358006.19204712 1604099691.6394966 0 1604099691.6394966 -499952685.60296082 0 0 0 0 -907489836.17422485 1315526999.036958 0 1315526999.036958 220590631.78663862 0 0 0 0 -2227157904.7938232 -258427309.93203378 0 -258427309.93203378 1523026069.6986871 0 0 0 0 -1539725164.3538208 1713187439.6245604 0 1713187439.6245604 85683431.761106491 0 0 0 0 -1640717575.4441833 435618603.91211128 0 435618603.91211128 -445811308.90864766 0 0 0 0 -1773868737.6832581 -457779614.79520571 0 -457779614.79520571 1255870865.9640522 0 0 0 0 -1807928383.4950638 22333497.157734662 0 22333497.157734662 -506542276.47464895 0 0 0 0 -611588704.92811584 624064598.09523225 0 624064598.09523225 -1352212139.4111307 0 0 0 0 -1909300376.516077 -657128893.21005297 0 -657128893.21005297 -485790049.14813471 0 0 0 0 170009771.54940796 461173660.37913305 0 461173660.37913305 123189589.22588754 0 0 0 0 -205814193.24941254 -125409260.42178914 0 -125409260.42178914 -616673350.51740038 0 0 0 0 -43404215.918823242 732945559.77366745 0 732945559.77366745 -500956476.01954526 0 0 0 0 -607716183.12293625 239262077.22632781 0 239262077.22632781 -803629599.70228291 0 0 0 0 -669974250.89066315 382876233.84673953 0 382876233.84673953 -121593799.59390116 0 0 0 0 -549760802.09889221 323348866.82606167 0 323348866.82606167 316383911.46909499 0 0 0 0 -238596688.88908386 686213851.26145422 0 686213851.26145422 -171132824.85783607 0 0 0 0 -162633002.32357025 487661164.1891579 0 487661164.1891579 287283168.07809806 0 0 0 0 -2147419162.3359985 1494495544.9553318 0 1494495544.9553318 -1231840606.1154013 0 0 0 0 -2763297.8880841136 141386.44495205954 0 141386.44495205954 1204793.8238113027 0 0 0 0 -1340929954.3580017 -1604796678.3239186 0 -1604796678.3239186 -1355947479.8988395 0 0 0 0 -2669746884.5205841 -1856616697.5970073 0 -1856616697.5970073 -759903627.50569201 0 0 0 0 -2144621268.0774231 -976384431.66742039 0 -976384431.66742039 -451145364.60615396 0 0 0 0 -3060326504.2081528 -409764907.26150382 0 -409764907.26150382 -329271329.52272081 0 0 0 0 -1203824756.7861328 -145533188.93066025 0 -145533188.93066025 -448728310.72620922 0 0 0 0 -1343347358.288681 -43051048.746744275 0 -43051048.746744275 -308960738.89099336 0 0 0 0 -202890899.64361572 407129472.48430741 0 407129472.48430741 -282450354.71268868 0 0 0 0 481071402.8787384 -228779571.28006524 0 -228779571.28006524 11277924.856277537 0 0 0 0 -966900213.5657959 -279031108.97316909 0 -279031108.97316909 -475675223.54872203 0 0 0 0 -1106775457.1512299 -451913605.44824362 0 -451913605.44824362 -2834483.2011830807 0 0 0 0 -1174549391.3553619 -324817308.865798 0 -324817308.865798 -73221630.620512128 0 0 0 0 -902796288.06097412 -1093716374.8509097 0 -1093716374.8509097 -1345798457.0507898 0 0 0 0 -1094456796.0129852 -788718287.3918252 0 -788718287.3918252 161686399.59440756 0 0 0 0 -437468226.41513062 67355627.298241615 0 67355627.298241615 1276699727.4176917 0 0 0 0 -1134738970.2680359 -863137198.53761387 0 -863137198.53761387 1094859846.9632349 0 0 0 0 -3020258.0727559915 914192.17074689269 0 914192.17074689269 2742118.5377092315 0 0 0 0 273197469.70112085 407177616.21085107 0 407177616.21085107 443515388.93033791 0 0 0 0 170747964.70765352 -460861236.32682288 0 -460861236.32682288 588347979.67657006 0 0 0 0 -74405844.003860474 11550169.123147964 0 11550169.123147964 51195484.921975136 0 0 0 0 -50274162.412704468 -81866677.808092594 0 -81866677.808092594 268892580.66426468 0 0 0 0 -191130318.83608246 337345782.32240599 0 337345782.32240599 303216393.93245471 0 0 0 0 -414661359.09738541 223980328.93543315 0 223980328.93543315 602490615.83340216 0 0 0 0 -157877078.8951149 852694935.10669076 0 852694935.10669076 716359193.25104189 0 0 0 0 -376708899.44010925 29317975.579690814 0 29317975.579690814 1395750942.404572 0 0 0 0 -58345748.039073944 -160130231.31604913 0 -160130231.31604913 495820057.10359907 0 0 0 0 27018417.572616577 -73749351.695686817 0 -73749351.695686817 64648908.692995787 0 0 0 0 -91688212.536102295 24337015.009326696 0 24337015.009326696 189098222.456774 0 0 0 0 -84277412.515079498 45948844.970112413 0 45948844.970112413 140636194.18580389 0 0 0 0 -57773303.600494385 141536929.80148745 0 141536929.80148745 267595995.44589472 0 0 0 0 100101.06240844727 90981191.325595319 0 90981191.325595319 51722848.548555613 0 0 0 0 -2531949.6741409302 242789651.98634025 0 242789651.98634025 119504867.55748534 0 0 0 0 -24082579.042755127 229874218.5579685 0 229874218.5579685 245415640.48613268 0 0 0 0 -162666081.48407745 -43740339.794187367 0 -43740339.794187367 4601046.066826582 0 0 0 0 130538979.40605164 197071460.01936972 0 197071460.01936972 123218765.45743084 0 0 0 0 -10844140.797842529 913320.91150893271 0 913320.91150893271 -702948.38283905247 0 0 0 0 -58368186.538604736 -54179370.322497398 0 -54179370.322497398 -21450079.655493736 0 0 0 0 -36890818.731811523 25845244.810090326 0 25845244.810090326 5005918.8950327635 0 0 0 0 -46184885.598434448 10893892.420276001 0 10893892.420276001 -13818634.765169442 0 0 0 0 -91027312.236282349 59599772.609909326 0 59599772.609909326 -22989536.885785758 0 0 0 0 -84962446.617074966 54564380.655022852 0 54564380.655022852 -37284254.036521137 0 0 0 0 -78209236.844421387 -12173268.784830868 0 -12173268.784830868 -24461834.475765169 0 0 0 0 -55233160.118011475 211210691.74984366 0 211210691.74984366 -537950899.39888108 0 0 0 0 -4658554.206645079 -2503459.7570198979 0 -2503459.7570198979 1700354.0439349699 0 0 0 0 -176262.84219360352 55585953.035583228 0 55585953.035583228 -254453311.89828861 0 0 0 0 23274042.664611816 -16871929.877137601 0 -16871929.877137601 -140789572.88526523 0 0 0 0 -57058818.394866943 -16831272.696945578 0 -16831272.696945578 96117940.451614797 0 0 0 0 -76424334.294525146 162962795.16381383 0 162962795.16381383 -91861105.723640829 0 0 0 0 -101544042.22961426 135810838.19514215 0 135810838.19514215 -47700089.052759528 0 0 0 0 -273254013.46481323 306351420.66083193 0 306351420.66083193 99519821.305441737 0 0 0 0 -126091375.37237549 272995947.81081712 0 272995947.81081712 -302308809.60233426 0 0 0 0 -70973049.3802948 20591240.957184404 0 20591240.957184404 32128980.481443837 0 0 0 0 -217517355.48942184 98635445.641409487 0 98635445.641409487 137789166.12018722 0 0 0 0 -201533789.20976257 134168969.29211912 0 134168969.29211912 -12342704.313360006 0 0 0 0 -168802524.97109985 94151970.602666155 0 94151970.602666155 35029496.657133877 0 0 0 0 -148121025.62797546 8385817.088428393 0 8385817.088428393 -15534352.515693307 0 0 0 0 -127574868.54275513 11255446.607151285 0 11255446.607151285 -23044362.809007645 0 0 0 0 -177275781.75335693 70406257.005382478 0 70406257.005382478 -20837582.130989999 0 0 0 0 -218968108.48162079 45762087.639738083 0 45762087.639738083 -3237352.3510214686 0 0 0 0 -287162080.15100098 -11766890.946496189 0 -11766890.946496189 7234128.5556161124 0 0 0 0 -168333355.85635757 85159143.233008519 0 85159143.233008519 3414136.9597857594 0 0 0 0 -198020835.91169739 24161218.596760944 0 24161218.596760944 17473500.949379563 0 0 0 0 -100954099.76269531 35840113.723706305 0 35840113.723706305 -17890654.19555074 0 0 0 0 -176689964.20968628 120159930.4982816 0 120159930.4982816 -75671174.891434476 0 0 0 0 -187330350.0128479 29669010.025244653 0 29669010.025244653 -77459063.935148165 0 0 0 0 -1269765.7184498087 -53197.633133172989 0 -53197.633133172989 -539977.90617840039 0 0 0 0 -652500122.96116638 16306549.375249028 0 16306549.375249028 27589573.269766346 0 0 0 0 -310064033.00164795 -6015190.5861303583 0 -6015190.5861303583 -26729291.701617025 0 0 0 0 435617542.44114685 111128124.42381668 0 111128124.42381668 29182034.996608518 0 0 0 0 736327087.10899353 125228599.35881065 0 125228599.35881065 -251620612.79526499 0 0 0 0 223487723.61991882 288088477.94358647 0 288088477.94358647 -167332763.34619093 0 0 0 0 380957151.90869141 319544083.10031414 0 319544083.10031414 -393611474.45361453 0 0 0 0 308216385.59173584 229896142.91206235 0 229896142.91206235 87402650.521656334 0 0 0 0 65605052.16619873 504918444.3947258 0 504918444.3947258 -132368640.68651557 0 0 0 0 490815217.63831329 350979052.40334141 0 350979052.40334141 -14779233.250734091 0 0 0 0 -4704833.4792091884 176078.55086737871 0 176078.55086737871 -1052744.1286249252 0 0 0 0 -219685446.55020142 176936625.77934265 0 176936625.77934265 230658578.21603966 0 0 0 0 -114986307.29471588 98959848.299502373 0 98959848.299502373 285389338.4380722 0 0 0 0 -85016457.526580811 184081755.45749664 0 184081755.45749664 117563344.823035 0 0 0 0 -183536705.96330261 160278676.02737999 0 160278676.02737999 117104381.45391846 0 0 0 0 -91449032.538162231 167389001.23504639 0 167389001.23504639 181070532.79626465 0 0 0 0 48114819.795791626 143371108.23158073 0 143371108.23158073 140996117.50069809 0 0 0 0 -35871664.747192383 195160816.12134361 0 195160816.12134361 173992437.22143602 0 0 0 0 170179770.59008789 292979924.99780941 0 292979924.99780941 139773085.20568466 0 0 0 0 -21135325.088490449 22263900.153530169 0 22263900.153530169 -13304850.673168337 0 0 0 0 221541476.94258118 96193718.212252125 0 96193718.212252125 9150770.8299370408 0 0 0 0 49031020.57989502 263578628.14530563 0 263578628.14530563 90705212.024211884 0 0 0 0 78954663.646789551 201992349.2849369 0 201992349.2849369 209830750.26237488 0 0 0 0 -5171379.1647338867 206146578.80252647 0 206146578.80252647 114725878.33377838 0 0 0 0 -540254177.24291992 607537810.34160829 0 607537810.34160829 -507098922.89434958 0 0 0 0 363663364.06121826 166698348.28907776 0 166698348.28907776 34241131.80701828 0 0 0 0 -252062296.01953125 -353963484.65488154 0 -353963484.65488154 554323175.13684726 0 0 0 0 -478892184.83526611 667699959.91875982 0 667699959.91875982 -425925348.40274346 0 0 0 0 -1507648919.3381042 361992106.13359046 0 361992106.13359046 890369517.08484769 0 0 0 0 -297436319.5112915 178278203.05807418 0 178278203.05807418 58583403.265725195 0 0 0 0 -70130934.073654175 27964974.255468845 0 27964974.255468845 42762958.701704115 0 0 0 0 235820091.09466553 -129554897.34259047 0 -129554897.34259047 67476620.756548822 0 0 0 0 55918106.87121582 40822399.35727676 0 40822399.35727676 -48229200.693195134 0 0 0 0 -24299952.782608032 58602764.003912441 0 58602764.003912441 -37143689.67864503 0 0 0 0 -39813432.597183228 90811998.031152934 0 90811998.031152934 -61972299.185679182 0 0 0 0 62370478.909210205 39412057.819857538 0 39412057.819857538 -53902611.19192946 0 0 0 0 9545429.0393981934 58791585.59179455 0 58791585.59179455 -98154016.044114947 0 0 0 0 -45475503.253417969 23296394.882056773 0 23296394.882056773 -48524765.884169281 0 0 0 0 23845798.679252625 17583262.374736913 0 17583262.374736913 -48378824.386391021 0 0 0 0 13473571.968287647 13334203.178359719 0 13334203.178359719 -8561725.6376254056 0 0 0 0 63789089.127334595 14620122.683620214 0 14620122.683620214 -19817934.209783159 0 0 0 0 49625921.141613007 53549492.248389222 0 53549492.248389222 -27567728.167321675 0 0 0 0 43266758.978805542 55025051.380039163 0 55025051.380039163 11661655.05298743 0 0 0 0 -21398271.411020279 -2209759.5422061682 0 -2209759.5422061682 286495224.53457642 0 0 0 0 -10878289.282852173 46233980.740039825 0 46233980.740039825 154634768.07612467 0 0 0 0 -13915732.626642495 20609185.934553843 0 20609185.934553843 -12804971.556355489 0 0 0 0 -498603344.19480896 -265226525.58500481 0 -265226525.58500481 131384075.86170197 0 0 0 0 -60853993.745063782 23877933.679869175 0 23877933.679869175 -146145673.2328701 0 0 0 0 -1401101156.0831604 31422123.958889008 0 31422123.958889008 71743211.000404358 0 0 0 0 725297.90180709958 -109927.73977515101 0 -109927.73977515101 -610822.36586851254 0 0 0 0 707296018.42144775 183003976.72077942 0 183003976.72077942 -293670236.03853416 0 0 0 0 -329904632.14511108 153588733.09524059 0 153588733.09524059 363982807.87842464 0 0 0 0 -911975782.6522522 -184014150.59654427 0 -184014150.59654427 722796675.26098061 0 0 0 0 -1002776947.2099762 -5765021.6014652252 0 -5765021.6014652252 464790546.90450287 0 0 0 0 -627582163.45373535 570920328.47503471 0 570920328.47503471 -105987815.81958437 0 0 0 0 -920987424.58316803 37873884.86737895 0 37873884.86737895 446604266.48987198 0 0 0 0 -4122740.0444402695 3517082.2094686627 0 3517082.2094686627 -3880845.5160330096 0 0 0 0 -788057159.39361572 504453632.45122749 0 504453632.45122749 497629917.951572 0 0 0 0 -539319328.37846375 134252301.6005713 0 134252301.6005713 796021737.0661304 0 0 0 0 74583338.693237305 60595295.426463127 0 60595295.426463127 -479889449.78080368 0 0 0 0 -155462196.90142059 -142685076.15289235 0 -142685076.15289235 -1462825814.04249 0 0 0 0 -1013204099.1347656 -733528661.1164546 0 -733528661.1164546 -400084322.68356895 0 0 0 0 237361843.00041199 -422787085.95331192 0 -422787085.95331192 -396224854.2772789 0 0 0 0 -190581400.44142151 -141114101.32014322 0 -141114101.32014322 -268559210.5090313 0 0 0 0 54999093.740234375 -71891856.445336342 0 -71891856.445336342 -450443152.0505352 0 0 0 0 180883627.18946838 -429270510.50190735 0 -429270510.50190735 -126717778.59621048 0 0 0 0 221275353.59014893 -40980258.38570118 0 -40980258.38570118 -228571396.17937326 0 0 0 0 73325.558156520128 2914005.7015195861 0 2914005.7015195861 -1133996.0681075249 0 0 0 0 120719069.53070068 -223704466.79880905 0 -223704466.79880905 -114005339.179739 0 0 0 0 133356690.19300842 -153579194.72338676 0 -153579194.72338676 81226177.410877228 0 0 0 0 231834090.81016541 16009224.129437923 0 16009224.129437923 5950588.172700882 0 0 0 0 127774238.18634033 77772245.261722565 0 77772245.261722565 13986176.388581336 0 0 0 0 172462546.78387451 118993676.87817192 0 118993676.87817192 12488983.307338715 0 0 0 0 70051720.208364487 113023674.90480539 0 113023674.90480539 -57728564.098999023 0 0 0 0 261722135.08007812 -11993444.475923538 0 -11993444.475923538 18519519.276910782 0 0 0 0 416291085.20648193 -1545933.1005940437 0 -1545933.1005940437 19173771.04090631 0 0 0 0 319554856.94195557 167639790.20892525 0 167639790.20892525 57139745.259905636 0 0 0 0 230429157.48305893 170025260.77452356 0 170025260.77452356 57161729.055662155 0 0 0 0 144514698.89505005 172436440.23175192 0 172436440.23175192 106049836.27690911 0 0 0 0 172555642.90570068 180652220.26237535 0 180652220.26237535 107915745.74996948 0 0 0 0 -30607787.60622251 6528059.4801738188 0 6528059.4801738188 3515099.5974206743 0 0 0 0 142055834.24507141 155649486.08510423 0 155649486.08510423 92227868.504522324 0 0 0 0 -8427509.0246836841 10996147.665448323 0 10996147.665448323 3245753.2531905258 0 0 0 0 123201796.41140747 125835327.04627991 0 125835327.04627991 49076950.393583298 0 0 0 0 175736628.46130371 181890821.94704628 0 181890821.94704628 90711637.235753059 0 0 0 0 -146793094.34358215 -41824800.981919289 0 -41824800.981919289 19544832.293938637 0 0 0 0 89444853.849533081 205285234.96665764 0 205285234.96665764 -99683297.673210144 0 0 0 0 36049465.529754639 -94313234.513445735 0 -94313234.513445735 13137853.499117583 0 0 0 0 10178781.133285522 9392532.3073863983 0 9392532.3073863983 50708400.843088746 0 0 0 0 25486520.034996033 24116417.636962876 0 24116417.636962876 -102871920.70595503 0 0 0 0 16204895.343880787 12692045.651346389 0 12692045.651346389 -7513363.144706252 0 0 0 0 -40923760.703094482 75497530.822856426 0 75497530.822856426 -32779809.158115387 0 0 0 0 -21814383.062622249 16289216.485692905 0 16289216.485692905 5243882.7328522941 0 0 0 0 -12726791.797393799 12838627.427580237 0 12838627.427580237 429224.42965078354 0 0 0 0 -6444358.8063316345 7940228.3275195658 0 7940228.3275195658 -3519116.4947190285 0 0 0 0 -2553432.8604431152 18401538.036764264 0 18401538.036764264 -9876649.855591774 0 0 0 0 -21532972.717468262 17460407.036771774 0 17460407.036771774 -7539121.9286580086 0 0 0 0 -9043811.7112121582 16964219.355987549 0 16964219.355987549 -9210014.7582421303 0 0 0 0 -16154873.182373047 14153402.213982821 0 14153402.213982821 8812885.7231552601 0 0 0 0 -33968672.212188721 24369772.140757233 0 24369772.140757233 16957249.634836227 0 0 0 0 -25925323.183929443 24668051.013529301 0 24668051.013529301 -1640240.3465826511 0 0 0 0 -23921427.577392578 26941720.433172822 0 26941720.433172822 -13061758.615406036 0 0 0 0 -49763462.553588867 39585790.976550221 0 39585790.976550221 8552085.436442852 0 0 0 0 -33944159.701904297 24078393.374681294 0 24078393.374681294 19245162.770534962 0 0 0 0 -95813087.579193115 48486716.486106277 0 48486716.486106277 32205069.785591245 0 0 0 0 -49948358.389953613 11252748.310974777 0 11252748.310974777 55949627.995602459 0 0 0 0 -50176956.666389465 34769032.671738595 0 34769032.671738595 -8681165.9508347511 0 0 0 0 -68216000.722900391 -8011523.4229898453 0 -8011523.4229898453 38785528.553320885 0 0 0 0 -86536073.854919434 42477264.824161291 0 42477264.824161291 -9731307.0669789314 0 0 0 0 -23064187.832366943 24346097.319050789 0 24346097.319050789 332916.86410808563 0 0 0 0 -45227601.229187012 4671735.9408559799 0 4671735.9408559799 -37472434.027121544 0 0 0 0 -38720826.757263184 38053267.382704735 0 38053267.382704735 -47307768.283195496 0 0 0 0 -18584939.640625 21829830.337979317 0 21829830.337979317 -19319271.819764614 0 0 0 0 -39757814.115753174 29020617.125253677 0 29020617.125253677 -11415122.962178707 0 0 0 0 -43701068.730895996 15564119.186928749 0 15564119.186928749 -688861.4106798172 0 0 0 0 -75212125.339233398 32574790.41720438 0 32574790.41720438 -59539554.602571487 0 0 0 0 -32649699.142211914 -125435441.29124737 0 -125435441.29124737 -39475935.669864178 0 0 0 0 -159844989.53820801 97390738.384508133 0 97390738.384508133 -154801039.74187946 0 0 0 0 168480085.2557373 -84360973.01666832 0 -84360973.01666832 -370591102.8783226 0 0 0 0 -474391421.24066162 156421042.91852713 0 156421042.91852713 -76692342.551230431 0 0 0 0 202647061.35544586 131771858.3387959 0 131771858.3387959 -575890217.06525421 0 0 0 0 -189935801.04995728 329360051.71999156 0 329360051.71999156 -385052636.44126511 0 0 0 0 -288006974.06509399 13498150.49877739 0 13498150.49877739 -25265506.781143188 0 0 0 0 -193187742.02099609 40034001.163994312 0 40034001.163994312 -29409779.97542268 0 0 0 0 -94949875.652313232 66397536.833367348 0 66397536.833367348 -68484769.967623353 0 0 0 0 -147149075.0836792 127539616.45248652 0 127539616.45248652 -196424928.19393253 0 0 0 0 -118626025.08682251 20859675.314781189 0 20859675.314781189 -45066510.390748978 0 0 0 0 -151555124.99917603 51283650.118023396 0 51283650.118023396 20002753.53578186 0 0 0 0 -178644739.775177 16626747.069587469 0 16626747.069587469 7420599.4941558838 0 0 0 0 -100509100.28871155 -3836450.8681717589 0 -3836450.8681717589 77472252.617042542 0 0 0 0 -152454730.62161255 -2551529.7822420597 0 -2551529.7822420597 118910241.08736992 0 0 0 0 -282318592.70021057 -30940888.050777793 0 -30940888.050777793 23766755.694791794 0 0 0 0 -136332883.65305328 -49884178.396420658 0 -49884178.396420658 17691066.001184464 0 0 0 0 -36468853.62739563 -48231221.263313651 0 -48231221.263313651 -70551858.687206268 0 0 0 0 -130736550.70178223 -142041267.72530484 0 -142041267.72530484 -106762820.75992155 0 0 0 0 -75177146.579322815 -48492240.34779194 0 -48492240.34779194 43665875.481345832 0 0 0 0 299127909.60481262 245284703.36423302 0 245284703.36423302 -143237219.83807421 0 0 0 0 -36577188.657325745 102419431.41313136 0 102419431.41313136 -137910536.33480835 0 0 0 0 -20801995.668073565 1286076.9102571588 0 1286076.9102571588 1759305.6628376958 0 0 0 0 -3828931.1478899643 -810072.9620472528 0 -810072.9620472528 867291.50676917611 0 0 0 0 -366573342.89910126 -150149173.44033515 0 -150149173.44033515 -52880952.391573906 0 0 0 0 258345219.09777832 226503625.19725895 0 226503625.19725895 185350225.95882499 0 0 0 0 2395724.898302041 1993798.6522982805 0 1993798.6522982805 -1127189.4032909954 0 0 0 0 291036994.54577637 -71014618.664970517 0 -71014618.664970517 -635905.2699213028 0 0 0 0 716041506.55815125 215888411.60242414 0 215888411.60242414 -111428360.0480814 0 0 0 0 840789234.75088501 -324833584.80851507 0 -324833584.80851507 -708551202.86978173 0 0 0 0 756083745.1414566 -57529155.419295654 0 -57529155.419295654 -524630033.93679368 0 0 0 0 590667174.95014191 -147625748.24201688 0 -147625748.24201688 -135536949.98515439 0 0 0 0 363361998.6639328 49538004.885930032 0 49538004.885930032 -151352701.85548973 0 0 0 0 -53570563.442230225 128659220.47464383 0 128659220.47464383 -34201962.584658384 0 0 0 0 -388305197.38499451 239339957.95873499 0 239339957.95873499 -112103805.39532548 0 0 0 0 -77294384.687652588 151561345.1247623 0 151561345.1247623 -240156926.06099421 0 0 0 0 -126487178.75921631 -29603374.975041389 0 -29603374.975041389 -58503439.717384458 0 0 0 0 59296606.437805176 -80566118.874854207 0 -80566118.874854207 -30170342.693792999 0 0 0 0 -61420425.895847321 96516011.379517853 0 96516011.379517853 -140725267.91716981 0 0 0 0 -147502571.04518127 15756166.732318044 0 15756166.732318044 -48497779.190805018 0 0 0 0 67397131.581878662 41759455.03594768 0 41759455.03594768 -88148891.249917865 0 0 0 0 -122784269.89772797 76227223.635510266 0 76227223.635510266 83086088.333422899 0 0 0 0 -24281107.171798706 -6713733.5544772148 0 -6713733.5544772148 -25965696.949651122 0 0 0 0 7315410.9455082268 7477241.6720498735 0 7477241.6720498735 -4204472.6275196346 0 0 0 0 -24057123.291631699 -32943597.488591924 0 -32943597.488591924 39140546.10389328 0 0 0 0 -49707590.846282959 24428887.674052238 0 24428887.674052238 -18846601.354803085 0 0 0 0 -56566709.536315918 20093477.317159653 0 20093477.317159653 24032783.42010498 0 0 0 0 5931415.2368164062 33098199.894247055 0 33098199.894247055 11254367.292461395 0 0 0 0 -17222818.952802777 9311094.2254852057 0 9311094.2254852057 2896980.6069016275 0 0 0 0 -28437219.539855957 2257140.9540481567 0 2257140.9540481567 3912776.1914920807 0 0 0 0 -16613481.376785278 16820313.857897758 0 16820313.857897758 -4881418.9029027224 0 0 0 0 -2345050.4305297062 1025788.5856113285 0 1025788.5856113285 527906.68928770022 0 0 0 0 -24393061.18497467 12113542.043135628 0 12113542.043135628 13940351.071662188 0 0 0 0 -14896797.066619873 13084678.571603537 0 13084678.571603537 406576.26526874304 0 0 0 0 -22227604.576885223 19772099.574371606 0 19772099.574371606 14658525.318270206 0 0 0 0 -11642657.306121826 175414.10817873478 0 175414.10817873478 19113402.072302997 0 0 0 0 -33661197.031280518 -17375154.260624409 0 -17375154.260624409 38346389.298610687 0 0 0 0 -65932515.182647705 51961466.162656784 0 51961466.162656784 14611250.506979465 0 0 0 0 -14528414.740699433 9098922.5908815302 0 9098922.5908815302 4264258.1511406777 0 0 0 0 -58510412.517669678 57091147.499704361 0 57091147.499704361 -8856081.551609993 0 0 0 0 -17291796.406022087 10607587.300902423 0 10607587.300902423 6736257.7474327441 0 0 0 0 -58840322.355163574 79802039.148212433 0 79802039.148212433 -38112322.708036423 0 0 0 0 40545592.30090332 -66462323.656952858 0 -66462323.656952858 99493049.62669611 0 0 0 0 -1918432.6165285408 -3413649.9078705385 0 -3413649.9078705385 3315066.4280855842 0 0 0 0 184619531.57498169 -157623511.37828898 0 -157623511.37828898 62894541.529071808 0 0 0 0 62426774.821289062 -714510.51972389221 0 -714510.51972389221 -7605807.4897565842 0 0 0 0 37988557.639823914 -6735369.7837033272 0 -6735369.7837033272 -4111470.9357833862 0 0 0 0 328620629.87358475 -8384369.8477455378 0 -8384369.8477455378 -237994303.52113724 0 0 0 0 -17929612.147667885 53551051.148750126 0 53551051.148750126 80483870.44335556 0 0 0 0 260407961.00294495 93270505.586044312 0 93270505.586044312 20406842.804219723 0 0 0 0 376076972.00590515 -180970713.53700352 0 -180970713.53700352 -133571242.45044708 0 0 0 0 379498971.40762329 -257813416.65772724 0 -257813416.65772724 -81210979.275019646 0 0 0 0 171354011.45474076 -84543216.580517486 0 -84543216.580517486 11210754.219266891 0 0 0 0 161894202.72497511 -305405621.36044151 0 -305405621.36044151 169967250.83790779 0 0 0 0 -23686962.659783527 11157616.070301011 0 11157616.070301011 5935738.2660333812 0 0 0 0 45281952.223526001 -125812718.10354662 0 -125812718.10354662 179606683.89774323 0 0 0 0 -9047999.0038757324 5896613.3976225853 0 5896613.3976225853 6633638.6947386861 0 0 0 0 -11496143.636169434 5526494.1169109344 0 5526494.1169109344 6786331.6161680222 0 0 0 0 -21206602.160533905 5156097.4137319028 0 5156097.4137319028 13448124.229543209 0 0 0 0 -21818516.68094635 5093460.0638947785 0 5093460.0638947785 23369577.823353291 0 0 0 0 -18906056.158545442 10830998.202807201 0 10830998.202807201 1084493.1680458712 0 0 0 0 -644884.39701019228 -975421.91685130075 0 -975421.91685130075 1422863.8040924999 0 0 0 0 8396694.2947387695 -19865970.133590698 0 -19865970.133590698 9714557.5686930716 0 0 0 0 -8252808.0790634155 27724078.027821183 0 27724078.027821183 -46108316.848464966 0 0 0 0 -33931549.21585083 84759117.429351687 0 84759117.429351687 45593250.382758141 0 0 0 0 -32160090.94171524 7866624.4225745201 0 7866624.4225745201 43018592.662900925 0 0 0 0 -32164531.854702123 5615179.2954047099 0 5615179.2954047099 6320671.1436326429 0 0 0 0 8391405.3864135742 -20300489.68860054 0 -20300489.68860054 -8706955.5913200378 0 0 0 0 9874696.973072052 -30183923.829813242 0 -30183923.829813242 28980323.703525543 0 0 0 0 -31978424.846538968 4355541.371471025 0 4355541.371471025 6192178.5155940484 0 0 0 0 18065886.721420288 554008.66063117981 0 554008.66063117981 -2818748.6842985153 0 0 0 0 -21255468.265486315 2873757.830545363 0 2873757.830545363 5151593.761409062 0 0 0 0 -81320529.760993958 29524027.325647593 0 29524027.325647593 66095821.898230076 0 0 0 0 -21803235.524658203 16740661.56179291 0 16740661.56179291 28164992.598761708 0 0 0 0 -140535096.97000122 15408600.595747948 0 15408600.595747948 63683002.520782948 0 0 0 0 -14613826.166793823 17022640.637046337 0 17022640.637046337 15647507.768039286 0 0 0 0 26442953.448710442 62986590.982580602 0 62986590.982580602 8122983.3427987099 0 0 0 0 -20720195.032167442 3533208.6135493675 0 3533208.6135493675 3440623.21583386 0 0 0 0 -49824378.253997803 -40167729.191897392 0 -40167729.191897392 125853910.67858219 0 0 0 0 -185713338.39862061 -64468108.131671667 0 -64468108.131671667 64394475.810938433 0 0 0 0 -215253.10540091991 231331.54728431185 0 231331.54728431185 471174.03683207341 0 0 0 0 106589548.46174622 -41541611.921797663 0 -41541611.921797663 -105042419.61976025 0 0 0 0 -40034976.119552612 -42533944.874055862 0 -42533944.874055862 -29453488.273463249 0 0 0 0 1757816.5913619995 15360684.46766758 0 15360684.46766758 60894628.05510807 0 0 0 0 -27689384.133117676 -22077076.395290375 0 -22077076.395290375 24499696.215742111 0 0 0 0 19392752.747543335 -27654356.163028002 0 -27654356.163028002 22140443.666530609 0 0 0 0 27852934.553833008 22795557.606773853 0 22795557.606773853 24310199.947929382 0 0 0 0 -25040436.304779053 -64452139.875526428 0 -64452139.875526428 56782154.907913208 0 0 0 0 -45420134.568468094 -15499924.826793432 0 -15499924.826793432 -3440321.526506424 0 0 0 0 -22214383.978858948 11420120.729150772 0 11420120.729150772 23921745.017012596 0 0 0 0 -40221755.350467682 -3053757.962501049 0 -3053757.962501049 -71938927.334314346 0 0 0 0 -115314834.54478455 -38616761.030806541 0 -38616761.030806541 16815236.732349396 0 0 0 0 -100093150.88896942 51795776.394811153 0 51795776.394811153 -11870673.792900085 0 0 0 0 -12427065.037300577 3318560.4739850853 0 3318560.4739850853 -1216070.9184740586 0 0 0 0 -50412570.156890869 42664887.400550365 0 42664887.400550365 -56884273.321762085 0 0 0 0 -63619327.893547058 36087564.690490723 0 36087564.690490723 -11072565.741535187 0 0 0 0 -40218866.806983948 18577084.974670887 0 18577084.974670887 -13396514.914083838 0 0 0 0 -29954647.349136353 -503808.85741853714 0 -503808.85741853714 -6059453.9843473434 0 0 0 0 -10039767.73551178 9371727.7713222504 0 9371727.7713222504 -1713402.8379011154 0 0 0 0 -22961853.421310425 -23088690.295204878 0 -23088690.295204878 22677013.209606171 0 0 0 0 -38149981.532218933 -10616982.49424839 0 -10616982.49424839 5963504.6252605915 0 0 0 0 -26013729.35899353 -13175012.159959793 0 -13175012.159959793 4145645.6288237572 0 0 0 0 -33668336.679756165 -12095741.401309729 0 -12095741.401309729 40413707.342443466 0 0 0 0 -25324580.359107971 -7752644.3507175446 0 -7752644.3507175446 3006615.8886756897 0 0 0 0 -28299902.165837288 -15678087.940857768 0 -15678087.940857768 17089033.4121418 0 0 0 0 -26644003.325683594 -17871518.668467522 0 -17871518.668467522 17778369.990753174 0 0 0 0 -18233173.732795715 1676186.1250610352 0 1676186.1250610352 32293799.085276604 0 0 0 0 -2966323.1734619141 -3664825.2472553253 0 -3664825.2472553253 10743483.342101336 0 0 0 0 -17449003.496031523 -12360844.346696734 0 -12360844.346696734 9777326.3217353821 0 0 0 0 -11168749.816478752 89581.186782285571 0 89581.186782285571 3369368.6384063023 0 0 0 0 16747958.118721008 15724269.605798185 0 15724269.605798185 -1815225.088796258 0 0 0 0 -1118573.5428729504 1174345.0361242043 0 1174345.0361242043 834217.18055139598 0 0 0 0 -13086321.600006104 9116969.5845088959 0 9116969.5845088959 26706299.438855171 0 0 0 0 -10537921.699184194 -4299100.4205966694 0 -4299100.4205966694 7120761.0023706462 0 0 0 0 -13752716.226031579 10208368.980824081 0 10208368.980824081 319390.8815603219 0 0 0 0 -8804725.0307617188 -11387543.300495148 0 -11387543.300495148 15838722.106901884 0 0 0 0 -19337360.823342483 2755941.1632144293 0 2755941.1632144293 4228418.1150585981 0 0 0 0 -31650829.698806763 2756683.4671406746 0 2756683.4671406746 50999822.232414246 0 0 0 0 -21663444.671455383 -45670922.294538498 0 -45670922.294538498 58268737.623372078 0 0 0 0 -2782886.9046969004 -4120996.1893000752 0 -4120996.1893000752 3382630.6066826251 0 0 0 0 -47541125.436691284 3935340.653223753 0 3935340.653223753 72292017.199082136 0 0 0 0 -57603736.762020111 22450143.481375217 0 22450143.481375217 -408820.03091430664 0 0 0 0 -53796571.619537354 24389526.387075901 0 24389526.387075901 -1543767.5601806641 0 0 0 0 -126604634.52052307 65904093.547750853 0 65904093.547750853 19543733.40393889 0 0 0 0 -53705234.131881714 -33259443.358430862 0 -33259443.358430862 32654105.747646391 0 0 0 0 -55599577.369680405 20984433.266384125 0 20984433.266384125 -4251254.5700149536 0 0 0 0 -49005023.529988907 9288164.9007046074 0 9288164.9007046074 8032316.9007950928 0 0 0 0 -36193174.193618774 -11001961.836765826 0 -11001961.836765826 57840227.677478313 0 0 0 0 -10889491.873423971 2908235.0199587829 0 2908235.0199587829 2393453.4783753455 0 0 0 0 -58814565.506164551 -112401377.1086098 0 -112401377.1086098 141632126.72970238 0 0 0 0 -61172836.355072021 10968831.849872306 0 10968831.849872306 64531154.6954588 0 0 0 0 -36972627.091640674 -2995408.9995244518 0 -2995408.9995244518 9166435.5444472432 0 0 0 0 -63221558.407920837 25743407.438753128 0 25743407.438753128 -2741230.2037220001 0 0 0 0 -58950129.523727417 19901228.821950912 0 19901228.821950912 -1538920.6842384338 0 0 0 0 -58243957.389450073 35648765.660438538 0 35648765.660438538 9001500.7966175079 0 0 0 0 -30626919.30163743 9857704.4328343756 0 9857704.4328343756 8736767.9904091805 0 0 0 0 -14125954.043479919 -13820755.13570118 0 -13820755.13570118 23198253.977192879 0 0 0 0 -81637162.216094971 12925147.7397995 0 12925147.7397995 -10772872.580245972 0 0 0 0 -2136097.7488360628 -3479123.5459765703 0 -3479123.5459765703 1978587.0563159687 0 0 0 0 -11860668.123321533 91340234.656683922 0 91340234.656683922 30714586.658473969 0 0 0 0 -47498327.337921143 -6093005.7303390875 0 -6093005.7303390875 77767614.717171371 0 0 0 0 -58344048.740470886 30577694.83387915 0 30577694.83387915 42104825.075358391 0 0 0 0 -41765453.186233521 15699122.378185436 0 15699122.378185436 49588303.624296367 0 0 0 0 -45406592.517120361 18048088.477070421 0 18048088.477070421 50124326.813740537 0 0 0 0 -23472015.841938779 -1790421.6530117793 0 -1790421.6530117793 6633774.0921558728 0 0 0 0 -20109791.395893097 4827985.4634808153 0 4827985.4634808153 33984116.176159561 0 0 0 0 32329960.415837526 -9011248.7367938533 0 -9011248.7367938533 32651941.763011694 0 0 0 0 -23325520.576298624 7607330.5783459283 0 7607330.5783459283 4311989.7403143011 0 0 0 0 -142736663.16912842 -29594838.512283325 0 -29594838.512283325 37964999.144615173 0 0 0 0 -61690919.33265686 115700645.25293922 0 115700645.25293922 76635178.772993088 0 0 0 0 -63042975.352478027 35045756.83828783 0 35045756.83828783 -18925404.471909523 0 0 0 0 -64039928.861312866 33324317.663009644 0 33324317.663009644 -20846496.368989944 0 0 0 0 -137392284.43301392 81233966.846924782 0 81233966.846924782 83677973.937763214 0 0 0 0 -4005169.6833936386 377993.39242651872 0 377993.39242651872 224551.35105628707 0 0 0 0 -80465601.466274261 43959634.183497548 0 43959634.183497548 -21538603.967028856 0 0 0 0 -23371937.481379025 2984809.7991155954 0 2984809.7991155954 6462016.6393641913 0 0 0 0 -55352190.385204315 25311128.51698494 0 25311128.51698494 -7890870.1789898872 0 0 0 0 -63947638.957775116 29177668.695440292 0 29177668.695440292 -8771211.4300785065 0 0 0 0 -22860879.878133662 4753161.3237351431 0 4753161.3237351431 7683485.0987882344 0 0 0 0 -61747696.853226662 22252061.938418627 0 22252061.938418627 -1863743.6122398376 0 0 0 0 -56413485.094791412 22272586.106736183 0 22272586.106736183 -6558277.6716403961 0 0 0 0 -55912348.009154625 10124225.164630003 0 10124225.164630003 19148547.690005809 0 0 0 0 -56270656.450549006 19903291.687829673 0 19903291.687829673 1243107.1376876831 0 0 0 0 29810367.047393799 -1058628.9915924072 0 -1058628.9915924072 17249865.399238586 0 0 0 0 -365087990.40759277 -165193482.99275208 0 -165193482.99275208 -129649342.83333826 0 0 0 0 -24992699.078929901 -190746077.93870926 0 -190746077.93870926 -459651794.97966003 0 0 0 0 -166223865.94059753 -185978719.46791077 0 -185978719.46791077 210721339.55184937 0 0 0 0 -72424207.807998657 -240299284.33694458 0 -240299284.33694458 -133828169.50286913 0 0 0 0 -179183310.20531082 -137045624.90844345 0 -137045624.90844345 537019043.53616333 0 0 0 0 51085337.540893555 -258956350.05389404 0 -258956350.05389404 225077746.31341553 0 0 0 0 -51857010.528119951 6603558.0794818066 0 6603558.0794818066 22049935.379552267 0 0 0 0 -57520978.999786377 20977990.998905182 0 20977990.998905182 -5459690.6091551781 0 0 0 0 -55102469.572238922 -367865930.98337173 0 -367865930.98337173 449104353.45207977 0 0 0 0 -38349652.495029449 -155538979.15834045 0 -155538979.15834045 388943609.28092957 0 0 0 0 660033.44923400879 -147719205.42424011 0 -147719205.42424011 -75165152.054458618 0 0 0 0 2596277.3375091553 -58130874.217285156 0 -58130874.217285156 -54675295.602060318 0 0 0 0 65046040.403533936 -181242924.92013168 0 -181242924.92013168 174246476.71740341 0 0 0 0 -57217616.045760393 22967249.98578155 0 22967249.98578155 -10633594.521726608 0 0 0 0 -55203500.565104961 25084378.525665879 0 25084378.525665879 -11966736.444732666 0 0 0 0 -53108958.5966959 24487597.683541298 0 24487597.683541298 -12081210.590633392 0 0 0 0 -53904714.200424194 23632225.53390646 0 23632225.53390646 -11442357.90825367 0 0 0 0 -48486928.69618655 4444160.16689358 0 4444160.16689358 24969382.704096466 0 0 0 0 59886644.887940645 -28788875.105903864 0 -28788875.105903864 -52447283.378395081 0 0 0 0 4400118.2793388367 -26867655.004581451 0 -26867655.004581451 12316096.736953735 0 0 0 0 -29006354.144515991 -16660758.76115036 0 -16660758.76115036 67644220.792499542 0 0 0 0 -16199451.190898895 -22827466.011780739 0 -22827466.011780739 34290536.005828857 0 0 0 0 299493.18358107656 -6659952.4283789396 0 -6659952.4283789396 5447885.7978765042 0 0 0 0 96428615.809242249 -15938613.638938904 0 -15938613.638938904 -234982429.08909607 0 0 0 0 27499620.479278564 6290929.7380523682 0 6290929.7380523682 -183172821.70682144 0 0 0 0 -4005220.8326021954 -4091267.0040797256 0 -4091267.0040797256 2736223.5917115733 0 0 0 0 -1544358.5088005066 17323365.910282135 0 17323365.910282135 46035180.479755402 0 0 0 0 -36108059.863965988 36413871.573195457 0 36413871.573195457 36880632.270507812 0 0 0 0 18029335.407707214 37513313.750862122 0 37513313.750862122 7103507.6865692139 0 0 0 0 -230080398.04779625 103430646.60792446 0 103430646.60792446 -113454437.87155914 0 0 0 0 29629658.944419861 16156193.102207184 0 16156193.102207184 18760870.853637695 0 0 0 0 -2115531.6707483903 1693534.9088388663 0 1693534.9088388663 10914057.74423952 0 0 0 0 -270396324.73872375 83398882.434408188 0 83398882.434408188 -76627836.062759399 0 0 0 0 -419964032.72948456 153066262.73757172 0 153066262.73757172 -68104632.419967651 0 0 0 0 -234025379.69050598 79663808.986251831 0 79663808.986251831 152614320.36621094 0 0 0 0 -247734330.90531445 191610766.70090199 0 191610766.70090199 -116777779.56204224 0 0 0 0 -424922763.02227783 66373035.839706421 0 66373035.839706421 98404277.038818359 0 0 0 0 -5717.5133787468076 88605.096888370812 0 88605.096888370812 209836.39594457671 0 0 0 0 -75957986.463615417 177486078.52411652 0 177486078.52411652 -383023679.3213501 0 0 0 0 -1395071.8146799449 -1996095.2048282893 0 -1996095.2048282893 1273020.0088565126 0 0 0 0 -276676162.79112244 54333463.782974243 0 54333463.782974243 5589037.3363647461 0 0 0 0 -378479569.84511566 -234542889.41702652 0 -234542889.41702652 -223185369.13919067 0 0 0 0 -43675891.155853271 -17926924.505947113 0 -17926924.505947113 20344812.582210541 0 0 0 0 -62395639.871009827 29125692.940252066 0 29125692.940252066 -27226175.394177318 0 0 0 0 -68117134.461395264 34578424.361232996 0 34578424.361232996 85929946.216330051 0 0 0 0 -215594353.40345001 -117257228.67669415 0 -117257228.67669415 123466823.66575393 0 0 0 0 -1518277.4307276607 -779257.94557182863 0 -779257.94557182863 44796.575114081614 0 0 0 0 -15935877.197433472 77853221.57246995 0 77853221.57246995 -42476207.429942608 0 0 0 0 -56115802.139849663 -73373354.041081667 0 -73373354.041081667 18337331.415823936 0 0 0 0 -42816029.245521545 -19259456.522670031 0 -19259456.522670031 -4787905.0039482117 0 0 0 0 -27876882.873497009 -18114418.577063322 0 -18114418.577063322 -9001184.5184001923 0 0 0 0 -32741164.367545128 -2624904.3981941938 0 -2624904.3981941938 -8642754.0501251221 0 0 0 0 -56954900.925415039 968444.51351761818 0 968444.51351761818 -5745845.6063737869 0 0 0 0 -66663416.02481842 10091935.850899696 0 10091935.850899696 -10187512.862892628 0 0 0 0 -77816294.416500092 30370433.464658976 0 30370433.464658976 -10738328.320498116 0 0 0 0 -28062168.619637586 11195670.854265217 0 11195670.854265217 -5967875.2809669944 0 0 0 0 -18397752.104639754 -2489247.4195586154 0 -2489247.4195586154 6695453.2519449145 0 0 0 0 -43071083.401010625 1028227.4703456629 0 1028227.4703456629 27969793.461050309 0 0 0 0 -27286404.810639381 7206484.23412323 0 7206484.23412323 -206267.59733581543 0 0 0 0 -49950147.689720154 24247298.897602558 0 24247298.897602558 -18655074.361410141 0 0 0 0 -49799157.000627518 26359531.77391243 0 26359531.77391243 -19109701.172649622 0 0 0 0 -64660589.982082367 -1842446.8838158846 0 -1842446.8838158846 8919664.3403778076 0 0 0 0 -30410283.183168408 13003253.274770144 0 13003253.274770144 -9057450.8219751772 0 0 0 0 -21824261.907819748 7383498.1724071503 0 7383498.1724071503 -1781268.2657527924 0 0 0 0 -5890731.5259255059 -10608292.550535608 0 -10608292.550535608 13187831.515433621 0 0 0 0 -13218576.537721157 -1760469.0344634056 0 -1760469.0344634056 989558.83145332336 0 0 0 0 -12073004.198399544 -5570104.5440235138 0 -5570104.5440235138 12879279.313644409 0 0 0 0 79697983.727050781 -69548494.391296387 0 -69548494.391296387 106908147.46291351 0 0 0 0 -58033873.491975382 11424828.789015163 0 11424828.789015163 13574332.121829897 0 0 0 0 3979650.1864478216 -3342488.5004645372 0 -3342488.5004645372 2541780.7339663655 0 0 0 0 46678680.923285961 -141578130.14877343 0 -141578130.14877343 107425212.62895203 0 0 0 0 8555034.8135681152 -113724318.33628845 0 -113724318.33628845 179815224.88485718 0 0 0 0 42647497.2787323 -55151955.800956726 0 -55151955.800956726 23342647.364273071 0 0 0 0 6663923.8085771427 -16999058.149224091 0 -16999058.149224091 10720396.810543653 0 0 0 0 34616365.093109131 -31955326.506896973 0 -31955326.506896973 21624849.965080261 0 0 0 0 -2451863.8047714233 -25227357.115638733 0 -25227357.115638733 29877081.043492317 0 0 0 0 -10994097.103786469 -455079.31401443481 0 -455079.31401443481 8277213.0475554466 0 0 0 0 -15944051.095250869 -3946685.4807861261 0 -3946685.4807861261 10605356.146594223 0 0 0 0 -19480797.622768402 494105.03155517578 0 494105.03155517578 14411976.661266327 0 0 0 0 -1046597.4555320814 -11404939.266009804 0 -11404939.266009804 15553373.245418593 0 0 0 0 -207357.01135253906 -5817628.4071121216 0 -5817628.4071121216 7206730.8257427216 0 0 0 0 -11019402.006780513 1302863.4063064246 0 1302863.4063064246 4067519.3902162798 0 0 0 0 -38733553.482301027 2410928.9113615379 0 2410928.9113615379 17768419.311173759 0 0 0 0 -14279777.580547333 -15554967.750872612 0 -15554967.750872612 21971585.559310913 0 0 0 0 592159.39346706495 -2173241.5160531597 0 -2173241.5160531597 1545729.6841602465 0 0 0 0 5731632.3886032104 3716535.2807235718 0 3716535.2807235718 8913317.5200462341 0 0 0 0 -24630578.145042419 -23756339.831795692 0 -23756339.831795692 26285150.347114086 0 0 0 0 -53419722.291419983 58414168.701227427 0 58414168.701227427 -10447124.708429337 0 0 0 0 -55614760.20950985 31877472.459018551 0 31877472.459018551 -70913554.819186032 0 0 0 0 -25352002.472243659 765135.12306355871 0 765135.12306355871 5004681.5528084049 0 0 0 0 -44150634.50094986 82906279.316209137 0 82906279.316209137 -11152258.218105674 0 0 0 0 -6591821.9163169861 32211208.298586309 0 32211208.298586309 20089829.472253799 0 0 0 0 -54437038.645469666 51980062.230214089 0 51980062.230214089 12159620.142799139 0 0 0 0 -778492.31258416735 -478237.29613926262 0 -478237.29613926262 -480183.49001084745 0 0 0 0 -91420793.941799164 2471568.854539156 0 2471568.854539156 -12470208.891280293 0 0 0 0 -42069607.755596668 474637.63664806029 0 474637.63664806029 18317079.808371544 0 0 0 0 -61238375.582260132 -21242015.54883194 0 -21242015.54883194 21284917.110626221 0 0 0 0 -32190509.194632426 8975841.3612233698 0 8975841.3612233698 4584202.818210369 0 0 0 0 547605108.92937565 326432676.40888309 0 326432676.40888309 -141094856.63098076 0 0 0 0 -1243351742.902297 -78155928.533057928 0 -78155928.533057928 95073657.608785152 0 0 0 0 380284990.36132717 -435537743.45759523 0 -435537743.45759523 -1348958047.475939 0 0 0 0 -1152515672.9228549 439146542.13292074 0 439146542.13292074 770085992.57625771 0 0 0 0 -19402984.302177429 -19385318.43388319 0 -19385318.43388319 4943544.458584547 0 0 0 0 26248406.29196167 88287390.650203228 0 88287390.650203228 2069937.786482051 0 0 0 0 99636368.980573654 57488581.921863675 0 57488581.921863675 -21286821.784685135 0 0 0 0 -1184638.6850290294 -412711.5085224472 0 -412711.5085224472 7846.6627495642751 0 0 0 0 -50545770.157924652 -24441832.428148031 0 -24441832.428148031 23479356.931547165 0 0 0 0 -9190198.661895752 18847877.880251408 0 18847877.880251408 27150471.635228157 0 0 0 0 36987299.500854492 11356121.201037884 0 11356121.201037884 18550185.143851757 0 0 0 0 -55618411.107194901 42954593.99323681 0 42954593.99323681 35301498.921365738 0 0 0 0 -24961145.427080549 5814880.2314991746 0 5814880.2314991746 3617364.0253277635 0 0 0 0 -31970981.556259155 20079791.200370789 0 20079791.200370789 -5927733.9889907837 0 0 0 0 -48718173.578146458 5655732.9133814871 0 5655732.9133814871 22659144.175121307 0 0 0 0 -66224203.78408289 472506630.67248583 0 472506630.67248583 504124738.72961044 0 0 0 0 -13710326.659599304 6304926.8505768776 0 6304926.8505768776 -3031769.0957794189 0 0 0 0 -30096325.505004883 30963758.824479103 0 30963758.824479103 1763062.1623706818 0 0 0 0 -22950906.40864563 11088937.07383585 0 11088937.07383585 9821042.027017355 0 0 0 0 -45959748.682886124 6244652.4133728743 0 6244652.4133728743 13042879.867219925 0 0 0 0 -14526856.828033447 5596843.0774250031 0 5596843.0774250031 6931793.1501092911 0 0 0 0 883371.51311184838 1886417.3534944633 0 1886417.3534944633 -78708.095425663283 0 0 0 0 -28042933.748947144 12009584.75292778 0 12009584.75292778 -4143801.8847403526 0 0 0 0 -4042996.2762870267 -227400.47798679024 0 -227400.47798679024 238419.70097492263 0 0 0 0 -4025342.9343877025 -331899.5103611704 0 -331899.5103611704 -198803.36389821814 0 0 0 0 17972376.042450905 26107939.515838385 0 26107939.515838385 -973221.65467453003 0 0 0 0 -138628.23883056641 15596994.50026226 0 15596994.50026226 4574197.0981342793 0 0 0 0 -8900277.5510292053 6317095.7535214424 0 6317095.7535214424 14019911.671436667 0 0 0 0 -17999371.009338766 -1541631.930320926 0 -1541631.930320926 3051225.7933278061 0 0 0 0 -95141580.917920113 -55712843.164470792 0 -55712843.164470792 12927283.872687817 0 0 0 0 -12379912.876899719 789583.03721952438 0 789583.03721952438 15457465.436211586 0 0 0 0 -13128726.142547607 1903316.7823119164 0 1903316.7823119164 16530530.801881313 0 0 0 0 -10106919.613687038 42432780.889217019 0 42432780.889217019 29232762.017186761 0 0 0 0 -17674933.066730458 3547428.0007212916 0 3547428.0007212916 2269579.8393554115 0 0 0 0 -19190855.357999612 -4060284.4447147772 0 -4060284.4447147772 3105112.2407123186 0 0 0 0 -12048323.762023926 2242610.1754989624 0 2242610.1754989624 15456303.683969498 0 0 0 0 78173689.08519268 -182761579.78902435 0 -182761579.78902435 121061030.94927788 0 0 0 0 -23428418.788343128 5122991.3538262304 0 5122991.3538262304 7520171.9548260262 0 0 0 0 -14544352.945054896 1894194.742548998 0 1894194.742548998 4050634.6478117374 0 0 0 0 111076494.39567637 -120402204.6377337 0 -120402204.6377337 226382879.61523056 0 0 0 0 100602755.35212924 -113202881.43138242 0 -113202881.43138242 238424316.68520832 0 0 0 0 76371391.630141616 -151818242.72939521 0 -151818242.72939521 374242666.98219097 0 0 0 0 67664744.756371737 -198200903.40440524 0 -198200903.40440524 195292380.09038562 0 0 0 0 2745406.754036665 44335137.886791229 0 44335137.886791229 -52516192.214814186 0 0 0 0 -3145264.9349479279 582970.03731830767 0 582970.03731830767 -83073.543646936421 0 0 0 0 -245946364.4434886 -29494277.197190017 0 -29494277.197190017 -9993821.9719290063 0 0 0 0 -190224401.75615704 -267480436.31579846 0 -267480436.31579846 -290719302.59456134 0 0 0 0 446499221.61647844 -483623334.26401854 0 -483623334.26401854 -291308823.90461725 0 0 0 0 -182324515.21686506 134118152.94529724 0 134118152.94529724 235380564.75872397 0 0 0 0 184525992.03780127 -214902730.24591792 0 -214902730.24591792 -234451779.15192497 0 0 0 0 82569425.966020346 -728845416.94371068 0 -728845416.94371068 86937016.817495823 0 0 0 0 -718513972.02437854 -532570616.99199468 0 -532570616.99199468 191861213.10067523 0 0 0 0 -610937103.81392956 790967599.66778481 0 790967599.66778481 -488247958.30966139 0 0 0 0 -3318695.1227577599 -1257883.9516427182 0 -1257883.9516427182 -256466.50020389364 0 0 0 0 -137941441.96680069 372136580.3482461 0 372136580.3482461 -225087845.41006643 0 0 0 0 -9148537.182213882 -2632595.4321937943 0 -2632595.4321937943 -8618.6253944849595 0 0 0 0 -432951600.5936985 39300787.556958191 0 39300787.556958191 369849394.18813825 0 0 0 0 72366981.088970184 -781700321.13637924 0 -781700321.13637924 1093097041.0641093 0 0 0 0 418110344.44217348 -161933612.38458189 0 -161933612.38458189 -154960170.15511477 0 0 0 0 -722583598.25192404 -330968364.20711577 0 -330968364.20711577 1595161533.7536123 0 0 0 0 -336978748.54922581 -475659056.97895283 0 -475659056.97895283 -747732402.23821115 0 0 0 0 -161448628.21934652 -115194056.30136672 0 -115194056.30136672 -68604065.750066996 0 0 0 0 268277276.38618755 -121057926.47298449 0 -121057926.47298449 -570070373.45809937 0 0 0 0 236817342.29736328 -384137155.42846489 0 -384137155.42846489 -371671104.70482314 0 0 0 0 -4886071923.9375334 466982781.37108827 0 466982781.37108827 1001113840.6000884 0 0 0 0 -1548682755.0202088 2406288601.0570912 0 2406288601.0570912 -659509174.22936535 0 0 0 0 -457859052.67717361 -549070445.81923175 0 -549070445.81923175 25891722.100230113 0 0 0 0 -1325743122.342504 518295052.08975184 0 518295052.08975184 83130204.634812117 0 0 0 0 -3375483326.3110485 -1043535049.2412801 0 -1043535049.2412801 -322691716.78697371 0 0 0 0 -5369098829.1705132 132312757.53424348 0 132312757.53424348 919862915.23625183 0 0 0 0 -3271851591.1710863 759873392.6268512 0 759873392.6268512 970211242.13508201 0 0 0 0 -6612564886.3758488 -984267337.43722093 0 -984267337.43722093 157719582.52477872 0 0 0 0 -4524434535.3090401 -1484027644.5424094 0 -1484027644.5424094 256967780.93773293 0 0 0 0 -3680376.9047743455 26673.848254187498 0 26673.848254187498 -1007400.616692964 0 0 0 0 -4261409467.0764313 34844477.143473208 0 34844477.143473208 34706217.517750382 0 0 0 0 -2649330090.0728216 -1957588258.7691526 0 -1957588258.7691526 -1103593475.1383128 0 0 0 0 -783443396.05363083 -166801900.9163208 0 -166801900.9163208 -203091200.48779142 0 0 0 0 16156238.907188296 544089718.26803255 0 544089718.26803255 30350259.676243782 0 0 0 0 92868972.608325958 -684531182.45628691 0 -684531182.45628691 -986446677.22742558 0 0 0 0 35654751.725034714 439831056.0651648 0 439831056.0651648 -101147852.23245269 0 0 0 0 134630261.70111275 -466226329.68942219 0 -466226329.68942219 -394345564.41798168 0 0 0 0 233883826.10126114 -110727473.62377727 0 -110727473.62377727 -250903999.01390111 0 0 0 0 -3172700411.8893261 -1729352498.4250669 0 -1729352498.4250669 -807090765.66157031 0 0 0 0 -1654996121.1374626 204468087.22934699 0 204468087.22934699 86738076.941892624 0 0 0 0 -85488398.095870972 -284716365.14565825 0 -284716365.14565825 -729080319.22427273 0 0 0 0 -6607546073.0137196 -2709127576.3534813 0 -2709127576.3534813 283741562.0146625 0 0 0 0 -4452609478.5790443 -1287359776.0975487 0 -1287359776.0975487 376556125.12058616 0 0 0 0 23310883.24143219 -74029844.380766153 0 -74029844.380766153 -171048878.88696909 0 0 0 0 31776672.489622116 -36301237.363245964 0 -36301237.363245964 -103434740.35549641 0 0 0 0 -20534.536243438721 29167088.032164812 0 29167088.032164812 -385658411.47122622 0 0 0 0 -24258887.804488659 -29489697.992228925 0 -29489697.992228925 -424804608.20483875 0 0 0 0 -199543218.64768219 133010408.31609845 0 133010408.31609845 -522529905.69753343 0 0 0 0 -617689002.45907164 -346363762.87393785 0 -346363762.87393785 -748984041.87287331 0 0 0 0 -10550578.156036377 300639192.23606491 0 300639192.23606491 -571190041.31277537 0 0 0 0 -235773456.22012901 183321053.46337962 0 183321053.46337962 131274572.28674316 0 0 0 0 -195461554.48769379 187728151.87134743 0 187728151.87134743 -145606992.32522917 0 0 0 0 -54455504.104457378 -36552820.306205392 0 -36552820.306205392 -20352544.427395821 0 0 0 0 -294568164.68091774 48367500.593786716 0 48367500.593786716 158057799.56223297 0 0 0 0 153271701.14680576 -39470703.457227707 0 -39470703.457227707 63466290.92089653 0 0 0 0 -4979831.3604857381 5152916.6843320318 0 5152916.6843320318 2921859.7061476577 0 0 0 0 -155060510.58727074 -105185561.96946287 0 -105185561.96946287 188455483.07201886 0 0 0 0 -11803588.72051199 1617850.6082792832 0 1617850.6082792832 -249453.86746183128 0 0 0 0 -552263617.22768402 -240222390.51269722 0 -240222390.51269722 394255269.13087082 0 0 0 0 -352979676.72430038 94550271.114971161 0 94550271.114971161 754061071.06030178 0 0 0 0 -352502482.33224106 111658417.33315706 0 111658417.33315706 99557259.946183205 0 0 0 0 438288562.10646057 129073283.59875584 0 129073283.59875584 9182411.4375389814 0 0 0 0 302209734.32492828 -171604729.20886636 0 -171604729.20886636 114863646.22974443 0 0 0 0 -1078713.3379714433 1891148.6147245308 0 1891148.6147245308 382883.2808783669 0 0 0 0 -3032092.7814868381 -16332.855327470228 0 -16332.855327470228 1847155.7500367044 0 0 0 0 437937033.43955231 121724733.98335719 0 121724733.98335719 -17980837.394288778 0 0 0 0 -33961441.246887207 19979427.257274628 0 19979427.257274628 -18981432.302028656 0 0 0 0 -71759775.766349792 10443311.71371007 0 10443311.71371007 15911128.971591234 0 0 0 0 40596575.80506897 11118414.219180107 0 11118414.219180107 -18498434.174024075 0 0 0 0 -9656919.6353151985 11387203.604238186 0 11387203.604238186 4517889.6774032582 0 0 0 0 -18409187.348921712 461817.27667312743 0 461817.27667312743 3500824.6565562664 0 0 0 0 -4466997.3066864014 -4079004.3534889221 0 -4079004.3534889221 22550104.229652405 0 0 0 0 -18430737.844226487 -5215778.5791761223 0 -5215778.5791761223 -2827967.0005739629 0 0 0 0 -27301901.758060455 74474914.070153713 0 74474914.070153713 119651692.46455693 0 0 0 0 -32307760.678749084 -9274199.2696933746 0 -9274199.2696933746 68228813.128864288 0 0 0 0 -20954607.231948085 -12240860.626432806 0 -12240860.626432806 1753980.7997215139 0 0 0 0 62274495.252577782 -36278631.00154233 0 -36278631.00154233 -32883179.254630089 0 0 0 0 -89475279.111448526 54335210.591537237 0 54335210.591537237 -61176071.098300934 0 0 0 0 -18456102.617067717 2992819.0152939027 0 2992819.0152939027 2005322.3633180314 0 0 0 0 -10471274.543159485 30782138.176194191 0 30782138.176194191 -16493427.174622059 0 0 0 0 -24279156.107879639 -51524272.375932693 0 -51524272.375932693 235505236.28913879 0 0 0 0 -89269692.755935669 -7207294.4053373337 0 -7207294.4053373337 7054867.56528759 0 0 0 0 -3616527.7282714844 -4585390.7501575947 0 -4585390.7501575947 27715874.031971812 0 0 0 0 -14308146.946324062 6185960.9775145631 0 6185960.9775145631 2723534.3774876837 0 0 0 0 -26594158.272046797 4567215.7714019585 0 4567215.7714019585 -3784089.0502016456 0 0 0 0 -46015643.514511108 12571537.067200661 0 12571537.067200661 46536245.153458595 0 0 0 0 -268029964.29818726 -170345344.82620335 0 -170345344.82620335 493257912.98516083 0 0 0 0 -83552215.923944473 137576481.17909056 0 137576481.17909056 452415692.10617352 0 0 0 0 -150079330.90650177 -336569189.00248718 0 -336569189.00248718 -100594973.74222779 0 0 0 0 -91971854.149276733 -34361537.741957664 0 -34361537.741957664 173464754.1724 0 0 0 0 -157416391.20956421 -89270966.096538544 0 -89270966.096538544 226827939.87584281 0 0 0 0 -77252010.815933228 -27633675.002481937 0 -27633675.002481937 -32647821.834508896 0 0 0 0 141675001.74040222 -148396587.37719822 0 -148396587.37719822 -30784351.025381088 0 0 0 0 -4697495.0166917946 445331.14382388582 0 445331.14382388582 -2453956.2396320538 0 0 0 0 -3219948221.9902477 -3479214564.2785587 0 -3479214564.2785587 -2740258944.3961978 0 0 0 0 -335988140.58889389 873011734.96463919 0 873011734.96463919 -1129653472.4921105 0 0 0 0 -9286893.7901215181 5222346.7288028803 0 5222346.7288028803 -3966369.3272681423 0 0 0 0 -956166892.62133408 315467230.52771211 0 315467230.52771211 307794613.30540383 0 0 0 0 92171225.143943787 210928136.99279904 0 210928136.99279904 322762667.78601789 0 0 0 0 -335988140.5886879 3805793.4137020707 0 3805793.4137020707 2362224.7482463568 0 0 0 0 -13219111.14040947 3763974.5780314449 0 3763974.5780314449 -4730395.6304143257 0 0 0 0 -6602071044.3525543 -431053625.25695097 0 -431053625.25695097 564233614.03740907 0 0 0 0 -6607233858.2977715 -427064274.62925863 0 -427064274.62925863 562628431.21057272 0 0 0 0 -6253108.3615850806 665334.72767135687 0 665334.72767135687 -4226282.1895460114 0 0 0 0 257639168.81809998 1237452524.0096104 0 1237452524.0096104 -1384187156.4558663 0 0 0 0 -226524849.95884895 -532905658.93301129 0 -532905658.93301129 35131813.208175659 0 0 0 0 -798163053.22382736 574489860.05516732 0 574489860.05516732 -661720545.4603672 0 0 0 0 -826510479.42109299 467699035.4757784 0 467699035.4757784 -968895581.0149101 0 0 0 0 -6605575177.4932861 1717853103.259099 0 1717853103.259099 417272395.34307867 0 0 0 0 -2491670883.1757736 2554774595.2006545 0 2554774595.2006545 -1641435874.6394396 0 0 0 0 262291.44458657503 695746.9363394744 0 695746.9363394744 -122487.95433765154 0 0 0 0 -212378947.56881714 -113640160.34346068 0 -113640160.34346068 290553834.99686939 0 0 0 0 61349569.771175385 -103705112.10822582 0 -103705112.10822582 -503796968.6476202 0 0 0 0 -105318587.26193237 -209395275.44278234 0 -209395275.44278234 -327381024.31539726 0 0 0 0 -922290672.09663391 658133640.45131528 0 658133640.45131528 -689286266.6452167 0 0 0 0 311738232.75288391 -10730289.316739917 0 -10730289.316739917 -192285831.2757802 0 0 0 0 86564317.896865845 -173473648.39005649 0 -173473648.39005649 -127845269.95437789 0 0 0 0 -7401294.2023371309 7822187.030028265 0 7822187.030028265 -7357780.5569747565 0 0 0 0 189517798.10649872 117609300.03540003 0 117609300.03540003 41294295.404635906 0 0 0 0 14293268.069946289 -3102601.9594991207 0 -3102601.9594991207 -8928218.9553077221 0 0 0 0 -34510607.977981567 -48210879.717852592 0 -48210879.717852592 -25633023.324752867 0 0 0 0 -3165562.9354991913 -187703998.91780281 0 -187703998.91780281 92964333.623226166 0 0 0 0 136115354.80719757 -88755290.667792439 0 -88755290.667792439 13377983.437243462 0 0 0 0 833025.79373379052 831033.31135792192 0 831033.31135792192 -479314.07702477556 0 0 0 0 2570777.6461181641 -10955936.649158478 0 -10955936.649158478 51312739.471021175 0 0 0 0 16356545.784729004 -976930.15320825577 0 -976930.15320825577 -10739769.659812927 0 0 0 0 -1176436.4795915484 2873470.4143886371 0 2873470.4143886371 -1633978.1163907864 0 0 0 0 -16280387.187801741 7607677.9298863113 0 7607677.9298863113 -3693024.4296294525 0 0 0 0 -12480808.013580322 4772248.6740779877 0 4772248.6740779877 3677732.2618956566 0 0 0 0 2902558.1351127625 10116570.362857699 0 10116570.362857699 1356241.7388286591 0 0 0 0 220617.7285220921 -3625456.1160560306 0 -3625456.1160560306 1666355.0114135884 0 0 0 0 16164079.053998947 14866828.770544499 0 14866828.770544499 -2830957.4755396843 0 0 0 0 11068918.033569336 -10133645.086997986 0 -10133645.086997986 -22217432.658436537 0 0 0 0 46977.526903219521 102483.32394122519 0 102483.32394122519 -227303.82458152145 0 0 0 0 -400640671.37982178 18336254.13838768 0 18336254.13838768 961627334.43381119 0 0 0 0 -63415933.083206177 337200042.60158157 0 337200042.60158157 916042951.46051478 0 0 0 0 -135043713.63363647 -121630836.8826561 0 -121630836.8826561 468978201.92594552 0 0 0 0 -275492323.32543945 -175026382.79042816 0 -175026382.79042816 577702032.0751152 0 0 0 0 30684510.340454102 5954513.8519706726 0 5954513.8519706726 558355370.41841149 0 0 0 0 -161652467.14639282 -322393416.90425682 0 -322393416.90425682 267648261.50998116 0 0 0 0 -132268751.56460571 -123868364.46915817 0 -123868364.46915817 315089150.52084732 0 0 0 0 -140152896.53891754 -100879959.54438162 0 -100879959.54438162 565541904.05313873 0 0 0 0 -93244994.806564331 -211342509.64972496 0 -211342509.64972496 403055933.51453781 0 0 0 0 -93332171.670639038 -206100332.94702339 0 -206100332.94702339 133453700.43257713 0 0 0 0 -35957422.44052124 -39874574.369235992 0 -39874574.369235992 122840551.82488823 0 0 0 0 -96884016.289978027 15597763.644163132 0 15597763.644163132 383828642.56512451 0 0 0 0 -22203229.838676378 3097013.8093158384 0 3097013.8093158384 6453830.2436984181 0 0 0 0 -64922354.794677734 32159963.542568207 0 32159963.542568207 154319941.92882538 0 0 0 0 -17827991.567907289 2837334.4270741716 0 2837334.4270741716 2768474.8041004967 0 0 0 0 -8071793.6757354736 2675119.5134210587 0 2675119.5134210587 4065262.8278589845 0 0 0 0 -7960369.4720611572 2950533.5264530182 0 2950533.5264530182 4459996.7040634155 0 0 0 0 -14242076.066862803 -638289.73667772487 0 -638289.73667772487 4573792.9256541645 0 0 0 0 -4799374.7879333496 5182386.2366089821 0 5182386.2366089821 4688808.2262382507 0 0 0 0 -45682.115356445312 8124036.092250824 0 8124036.092250824 16837103.285331488 0 0 0 0 -6359521.5812683105 -1593516.13007164 0 -1593516.13007164 18047482.26326561 0 0 0 0 17062756.507232666 13412946.240465164 0 13412946.240465164 565265937.66954041 0 0 0 0 2053770.3892211914 193537487.98106384 0 193537487.98106384 522915777.71829653 0 0 0 0 51080701.61114502 -87796263.665872574 0 -87796263.665872574 78359044.274650574 0 0 0 0 -4657251.6464334317 1741049.8927709647 0 1741049.8927709647 2962162.3562318645 0 0 0 0 -4413833.2759389877 23671514.035125196 0 23671514.035125196 44550511.361846924 0 0 0 0 -3931026.4633119106 6039211.3092169985 0 6039211.3092169985 16269209.183074951 0 0 0 0 -7040557.6041870117 -52055.194309234619 0 -52055.194309234619 7742850.0754579306 0 0 0 0 -9862004.8321667314 -3235589.6679297891 0 -3235589.6679297891 4983259.427332554 0 0 0 0 -19232214.714720763 982892.86019115872 0 982892.86019115872 955416.80248789419 0 0 0 0 -450582.75988242403 117792.00866342336 0 117792.00866342336 211254.05121847102 0 0 0 0 18502904.013435364 -14988680.620988846 0 -14988680.620988846 -20966632.486789703 0 0 0 0 14130186.293403625 -11329776.565319538 0 -11329776.565319538 15628486.352163315 0 0 0 0 -5883894.8625183105 4749607.718324542 0 4749607.718324542 6640119.2430472374 0 0 0 0 -9146768.2454902865 -4489972.8918667324 0 -4489972.8918667324 5265672.1795658506 0 0 0 0 -3362081.357623972 3356468.8540740265 0 3356468.8540740265 3110631.5679823863 0 0 0 0 -4061062.7953796387 678787.34721267223 0 678787.34721267223 12928635.728137493 0 0 0 0 -17342331.949097939 804208.21432277001 0 804208.21432277001 3390233.2558227805 0 0 0 0 -13208743.573048629 2548976.7919263295 0 2548976.7919263295 3146273.5202856879 0 0 0 0 2365373.3201293945 -40458267.737818718 0 -40458267.737818718 34911467.598098278 0 0 0 0 7704178.7628097534 -44950421.753074169 0 -44950421.753074169 1345995.3520584106 0 0 0 0 -7696790.3883278668 4891263.967254892 0 4891263.967254892 2343485.5817720527 0 0 0 0 -6034933.587387085 3103877.2845783234 0 3103877.2845783234 4151403.5434398651 0 0 0 0 -4242764.2563476562 -575307.595079422 0 -575307.595079422 11180286.301343918 0 0 0 0 -4227068.7103453875 -1919454.0856431648 0 -1919454.0856431648 5424958.7741562072 0 0 0 0 -7258876.1955871582 3416279.9479627609 0 3416279.9479627609 5849658.7929935455 0 0 0 0 -5327521.8975119591 1553009.9455626421 0 1553009.9455626421 5111918.3307649493 0 0 0 0 -7327062.7760696411 3913106.4631252289 0 3913106.4631252289 4086803.943025589 0 0 0 0 -5010285.0480919331 4006607.9418702917 0 4006607.9418702917 798686.03210272093 0 0 0 0 -3952285.9639892578 2853138.5838618279 0 2853138.5838618279 5970640.1429204941 0 0 0 0 -4378657.575012207 5310494.0893931389 0 5310494.0893931389 5289581.2138299942 0 0 0 0 -2539427.9713134766 5717499.9757003784 0 5717499.9757003784 16309609.212646484 0 0 0 0 -20894615.540787347 3195700.5520892031 0 3195700.5520892031 4255584.4879806507 0 0 0 0 -17988371.221649185 1111985.6892973222 0 1111985.6892973222 3732230.8325254819 0 0 0 0 -9086816.8023681641 4719693.5286698341 0 4719693.5286698341 3986626.1826629639 0 0 0 0 -6255019.2320556641 2086320.3441143036 0 2086320.3441143036 9026940.8644452095 0 0 0 0 -16741577.354876416 -1719539.9245933034 0 -1719539.9245933034 5942964.0964912465 0 0 0 0 -9173250.8177973479 -748779.20434048027 0 -748779.20434048027 4463235.4243047768 0 0 0 0 -3936989.2531291917 1162713.2386416066 0 1162713.2386416066 2920426.2475394262 0 0 0 0 -7025891.570845671 5593540.6547418721 0 5593540.6547418721 1793556.7210909098 0 0 0 0 -6838101.6838684082 5677172.9987969398 0 5677172.9987969398 3143646.258626461 0 0 0 0 -6591733.3104400635 5421232.6123529673 0 5421232.6123529673 3218276.8036618233 0 0 0 0 -7680198.305847168 3553205.5931327343 0 3553205.5931327343 3634480.0752038956 0 0 0 0 -6207716.6101524532 4508424.0692907972 0 4508424.0692907972 3447912.3618660709 0 0 0 0 -21718442.03298096 3295158.2204201557 0 3295158.2204201557 2961299.1752278022 0 0 0 0 -6713423.0450134277 2853210.61008358 0 2853210.61008358 5398356.2840328217 0 0 0 0 -8160002.8572616577 5034857.0652747154 0 5034857.0652747154 3868146.1265144348 0 0 0 0 -13283697.321853723 1082644.5354187749 0 1082644.5354187749 2388428.1775507992 0 0 0 0 -15583398.191973791 7833710.1277685668 0 7833710.1277685668 3698489.0147257484 0 0 0 0 -11521244.113690145 7805742.19779923 0 7805742.19779923 -839192.54012997285 0 0 0 0 -19581258.873069763 15045359.784119606 0 15045359.784119606 5271122.1574232578 0 0 0 0 -7635562.6496198587 5494883.1297488045 0 5494883.1297488045 -416330.61445968691 0 0 0 0 -8990966.6885692962 11340.826348928735 0 11340.826348928735 3615706.0154664693 0 0 0 0 -21322516.443786621 6502549.9572238922 0 6502549.9572238922 -2608144.1977539062 0 0 0 0 -12576970.414014816 1160717.1659884155 0 1160717.1659884155 1220672.4782748222 0 0 0 0 -9236242.5024602152 -2372395.1376794595 0 -2372395.1376794595 2853067.8244408965 0 0 0 0 -51479778.336402893 27420551.624979496 0 27420551.624979496 15099492.095949024 0 0 0 0 -13838231.579824153 6349792.9214018332 0 6349792.9214018332 -507523.20849737508 0 0 0 0 -14980501.855155494 2447403.8726219684 0 2447403.8726219684 2364448.7078807149 0 0 0 0 -15112073.824172974 4775059.9378188662 0 4775059.9378188662 6202456.5728082508 0 0 0 0 -19390659.560967609 8079409.5838526543 0 8079409.5838526543 5184005.3385617072 0 0 0 0 -16007830.833091736 7555319.4964781702 0 7555319.4964781702 6078491.7260970175 0 0 0 0 -3820414.3811035156 242881.64321327209 0 242881.64321327209 12347486.565259933 0 0 0 0 -10122219.330038089 4611764.5103245983 0 4611764.5103245983 4267817.8843499012 0 0 0 0 -17575768.191803455 765055.9593353048 0 765055.9593353048 8831991.1294124126 0 0 0 0 -19099642.432269614 6113443.681364798 0 6113443.681364798 4639042.4014494009 0 0 0 0 -7707907.1385245584 3229489.5808141911 0 3229489.5808141911 3869052.9794993168 0 0 0 0 -3558905.937374115 -3790297.9731738567 0 -3790297.9731738567 28029072.055714607 0 0 0 0 -3600155.0869750977 82918741.083603859 0 82918741.083603859 145060214.85846901 0 0 0 0 -59796456.021789551 -30352964.635505676 0 -30352964.635505676 96453654.660194397 0 0 0 0 -12327192.721557617 4438991.7162470818 0 4438991.7162470818 3135461.0920295715 0 0 0 0 -7947438.0603881087 6618255.5617925785 0 6618255.5617925785 663894.93929430633 0 0 0 0 -22709927.667995948 3837296.0117875235 0 3837296.0117875235 615642.40097870771 0 0 0 0 1670721.2970581055 24142007.83537674 0 24142007.83537674 -48534883.791696548 0 0 0 0 24014633.954238892 -24794783.760124207 0 -24794783.760124207 10669591.180587769 0 0 0 0 -4449593.5542321466 263423.24504532292 0 263423.24504532292 2851205.5355071044 0 0 0 0 -159428756.85045624 -59290.459015846252 0 -59290.459015846252 125775458.50139999 0 0 0 0 -188736193.45433044 221761372.35082436 0 221761372.35082436 -4320641.4159154892 0 0 0 0 98432137.559232712 -275655688.73989856 0 -275655688.73989856 61006526.011631966 0 0 0 0 -4149579.0159485452 1749707.7114093285 0 1749707.7114093285 702143.82344466168 0 0 0 0 -11035612.459503174 206434625.1135273 0 206434625.1135273 -44363024.717834532 0 0 0 0 43230725.949821472 3578393.0559327602 0 3578393.0559327602 -133795897.7451086 0 0 0 0 -307403961.9812355 -21342355.595268965 0 -21342355.595268965 56204316.676210403 0 0 0 0 -130793034.02032471 -116023466.90252304 0 -116023466.90252304 -49956048.191295624 0 0 0 0 -5663874.4486541748 -25439942.044033527 0 -25439942.044033527 14974937.231285095 0 0 0 0 -115826322.12454224 -45005652.043395996 0 -45005652.043395996 101390646.12539577 0 0 0 0 -69359385.522476196 -1994782.5712547302 0 -1994782.5712547302 57698895.393835068 0 0 0 0 34940722.096725464 -91732028.098410606 0 -91732028.098410606 -345487839.51990223 0 0 0 0 35940328.83921814 -54510136.042222977 0 -54510136.042222977 -369887533.48836279 0 0 0 0 12945008.376110077 -52180477.950621843 0 -52180477.950621843 -160515365.67861176 0 0 0 0 -2204480.5050354004 -134312240.78410816 0 -134312240.78410816 -245091231.58489037 0 0 0 0 37882001.945236206 -38207326.663497925 0 -38207326.663497925 -183345950.5057025 0 0 0 0 -20244167.115325928 -63002816.147387981 0 -63002816.147387981 -79314490.721060753 0 0 0 0 15082636.743713379 -77752891.56706357 0 -77752891.56706357 -153485309.71867943 0 0 0 0 -3027020.7855987549 -157412299.11042213 0 -157412299.11042213 -227973658.04466438 0 0 0 0 -29331126.10144043 -234929591.51421547 0 -234929591.51421547 -217752560.20914412 0 0 0 0 -22579966.700172424 -173184003.22749138 0 -173184003.22749138 -236557909.80138779 0 0 0 0 -18205449.395751953 -266079054.31587601 0 -266079054.31587601 -329865403.78957987 0 0 0 0 53015373.796220779 -190024594.52707696 0 -190024594.52707696 -441839523.2907753 0 0 0 0 52609770.600486755 -179686028.88263702 0 -179686028.88263702 -309763713.89537811 0 0 0 0 -1078923.5047683716 -229654226.69496536 0 -229654226.69496536 -385738900.01755238 0 0 0 0 15073385.52583313 -197198304.57653236 0 -197198304.57653236 -489154863.41292191 0 0 0 0 -207123591.75306702 -264184469.23678493 0 -264184469.23678493 -492890510.6470356 0 0 0 0 -675829337.68130493 -323331569.14937592 0 -323331569.14937592 -357259555.60714436 0 0 0 0 -457871291.43739319 -281514393.77561283 0 -281514393.77561283 -605439775.89729309 0 0 0 0 -201345260.65445709 -243746711.07014477 0 -243746711.07014477 -629208455.39670563 0 0 0 0 -128113064.1502533 -229065998.44688416 0 -229065998.44688416 -775151382.54570293 0 0 0 0 -116514613.34002686 121552687.07883644 0 121552687.07883644 -603747279.98272657 0 0 0 0 -302060623.62741089 -56265846.080851078 0 -56265846.080851078 -487529829.38920212 0 0 0 0 23303168.433731079 64808524.709972858 0 64808524.709972858 -440960747.16030276 0 0 0 0 9325163.6308860779 -140958255.20205998 0 -140958255.20205998 -411205730.70701599 0 0 0 0 -4303063.2819671631 -71488519.208615303 0 -71488519.208615303 -597201153.33240652 0 0 0 0 6059802.6683311462 38797625.008346796 0 38797625.008346796 -161103584.64652634 0 0 0 0 -69997755.08795929 -33503362.866244793 0 -33503362.866244793 -373668314.35599136 0 0 0 0 -121967639.84846497 236644145.64138937 0 236644145.64138937 -140297904.88184285 0 0 0 0 -89940115.006211281 73497899.879352093 0 73497899.879352093 -501962618.68407249 0 0 0 0 -94369127.782249451 158611550.82213312 0 158611550.82213312 228937524.90400577 0 0 0 0 -96954025.345801353 119390866.41367167 0 119390866.41367167 157376501.87633061 0 0 0 0 -58295177.477760315 19697618.390041113 0 19697618.390041113 13346172.869444251 0 0 0 0 -38182613.118263245 80885923.840750575 0 80885923.840750575 122827994.08966351 0 0 0 0 2667937.9294052124 74707311.253168821 0 74707311.253168821 -72179306.19131279 0 0 0 0 -21568720.51651001 -9954592.4126281738 0 -9954592.4126281738 -100782713.31155515 0 0 0 0 26213971.959152222 22584153.002375126 0 22584153.002375126 -141915543.2109375 0 0 0 0 24407026.767097473 6078164.3230409622 0 6078164.3230409622 -66658135.925524712 0 0 0 0 12142039.978713989 14856005.604309559 0 14856005.604309559 -5124887.0991681814 0 0 0 0 -7896440.8811569214 4020226.7675828934 0 4020226.7675828934 -1625551.5999145508 0 0 0 0 -15121395.1667099 -23787542.210317612 0 -23787542.210317612 31136415.359572411 0 0 0 0 6526662.4019012451 60605804.814100266 0 60605804.814100266 80355106.884385109 0 0 0 0 11568894.385780334 31246703.148309588 0 31246703.148309588 147780404.99119136 0 0 0 0 12694668.737915039 113283708.70237684 0 113283708.70237684 175300513.40498495 0 0 0 0 -29351893.762718201 86176766.091339827 0 86176766.091339827 273877586.9129504 0 0 0 0 -4554441826.780426 2015743371.543499 0 2015743371.543499 -1223875023.7095003 0 0 0 0 5421868.1490783691 57230343.318417072 0 57230343.318417072 138780215.10768986 0 0 0 0 -11580095.301818848 13668877.363297462 0 13668877.363297462 142943028.63052058 0 0 0 0 5202453.5734863281 12389236.953840256 0 12389236.953840256 209826484.20004845 0 0 0 0 52034041.632156372 24264767.185854197 0 24264767.185854197 205714773.94471478 0 0 0 0 3884097703.8623123 -2548827625.3945785 0 -2548827625.3945785 -2189716288.8089914 0 0 0 0 -76605607.58921051 13324944.483361244 0 13324944.483361244 381662284.99056339 0 0 0 0 -20421798.462852713 -929589.8715658579 0 -929589.8715658579 2965065.9649257935 0 0 0 0 -31250068.399188995 130483022.93473792 0 130483022.93473792 376163906.62539721 0 0 0 0 -5966167.9275096133 -3555779.9506248171 0 -3555779.9506248171 109496.57000651732 0 0 0 0 102423008.85946274 91806866.590255022 0 91806866.590255022 198845971.74285412 0 0 0 0 33680213.173589706 87213795.897232294 0 87213795.897232294 206662556.05558968 0 0 0 0 1297393.6360473633 14438356.447602272 0 14438356.447602272 160855395.61960697 0 0 0 0 13143469.62689209 47269854.487309456 0 47269854.487309456 119029589.38933659 0 0 0 0 6072371.3351135254 -47566324.487939835 0 -47566324.487939835 118427179.7031889 0 0 0 0 1608574.9296270609 83859152.558000833 0 83859152.558000833 253829278.15781021 0 0 0 0 -16445691.784759521 -8958871.5872306824 0 -8958871.5872306824 23531758.61719799 0 0 0 0 8660777.2969989777 38488899.314616859 0 38488899.314616859 57169238.45638752 0 0 0 0 19074720.803774834 -32646498.159205854 0 -32646498.159205854 35974466.122795105 0 0 0 0 -27416285.456207275 5570305.0626564026 0 5570305.0626564026 17188411.93636322 0 0 0 0 19013797.570022583 20263374.482506752 0 20263374.482506752 21254235.189804316 0 0 0 0 -18026466.450195312 -40834168.603000641 0 -40834168.603000641 -7500508.066259861 0 0 0 0 2732980.171833992 -20329365.236967206 0 -20329365.236967206 95018097.743782043 0 0 0 0 -406579550.19029617 -1525090454.9516311 0 -1525090454.9516311 -1212979389.5902822 0 0 0 0 -17010481.958612293 -4262172.4039403163 0 -4262172.4039403163 860255.09906368365 0 0 0 0 -782334184.9516449 -125025413.20441532 0 -125025413.20441532 475326798.16490173 0 0 0 0 -444077097.48373413 -620398179.08199215 0 -620398179.08199215 -1356165374.8411183 0 0 0 0 -29362213.521987915 -69518302.06333065 0 -69518302.06333065 320490187.31587076 0 0 0 0 42163493.182853699 52931383.575342178 0 52931383.575342178 -97574615.638374329 0 0 0 0 -112181292.88660431 155774728.9213047 0 155774728.9213047 -51948135.028336167 0 0 0 0 -102862024.43428802 145672476.78769588 0 145672476.78769588 -101702122.14542198 0 0 0 0 185264790.47773361 -41275761.202129364 0 -41275761.202129364 -20339165.603664398 0 0 0 0 -693076683.83449173 444221429.27407336 0 444221429.27407336 16094561.538416386 0 0 0 0 -183943400.44036102 381760868.85444772 0 381760868.85444772 -31422648.601820946 0 0 0 0 -1354479242.6530266 206926322.37740183 0 206926322.37740183 184739989.50794888 0 0 0 0 -7698401.3235416636 -1592909.5674908012 0 -1592909.5674908012 1813747.2180001885 0 0 0 0 -478011827.62088966 61090915.994466782 0 61090915.994466782 75886204.412324905 0 0 0 0 -387767436.81511688 245654220.92979431 0 245654220.92979431 -72762184.162274122 0 0 0 0 -168111280.24238205 103912052.19327164 0 103912052.19327164 -73563776.906616211 0 0 0 0 -171847107.64330101 92109269.179053545 0 92109269.179053545 -79963519.539432526 0 0 0 0 -31665258.351020813 120105124.5763073 0 120105124.5763073 -112925594.18202782 0 0 0 0 -278641946.96794891 101932254.70881271 0 101932254.70881271 -63158885.259627342 0 0 0 0 -195983813.87719727 52906923.818432808 0 52906923.818432808 -72975466.350126266 0 0 0 0 -499890487.11643219 26468050.364847183 0 26468050.364847183 44468836.244519234 0 0 0 0 -313572336.6748209 -23716667.530910969 0 -23716667.530910969 -11398094.846984863 0 0 0 0 -79479706.826065063 -65973219.591446877 0 -65973219.591446877 -122028290.41779995 0 0 0 0 -11349905.157491684 -13366823.716645956 0 -13366823.716645956 -85295778.29091835 0 0 0 0 -38334956.342529297 -75792827.22040844 0 -75792827.22040844 -110171387.51753426 0 0 0 0 17649204.64572525 -19986427.459800243 0 -19986427.459800243 -87030700.625883102 0 0 0 0 17779870.64006424 -30522939.066048622 0 -30522939.066048622 -78001861.595592499 0 0 0 0 14038489.233875275 35165861.3374753 0 35165861.3374753 -66491516.972957611 0 0 0 0 -70885000.580123901 4535177.6573352814 0 4535177.6573352814 -77025687.449615479 0 0 0 0 -28900811.968048096 23905243.687859535 0 23905243.687859535 -108215583.76899147 0 0 0 0 -119090842.84685516 762890.46077632904 0 762890.46077632904 -106007514.10974503 0 0 0 0 -91436214.980178833 68118304.417232513 0 68118304.417232513 -103132030.72373772 0 0 0 0 -187397140.34456635 57622884.682004929 0 57622884.682004929 -102234818.44576073 0 0 0 0 -150827005.48352051 23165567.405384064 0 23165567.405384064 -90410386.883613586 0 0 0 0 -172713115.11481476 4608770.8677310944 0 4608770.8677310944 -101792154.43778324 0 0 0 0 -116375716.71248627 -88552480.783670425 0 -88552480.783670425 -135448955.96822357 0 0 0 0 -58765451.180641174 -63700720.262775421 0 -63700720.262775421 -129226638.93514729 0 0 0 0 -87626852.774528503 -147448499.50170708 0 -147448499.50170708 -188221082.22866726 0 0 0 0 -132847386.6813736 -188473287.32630253 0 -188473287.32630253 -163230655.66519547 0 0 0 0 -256164443.00159454 -105593950.31361771 0 -105593950.31361771 -118990429.04262161 0 0 0 0 -219582665.05741882 -221657580.27593422 0 -221657580.27593422 -137796228.02093887 0 0 0 0 -256122427.02157211 -4041550.6232295036 0 -4041550.6232295036 -84824796.828962326 0 0 0 0 -208558422.46427917 -68986695.172122002 0 -68986695.172122002 -105177960.51136208 0 0 0 0 -290613294.22115707 -121903346.83735943 0 -121903346.83735943 -193853296.74811554 0 0 0 0 -528169220.05568886 -141700515.41523266 0 -141700515.41523266 -104066174.31029129 0 0 0 0 -321886535.86483765 -69315879.2293787 0 -69315879.2293787 2056805.724214077 0 0 0 0 -442173553.07781982 -342835786.78377533 0 -342835786.78377533 -532985755.89994431 0 0 0 0 -469132749.74146271 -205516970.9543066 0 -205516970.9543066 -153181928.00148392 0 0 0 0 -390699608.16590643 -255130346.05075657 0 -255130346.05075657 -124760759.53796768 0 0 0 0 -365343592.21774292 -69009388.988416672 0 -69009388.988416672 -91493167.998821259 0 0 0 0 -209050749.76058769 -35817405.6299088 0 -35817405.6299088 -46053820.889112473 0 0 0 0 -223311428.67202759 -37079881.248319626 0 -37079881.248319626 -27922822.642305374 0 0 0 0 -201672663.87753296 47740218.706356525 0 47740218.706356525 -51099692.865718842 0 0 0 0 -168758143.13754272 30259689.571513176 0 30259689.571513176 -72891190.224826723 0 0 0 0 -218782194.18219757 75741827.214222908 0 75741827.214222908 178332977.28358269 0 0 0 0 -9228930.9578971863 4948726.3782024384 0 4948726.3782024384 -43106598.086914182 0 0 0 0 -84258445.65171051 82231319.544839859 0 82231319.544839859 191346984.65349579 0 0 0 0 -40948630.78468132 18038741.008955002 0 18038741.008955002 37023060.812465668 0 0 0 0 202601567.46700287 230309024.59083605 0 230309024.59083605 131620131.54247475 0 0 0 0 -2101552.1755405739 154198.76738901343 0 154198.76738901343 1545075.8653809167 0 0 0 0 -652667554.55424881 -317761850.51335144 0 -317761850.51335144 -185655070.45876312 0 0 0 0 -745324556.24419403 -417404742.10671616 0 -417404742.10671616 -228477682.93025255 0 0 0 0 43482433.46723938 189001478.94733047 0 189001478.94733047 155403397.0807519 0 0 0 0 -4566742.8011321872 17568.528296237811 0 17568.528296237811 3038824.1731800716 0 0 0 0 -707600409.20158005 -359981746.87011719 0 -359981746.87011719 -82375090.156246185 0 0 0 0 -168487.10072252038 278637.93649961613 0 278637.93649961613 -599322.83142310753 0 0 0 0 -853813784.49926758 -500188473.23845291 0 -500188473.23845291 -215760597.73697853 0 0 0 0 -725072432.78731537 -306926827.57459831 0 -306926827.57459831 -210542955.37908268 0 0 0 0 -898071209.52959442 -626297519.06291103 0 -626297519.06291103 -259074453.38350105 0 0 0 0 -401550068.23495197 -149697391.92738688 0 -149697391.92738688 -112201131.751297 0 0 0 0 -239852983.69244385 -184888163.04738426 0 -184888163.04738426 -196077897.79910183 0 0 0 0 -563734.57133250835 -552179.89309473149 0 -552179.89309473149 -1454043.4685851876 0 0 0 0 -3683977.0238485336 -136569061.86228752 0 -136569061.86228752 -46423874.517187119 0 0 0 0 1505572.031463787 -7078885.2102020811 0 -7078885.2102020811 3170078.8584956732 0 0 0 0 77876.91722869873 -19617170.001918793 0 -19617170.001918793 48851504.559331894 0 0 0 0 -5817066.0523757935 -118461906.35376453 0 -118461906.35376453 -193976277.91830444 0 0 0 0 -37649982.596469879 -72751939.278928757 0 -72751939.278928757 548429747.12265778 0 0 0 0 10760741.423534393 -59653537.278363228 0 -59653537.278363228 -22365181.156452179 0 0 0 0 -36412226.90499115 -84902207.849170685 0 -84902207.849170685 29644940.432080269 0 0 0 0 115700445.42144489 -2386651.8153808713 0 -2386651.8153808713 -178659991.4617691 0 0 0 0 -7556236.6357955933 -362488592.37304306 0 -362488592.37304306 -370665630.34300804 0 0 0 0 -333866218.37363052 -413699705.33846283 0 -413699705.33846283 -192818437.31959152 0 0 0 0 -58020038.082351685 -287292028.72960091 0 -287292028.72960091 124185738.09037113 0 0 0 0 144852123.86153412 -387060722.15960026 0 -387060722.15960026 -243904916.14470291 0 0 0 0 17500091.38368988 -322269044.34868622 0 -322269044.34868622 -295514795.00989723 0 0 0 0 15119577.767807007 -328563737.16652775 0 -328563737.16652775 -268096436.68169594 0 0 0 0 49187669.455286384 -261639397.99125987 0 -261639397.99125987 -420360681.67795372 0 0 0 0 47450688.191864848 -314803977.21668053 0 -314803977.21668053 -293706032.3939476 0 0 0 0 -47079253.934272766 -413838516.17611885 0 -413838516.17611885 -212610504.46388102 0 0 0 0 -165598657.19918823 -256469000.90981483 0 -256469000.90981483 -189413706.69106293 0 0 0 0 -238904238.29833984 -292142674.79109573 0 -292142674.79109573 -168781549.0358696 0 0 0 0 -339925566.8403368 -263837714.6515671 0 -263837714.6515671 -354182957.4724617 0 0 0 0 -322091923.23577404 -177564794.04355109 0 -177564794.04355109 -300243445.28169632 0 0 0 0 -55209318.553062439 -127033394.23771858 0 -127033394.23771858 -321891166.95349121 0 0 0 0 150477950.72090149 -368393466.76087189 0 -368393466.76087189 -356617707.7808733 0 0 0 0 359597206.62757111 -270478364.97916508 0 -270478364.97916508 -310570384.54036081 0 0 0 0 136921347.63451385 -468777787.12307453 0 -468777787.12307453 167152515.93688583 0 0 0 0 -252168409.67687988 409844619.33897448 0 409844619.33897448 173095529.51990891 0 0 0 0 -1267617554.4794998 -81805046.470449448 0 -81805046.470449448 501904123.35615158 0 0 0 0 872071.32621617615 -2117634.711941197 0 -2117634.711941197 947738.83503510617 0 0 0 0 522618358.29658508 -57393072.366306782 0 -57393072.366306782 -594415104.48360062 0 0 0 0 367212468.38013458 91593842.000198364 0 91593842.000198364 -125322514.89626026 0 0 0 0 38746128.083885193 -567230806.85476208 0 -567230806.85476208 -297261822.38222027 0 0 0 0 -2942191253.8628311 -681394450.98743629 0 -681394450.98743629 -87296799.957165718 0 0 0 0 -1497706368.8868484 549712978.97693968 0 549712978.97693968 -675580166.71239281 0 0 0 0 -1204509191.5303783 -136050092.50214124 0 -136050092.50214124 -135407110.39892006 0 0 0 0 -1279274.9410391487 4256314.5721029323 0 4256314.5721029323 -23481632.176931255 0 0 0 0 -1947998026.8572121 -395409605.52151442 0 -395409605.52151442 161888779.26782417 0 0 0 0 209804.95353655145 245138.01899189316 0 245138.01899189316 -8203366.4695172496 0 0 0 0 -851744230.52365875 -726822642.47216988 0 -726822642.47216988 -59802362.67999649 0 0 0 0 386044911.91676331 891890508.09195518 0 891890508.09195518 808038797.31286049 0 0 0 0 911419207.86554718 42779483.035903931 0 42779483.035903931 10242174.772571564 0 0 0 0 -5799582.1671040962 13463756.782125823 0 13463756.782125823 -19704719.379743326 0 0 0 0 848568207.2833488 991379232.58019698 0 991379232.58019698 712792647.44226074 0 0 0 0 -238255777.23902893 132332563.22595215 0 132332563.22595215 271034462.15878677 0 0 0 0 -5301170.9433022682 12115896.603325075 0 12115896.603325075 -38077331.597133882 0 0 0 0 -92175855.20198822 -275545243.40922546 0 -275545243.40922546 45200701.018444061 0 0 0 0 248035934.67888308 278064371.68250275 0 278064371.68250275 321099273.99554443 0 0 0 0 376904713.61171913 236181490.05011368 0 236181490.05011368 1275738.4582290649 0 0 0 0 17532501.410522461 -60298474.441764832 0 -60298474.441764832 -181879139.55236816 0 0 0 0 -1248404960.1034775 3907695.4490838051 0 3907695.4490838051 223864684.67979431 0 0 0 0 -1319661814.4753304 -121927210.55625772 0 -121927210.55625772 69348298.356407166 0 0 0 0 -997359603.75895691 -73845431.436506271 0 -73845431.436506271 49053409.307468891 0 0 0 0 -1142066328.9369354 -227025589.81600285 0 -227025589.81600285 49985560.957794189 0 0 0 0 -1129729093.9110413 -153112308.2339077 0 -153112308.2339077 39408982.075223923 0 0 0 0 -1137590847.1693878 -132038146.13293266 0 -132038146.13293266 -2424793.3444023132 0 0 0 0 -248642030.28520203 -79232342.009483337 0 -79232342.009483337 -641820685.48812866 0 0 0 0 -261146538.40724182 738146.93730926514 0 738146.93730926514 -329062858.3208847 0 0 0 0 -598337284.75572205 164368545.42342377 0 164368545.42342377 -275252176.48512268 0 0 0 0 -326783088.6618576 153600866.33634186 0 153600866.33634186 -479059304.61656189 0 0 0 0 -512703751.4612999 159954416.92381859 0 159954416.92381859 -284912944.11557007 0 0 0 0 -501539105.72501373 115657245.89021683 0 115657245.89021683 -111813789.86660767 0 0 0 0 -420659597.67141724 34686054.885543823 0 34686054.885543823 -336214459.71501923 0 0 0 0 -420143652.30899048 183014054.90522003 0 183014054.90522003 -157828894.08388901 0 0 0 0 -488120231.29469299 192747334.94496536 0 192747334.94496536 -45320952.135904312 0 0 0 0 -639600011.82345963 262721730.14312744 0 262721730.14312744 -155051725.41014099 0 0 0 0 -564494307.46342468 154162932.39742279 0 154162932.39742279 -47995233.81968689 0 0 0 0 -607675605.23764801 78039574.556907654 0 78039574.556907654 -7468210.8312854767 0 0 0 0 -808294022.39693451 72764047.433746338 0 72764047.433746338 -6322249.6061582565 0 0 0 0 -956848474.05984879 208122942.02453232 0 208122942.02453232 -128435536.25428009 0 0 0 0 -729112511.36728668 356407919.94153214 0 356407919.94153214 -446302999.23970032 0 0 0 0 -1095125559.402832 42199182.808944702 0 42199182.808944702 -220182150.63755035 0 0 0 0 -965007072.07271218 -443103877.73409402 0 -443103877.73409402 -231852243.98764801 0 0 0 0 -1751795554.4727516 -469752616.40977097 0 -469752616.40977097 -207635218.31079483 0 0 0 0 -410813059.04268265 -175504630.6456337 0 -175504630.6456337 -123258985.55849075 0 0 0 0 -410877729.49724007 -175412603.17682266 0 -175412603.17682266 -101523021.2154808 0 0 0 0 644159116.4113698 346207911.42273712 0 346207911.42273712 225999842.85852814 0 0 0 0 892518827.07419205 574046880.09341049 0 574046880.09341049 161840239.44404602 0 0 0 0 443479089.72157335 618968402.18557739 0 618968402.18557739 334712165.31726074 0 0 0 0 288603077.68074036 300439935.63815308 0 300439935.63815308 22571725.651412964 0 0 0 0 -39437965.027799606 315128573.59635925 0 315128573.59635925 160702627.08215332 0 0 0 0 -533696511.24762344 2178222.2907562256 0 2178222.2907562256 260228428.9373703 0 0 0 0 -16344637.703415871 820666807.79096937 0 820666807.79096937 1292531921.4619751 0 0 0 0 -14380926.399921056 10077602.094099376 0 10077602.094099376 7640890.355035603 0 0 0 0 1396568496.3709869 2154229655.9225388 0 2154229655.9225388 1656782480.0616913 0 0 0 0 452775.85237478279 4752681.2554050125 0 4752681.2554050125 -9382683.1409156546 0 0 0 0 868364496.20383644 691526776.38833523 0 691526776.38833523 -404073766.69966888 0 0 0 0 1997612642.1061172 2096804889.9088364 0 2096804889.9088364 -399981940.55309296 0 0 0 0 -3812997837.975914 810297832.01777649 0 810297832.01777649 2824283838.3690033 0 0 0 0 -1766461833.4765472 420726303.05952454 0 420726303.05952454 -334767365.68878174 0 0 0 0 -968080807.10446167 523954989.97507477 0 523954989.97507477 -1564328150.7992249 0 0 0 0 -969341942.16411662 254928846.90899643 0 254928846.90899643 -339819811.78027344 0 0 0 0 -459026101.20858765 191433537.36149597 0 191433537.36149597 -540590449.8869133 0 0 0 0 -674158308.81819153 -539111891.81632233 0 -539111891.81632233 -1014554875.8265381 0 0 0 0 -1891539995.2404022 -1730606191.2906342 0 -1730606191.2906342 -2096705246.1511803 0 0 0 0 -1174049144.1458435 -133519919.13669586 0 -133519919.13669586 1278871360.9076538 0 0 0 0 -13375125.597613886 22200327.677289732 0 22200327.677289732 300521.85224296898 0 0 0 0 9145938.7050857544 11427226.763755798 0 11427226.763755798 1140703953.8359566 0 0 0 0 -722078202.85694122 -226349710.02289581 0 -226349710.02289581 1389060281.046566 0 0 0 0 -167847289.45265198 397386003.95089722 0 397386003.95089722 914331238.67360687 0 0 0 0 -24469852.033653259 -281420965.86907959 0 -281420965.86907959 125892094.52597046 0 0 0 0 -267207442.1984787 -74881467.610584259 0 -74881467.610584259 83784449.494552612 0 0 0 0 -641591809.98738861 -270244861.99704742 0 -270244861.99704742 330619951.69367218 0 0 0 0 -473860031.90449142 154568128.39354706 0 154568128.39354706 -452239038.22680664 0 0 0 0 -61610425.33921051 53377101.092735291 0 53377101.092735291 -646631143.10400391 0 0 0 0 -205954630.51929855 77341796.642997742 0 77341796.642997742 -550434759.31079102 0 0 0 0 -133346804.52281952 -192882494.84606171 0 -192882494.84606171 -184450672.30812073 0 0 0 0 -50273669.71075058 19306091.572200775 0 19306091.572200775 4719677.2754745483 0 0 0 0 -50514982.9737854 21588147.685726166 0 21588147.685726166 -2815708.3595104218 0 0 0 0 -206413008.55983734 9596834.9934425354 0 9596834.9934425354 443084393.29084396 0 0 0 0 -155873955.08470249 210693231.49273014 0 210693231.49273014 5253899.8024597168 0 0 0 0 -69345463.357078552 170716687.47916794 0 170716687.47916794 -197423443.06700134 0 0 0 0 -63255135.61044693 83745419.425197601 0 83745419.425197601 -38646864.723754883 0 0 0 0 -117575534.6492691 50623615.076171875 0 50623615.076171875 6664569.0730496049 0 0 0 0 -66804644.59112066 19432572.364035591 0 19432572.364035591 18675421.659612566 0 0 0 0 -46522632.759635925 23883655.308353424 0 23883655.308353424 9218557.0408744812 0 0 0 0 22029837.366867065 286104047.69239998 0 286104047.69239998 -190496291.15366983 0 0 0 0 503569125.90426636 -108020243.93945312 0 -108020243.93945312 -128098648.4604435 0 0 0 0 -6257253.2595331967 4925513.2644461729 0 4925513.2644461729 2306888.7838607645 0 0 0 0 -34578881.535048112 55055892.153056324 0 55055892.153056324 -37869994.865557991 0 0 0 0 94706422.850984335 269198254.52722168 0 269198254.52722168 -190815027.79031372 0 0 0 0 -84970625.05473417 23940633.048968781 0 23940633.048968781 11040684.069719866 0 0 0 0 -305297455.96508026 4885377.8250026703 0 4885377.8250026703 186508233.68629456 0 0 0 0 -148521681.79313469 14565974.875644684 0 14565974.875644684 -98382869.370147705 0 0 0 0 -15089423.181152344 -86249592.907752037 0 -86249592.907752037 -89138533.559812546 0 0 0 0 -204675410.55587769 103608102.19163036 0 103608102.19163036 -73609535.050726593 0 0 0 0 6820055.9990692139 -96254291.812399149 0 -96254291.812399149 68614119.939576149 0 0 0 0 -466503813.32432556 86237250.870519638 0 86237250.870519638 192815085.39642525 0 0 0 0 -259312639.83909988 -80572368.537342012 0 -80572368.537342012 283748249.1247673 0 0 0 0 -255634428.82969761 -101491296.27569273 0 -101491296.27569273 109268467.18367958 0 0 0 0 -8662563.6720631197 4225992.9206457213 0 4225992.9206457213 3302378.6262401869 0 0 0 0 -76873558.324264526 321547715.49462652 0 321547715.49462652 -693997904.44433212 0 0 0 0 -161774361.28088379 227996617.39661789 0 227996617.39661789 -173534976.90333891 0 0 0 0 248116930.90481567 82472432.19740057 0 82472432.19740057 -536385693.1249845 0 0 0 0 235754906.16604614 449394249.04819584 0 449394249.04819584 -1127387584.7158594 0 0 0 0 1004287.6826289967 -718442.22300671041 0 -718442.22300671041 -6480466.276439677 0 0 0 0 -1093949666.5440063 346691029.53763425 0 346691029.53763425 1693384060.7823043 0 0 0 0 410263511.93496704 -96221664.453778744 0 -96221664.453778744 -1735903506.2761698 0 0 0 0 -1213366347.347168 -2792098417.037447 0 -2792098417.037447 -880550510.17930412 0 0 0 0 -755564851.51138306 -671045839.90163994 0 -671045839.90163994 1400549651.79741 0 0 0 0 -359610805.11328125 -599675292.33838272 0 -599675292.33838272 -542737048.62644696 0 0 0 0 181871679.47332764 -127620572.41543007 0 -127620572.41543007 -51670413.473555565 0 0 0 0 -76659776.438735962 81773434.353237152 0 81773434.353237152 5662187.427339077 0 0 0 0 13815433.741263159 3118301.9149617627 0 3118301.9149617627 -9581971.9539989941 0 0 0 0 -472004516.5047636 393809043.02707678 0 393809043.02707678 1207156144.863533 0 0 0 0 -39287236.662704468 24295129.284734726 0 24295129.284734726 -3169643.5345344543 0 0 0 0 -75379427.801634356 42693501.395756029 0 42693501.395756029 -5204728.6320286877 0 0 0 0 -32516423.661193848 29679942.208240509 0 29679942.208240509 1084779.0260658264 0 0 0 0 -39074412.204445258 23516927.444803961 0 23516927.444803961 -10230341.453311648 0 0 0 0 -163853721.47370148 66278023.386991031 0 66278023.386991031 346398079.69997489 0 0 0 0 -6704845.4837036133 64041900.156644106 0 64041900.156644106 17784793.841977715 0 0 0 0 -12129593.098148104 6791720.4306985587 0 6791720.4306985587 3704985.3543366822 0 0 0 0 564300878.08252716 -434310520.65281343 0 -434310520.65281343 -4340815244.1384315 0 0 0 0 -46258498.779151917 23691953.541637421 0 23691953.541637421 -11164277.814439774 0 0 0 0 -46790764.015140146 10949846.286482541 0 10949846.286482541 5149729.3036578558 0 0 0 0 -2074844.475915283 3636172.6059037708 0 3636172.6059037708 849651.74486858479 0 0 0 0 -45891535.610134125 25710392.962675095 0 25710392.962675095 -2730875.9069671631 0 0 0 0 -2222861341.7861176 -1757079159.8411846 0 -1757079159.8411846 -1964760114.6012268 0 0 0 0 -2621193369.7488346 -579164346.08293629 0 -579164346.08293629 -228270838.48831177 0 0 0 0 -1356832455.0580597 -2868555849.8513107 0 -2868555849.8513107 -289199809.82315636 0 0 0 0 -565266846.78036499 440416056.10175037 0 440416056.10175037 -3249557080.7712617 0 0 0 0 -647847681.26776886 -8401531.8585505486 0 -8401531.8585505486 -614571454.98999786 0 0 0 0 -271334347.41423035 151778883.08085346 0 151778883.08085346 -1306528802.9251194 0 0 0 0 -980160000.76667786 -723289924.43206978 0 -723289924.43206978 -950562620.04068232 0 0 0 0 -983183305.83860433 -477970987.0823586 0 -477970987.0823586 -677118284.45359802 0 0 0 0 -1333036852.3009033 -326656180.7359848 0 -326656180.7359848 51783485.420119166 0 0 0 0 -479908657.33058167 -365323957.00184822 0 -365323957.00184822 -694421576.32174492 0 0 0 0 -908462743.16413879 -626888186.90439367 0 -626888186.90439367 -594454896.45976639 0 0 0 0 -1785640076.4899139 -761815207.37562561 0 -761815207.37562561 -343476526.49825859 0 0 0 0 -1175479015.708374 -248380921.38159657 0 -248380921.38159657 139095659.47109556 0 0 0 0 -1645613974.8294582 85306677.063162804 0 85306677.063162804 161705420.90703201 0 0 0 0 -15676261.257418662 26880875.397080541 0 26880875.397080541 -46678521.736890301 0 0 0 0 -111197424.93254471 470314539.58223391 0 470314539.58223391 -407588906.26184845 0 0 0 0 -57246212.630038626 25520753.482904751 0 25520753.482904751 -535289.40115005709 0 0 0 0 -127371994.53816986 -79464025.359222412 0 -79464025.359222412 -145024919.54747772 0 0 0 0 25139576.6015625 72360882.66053772 0 72360882.66053772 -247484733.27095795 0 0 0 0 -32342139.984256744 -79924271.996635914 0 -79924271.996635914 97913474.09164238 0 0 0 0 -28892993.275060326 12046305.052545272 0 12046305.052545272 13137427.006928228 0 0 0 0 86799934.826599121 -17658347.159619093 0 -17658347.159619093 -8316364.1670644283 0 0 0 0 -10247313.203621 2087990.8854977433 0 2087990.8854977433 -5681547.9481528485 0 0 0 0 -662069289.65711975 -823186648.96144867 0 -823186648.96144867 -702836683.6980896 0 0 0 0 -841261871.82818604 -1410368928.7387218 0 -1410368928.7387218 -1659020959.1605482 0 0 0 0 -1529249968.5068283 457264455.2051363 0 457264455.2051363 -185134709.01913834 0 0 0 0 -2478206892.7908936 -1187171912.9184613 0 -1187171912.9184613 383893822.47954655 0 0 0 0 -2147373967.0175781 348173982.92361736 0 348173982.92361736 80200535.425509214 0 0 0 0 -3104843757.2043762 -945327091.57542515 0 -945327091.57542515 828147200.81436396 0 0 0 0 331561510.30828476 572553497.8401233 0 572553497.8401233 -412913524.23468876 0 0 0 0 -593857994.94390106 -1126644037.7624729 0 -1126644037.7624729 -1297397197.3268862 0 0 0 0 245437099.33917999 -235852612.936692 0 -235852612.936692 -1036417189.2291832 0 0 0 0 -2179932658.6794472 -1894102854.2287114 0 -1894102854.2287114 -1521514152.6064415 0 0 0 0 -2860044927.6243134 -1466988485.9749975 0 -1466988485.9749975 -399159607.39309978 0 0 0 0 -2913090697.2134247 720835634.51416492 0 720835634.51416492 -1470871.5351934433 0 0 0 0 -2813575.8154736608 -1208902.1968896296 0 -1208902.1968896296 -500009.23839082685 0 0 0 0 -1510081769.4532776 -880113810.78508329 0 -880113810.78508329 11661194.068099022 0 0 0 0 -2331535.4909171518 2874711.9751344211 0 2874711.9751344211 3352411.3572357441 0 0 0 0 1232917908.5421119 -733156141.9337976 0 -733156141.9337976 263178960.86117554 0 0 0 0 -2725593804.0068741 1076634943.8584898 0 1076634943.8584898 -39305871.790758133 0 0 0 0 -1021960000.9183807 -927498233.12201452 0 -927498233.12201452 1315596142.755055 0 0 0 0 -2548369357.6723633 -2013931565.6682835 0 -2013931565.6682835 986588319.66592789 0 0 0 0 -606229523.24732971 190417434.13735342 0 190417434.13735342 334725481.31598997 0 0 0 0 -490913039.49714661 395880751.67772579 0 395880751.67772579 -555792765.24375451 0 0 0 0 9020286.8601455688 -256917091.06188041 0 -256917091.06188041 281407772.15120739 0 0 0 0 -162102671.81570816 -254691169.46931991 0 -254691169.46931991 519300921.82483554 0 0 0 0 -8416060.5016078427 -3118431.3968935828 0 -3118431.3968935828 556316.57405060763 0 0 0 0 -6835351.2401885986 -129580.29269886017 0 -129580.29269886017 3742874.2264575958 0 0 0 0 -8762044.7206192017 -865599.38860082626 0 -865599.38860082626 5967864.0800151825 0 0 0 0 -13557895.66099982 249230.71995337121 0 249230.71995337121 4367522.9473705981 0 0 0 0 -10650343.995285034 619749.60881233215 0 619749.60881233215 6779045.4167098999 0 0 0 0 -339465408.21784973 -389600743.34945297 0 -389600743.34945297 -285943108.16297913 0 0 0 0 -13778228.856803894 3789179.3282957077 0 3789179.3282957077 4185566.7613640428 0 0 0 0 -10092117.626617793 4814010.9775629714 0 4814010.9775629714 5948343.3645486245 0 0 0 0 -8222570.1015906166 5805665.6645267159 0 5805665.6645267159 1205031.7367139431 0 0 0 0 -796016726.73272991 59538029.153502941 0 59538029.153502941 -58678954.812122345 0 0 0 0 -8372022.3692779541 -1343088.8408875465 0 -1343088.8408875465 3810858.340839386 0 0 0 0 -1186241872.9926147 -601874694.58196354 0 -601874694.58196354 45404572.824338913 0 0 0 0 -1809447361.2262726 -594981212.45278358 0 -594981212.45278358 159280712.52331352 0 0 0 0 -1785577855.1580276 -467490039.74572754 0 -467490039.74572754 353177220.79281998 0 0 0 0 -1874893305.1069794 -146090664.37176132 0 -146090664.37176132 298905601.63679504 0 0 0 0 -1174815985.3241491 -413566905.08674014 0 -413566905.08674014 -388609071.67878532 0 0 0 0 -1047055388.5239716 -48954346.022341728 0 -48954346.022341728 -246568690.71092606 0 0 0 0 -1663761065.0454254 -92973898.97678566 0 -92973898.97678566 446811805.15856171 0 0 0 0 -1348830479.2841797 543166603.23041153 0 543166603.23041153 510908923.08007812 0 0 0 0 -1843374778.9932861 -88928419.537214279 0 -88928419.537214279 496259596.633461 0 0 0 0 -2861121112.0456238 -154571538.40372467 0 -154571538.40372467 715650021.81833267 0 0 0 0 -2226049889.6068039 263105646.69329739 0 263105646.69329739 257088388.491539 0 0 0 0 -2465095017.1739197 -1043308844.7624531 0 -1043308844.7624531 180909252.5007019 0 0 0 0 -2215202280.7315216 190427726.43566227 0 190427726.43566227 716836985.36789703 0 0 0 0 -831245024.30899048 329971763.04822731 0 329971763.04822731 -589360767.12505722 0 0 0 0 -866833178.88372803 -45280356.64739418 0 -45280356.64739418 168381893.67062283 0 0 0 0 -1843899268.0019836 -527566556.71465302 0 -527566556.71465302 417573877.71325684 0 0 0 0 -906562949.9090271 -460252593.95809937 0 -460252593.95809937 -160111803.33170554 0 0 0 0 -1584413856.9522247 -802140919.19993019 0 -802140919.19993019 -161782979.47299957 0 0 0 0 312917175.62194824 -613309993.36639404 0 -613309993.36639404 -975955581.02038574 0 0 0 0 -9715152.2884310856 -4062834.8639738373 0 -4062834.8639738373 6710746.0190818189 0 0 0 0 -774109273.74740601 -289982312.54784012 0 -289982312.54784012 -98983882.484703064 0 0 0 0 -3703358510.4614868 -2953585378.2453499 0 -2953585378.2453499 -1766591874.4431114 0 0 0 0 -1239979300.0301819 -1956552276.7626762 0 -1956552276.7626762 -1363747168.3459778 0 0 0 0 -1207868002.7339401 -2087463322.5600691 0 -2087463322.5600691 -3598281045.6585083 0 0 0 0 -2877541245.1742249 -891066596.46745682 0 -891066596.46745682 136322189.85398865 0 0 0 0 -338448.52623039484 -318382.96914518252 0 -318382.96914518252 364703.98540357128 0 0 0 0 -2921869731.5949402 2156970543.294775 0 2156970543.294775 -491706043.89306259 0 0 0 0 -4678782.1757218391 492855.95774596184 0 492855.95774596184 1382338.4868632909 0 0 0 0 -3204885323.6798401 1470497026.7731075 0 1470497026.7731075 -796104357.27429199 0 0 0 0 -5391281959.7189026 -161359183.25366592 0 -161359183.25366592 201625345.75393105 0 0 0 0 -5223583616.2399292 -2103620557.2088318 0 -2103620557.2088318 -454926127.97941971 0 0 0 0 699616041.74003601 576465456.15174484 0 576465456.15174484 -2822199069.6454773 0 0 0 0 33760.698490720242 -1474369.9028271101 0 -1474369.9028271101 -6045917.2792507317 0 0 0 0 -2709263226.889801 -517156495.28892517 0 -517156495.28892517 1028136394.0152884 0 0 0 0 -4340490434.4180031 -517876881.48210621 0 -517876881.48210621 1085644941.3123283 0 0 0 0 -5506786.703083206 -900175.12755548954 0 -900175.12755548954 3456778.5062202457 0 0 0 0 -9877798.5343322754 -8224.3174304962158 0 -8224.3174304962158 2028699.8999061584 0 0 0 0 -1008586316.8781509 -9653706.9013528824 0 -9653706.9013528824 -3422111.709487915 0 0 0 0 -49271909.572296143 -26140037.90520668 0 -26140037.90520668 -65336633.889884949 0 0 0 0 -57525855.342147827 -266881.38454198837 0 -266881.38454198837 8708040.1543440819 0 0 0 0 -53951684.547172546 -38882131.794290543 0 -38882131.794290543 -30638792.51478672 0 0 0 0 -6168045.3511687741 3630966.8909343444 0 3630966.8909343444 3402870.0664720889 0 0 0 0 -9358958.4563674927 322121.48290634155 0 322121.48290634155 2046366.3540058136 0 0 0 0 -174520959.92233276 131362846.80164587 0 131362846.80164587 278440065.88245666 0 0 0 0 -44125252.352828979 -46387509.514263391 0 -46387509.514263391 -436346388.86595583 0 0 0 0 108464676.29141235 468757986.12829125 0 468757986.12829125 148355914.63172078 0 0 0 0 -19271078.289801925 -3102688.6599732563 0 -3102688.6599732563 9838466.6205188818 0 0 0 0 64359160.741348267 192710954.80998492 0 192710954.80998492 185320065.23063493 0 0 0 0 35920753.971588135 144308363.71970832 0 144308363.71970832 707975965.99795008 0 0 0 0 -322962976.94390869 331194029.82790148 0 331194029.82790148 135814193.43793333 0 0 0 0 -238373052.48364258 56351791.813230872 0 56351791.813230872 345983066.29990524 0 0 0 0 -271391689.92510986 96969519.319317102 0 96969519.319317102 296631192.48405552 0 0 0 0 -313411483.93573284 79398424.569908619 0 79398424.569908619 289712138.16446781 0 0 0 0 -676753745.32424927 694660563.15482998 0 694660563.15482998 -344036954.1152178 0 0 0 0 -7592104.4278635085 -700658.00080461754 0 -700658.00080461754 552047.68591544044 0 0 0 0 -424493861.69525146 -1050871210.5828967 0 -1050871210.5828967 -505879491.67538917 0 0 0 0 21639366.756134033 263693369.17137027 0 263693369.17137027 -1031032327.7633667 0 0 0 0 526468700.66866684 -2200645243.3889108 0 -2200645243.3889108 -1659341677.0314591 0 0 0 0 1505816.2663978636 -2926934.8152087443 0 -2926934.8152087443 -15082413.079700211 0 0 0 0 -1171156465.5489349 328329212.51500279 0 328329212.51500279 672853121.33604002 0 0 0 0 -686847801.5281601 -301830376.4866249 0 -301830376.4866249 874959303.29526758 0 0 0 0 170720021.54381561 533222984.65170598 0 533222984.65170598 -514679327.47751427 0 0 0 0 -289087198.84750366 -435291023.22686577 0 -435291023.22686577 46277168.152336121 0 0 0 0 -553256517.34236145 431457631.65823746 0 431457631.65823746 149214530.02267075 0 0 0 0 1036978659.9077759 -336079411.43048477 0 -336079411.43048477 -244340862.73685455 0 0 0 0 195356395.67526245 894050501.47025108 0 894050501.47025108 296144221.74774933 0 0 0 0 -911927941.11956787 61538155.843063354 0 61538155.843063354 191197532.22717929 0 0 0 0 -859301566.28448486 -35228368.96282959 0 -35228368.96282959 1143370787.1012535 0 0 0 0 993606719.72573853 -1380648893.1816845 0 -1380648893.1816845 -1126197744.2532578 0 0 0 0 988450848.80323792 270288057.58629751 0 270288057.58629751 -301316729.69495487 0 0 0 0 992257.22952403128 -3326309.7975763641 0 -3326309.7975763641 -15086130.597003926 0 0 0 0 328902881.99868774 201674846.97301531 0 201674846.97301531 -267433619.52606487 0 0 0 0 -10561657.989746094 84718222.190177917 0 84718222.190177917 -58890040.249763489 0 0 0 0 44734369.947105408 -19767706.734249115 0 -19767706.734249115 267740990.76281548 0 0 0 0 -541364474.77960205 1077574028.6524243 0 1077574028.6524243 411758877.14671421 0 0 0 0 -1407258571.5225906 -649233145.33908093 0 -649233145.33908093 -5014762.766910553 0 0 0 0 172973500.00996399 -20940785.704745293 0 -20940785.704745293 114103957.19987774 0 0 0 0 -12429280.911502838 -897167715.11497235 0 -897167715.11497235 -550904683.8404808 0 0 0 0 -1392617491.1928864 496190166.42448902 0 496190166.42448902 512980276.93482971 0 0 0 0 -378347.22402018309 -3124938.4384321254 0 -3124938.4384321254 -3035475.1408066559 0 0 0 0 -507323345.8699646 -997097846.24885798 0 -997097846.24885798 -357060033.58670712 0 0 0 0 -842737156.8576355 774930122.42003536 0 774930122.42003536 -152530456.04637337 0 0 0 0 -816242733.37139893 38056643.738419533 0 38056643.738419533 121340660.17896271 0 0 0 0 -1604752315.9684219 -200092632.40573978 0 -200092632.40573978 518188155.39295578 0 0 0 0 -403412413.01168823 265465900.00310802 0 265465900.00310802 225140084.35516548 0 0 0 0 272575067.6653595 -321513426.43387127 0 -321513426.43387127 316191655.04066277 0 0 0 0 -2701503.3632559925 -7002203.4375109859 0 -7002203.4375109859 -5856114.6464255666 0 0 0 0 607684159.30973816 -605557298.82467651 0 -605557298.82467651 436304025.41934204 0 0 0 0 -524772863.18931198 -329831505.17737103 0 -329831505.17737103 1060374213.2850761 0 0 0 0 239837620.18737793 -1187936352.9007959 0 -1187936352.9007959 1284743303.389286 0 0 0 0 442374700.96536636 63333360.119751453 0 63333360.119751453 -298426901.68620682 0 0 0 0 298367588.02651978 -104525391.70127296 0 -104525391.70127296 567705789.08943844 0 0 0 0 -36777580.427753448 -978236261.44211745 0 -978236261.44211745 1192362901.3871555 0 0 0 0 -4599234.7384078801 -7784691.2496182211 0 -7784691.2496182211 -5871102.4834584091 0 0 0 0 -124332686.32838058 -759560181.28971434 0 -759560181.28971434 -188749757.56550217 0 0 0 0 -525336212.96237183 -915343038.32378578 0 -915343038.32378578 -438778103.50637436 0 0 0 0 -754046089.45516968 -796608740.44835472 0 -796608740.44835472 -238612003.40888596 0 0 0 0 -543438239.83474731 -694361180.35562134 0 -694361180.35562134 -198501326.52750778 0 0 0 0 -1664669949.1822205 -105219915.42556763 0 -105219915.42556763 150185294.17314339 0 0 0 0 -678088690.97001648 -578903179.32888794 0 -578903179.32888794 -285092967.99920654 0 0 0 0 -367238106.6711731 165750875.17518044 0 165750875.17518044 338349736.14511508 0 0 0 0 -756402788.68516541 -128248568.76480389 0 -128248568.76480389 138861976.00553322 0 0 0 0 -984584022.49923706 158283784.18118477 0 158283784.18118477 431017951.18438721 0 0 0 0 -149559576.05981159 -440325106.34781647 0 -440325106.34781647 719937581.72185898 0 0 0 0 -1621159674.7467346 1024431569.6053276 0 1024431569.6053276 -104748463.36353111 0 0 0 0 115254.86421371996 955327.21090561897 0 955327.21090561897 -2276561.2355339509 0 0 0 0 -294272929.6461792 -1162590457.2542553 0 -1162590457.2542553 -470115688.95113373 0 0 0 0 -1138836709.9557495 -1581551298.4957094 0 -1581551298.4957094 -238915660.30706406 0 0 0 0 2051764551.3375244 435560142.58308411 0 435560142.58308411 566493716.82084656 0 0 0 0 -491139.25890878309 -35769.867590047419 0 -35769.867590047419 489420.51479605585 0 0 0 0 -280206059.34050798 -155730020.04712239 0 -155730020.04712239 338991400.24475479 0 0 0 0 -283630354.48968506 3597239.941204071 0 3597239.941204071 -126283100.81674385 0 0 0 0 -80699647.626716614 -68090936.416406631 0 -68090936.416406631 -57464758.221975327 0 0 0 0 -3358004.3601505831 -2638920.3017291501 0 -2638920.3017291501 876908.96313326806 0 0 0 0 -12750808.379107475 4594075.4016487598 0 4594075.4016487598 -864024.67658233643 0 0 0 0 -3283348.0506923096 3944805.750955306 0 3944805.750955306 -136009.6270342581 0 0 0 0 -301599744.50401402 -108914338.54851198 0 -108914338.54851198 92755322.036922455 0 0 0 0 -2756635611.9807892 -335300865.84146595 0 -335300865.84146595 336302245.31104469 0 0 0 0 -1342940560.553833 1127520120.7384129 0 1127520120.7384129 -825042544.84147072 0 0 0 0 -295945472.96551514 70645654.774897575 0 70645654.774897575 107671368.98604965 0 0 0 0 729080720.72982788 -1225917526.9541664 0 -1225917526.9541664 -2230853487.8769093 0 0 0 0 -283455168.18107986 683519951.24214411 0 683519951.24214411 -61013898.916164398 0 0 0 0 -2623736.4649134353 -3695297.7829141356 0 -3695297.7829141356 -2735275.6490542088 0 0 0 0 -2938705853.6251831 730691420.02049255 0 730691420.02049255 1659809462.9133301 0 0 0 0 -2756945333.8152771 1686410345.4860277 0 1686410345.4860277 1166854915.4842911 0 0 0 0 -3351679282.586731 -203124300.96199799 0 -203124300.96199799 401429661.08193398 0 0 0 0 -2217927406.9171028 258893235.23754311 0 258893235.23754311 258455372.68418884 0 0 0 0 -1698518353.258194 -1370839189.3086567 0 -1370839189.3086567 -50880214.058393478 0 0 0 0 37167122.909301758 -1447735032.4607677 0 -1447735032.4607677 -341537185.12116051 0 0 0 0 -348070259.79959106 -917801364.50171471 0 -917801364.50171471 -51359207.530899048 0 0 0 0 -292890664.99191284 -811275115.78418541 0 -811275115.78418541 -398121174.75259781 0 0 0 0 -663036066.71678162 -672958648.44422722 0 -672958648.44422722 -238765914.63873672 0 0 0 0 -655507089.31260681 -189270374.23622131 0 -189270374.23622131 100877172.78355026 0 0 0 0 -323924106.92991638 -60502291.290649414 0 -60502291.290649414 117337033.2540741 0 0 0 0 -103506379.33013916 -101639522.78454971 0 -101639522.78454971 -137055943.30557251 0 0 0 0 -346413118.42686844 79662871.826623678 0 79662871.826623678 -247510493.03211212 0 0 0 0 738727645.80244064 -336447058.86164331 0 -336447058.86164331 148690548.07113647 0 0 0 0 -353187034.87243652 1169014502.8628464 0 1169014502.8628464 -568054917.85972977 0 0 0 0 -888830.52935019508 882094.33534879237 0 882094.33534879237 -2119601.2106126677 0 0 0 0 1096432643.7090912 -106690857.38765335 0 -106690857.38765335 -606019681.74754333 0 0 0 0 -863377789.34991455 114129096.34335899 0 114129096.34335899 219690866.73301506 0 0 0 0 -491583547.84276962 -397638290.75507355 0 -397638290.75507355 -37372581.731464386 0 0 0 0 118250501.13723755 346245500.52218628 0 346245500.52218628 -415233758.77691269 0 0 0 0 36879659.979431152 -29514513.890304565 0 -29514513.890304565 36216436.463565826 0 0 0 0 -9539021.5123322904 3128697.6055363677 0 3128697.6055363677 3522467.6290472485 0 0 0 0 240290567.08689308 160420319.13800991 0 160420319.13800991 -132300522.36148834 0 0 0 0 -116272172.90342712 -84641266.982513428 0 -84641266.982513428 94693823.260105133 0 0 0 0 -162487530.01850891 -70849396.938322067 0 -70849396.938322067 117546120.87184334 0 0 0 0 -162367698.9296875 -10731415.74747467 0 -10731415.74747467 102562458.10072327 0 0 0 0 -123557526.59069824 -44188747.495391846 0 -44188747.495391846 130234344.89867783 0 0 0 0 -540994407.67425537 -80037916.854089737 0 -80037916.854089737 236068605.22267866 0 0 0 0 -217751570.72794342 -92698640.442253113 0 -92698640.442253113 220604066.39663315 0 0 0 0 208101186.00163269 -113407688.63553715 0 -113407688.63553715 -161011633.52873421 0 0 0 0 -2716987.7433497449 1542459.0938067473 0 1542459.0938067473 905355.23180913925 0 0 0 0 -147754999.06257629 -105466570.00935936 0 -105466570.00935936 91848187.181600571 0 0 0 0 279630767.48375702 -161097181.57259655 0 -161097181.57259655 -63894404.536546707 0 0 0 0 -117291591.83929443 -121438297.51879549 0 -121438297.51879549 218444944.75952911 0 0 0 0 -185673751.79484558 -4214672.5969963074 0 -4214672.5969963074 91447185.771099091 0 0 0 0 -46056299.832168579 93357861.169689178 0 93357861.169689178 159001349.42343521 0 0 0 0 -162350629.64031982 -2467900.4714832306 0 -2467900.4714832306 73379012.357486725 0 0 0 0 -196481793.99829102 48376631.502193451 0 48376631.502193451 179826378.52918339 0 0 0 0 -299963397.84872437 -15549482.648509979 0 -15549482.648509979 204725975.05165672 0 0 0 0 -221661688.15675354 -39011784.431739807 0 -39011784.431739807 258317952.99119186 0 0 0 0 -245654286.32843781 61711702.500972748 0 61711702.500972748 305733456.457798 0 0 0 0 -394506851.11257935 140169748.79116344 0 140169748.79116344 72572913.223136902 0 0 0 0 10464753.07440567 -8303910.1930668354 0 -8303910.1930668354 1560847.7396869659 0 0 0 0 10790343.06262207 -10326478.36762619 0 -10326478.36762619 -6147632.7125663757 0 0 0 0 -62823188.855102539 -61284772.870883942 0 -61284772.870883942 277518084.02708292 0 0 0 0 40040558.383255005 56778196.68789196 0 56778196.68789196 -32910330.669998169 0 0 0 0 -171781234.20419312 -172259223.56111526 0 -172259223.56111526 -147598182.18581867 0 0 0 0 -455945.43468093872 -1334593.7106943731 0 -1334593.7106943731 -318618.73489600932 0 0 0 0 -163867898.8475647 137770755.09774971 0 137770755.09774971 -124539303.03281021 0 0 0 0 -328084963.65106201 -237119817.38545036 0 -237119817.38545036 -70891727.316753387 0 0 0 0 -415023349.40596008 -188163400.49051428 0 -188163400.49051428 -23732784.412532806 0 0 0 0 -254956307.68505859 -80048325.599061966 0 -80048325.599061966 -53532719.477157593 0 0 0 0 969729.08348826319 -209286.74214569293 0 -209286.74214569293 -1178417.6531719156 0 0 0 0 56739285.976760864 -244358197.26240158 0 -244358197.26240158 -2893864.2495498657 0 0 0 0 -137957091.05157471 -101050531.01768875 0 -101050531.01768875 272115663.69511795 0 0 0 0 271714051.89256287 -178747064.29467773 0 -178747064.29467773 -121011692.74527359 0 0 0 0 -142427923.55146027 -165813569.71409416 0 -165813569.71409416 -362096634.72271729 0 0 0 0 -302078372.97853088 87346084.511302948 0 87346084.511302948 29970926.874505043 0 0 0 0 -61079910.451293945 -61476929.782533646 0 -61476929.782533646 -144727847.96522975 0 0 0 0 -83040821.842681885 -46742775.287883759 0 -46742775.287883759 -82017706.218231201 0 0 0 0 -80868005.963882446 -58361602.784481525 0 -58361602.784481525 -48454173.305261612 0 0 0 0 -90030329.213737488 -40473058.864510059 0 -40473058.864510059 -81845805.265361786 0 0 0 0 -23343245.190948486 -24671049.146104336 0 -24671049.146104336 -47562733.567982227 0 0 0 0 -78680590.111160278 -73593130.056447983 0 -73593130.056447983 -36257567.256233335 0 0 0 0 -152562436.71394348 -72748007.001037598 0 -72748007.001037598 -35930688.213195086 0 0 0 0 -127402897.68976593 -129633778.57122278 0 -129633778.57122278 -36796859.937889099 0 0 0 0 -219210979.84101868 -128043036.0558691 0 -128043036.0558691 -6435422.8275909424 0 0 0 0 -188004279.28883362 -247069149.40952909 0 -247069149.40952909 7911998.5676498413 0 0 0 0 -88188839.805282593 -243254582.37124634 0 -243254582.37124634 -42168928.927075386 0 0 0 0 -116492376.90940857 -236906056.40262461 0 -236906056.40262461 -43552483.998767853 0 0 0 0 -112294633.72843552 -214450446.7115345 0 -214450446.7115345 -127598792.15777016 0 0 0 0 -63745605.919082642 -133397761.1587429 0 -133397761.1587429 -49765769.363409996 0 0 0 0 -89783123.579360962 -105965706.07222748 0 -105965706.07222748 -78634640.647783279 0 0 0 0 -33437926.123214722 -56802053.082146645 0 -56802053.082146645 -142816024.52523994 0 0 0 0 -67178950.642822266 -81814385.314186096 0 -81814385.314186096 -69391753.880073547 0 0 0 0 -34236060.444747925 -92984388.528754234 0 -92984388.528754234 -145543654.86102486 0 0 0 0 150578728.72679138 -178606752.87405586 0 -178606752.87405586 -123996427.9524554 0 0 0 0 -89611323.737876892 -412575748.85023928 0 -412575748.85023928 -233032334.09218121 0 0 0 0 588425792.97624207 -384663004.77573228 0 -384663004.77573228 -292770293.18303299 0 0 0 0 -27436176.256583795 2537415.276155646 0 2537415.276155646 2970502.7774035097 0 0 0 0 -38888950.836547852 -8568526.4801177979 0 -8568526.4801177979 -15337575.818313599 0 0 0 0 -43222366.583358765 82802116.901043773 0 82802116.901043773 231735697.10256755 0 0 0 0 265181151.92098618 28612596.385989189 0 28612596.385989189 -118400742.13918018 0 0 0 0 -1073300.3907327205 1245784.3581113275 0 1245784.3581113275 743877.329374325 0 0 0 0 -119168559.58317566 -27144887.499112189 0 -27144887.499112189 420110827.00638068 0 0 0 0 -14512803.469176307 575362.72348110005 0 575362.72348110005 985095.62905718014 0 0 0 0 16649266.36075592 16461222.130409718 0 16461222.130409718 157484077.64085263 0 0 0 0 -7064234.8713912964 -4670452.3109474182 0 -4670452.3109474182 12360559.907824039 0 0 0 0 -74237982.969314575 -70839248.904783249 0 -70839248.904783249 -47797156.343777657 0 0 0 0 -60787322.31022644 -49664374.232611656 0 -49664374.232611656 -40530737.196498871 0 0 0 0 -14856343.667421661 -4475373.2722356729 0 -4475373.2722356729 5145230.3797753584 0 0 0 0 -108624268.52288818 205137820.5630722 0 205137820.5630722 -539305044.73301744 0 0 0 0 60576.623860619962 -1043246.8975552886 0 -1043246.8975552886 -467466.27344559645 0 0 0 0 -228702643.64251328 292112984.55219913 0 292112984.55219913 -238204544.34319878 0 0 0 0 29667510.962966919 -19257378.242912769 0 -19257378.242912769 -51961299.158407211 0 0 0 0 -50450337.225944519 -79883723.937358856 0 -79883723.937358856 79475336.136775017 0 0 0 0 10089642.468353271 -63337046.158144951 0 -63337046.158144951 79601475.871685117 0 0 0 0 -34193476.158187866 -89007661.948699951 0 -89007661.948699951 -88949949.454026222 0 0 0 0 -3735048.2653662264 -1719550.1298679113 0 -1719550.1298679113 2615392.9991098628 0 0 0 0 54856363.437484741 -118095744.99594116 0 -118095744.99594116 -41535377.029579163 0 0 0 0 -158641667.17625427 65060115.568780899 0 65060115.568780899 -108973539.70303917 0 0 0 0 20557916.541851044 114777917.34829903 0 114777917.34829903 -205570675.54225922 0 0 0 0 -622662119.18893433 392395273.62800598 0 392395273.62800598 -281567237.23554671 0 0 0 0 -384725119.82818604 388107193.51535511 0 388107193.51535511 -317633339.82486534 0 0 0 0 -1326093745.9269104 359234370.08620739 0 359234370.08620739 -59948651.028644562 0 0 0 0 -732954778.68742371 118699685.61303425 0 118699685.61303425 9767633.9736652374 0 0 0 0 -827017621.73634338 167034029.12338448 0 167034029.12338448 21768562.048136473 0 0 0 0 -483565293.14097595 -865758667.81557465 0 -865758667.81557465 -160404301.68935108 0 0 0 0 -26493792.513044205 1945947.0156578645 0 1945947.0156578645 2313169.4963303809 0 0 0 0 -1456717249.3811779 -298186748.97882962 0 -298186748.97882962 122997441.26281548 0 0 0 0 -203434179.42478943 -341233783.00075865 0 -341233783.00075865 -36017807.507808685 0 0 0 0 -697757430.09831238 -428763861.69996929 0 -428763861.69996929 133434558.22364902 0 0 0 0 -292834475.39572144 -46077327.896365166 0 -46077327.896365166 -76064442.210151434 0 0 0 0 -578302692.24559784 113863980.5949831 0 113863980.5949831 -51107201.539497375 0 0 0 0 -390508370.57291412 -74860797.086693764 0 -74860797.086693764 -15493451.371175766 0 0 0 0 -161790925.6781311 -141851842.81181908 0 -141851842.81181908 2732452.4677844048 0 0 0 0 -254053384.85931396 -309052129.03039837 0 -309052129.03039837 -54456033.374011993 0 0 0 0 -177004404.9155159 -114366018.2847476 0 -114366018.2847476 61300462.313207626 0 0 0 0 -96417245.957351685 -114303890.21416473 0 -114303890.21416473 54131625.694418907 0 0 0 0 -292550774.63811874 8476843.9069199562 0 8476843.9069199562 86180326.85549736 0 0 0 0 -84999174.423461914 -9337124.1942481995 0 -9337124.1942481995 83911586.961586952 0 0 0 0 -175893682.05641937 50201378.255818367 0 50201378.255818367 178832278.91384888 0 0 0 0 -460606731.75790405 112163310.71219015 0 112163310.71219015 -89376611.800291061 0 0 0 0 -166036379.03518677 -31238729.684397697 0 -31238729.684397697 -60352176.593839645 0 0 0 0 -243218159.12876892 176631932.82760572 0 176631932.82760572 17882035.776195526 0 0 0 0 -146530077.92996216 80526732.260801315 0 80526732.260801315 134298891.92197418 0 0 0 0 -67762659.045623779 -67963503.871604919 0 -67963503.871604919 -254392952.35684395 0 0 0 0 7007542.4650907516 361922332.88424337 0 361922332.88424337 197825209.07592583 0 0 0 0 -41271694.98260498 61711623.347457886 0 61711623.347457886 83229285.843183517 0 0 0 0 -30156580.003631592 192336019.87200928 0 192336019.87200928 148639111.79069614 0 0 0 0 134909196.7988205 87552635.872237206 0 87552635.872237206 169456282.65069199 0 0 0 0 -3767203.6994171143 278113.5041217804 0 278113.5041217804 2356114.3100595474 0 0 0 0 3770111.5566558838 149127819.96946812 0 149127819.96946812 220943483.50210381 0 0 0 0 -4170745.1299584657 -590108.84468754381 0 -590108.84468754381 2570160.7461754726 0 0 0 0 -1778417.661681274 632481.30919522792 0 632481.30919522792 2693225.9459729157 0 0 0 0 38304461.854125977 122533446.89313698 0 122533446.89313698 172186961.15820563 0 0 0 0 -2127157.5143966675 -570683.21743965149 0 -570683.21743965149 2387395.3845977783 0 0 0 0 -79096471.395835876 10732005.53640604 0 10732005.53640604 10334826.601036072 0 0 0 0 -1764708.5285491943 -826222.98945426941 0 -826222.98945426941 2177194.888967514 0 0 0 0 -1827361.7471618652 -542278.13821411133 0 -542278.13821411133 1885579.8318328857 0 0 0 0 -1995451.032603303 1158332.3862713911 0 1158332.3862713911 2258962.5862228237 0 0 0 0 -11294260.648103714 -30663873.465281963 0 -30663873.465281963 128873911.53731537 0 0 0 0 -133812182.69039917 22763759.735406876 0 22763759.735406876 159782017.33413124 0 0 0 0 -47961904.758937836 655449.10809516907 0 655449.10809516907 160723273.50048447 0 0 0 0 -3617733.4549107999 -2185013.6060642898 0 -2185013.6060642898 3112582.0215245355 0 0 0 0 -1085229.8044433594 -2693434.5837097168 0 -2693434.5837097168 3107506.9313812256 0 0 0 0 -36981993.352401733 27172775.088900566 0 27172775.088900566 182493393.83149719 0 0 0 0 -1149598.0426177979 -2994527.6043395996 0 -2994527.6043395996 3488514.7074184418 0 0 0 0 -1649216.6593036801 -2830892.9856312755 0 -2830892.9856312755 -287725.40030199196 0 0 0 0 37635301.429016113 35114509.856998444 0 35114509.856998444 33916431.866142273 0 0 0 0 -6076325.3800201416 -67737445.00684166 0 -67737445.00684166 156111556.65974617 0 0 0 0 882163.66903395206 -132588.40565846488 0 -132588.40565846488 -1223125.6480939258 0 0 0 0 -35910698.852844238 15040532.298053741 0 15040532.298053741 272068789.92325592 0 0 0 0 -1303296.5812988207 -1453552.5406313427 0 -1453552.5406313427 1575186.4868340511 0 0 0 0 38388689.507293701 23971282.143863678 0 23971282.143863678 130274632.73789978 0 0 0 0 -7473736.9577941895 -63563240.557388306 0 -63563240.557388306 193200182.25818253 0 0 0 0 -10503410.233978271 -21849609.600463867 0 -21849609.600463867 205727710.83256531 0 0 0 0 -6403451.8739318848 2481960.7133693695 0 2481960.7133693695 5628661.2184486389 0 0 0 0 -1125050.4923034534 -1968832.5792306252 0 -1968832.5792306252 370156.2881466262 0 0 0 0 4857908.3227767944 -31822784.497433662 0 -31822784.497433662 154234685.19099426 0 0 0 0 18081434.848724365 -44882535.128856659 0 -44882535.128856659 60410015.314258575 0 0 0 0 8820827.9812202454 -3531693.4005942345 0 -3531693.4005942345 96072165.506015778 0 0 0 0 32172268.580459595 -23869909.744289398 0 -23869909.744289398 -89927187.094421387 0 0 0 0 -1879228.0131142735 -2059755.5207035081 0 -2059755.5207035081 -469459.34937762981 0 0 0 0 481380.63726502657 22183.77811951749 0 22183.77811951749 -1305082.5254091155 0 0 0 0 38132962.011672974 -85294083.970989227 0 -85294083.970989227 97349468.913799286 0 0 0 0 24347591.745330811 -109520169.83583641 0 -109520169.83583641 74298920.997634888 0 0 0 0 10283061.138305664 -115132200.40010452 0 -115132200.40010452 128403140.23666382 0 0 0 0 -2571451.9438171387 -117829239.17455292 0 -117829239.17455292 129083066.81954193 0 0 0 0 919416.42389678955 -104730739.65379333 0 -104730739.65379333 137432830.29219818 0 0 0 0 -23075929.741714478 -109156430.03412437 0 -109156430.03412437 153208260.09724236 0 0 0 0 -1517860.9437866211 -79718904.244102478 0 -79718904.244102478 118920619.45824814 0 0 0 0 -16865611.30682373 -100833788.72256279 0 -100833788.72256279 164353704.07426405 0 0 0 0 -16474521.534942627 -111520812.64016151 0 -111520812.64016151 136718679.43132401 0 0 0 0 -33345122.816558838 -92035638.237636566 0 -92035638.237636566 162425187.59385681 0 0 0 0 -2062901.093170166 -853375.00623893738 0 -853375.00623893738 2692905.2975997925 0 0 0 0 -6218023.8128967285 -5957289.919178009 0 -5957289.919178009 13577128.231809616 0 0 0 0 -372144.09373109788 -2045500.5303767361 0 -2045500.5303767361 313093.71342580114 0 0 0 0 5445424.1225891113 91177.318073272705 0 91177.318073272705 -9744339.7384185791 0 0 0 0 -10969633.367263794 3484792.7776565552 0 3484792.7776565552 7084002.6409168243 0 0 0 0 51806087.555107117 -56611354.157042027 0 -56611354.157042027 29881949.183204651 0 0 0 0 -5182006.4932556152 11694783.992458344 0 11694783.992458344 -5803762.1283044815 0 0 0 0 531241.55192384124 -40661.216984316707 0 -40661.216984316707 -777165.13183453493 0 0 0 0 80845750.968551636 -159685337.70245171 0 -159685337.70245171 115540221.933918 0 0 0 0 148903543.58828735 -106589919.93766022 0 -106589919.93766022 22622667.059178352 0 0 0 0 41721839.165847778 10195375.407663345 0 10195375.407663345 12296892.860424042 0 0 0 0 -102695690.45331955 -86728418.493494511 0 -86728418.493494511 -44377606.26537323 0 0 0 0 23859823.897857666 -12220920.79183197 0 -12220920.79183197 -14525329.604751587 0 0 0 0 -1425463.6711031962 1281820.0634936132 0 1281820.0634936132 2746489.1426667068 0 0 0 0 -146009581.29763794 -70279194.284848213 0 -70279194.284848213 -48055475.762508392 0 0 0 0 -208060581.19762421 -21936201.880435944 0 -21936201.880435944 176425974.44247437 0 0 0 0 -671838.82484445907 846663.85818755627 0 846663.85818755627 1191524.7589359004 0 0 0 0 191316871.26348495 -255697721.88506508 0 -255697721.88506508 192503144.78858185 0 0 0 0 339533976.26586914 -95466249.828939438 0 -95466249.828939438 44487906.314933777 0 0 0 0 -79723547.939102173 6552636.8882198334 0 6552636.8882198334 217105997.94512177 0 0 0 0 -199101122.65090942 -128922710.70674896 0 -128922710.70674896 314745624.85038376 0 0 0 0 -37067055.109741211 -225935887.49615479 0 -225935887.49615479 251960215.4556179 0 0 0 0 3193521.7002258301 -77712996.531385422 0 -77712996.531385422 -50164850.565567017 0 0 0 0 -33217295.39919281 -127130361.6077795 0 -127130361.6077795 95862218.184295654 0 0 0 0 -107920432.98052216 -118453370.94677734 0 -118453370.94677734 99914997.354270935 0 0 0 0 104892825.45661926 -187686972.36748314 0 -187686972.36748314 56348317.893535614 0 0 0 0 67821980.923852921 420773.25043988228 0 420773.25043988228 3956783.4300384521 0 0 0 0 -223852128.93904114 -85073872.459442139 0 -85073872.459442139 -5011194.0685405731 0 0 0 0 -55785763.700069427 -115573540.88457918 0 -115573540.88457918 -174970533.06088257 0 0 0 0 -41649061.093460083 -72122091.704936981 0 -72122091.704936981 -41560131.32601738 0 0 0 0 -256558636.85061264 -369199861.29054403 0 -369199861.29054403 126704551.14168549 0 0 0 0 -64953735.199996948 289839919.23545074 0 289839919.23545074 -265797685.00063324 0 0 0 0 -761374822.50000763 1080075591.6213112 0 1080075591.6213112 -1162462371.6284332 0 0 0 0 -6827715.5672843717 -3116597.9240655191 0 -3116597.9240655191 -909418.87835777551 0 0 0 0 -136242560.39672852 -58427908.17358017 0 -58427908.17358017 -16465483.151626587 0 0 0 0 -359731191.14162445 -3998932.0685749054 0 -3998932.0685749054 -77971165.277000427 0 0 0 0 866177.70920207724 735138.9116438739 0 735138.9116438739 -1527083.0729909912 0 0 0 0 10175617.697532654 33609.378845214844 0 33609.378845214844 -220412181.99949646 0 0 0 0 -280200056.10257721 118570416.27495575 0 118570416.27495575 -53654717.761434555 0 0 0 0 -78456614.845855713 -22017010.807058334 0 -22017010.807058334 11003333.844991684 0 0 0 0 1169410.1029153876 1018299.9682010375 0 1018299.9682010375 -2060586.1929497644 0 0 0 0 -159527291.89537048 -134150991.32907867 0 -134150991.32907867 122474088.09942627 0 0 0 0 -344450038.90825653 297730702.0088768 0 297730702.0088768 -175775886.77017212 0 0 0 0 -876670847.4833374 -24170992.976034164 0 -24170992.976034164 437735322.51098633 0 0 0 0 -196332170.77935791 63139279.917485237 0 63139279.917485237 98297783.739643097 0 0 0 0 -38415863.813308716 -164677020.11050797 0 -164677020.11050797 308131101.02277946 0 0 0 0 -51747537.795501709 -23486245.742649078 0 -23486245.742649078 45868308.150641441 0 0 0 0 -3983816.2795543671 -124155298.93445015 0 -124155298.93445015 132875355.06127548 0 0 0 0 5201298.2388305664 -156131133.92753601 0 -156131133.92753601 139547579.88428688 0 0 0 0 -18395194.105667114 -131923371.97827339 0 -131923371.97827339 129046970.26867294 0 0 0 0 -34988011.511367798 -117557094.0602293 0 -117557094.0602293 149089659.30244827 0 0 0 0 -376469531.93374634 130985228.44471169 0 130985228.44471169 59708955.450302124 0 0 0 0 664179.91391564906 636347.71541844681 0 636347.71541844681 -914213.32292240486 0 0 0 0 -307298410.62982178 10580723.392110825 0 10580723.392110825 94493680.001289368 0 0 0 0 -165754734.11638641 23331187.427885532 0 23331187.427885532 49725974.802268982 0 0 0 0 -101175044.74082947 9734849.9550704956 0 9734849.9550704956 3911123.4481735229 0 0 0 0 -168765197.32466125 45392872.032751083 0 45392872.032751083 14465388.103874207 0 0 0 0 -144254711.95851898 57444298.649353027 0 57444298.649353027 -1814540.2037506104 0 0 0 0 -131724147.04805374 14909010.970724106 0 14909010.970724106 5681782.7798995972 0 0 0 0 -70412306.994659424 32272355.28311348 0 32272355.28311348 -5359348.69008255 0 0 0 0 -171816074.54328918 37962218.420585632 0 37962218.420585632 5611390.6331396103 0 0 0 0 -229336340.37855911 64947808.16900444 0 64947808.16900444 4822095.1455535889 0 0 0 0 -228011464.19998169 112197492.10055161 0 112197492.10055161 -21166254.724575043 0 0 0 0 -230652306.72891235 33854359.498844147 0 33854359.498844147 27911448.484363556 0 0 0 0 -126247340.36029053 33538909.209127426 0 33538909.209127426 45751839.924995422 0 0 0 0 -136465919.93351841 -54708993.394954205 0 -54708993.394954205 42714434.124771118 0 0 0 0 -105122810.5506897 -24720908.377559662 0 -24720908.377559662 -15467793.821872711 0 0 0 0 -188145678.04210663 62681565.555276871 0 62681565.555276871 27616711.036079407 0 0 0 0 -29525262.999237061 -17731435.980316162 0 -17731435.980316162 -19213148.832185745 0 0 0 0 -4381250.8175386526 925336.70291613415 0 925336.70291613415 -179126.83425191417 0 0 0 0 -83850670.074056149 15512168.651310861 0 15512168.651310861 134471077.18598175 0 0 0 0 14773652.435379028 313180.55584335327 0 313180.55584335327 -41885558.196517944 0 0 0 0 -21007069.248286746 3719592.545643501 0 3719592.545643501 7137320.4293093048 0 0 0 0 -86371616.948684692 -89025701.365375519 0 -89025701.365375519 -51808505.738897324 0 0 0 0 -27158216.23077856 -5553272.3412910104 0 -5553272.3412910104 11263286.744120851 0 0 0 0 -37557614.892730713 -5029102.9925384521 0 -5029102.9925384521 11854321.564035416 0 0 0 0 -81514040.407714844 -46050785.48723793 0 -46050785.48723793 67671097.861995697 0 0 0 0 -22179135.718221858 -11032126.008868314 0 -11032126.008868314 5229059.7290645633 0 0 0 0 -89786340.779006958 22712351.883672714 0 22712351.883672714 38494078.422115326 0 0 0 0 -16170629.228495404 1350931.138750609 0 1350931.138750609 1245665.7796673924 0 0 0 0 -35258962.358451843 18608665.051898003 0 18608665.051898003 -51119133.634986877 0 0 0 0 -26284928.432348378 -8056835.6261597648 0 -8056835.6261597648 6841671.8934321962 0 0 0 0 -14389303.880477905 -10760992.623775482 0 -10760992.623775482 9808946.8559837341 0 0 0 0 -21400382.446544647 -12472713.154397964 0 -12472713.154397964 15078310.837432861 0 0 0 0 -70252740.504735947 8960145.665047884 0 8960145.665047884 8231788.459274292 0 0 0 0 -20964765.171497345 -11678755.098645687 0 -11678755.098645687 5155273.9128265381 0 0 0 0 -131893882.18681335 117613827.11891174 0 117613827.11891174 -103815483.03136444 0 0 0 0 -188414897.42428589 121097539.32675362 0 121097539.32675362 23657221.698448181 0 0 0 0 -195057337.25143433 91828280.19994545 0 91828280.19994545 22562227.239280701 0 0 0 0 -105961472.04649353 61766728.71156311 0 61766728.71156311 -14802444.507255554 0 0 0 0 -16078795.842422485 -13451419.090221405 0 -13451419.090221405 -12922649.548536301 0 0 0 0 -89852087.187988281 9517032.1777191162 0 9517032.1777191162 17471247.285514832 0 0 0 0 -51910502.684204102 36374570.47760582 0 36374570.47760582 -31795619.652366638 0 0 0 0 -73883466.458007812 33134949.428020477 0 33134949.428020477 -11948626.507786751 0 0 0 0 -59665699.512649536 -44738684.038322449 0 -44738684.038322449 19084475.933671951 0 0 0 0 -25137317.41895698 -8873968.5415838491 0 -8873968.5415838491 6790200.2630910706 0 0 0 0 -13672054.832244873 -7822670.7747821808 0 -7822670.7747821808 14820025.921455383 0 0 0 0 -32447861.852928706 1694528.4307828397 0 1694528.4307828397 8920933.5139796175 0 0 0 0 -22005338.824895024 -15393747.442889858 0 -15393747.442889858 7047591.8693111641 0 0 0 0 -72423733.859588623 -55871921.499458313 0 -55871921.499458313 -102462538.27558136 0 0 0 0 -83140711.919921875 92316907.290447235 0 92316907.290447235 -272919686.89743233 0 0 0 0 -35489828.292028449 -4551410.3322296459 0 -4551410.3322296459 10434697.437600771 0 0 0 0 -11132477.076205753 -7752843.515187161 0 -7752843.515187161 3834998.1656841338 0 0 0 0 -19149967.792312622 -18640567.184139252 0 -18640567.184139252 -111563619.92504358 0 0 0 0 -62042313.53894043 11804153.797607422 0 11804153.797607422 -59699756.969497681 0 0 0 0 -1627893.5324052721 -1429356.0188682675 0 -1429356.0188682675 641650.27871889994 0 0 0 0 -21098352.764745265 -13228422.650955092 0 -13228422.650955092 1554478.5506019499 0 0 0 0 -23832716.428283691 -6389608.9837989807 0 -6389608.9837989807 5101680.6503829956 0 0 0 0 -80006297.598999023 -27567506.062606812 0 -27567506.062606812 -12808409.543190002 0 0 0 0 -21210686.77331543 -8725646.0510158539 0 -8725646.0510158539 21180649.019151688 0 0 0 0 -31815389.698411807 -17090335.887602564 0 -17090335.887602564 3073483.6364907362 0 0 0 0 -26608693.853759766 -9280664.3480262756 0 -9280664.3480262756 7643840.5291862488 0 0 0 0 -38462722.628523797 -10741496.083911221 0 -10741496.083911221 17398885.012239587 0 0 0 0 -21129479.525268555 -9068897.6704978943 0 -9068897.6704978943 22067379.017314911 0 0 0 0 -18969792.551452637 -7710694.1370210648 0 -7710694.1370210648 15198760.857315063 0 0 0 0 -43940287.4233464 -3588010.695283927 0 -3588010.695283927 12198625.840919647 0 0 0 0 -83077117.371292114 -27240807.933622688 0 -27240807.933622688 84597486.739630342 0 0 0 0 -30871843.432159424 -56372458.728874728 0 -56372458.728874728 -53675146.574590102 0 0 0 0 -25336773.372810364 -11876975.739469528 0 -11876975.739469528 3775224.9629669189 0 0 0 0 -28750853.831985474 -7690357.5306949615 0 -7690357.5306949615 2168670.0742559433 0 0 0 0 -19788314.395783275 -23937696.040606041 0 -23937696.040606041 -16204859.668786563 0 0 0 0 -28335464.033079803 -19020013.209562264 0 -19020013.209562264 -8011455.1631893376 0 0 0 0 -44525827.105667114 -7085624.1385631561 0 -7085624.1385631561 12116737.309825897 0 0 0 0 -22384243.137640893 -9933770.1568726599 0 -9933770.1568726599 12717552.64801291 0 0 0 0 -72322465.957931519 -42680040.657806396 0 -42680040.657806396 72160638.372497559 0 0 0 0 -22467693.560272217 -2216542.5289764404 0 -2216542.5289764404 3844476.9549226761 0 0 0 0 -23737918.953090459 -5985147.937034145 0 -5985147.937034145 12218502.760675697 0 0 0 0 -64762.283053808977 -4011860.2327620238 0 -4011860.2327620238 54404.081876270473 0 0 0 0 -22951204.892272949 -7535822.5819473267 0 -7535822.5819473267 13626535.175214767 0 0 0 0 -18492400.568847656 -10718891.363815308 0 -10718891.363815308 15847719.122422218 0 0 0 0 -15018039.225580171 -7590029.8437635005 0 -7590029.8437635005 11320609.510186261 0 0 0 0 -15639123.590045929 -3982759.7568411827 0 -3982759.7568411827 7375766.3297576904 0 0 0 0 -128724908.8588562 -129376358.56812066 0 -129376358.56812066 -3789569.9953932762 0 0 0 0 -124605621.56689453 92266785.669993192 0 92266785.669993192 28848384.151379839 0 0 0 0 -23761285.611606613 -6751778.5931176394 0 -6751778.5931176394 20965240.376603436 0 0 0 0 -13288434.518920898 -10250711.749656677 0 -10250711.749656677 8359199.5353012085 0 0 0 0 -84163702.068786621 35523239.473699376 0 35523239.473699376 106084366.0509654 0 0 0 0 -22481479.467285156 -15120722.667991638 0 -15120722.667991638 3566782.1117401123 0 0 0 0 -21601246.919166084 -13804011.639315173 0 -13804011.639315173 1567053.7853374481 0 0 0 0 -17508140.018022712 -12366231.276610114 0 -12366231.276610114 13267788.693407986 0 0 0 0 -29493779.824621975 -11917571.729863588 0 -11917571.729863588 37000812.729717739 0 0 0 0 -34403927.782358348 4221737.2983712628 0 4221737.2983712628 -30448602.89553833 0 0 0 0 -22640733.81427002 -15346992.237770081 0 -15346992.237770081 3263325.7516784668 0 0 0 0 -15937513.524502814 -15841646.816147275 0 -15841646.816147275 19848652.156003263 0 0 0 0 -161631314.84034729 -19795595.09301804 0 -19795595.09301804 148392094.08695078 0 0 0 0 -19263529.352333289 -9895897.1361574084 0 -9895897.1361574084 44146747.216428265 0 0 0 0 -4379743.4755880721 -10472439.861622408 0 -10472439.861622408 -111245.85766571769 0 0 0 0 97432736.949111938 19912766.876910593 0 19912766.876910593 -21461353.928809285 0 0 0 0 -132207330.11294556 -2549237.2622735202 0 -2549237.2622735202 -62334366.252319291 0 0 0 0 -96627985.567626953 -58976057.378199235 0 -58976057.378199235 188974957.41595104 0 0 0 0 -91488441.837341309 -155487398.55285737 0 -155487398.55285737 -99667992.047814727 0 0 0 0 -184295609.33901978 -125571725.59234206 0 -125571725.59234206 153830910.14949429 0 0 0 0 -176857259.84683228 -82820573.867862195 0 -82820573.867862195 75474284.613026738 0 0 0 0 -187855404.05203247 -175288280.43438759 0 -175288280.43438759 63267283.639923453 0 0 0 0 -185618021.4487915 -54556991.615252852 0 -54556991.615252852 -39634239.247730345 0 0 0 0 -94625953.590667725 -145646474.33651686 0 -145646474.33651686 31520770.473906338 0 0 0 0 -40530178.949005127 -33999575.352572948 0 -33999575.352572948 -2649719.8506196737 0 0 0 0 -61833054.396759033 73617896.276620865 0 73617896.276620865 65994252.581771851 0 0 0 0 -16004731.819247901 -6717594.2415971532 0 -6717594.2415971532 -287850.90500997799 0 0 0 0 -20487442.620717078 -4731410.4223247841 0 -4731410.4223247841 11659721.274103036 0 0 0 0 -98938763.71206665 5651498.0204994678 0 5651498.0204994678 -3242365.8350849152 0 0 0 0 -45301569.19912833 -11840198.851839297 0 -11840198.851839297 10495209.46356461 0 0 0 0 -9234127.2870788574 -15878307.597398758 0 -15878307.597398758 1652359.1288452148 0 0 0 0 -16226140.78059011 -22781165.437533453 0 -22781165.437533453 -3255459.9620287158 0 0 0 0 -32512471.571670532 -22668961.11488267 0 -22668961.11488267 -18009054.535129011 0 0 0 0 -16849613.296031117 -23862526.433130138 0 -23862526.433130138 -16421901.615946222 0 0 0 0 -46432051.006195068 -29874536.123111337 0 -29874536.123111337 2216789.1801050603 0 0 0 0 -42341035.714111328 -26356286.124728858 0 -26356286.124728858 3964850.5445851535 0 0 0 0 -38118765.770935059 -127034067.16687326 0 -127034067.16687326 -119961076.05400762 0 0 0 0 -4825535.1379715353 -12611708.709453713 0 -12611708.709453713 -1996964.2616778349 0 0 0 0 136605200.55969238 -91849139.882286549 0 -91849139.882286549 -7528417.9070460275 0 0 0 0 -41678011.800415039 -33870852.189415425 0 -33870852.189415425 2277936.009256959 0 0 0 0 -86479317.307159424 -39256929.302443027 0 -39256929.302443027 -23512366.947726727 0 0 0 0 -11837932.678283691 3137087.826895237 0 3137087.826895237 -42224410.090469301 0 0 0 0 314312238.06488037 144508708.0874877 0 144508708.0874877 -13952165.405154943 0 0 0 0 -5199314.8926648051 -411624.65080326051 0 -411624.65080326051 2635229.9310502773 0 0 0 0 32324887.89666748 119312022.8760438 0 119312022.8760438 -4995110.8910799026 0 0 0 0 -57980565.969604492 58351896.977958679 0 58351896.977958679 10010851.428983688 0 0 0 0 -6155551.0682983398 75044683.575284958 0 75044683.575284958 -20890134.73210907 0 0 0 0 -27509142.491577148 100666706.35410881 0 100666706.35410881 62890489.95066452 0 0 0 0 -101217143.82342529 117435453.6372633 0 117435453.6372633 163301487.26958275 0 0 0 0 -30595831.869659424 115558887.74652255 0 115558887.74652255 -5049249.1081018448 0 0 0 0 -78541600.165252686 54096403.994669914 0 54096403.994669914 97327329.463277817 0 0 0 0 -197335772.95996094 74398199.163320541 0 74398199.163320541 62034771.039481387 0 0 0 0 38714686.482635498 98284623.842585564 0 98284623.842585564 62422833.861314356 0 0 0 0 -229447339.76797485 -112301612.360919 0 -112301612.360919 194489057.54077053 0 0 0 0 -178425899.87683105 64371517.000453949 0 64371517.000453949 45174380.444963455 0 0 0 0 -495220817.02642822 16390877.769880295 0 16390877.769880295 72768852.684431076 0 0 0 0 -297445940.01254272 179808699.92522335 0 179808699.92522335 114541529.59478521 0 0 0 0 -362404155.24385071 9239355.2749737501 0 9239355.2749737501 12380964.202842712 0 0 0 0 -642933276.61987305 39877857.322270393 0 39877857.322270393 48462642.910550117 0 0 0 0 -692210282.49304199 -162784221.20914555 0 -162784221.20914555 -13573162.921121597 0 0 0 0 -723111946.42370605 -102490985.61684513 0 -102490985.61684513 71132435.482172012 0 0 0 0 -709251424.70196533 -151257394.25342178 0 -151257394.25342178 160362342.64601803 0 0 0 0 -805111977.06997681 -219533440.7934103 0 -219533440.7934103 160172629.24533653 0 0 0 0 -566800232.18609619 -313279161.91756916 0 -313279161.91756916 -4011327.2754936218 0 0 0 0 -563740384.35626221 -132413356.37794685 0 -132413356.37794685 102509965.93212128 0 0 0 0 -484450812.40319824 -139034953.67219734 0 -139034953.67219734 51812123.692325592 0 0 0 0 -821085207.41047096 -473578928.53678346 0 -473578928.53678346 55247816.402931213 0 0 0 0 355952017.86791992 -5212802.0221939087 0 -5212802.0221939087 -92854823.700820923 0 0 0 0 -1248628.3124083579 1834594.0404486209 0 1834594.0404486209 835112.07911900524 0 0 0 0 123972675.45391846 -39192808.033780098 0 -39192808.033780098 12678205.810437202 0 0 0 0 84441400.053161621 -38068632.959210396 0 -38068632.959210396 24155909.008644581 0 0 0 0 148042797.83630371 -38600028.622529984 0 -38600028.622529984 8787684.2069625854 0 0 0 0 218812726.81463623 49971743.620323181 0 49971743.620323181 10096002.763809204 0 0 0 0 128776392.96392822 42421690.880417824 0 42421690.880417824 52300201.15562921 0 0 0 0 243742316.26483154 -48828751.786541343 0 -48828751.786541343 -27185477.527458191 0 0 0 0 153401911.89123535 -103842098.95398998 0 -103842098.95398998 -34644866.410030365 0 0 0 0 299386407.72566223 -165672482.00999451 0 -165672482.00999451 -161739920.72185516 0 0 0 0 166024356.45587158 -98289282.313480377 0 -98289282.313480377 -35848249.445783615 0 0 0 0 289654474.75744629 -130723483.64167213 0 -130723483.64167213 -72098974.656448364 0 0 0 0 -492185626.98181152 -541966172.35991669 0 -541966172.35991669 -241083372.82209396 0 0 0 0 -155599770.7769165 -373465017.67129707 0 -373465017.67129707 -426592345.54064846 0 0 0 0 -393435456.78326416 -146765640.72424889 0 -146765640.72424889 47745457.347923279 0 0 0 0 -346142738.8972168 -18398747.657072067 0 -18398747.657072067 132789865.97563171 0 0 0 0 -332456321.5526123 -220573073.53661537 0 -220573073.53661537 -123720302.82472992 0 0 0 0 -546260224.21203613 -259241599.65034294 0 -259241599.65034294 52820572.66992569 0 0 0 0 -333578739.12857056 -157309810.17861414 0 -157309810.17861414 -6500161.4776954651 0 0 0 0 -220777966.70126343 98082581.43655777 0 98082581.43655777 57951104.152454376 0 0 0 0 -70861612.445600241 -17420032.258811697 0 -17420032.258811697 6505778.7286365051 0 0 0 0 -303326690.60513306 121690818.31482124 0 121690818.31482124 370940306.99385929 0 0 0 0 -24812353.067626953 106280670.30098152 0 106280670.30098152 -49787651.916697025 0 0 0 0 -38245489.530578613 8436523.5822238922 0 8436523.5822238922 -29799948.464935303 0 0 0 0 -75732802.302604675 -172992110.86805201 0 -172992110.86805201 77721795.398655891 0 0 0 0 32700662.782592773 -117641343.65087509 0 -117641343.65087509 -270671820.4495697 0 0 0 0 -5140157.9516067505 -43430176.575366974 0 -43430176.575366974 -129604134.79942703 0 0 0 0 -9056082.1403408051 11511263.478544235 0 11511263.478544235 -83012566.080841064 0 0 0 0 -10296881.42193985 -693673.35870981216 0 -693673.35870981216 -201601984.64118576 0 0 0 0 -161380273.56222534 -133871760.44154358 0 -133871760.44154358 -68944217.508956909 0 0 0 0 -165777507.65576172 -34339642.41034317 0 -34339642.41034317 -226191771.13876343 0 0 0 0 -194771659.61917114 -90847990.745201111 0 -90847990.745201111 -41899709.450286865 0 0 0 0 -13127258.795184046 -19423323.175253082 0 -19423323.175253082 -9210332.5160960108 0 0 0 0 -176487616.36624146 -93447603.830871582 0 -93447603.830871582 -69914142.93970871 0 0 0 0 -173696205.16622925 -86208148.833908081 0 -86208148.833908081 -66124346.133415222 0 0 0 0 -178233913.60912323 -61095085.441875458 0 -61095085.441875458 31585960.826705933 0 0 0 0 -224852424.25598145 -82128437.756603241 0 -82128437.756603241 99730174.294513702 0 0 0 0 -209565390.56996155 -122558939.87508774 0 -122558939.87508774 62035604.119949341 0 0 0 0 -72412126.942776442 -21823562.899792645 0 -21823562.899792645 7137523.9854098391 0 0 0 0 -967266889.62504578 -465869121.2046299 0 -465869121.2046299 -400002969.13124084 0 0 0 0 -1221378393.1023254 -228868379.41524124 0 -228868379.41524124 26861304.598187208 0 0 0 0 -1899899014.4312592 -229711451.23800659 0 -229711451.23800659 276198675.66079712 0 0 0 0 -1406962830.544281 -473565847.9169693 0 -473565847.9169693 -238363375.12953186 0 0 0 0 -1402020036.273407 -414399622.05872726 0 -414399622.05872726 -235868880.51516724 0 0 0 0 -2230468788.4323425 -1260315840.1943569 0 -1260315840.1943569 -1052657959.9514389 0 0 0 0 -683340502.43521118 -172719026.99559021 0 -172719026.99559021 -363338283.76768541 0 0 0 0 -1038094602.3619843 -665569860.23127937 0 -665569860.23127937 -1031906020.2085724 0 0 0 0 -840928576.08250427 307241208.22944641 0 307241208.22944641 -938738394.54544067 0 0 0 0 -676155400.19818115 -10139086.649177551 0 -10139086.649177551 -333675340.62365723 0 0 0 0 -1354958967.3092041 -179075325.99944115 0 -179075325.99944115 -321802481.8611002 0 0 0 0 -977052049.28913116 353619805.60747051 0 353619805.60747051 -501438740.78235245 0 0 0 0 -1914004082.2676086 775367645.2881012 0 775367645.2881012 -1951297637.8023834 0 0 0 0 -456944751.27919006 -1107001654.9333839 0 -1107001654.9333839 -1925262581.8857956 0 0 0 0 -4592793.9643795341 -2223585.2437519561 0 -2223585.2437519561 -987857.39411662985 0 0 0 0 -2632954934.32407 -824954055.84875584 0 -824954055.84875584 -278010914.8120575 0 0 0 0 -156522425.48109436 -268595713.95131779 0 -268595713.95131779 -350293617.33728027 0 0 0 0 -49300333.94519043 -88775291.822292328 0 -88775291.822292328 -260812513.45285797 0 0 0 0 -1168998422.1972046 960189348.09367752 0 960189348.09367752 -488327825.85684872 0 0 0 0 -2895348508.374424 17090533.753531933 0 17090533.753531933 162825709.35508728 0 0 0 0 -1355410749.716217 280547231.89279175 0 280547231.89279175 184655985.7808814 0 0 0 0 -430026994.42086792 303894359.5956192 0 303894359.5956192 -253061525.51389313 0 0 0 0 -1138557583.7184601 36272711.746408463 0 36272711.746408463 104251963.86632919 0 0 0 0 -72064736.829498291 41291091.802021027 0 41291091.802021027 -58980981.769294739 0 0 0 0 -129075062.95361328 -23071237.800151825 0 -23071237.800151825 -74425242.876558304 0 0 0 0 -198125838.88162231 155279114.15641785 0 155279114.15641785 -120065200.35845184 0 0 0 0 129362287.57125854 -32430298.368656158 0 -32430298.368656158 -62353341.847045898 0 0 0 0 -117650331.82266235 15651680.558349609 0 15651680.558349609 89461207.436065674 0 0 0 0 -20582424.296447754 28265275.505111694 0 28265275.505111694 28819876.00718689 0 0 0 0 -5686578.4220560789 6028273.2861822844 0 6028273.2861822844 -5810398.1869703457 0 0 0 0 121610960.14553547 55466576.065837383 0 55466576.065837383 -22552226.381584167 0 0 0 0 -21780166.483116478 2708540.0729894582 0 2708540.0729894582 41239.255762545392 0 0 0 0 65883864.755432129 -24635855.586730957 0 -24635855.586730957 -2771367.6000061035 0 0 0 0 14920892.298828125 -16692187.696933746 0 -16692187.696933746 31352418.337982178 0 0 0 0 -173324554.65585327 -61150190.863529205 0 -61150190.863529205 146402482.10341167 0 0 0 0 63440651.266090393 -41035662.808073044 0 -41035662.808073044 -91030664.14012146 0 0 0 0 -13073314.614139989 -3468260.6161496891 0 -3468260.6161496891 -1575367.6838788297 0 0 0 0 -227335009.13800049 -299056573.19141388 0 -299056573.19141388 -250787233.59749317 0 0 0 0 -292361820.11462784 -398017700.43841743 0 -398017700.43841743 -39373659.7813797 0 0 0 0 -233157126.60095215 -584600627.79802322 0 -584600627.79802322 -653575445.5261898 0 0 0 0 -311817628.48245239 -305907762.80247116 0 -305907762.80247116 -148320864.4434433 0 0 0 0 -276983773.84811401 -265909104.03840256 0 -265909104.03840256 -37621721.199821472 0 0 0 0 -175649667.9503479 -47604722.397857666 0 -47604722.397857666 107047766.62648773 0 0 0 0 -45666566.24710083 24248075.774620056 0 24248075.774620056 96330602.787555695 0 0 0 0 4964569.7092056274 -36059044.110172272 0 -36059044.110172272 -63475961.799491882 0 0 0 0 -209063949.25917053 -59746062.867038727 0 -59746062.867038727 205815462.20500946 0 0 0 0 -179259475.21458435 36969542.038246155 0 36969542.038246155 101730135.10642242 0 0 0 0 -23134531.049591064 32981200.459838867 0 32981200.459838867 27168036.868877411 0 0 0 0 -37053197.293777466 46154522.229467392 0 46154522.229467392 -17779639.30821228 0 0 0 0 -27896027.79136835 18877157.106167085 0 18877157.106167085 -3336969.2478368543 0 0 0 0 88707606.626693726 207865920.52468872 0 207865920.52468872 280757647.98384857 0 0 0 0 -4638233.5197061747 3648311.7428645054 0 3648311.7428645054 2904080.6842722632 0 0 0 0 53085853.007751465 69323910.54511261 0 69323910.54511261 -27684517.700569153 0 0 0 0 7931185.0101623535 126220966.25219345 0 126220966.25219345 135902334.05104828 0 0 0 0 -162145963.23471069 -173611159.90086365 0 -173611159.90086365 172884345.37697601 0 0 0 0 -34082195.074249268 -29900634.679351807 0 -29900634.679351807 91886693.561935425 0 0 0 0 -7562818.6074079871 2127783.4652465731 0 2127783.4652465731 3103360.9541741833 0 0 0 0 -135843183.04131317 204113672.16759014 0 204113672.16759014 398956949.47985077 0 0 0 0 -330656088.52113724 -64705696.386180878 0 -64705696.386180878 242582460.86077881 0 0 0 0 -108859674.15013123 68019916.02337265 0 68019916.02337265 74799414.870735168 0 0 0 0 -109790279.0291748 60649763.062511444 0 60649763.062511444 411291232.49791718 0 0 0 0 -248477118.10676575 328279397.43663979 0 328279397.43663979 59895091.590583801 0 0 0 0 -34548923.254547119 17018522.045612335 0 17018522.045612335 -2202466.7897186279 0 0 0 0 -66834017.250549316 -14426152.148368835 0 -14426152.148368835 10117676.154129028 0 0 0 0 -35471665.642694503 -15252086.488550795 0 -15252086.488550795 8560019.5696360301 0 0 0 0 -46564711.189926147 -94071583.232622147 0 -94071583.232622147 69621405.728004456 0 0 0 0 -47532041.057067871 -8555374.1606292725 0 -8555374.1606292725 -17719768.302642822 0 0 0 0 -72722978.236572266 11544314.763557434 0 11544314.763557434 4756446.0305023193 0 0 0 0 -74027460.003417969 14701512.778297424 0 14701512.778297424 518966.09619903564 0 0 0 0 -72643330.772033691 18578391.482788086 0 18578391.482788086 -18676306.323013306 0 0 0 0 -97005039.285644531 25714432.475326538 0 25714432.475326538 9444965.369354248 0 0 0 0 -89199122.284484863 35357313.181915283 0 35357313.181915283 -33269537.970153809 0 0 0 0 -1559350.6461218148 4695913.8608238064 0 4695913.8608238064 417921.23146125861 0 0 0 0 -71335984.977539062 -29001675.06060791 0 -29001675.06060791 -16806322.854850769 0 0 0 0 -35373801.789855957 -10640806.721504211 0 -10640806.721504211 -35776005.279510498 0 0 0 0 -54129390.497558594 51558174.553203583 0 51558174.553203583 -10992594.863891602 0 0 0 0 -29561400.37259445 14166347.911500759 0 14166347.911500759 -1211026.894070819 0 0 0 0 -148030654.79180908 -23212216.672714233 0 -23212216.672714233 5391744.5541687012 0 0 0 0 2152720.9845674038 211376.75276488811 0 211376.75276488811 -1488648.4618066251 0 0 0 0 -126925667.38415527 18903904.002281189 0 18903904.002281189 -738403.60311889648 0 0 0 0 -108754002.63665771 -20496231.624069214 0 -20496231.624069214 -11166083.264678955 0 0 0 0 -71806251.127746582 -422032.03312683105 0 -422032.03312683105 -29802352.890670776 0 0 0 0 -84597556.727539062 11073037.633911133 0 11073037.633911133 -3453643.1083679199 0 0 0 0 -92103987.901794434 27008993.532554626 0 27008993.532554626 -22028740.162353516 0 0 0 0 -91993438.929916382 13914121.650562286 0 13914121.650562286 -2247638.5921630859 0 0 0 0 -88898080.932800293 22406454.143089294 0 22406454.143089294 11227954.809783936 0 0 0 0 -89632314.933624268 23059631.813343048 0 23059631.813343048 45039721.499008179 0 0 0 0 -34210451.277288437 57651122.247104645 0 57651122.247104645 24688983.952758789 0 0 0 0 -18018167.385153413 7482173.2744610533 0 7482173.2744610533 2264063.8307852969 0 0 0 0 -88822717.292602539 11627499.479560852 0 11627499.479560852 24858257.155265808 0 0 0 0 -85527381.289672852 23949448.905334473 0 23949448.905334473 23916678.403503418 0 0 0 0 -79845326.760253906 12756002.839324951 0 12756002.839324951 28599278.892074585 0 0 0 0 -31087196.356719971 13631411.981330872 0 13631411.981330872 8327676.1226959229 0 0 0 0 -64896126.516601562 -15884063.569534302 0 -15884063.569534302 3090674.7767105103 0 0 0 0 -67869865.346862793 29778306.247756958 0 29778306.247756958 43127322.82522583 0 0 0 0 -80307411.994049072 80453680.564048767 0 80453680.564048767 39693326.096099854 0 0 0 0 -80705391.306365967 27802516.266403198 0 27802516.266403198 43728586.682159424 0 0 0 0 -68453547.122009277 44158174.150787354 0 44158174.150787354 63814959.562957764 0 0 0 0 -103633983.68939209 12858316.968254089 0 12858316.968254089 75169149.40245147 0 0 0 0 -92075569.609481812 16305339.964736938 0 16305339.964736938 46728913.052856445 0 0 0 0 -88161264.206298828 26147005.865737915 0 26147005.865737915 67179432.687591553 0 0 0 0 -82371119.834533691 -1065972.1447067261 0 -1065972.1447067261 33058780.438388824 0 0 0 0 -104126107.47572708 738872.00184559822 0 738872.00184559822 66857660.295349121 0 0 0 0 -81704914.896789551 876968.75270080566 0 876968.75270080566 2620634.6090240479 0 0 0 0 -86049643.657897949 20508205.68535614 0 20508205.68535614 11587473.394573212 0 0 0 0 -84718187.621917725 16768916.306911469 0 16768916.306911469 21621173.398071289 0 0 0 0 -134284397.58624268 -13825121.229690552 0 -13825121.229690552 89618176.622924805 0 0 0 0 -171491847.70739746 -15781130.694519043 0 -15781130.694519043 95680079.778709412 0 0 0 0 -142447549.97171021 -43664783.022247314 0 -43664783.022247314 43146533.863311768 0 0 0 0 -81751796.914886266 -33185337.875363033 0 -33185337.875363033 12530291.879089355 0 0 0 0 -129763949.11724854 -17830902.237609863 0 -17830902.237609863 89169608.607002258 0 0 0 0 -120122962.81188965 -42352182.506759644 0 -42352182.506759644 102606926.71956635 0 0 0 0 -67320325.43208313 -44457290.389276505 0 -44457290.389276505 39128858.655227661 0 0 0 0 -131196807.86112976 -14971858.219945908 0 -14971858.219945908 86032080.211639404 0 0 0 0 -115365493.77368164 -7922190.7954406738 0 -7922190.7954406738 66035088.187142372 0 0 0 0 -117868361.61920166 3924961.8556518555 0 3924961.8556518555 75172804.08531478 0 0 0 0 -119892718.91741943 9832821.7139892578 0 9832821.7139892578 90299473.989303589 0 0 0 0 -119928438.265625 12100665.313407898 0 12100665.313407898 136245769.35990906 0 0 0 0 -100473844.99032593 97899400.518482208 0 97899400.518482208 27624707.544815063 0 0 0 0 -105066775.47155762 48565309.048782349 0 48565309.048782349 84082604.576881409 0 0 0 0 -116714050.76184082 71230601.509658813 0 71230601.509658813 50127223.501472473 0 0 0 0 -102945018.52566528 -5337342.517906189 0 -5337342.517906189 75339074.980834961 0 0 0 0 -96475664.910766602 -20424594.263748169 0 -20424594.263748169 97651591.559135437 0 0 0 0 -138382743.10839844 -5220563.0963134766 0 -5220563.0963134766 106358793.07899475 0 0 0 0 -142412936.54553223 32405767.615680695 0 32405767.615680695 96423889.048347473 0 0 0 0 -129693628.01147461 6794713.9197540283 0 6794713.9197540283 72527046.749465942 0 0 0 0 -58661040.00479126 21022171.907188416 0 21022171.907188416 48994742.159103394 0 0 0 0 -233430911.11071777 -42300988.017967224 0 -42300988.017967224 71784200.02104187 0 0 0 0 -589054845.26376343 -457296692.49975586 0 -457296692.49975586 -106883494.30399704 0 0 0 0 -195142618.35705566 -114998686.92778778 0 -114998686.92778778 -15403749.296600342 0 0 0 0 -153422677.0128479 -55674117.815925598 0 -55674117.815925598 52588635.019989014 0 0 0 0 -104224531.02935791 -74221854.372024536 0 -74221854.372024536 -55905864.523239136 0 0 0 0 -4796440.428290695 -361744.35996569693 0 -361744.35996569693 9421544.4095966406 0 0 0 0 -16994100.355883688 17417200.818788286 0 17417200.818788286 46199506.961364746 0 0 0 0 -142656771.65881348 -126826570.02610779 0 -126826570.02610779 -64667487.594146729 0 0 0 0 -21537908.402456045 6184250.5127316117 0 6184250.5127316117 12406969.863054786 0 0 0 0 -88372469.304504395 8231664.5802383423 0 8231664.5802383423 136257463.53160095 0 0 0 0 22020430.600708008 -14862448.004745483 0 -14862448.004745483 42838794.767292976 0 0 0 0 -73896325.597155571 6734152.7005196586 0 6734152.7005196586 102378239.59460449 0 0 0 0 -76555343.529815674 -33138389.911468506 0 -33138389.911468506 125149684.23208618 0 0 0 0 -65361384.609924316 -2827770.4734077454 0 -2827770.4734077454 50104766.978530884 0 0 0 0 -117424487.79632568 64101815.8620224 0 64101815.8620224 86218746.205795288 0 0 0 0 -322824202.44265747 458271060.68815994 0 458271060.68815994 455519577.4648819 0 0 0 0 -327019409.2366333 306147713.63996124 0 306147713.63996124 -129285915.89706421 0 0 0 0 49152302.610778809 47489949.543395996 0 47489949.543395996 -23373420.0727005 0 0 0 0 -577721989.46612549 -299615153.25521088 0 -299615153.25521088 -486385071.26235962 0 0 0 0 -1493511.13110587 -85262.590463869274 0 -85262.590463869274 2872037.7667462602 0 0 0 0 -224053269.75942993 193453732.860569 0 193453732.860569 5456382.7577819824 0 0 0 0 -349030716.44316864 275037359.36557007 0 275037359.36557007 73809957.634735107 0 0 0 0 1003179604.7633362 856085573.28123856 0 856085573.28123856 8203875.4358901978 0 0 0 0 -460648686.8894043 -413547987.66673279 0 -413547987.66673279 -388858105.32094574 0 0 0 0 -683298156.27328491 -1093779145.1568985 0 -1093779145.1568985 -451509057.43038249 0 0 0 0 -2996572.1943764985 267416.54630050808 0 267416.54630050808 5813126.5930579007 0 0 0 0 -121180745.71509171 862358982.07637215 0 862358982.07637215 908185057.60121155 0 0 0 0 -2652042310.5467224 -349807097.73170471 0 -349807097.73170471 1665134607.4989929 0 0 0 0 -4515303.0901238322 3825319.3872580603 0 3825319.3872580603 803643.04674916714 0 0 0 0 -62226427.875549316 286428807.27589798 0 286428807.27589798 -533907861.17362213 0 0 0 0 -377650797.9899292 807224407.42188263 0 807224407.42188263 -361362555.93436432 0 0 0 0 628693071.2902832 362794647.08905363 0 362794647.08905363 -138087614.26465607 0 0 0 0 -116652301.60784912 -1021236793.7217598 0 -1021236793.7217598 -718290187.29683685 0 0 0 0 733691348.01387787 956027623.00746059 0 956027623.00746059 821419530.71429443 0 0 0 0 1643996287.3178101 631257540.65015411 0 631257540.65015411 -2280956424.3290253 0 0 0 0 -4240176.8420644104 8898181.5197535083 0 8898181.5197535083 -12199129.195519462 0 0 0 0 -106096803.90838623 74566856.972267151 0 74566856.972267151 71394199.466590881 0 0 0 0 -2966514.5545635223 -19548340.728491545 0 -19548340.728491545 -16182329.145019531 0 0 0 0 -157458120.61711121 268108102.92705822 0 268108102.92705822 438473280.4699707 0 0 0 0 257221303.66564941 -133545168.07642365 0 -133545168.07642365 181307043.22868347 0 0 0 0 2681477.3191992342 597722.92421922088 0 597722.92421922088 -952946.06937081739 0 0 0 0 61925650.460723877 4280451.8591918945 0 4280451.8591918945 -43911134.910247803 0 0 0 0 -13452689.06375885 -19835973.329721451 0 -19835973.329721451 -3066998.5886993408 0 0 0 0 -13978213.502711989 7796022.4264906123 0 7796022.4264906123 -1792083.2764286734 0 0 0 0 -58713769.539123535 224226272.9344902 0 224226272.9344902 12175317.154190063 0 0 0 0 -5425723.5401849747 4853850.8361926898 0 4853850.8361926898 -4038394.6735125333 0 0 0 0 -7537208.7131500244 38457492.561189651 0 38457492.561189651 21848463.600845337 0 0 0 0 -22716492.722755432 -890460.67135620117 0 -890460.67135620117 -80463450.528961182 0 0 0 0 -575127718.78704739 8447777.0322021842 0 8447777.0322021842 70788540.024208069 0 0 0 0 -331366818.47981262 -127876527.58564758 0 -127876527.58564758 56709267.892936707 0 0 0 0 -1083247449.5136414 -8269934.4895706177 0 -8269934.4895706177 128908200.68186188 0 0 0 0 -577635255.13156128 69162929.456943512 0 69162929.456943512 25622068.304298401 0 0 0 0 -1337015331.2351837 -186945873.18111229 0 -186945873.18111229 183475488.92251587 0 0 0 0 -1410957655.6577911 -418101944.54084778 0 -418101944.54084778 -60285402.602859497 0 0 0 0 -890278303.36958313 -133149500.83631134 0 -133149500.83631134 61877519.078397751 0 0 0 0 3423457.042339325 29443647.082987547 0 29443647.082987547 38514693.239936829 0 0 0 0 -878988590.62158203 -88002150.445388794 0 -88002150.445388794 95150952.532574654 0 0 0 0 -4241704.8023249656 3182690.3405974284 0 3182690.3405974284 -2319481.4538887292 0 0 0 0 8001497.2784729004 -47865678.800693512 0 -47865678.800693512 -23302451.254573822 0 0 0 0 -1128137.264099136 5203423.5476227552 0 5203423.5476227552 -9403861.9902450889 0 0 0 0 -55073164.519042969 29301358.854793549 0 29301358.854793549 -67190978.662288666 0 0 0 0 -2233000089.2886963 -12253517.034210205 0 -12253517.034210205 142991315.75386429 0 0 0 0 -34734429.76451683 137899870.28729558 0 137899870.28729558 -189116382.86763763 0 0 0 0 -2642971250.9171143 -651246958.48467827 0 -651246958.48467827 -5028423.3547744751 0 0 0 0 -1763799.7366737276 1075688.5988507569 0 1075688.5988507569 -711359.93346454948 0 0 0 0 25460115.35552597 63198714.242373943 0 63198714.242373943 -151752825.24941254 0 0 0 0 -1245293522.4168243 -181388990.61593628 0 -181388990.61593628 13189912.298583984 0 0 0 0 -1802681615.9341431 -469895282.16476822 0 -469895282.16476822 -166588875.01872826 0 0 0 0 -1551887695.7217712 263474303.14851189 0 263474303.14851189 -502312297.6906662 0 0 0 0 -934663741.90818787 -6108618.1983146667 0 -6108618.1983146667 -35714104.48743248 0 0 0 0 -1220524433.8979187 136519624.82184601 0 136519624.82184601 -114527103.31936646 0 0 0 0 -1110818992.3048096 34979765.773387909 0 34979765.773387909 92692209.000999689 0 0 0 0 -1010776680.934845 -127168818.94288254 0 -127168818.94288254 102777514.37584686 0 0 0 0 -1429997564.8708496 -51837317.442378998 0 -51837317.442378998 281530978.04632759 0 0 0 0 -1735556930.9338531 16188346.100032806 0 16188346.100032806 266465066.7421875 0 0 0 0 -1471820215.3508606 -87052091.330860138 0 -87052091.330860138 319673091.05479813 0 0 0 0 -1448392109.6952057 -59423757.334968567 0 -59423757.334968567 284041645.62588501 0 0 0 0 -1126292284.228241 -274314173.19043732 0 -274314173.19043732 22910117.490644455 0 0 0 0 -1497779642.1882477 -173065084.23257732 0 -173065084.23257732 228438383.91760254 0 0 0 0 -1100370723.7363586 -148852731.94781113 0 -148852731.94781113 54581557.301956177 0 0 0 0 -1343921420.9902496 -118723594.63053131 0 -118723594.63053131 228822851.39214325 0 0 0 0 -2432240169.4389648 975677840.20180321 0 975677840.20180321 76125580.078632355 0 0 0 0 -1644358081.8655701 906423502.87292576 0 906423502.87292576 -281773912.28243637 0 0 0 0 -557657651.20706177 262386078.98690033 0 262386078.98690033 110470308.6888237 0 0 0 0 -1827337337.9910889 101529444.68399811 0 101529444.68399811 284716622.09595108 0 0 0 0 -823329490.71675873 -168581902.11179733 0 -168581902.11179733 -55638359.007305145 0 0 0 0 -22519359.750648364 -556219.41093939636 0 -556219.41093939636 6405212.766476661 0 0 0 0 -727478034.0173254 -253374251.23634362 0 -253374251.23634362 576377701.76900864 0 0 0 0 -2775037898.6511536 1984994700.2152586 0 1984994700.2152586 -841092241.45940399 0 0 0 0 -599571180.97912598 888871451.28476334 0 888871451.28476334 -337007894.15951157 0 0 0 0 -427862528.24150085 -1963534987.5082722 0 -1963534987.5082722 662131744.17576981 0 0 0 0 -9627816.360066548 337460.44827961642 0 337460.44827961642 2632841.2637077998 0 0 0 0 -900908437.9944458 -744206466.91711426 0 -744206466.91711426 501642294.79765511 0 0 0 0 -2096629656.9429674 -1195670912.0676985 0 -1195670912.0676985 400538539.58784485 0 0 0 0 -1069849062.2736359 -183856332.00683975 0 -183856332.00683975 -255203372.04922485 0 0 0 0 -1759183624.3718872 6801553.1675605774 0 6801553.1675605774 -233755335.52255249 0 0 0 0 530119542.07387543 -208150015.36030102 0 -208150015.36030102 -423566804.50009918 0 0 0 0 -539950208.30659485 1000393277.4233284 0 1000393277.4233284 540423686.73790359 0 0 0 0 -1408309959.4654846 -919727387.16501045 0 -919727387.16501045 2278183830.6555672 0 0 0 0 104762.1457618624 1713251.2264164016 0 1713251.2264164016 -3978000.6972542293 0 0 0 0 -1840867617.5974426 44095873.766044617 0 44095873.766044617 97592403.703935623 0 0 0 0 374014082.14108276 32889346.536724091 0 32889346.536724091 -49624305.408713341 0 0 0 0 168604213.27458191 -83386898.986427307 0 -83386898.986427307 113319000.29634094 0 0 0 0 469743342.97369385 448074812.42034912 0 448074812.42034912 413854175.07750702 0 0 0 0 292972800.0020752 781745810.71998215 0 781745810.71998215 -152338540.528862 0 0 0 0 -27156576.576519534 -2334113.4405225478 0 -2334113.4405225478 9231562.5815244727 0 0 0 0 -22755348.364425659 378822230.55398941 0 378822230.55398941 1199377504.4592438 0 0 0 0 214830269.72210693 -329617089.26405907 0 -329617089.26405907 -117620440.89296341 0 0 0 0 -810630582.78521729 -125129443.7371273 0 -125129443.7371273 -19387789.047935486 0 0 0 0 -4226872.5705824047 -10548535.346998379 0 -10548535.346998379 4718681.6338560907 0 0 0 0 193341489.82510757 -354674058.48406315 0 -354674058.48406315 232445508.15703583 0 0 0 0 633569935.68786621 -142422361.40610504 0 -142422361.40610504 -90897075.981363297 0 0 0 0 -131500376.33838654 -256973705.56970215 0 -256973705.56970215 -82520625.036592484 0 0 0 0 -16495775.355251923 -2134591.7997450083 0 -2134591.7997450083 6381636.1477084626 0 0 0 0 -2154211.779296875 -51615433.792366982 0 -51615433.792366982 -292935232.91333675 0 0 0 0 -297212093.6842041 -670158654.85589409 0 -670158654.85589409 -1654818373.7618074 0 0 0 0 -6346126.9369302988 38826.667984196916 0 38826.667984196916 2425178.2690165807 0 0 0 0 -431344312.41220093 288126245.55380225 0 288126245.55380225 -88325603.489685059 0 0 0 0 -378260561.97857666 110305530.49737358 0 110305530.49737358 -27442761.806756973 0 0 0 0 236466626.56079102 464763866.96383095 0 464763866.96383095 413221807.44288635 0 0 0 0 -3482785.2320076227 -8363367.6164727882 0 -8363367.6164727882 1883024.3931205682 0 0 0 0 -297634553.75238037 75852828.071475983 0 75852828.071475983 -12759756.477586746 0 0 0 0 1036870867.9344025 1015617057.9147415 0 1015617057.9147415 759121287.50009155 0 0 0 0 213737.40059813857 -3813671.8360600621 0 -3813671.8360600621 -388632.20529299602 0 0 0 0 249757184.71853638 -117377499.21688843 0 -117377499.21688843 1176558086.6651459 0 0 0 0 -655137522.57363892 934182593.42174149 0 934182593.42174149 485591813.81971741 0 0 0 0 -815343888.65551758 273486000.66265869 0 273486000.66265869 1437943000.5752563 0 0 0 0 -760968516.63104248 -405174691.85302353 0 -405174691.85302353 613202968.11891937 0 0 0 0 -621059802.96815491 -136229891.03255653 0 -136229891.03255653 478754366.34608078 0 0 0 0 -708327401.11149597 49508837.619960785 0 49508837.619960785 130161100.61562729 0 0 0 0 -667355754.22912598 -150438142.20980453 0 -150438142.20980453 497357032.91636682 0 0 0 0 -493025164.08456421 23181630.428180695 0 23181630.428180695 483622945.82288933 0 0 0 0 -787458028.44858551 270863678.76926994 0 270863678.76926994 432569965.73736572 0 0 0 0 -365829196.13572693 32872346.870922089 0 32872346.870922089 142058553.96736908 0 0 0 0 -46017195.354827881 -204173304.95106506 0 -204173304.95106506 175019488.02413177 0 0 0 0 -570378880.13995361 -281900920.33748245 0 -281900920.33748245 166094197.23478699 0 0 0 0 664094405.96450806 -537225591.30997944 0 -537225591.30997944 84839875.765415192 0 0 0 0 -654428236.0217514 -883158729.14466429 0 -883158729.14466429 339573618.57217216 0 0 0 0 -1524109834.7402649 312014987.01907349 0 312014987.01907349 285120779.77210045 0 0 0 0 -2095595420.2032814 -716155011.19366133 0 -716155011.19366133 347645807.27719498 0 0 0 0 -1727098009.4550476 1045561066.0290928 0 1045561066.0290928 -510329721.11153412 0 0 0 0 1864056964.7046509 -231860791.22871399 0 -231860791.22871399 -1620597726.8157773 0 0 0 0 -1357059332.3922195 812956817.43591082 0 812956817.43591082 233175850.55395603 0 0 0 0 -2218810515.0695114 -1093195413.4947727 0 -1093195413.4947727 71766672.030012131 0 0 0 0 -933646611.00527954 -319763381.50810909 0 -319763381.50810909 526520327.27314472 0 0 0 0 -502409565.50230026 -255391460.53852218 0 -255391460.53852218 402603119.25462914 0 0 0 0 1474817634.6931458 501188377.28540647 0 501188377.28540647 -30758125.446172476 0 0 0 0 822737437.66824341 141925268.07294834 0 141925268.07294834 247514331.12154603 0 0 0 0 -536032867.05639267 -157112539.9376933 0 -157112539.9376933 468212342.52832222 0 0 0 0 766836572.88807678 -687942744.74742818 0 -687942744.74742818 928619.79032644397 0 0 0 0 1668217363.4980164 -279178910.68379682 0 -279178910.68379682 -231808100.29654318 0 0 0 0 -566524889.1410675 -878673595.32171571 0 -878673595.32171571 -1752096.2455656147 0 0 0 0 -226626422.84237671 -98228355.120510697 0 -98228355.120510697 428896910.82967401 0 0 0 0 -807879671.49456787 -408264274.79960346 0 -408264274.79960346 509819789.36130655 0 0 0 0 -1192657446.4760742 683109371.64869356 0 683109371.64869356 -261681373.35302615 0 0 0 0 -2874422.3513498753 -22132.980206504464 0 -22132.980206504464 1539553.3032740247 0 0 0 0 -1760176032.8486633 -145886823.63514659 0 -145886823.63514659 568350655.85764921 0 0 0 0 -2385448.319152832 -1185831.0597685822 0 -1185831.0597685822 4389.3529438695359 0 0 0 0 -2833738.9128265381 -995698.94097626663 0 -995698.94097626663 1042596.6821319994 0 0 0 0 -245916765.43362427 40545701.972009182 0 40545701.972009182 125413431.16454506 0 0 0 0 -558325032.92050171 -10602751.303982735 0 -10602751.303982735 119841052.74749184 0 0 0 0 -231237310.06858826 -233477647.70220137 0 -233477647.70220137 -33809074.741325378 0 0 0 0 -850768676.39784241 -346698166.74459004 0 -346698166.74459004 436040494.94684792 0 0 0 0 -1002541164.7889099 -596216901.15487385 0 -596216901.15487385 302409309.28447008 0 0 0 0 -105456260.80838776 -106360283.22207952 0 -106360283.22207952 -105499637.50261784 0 0 0 0 -140708921.4515686 -685807511.35537004 0 -685807511.35537004 -415369087.31168747 0 0 0 0 288497333.55136108 -37323366.412525654 0 -37323366.412525654 -46180125.452174187 0 0 0 0 149643.17257929593 -1098863.3446688578 0 -1098863.3446688578 -411463.09645129647 0 0 0 0 -709242028.89959717 -370392528.12552691 0 -370392528.12552691 6746551.9057283401 0 0 0 0 180293991.96643066 -341872618.92280388 0 -341872618.92280388 187457919.78500748 0 0 0 0 176959983.46898651 -299195845.39358282 0 -299195845.39358282 -312429129.09609222 0 0 0 0 -504112700.82055664 -53970416.28368187 0 -53970416.28368187 7775021.160654068 0 0 0 0 -963737032.97735596 68579138.164885521 0 68579138.164885521 -443187408.16243362 0 0 0 0 -796187130.98506165 -609807505.40111589 0 -609807505.40111589 -532336822.02674103 0 0 0 0 484705648.02819824 458626191.78346825 0 458626191.78346825 383391851.37743139 0 0 0 0 399010992.31329346 -174372957.44280243 0 -174372957.44280243 -651565717.55754471 0 0 0 0 1521928363.7468262 -294584237.60736036 0 -294584237.60736036 -937920030.56602955 0 0 0 0 302732561.65911865 235509004.59375572 0 235509004.59375572 -253908556.52686501 0 0 0 0 -74234743.094726562 -523398527.6334281 0 -523398527.6334281 -739797464.19625473 0 0 0 0 -329688642.33380127 210008250.58090973 0 210008250.58090973 -362135401.08846569 0 0 0 0 360142810.77735901 -816902748.16175365 0 -816902748.16175365 110270772.53047371 0 0 0 0 -505626777.14855957 -163421403.86346626 0 -163421403.86346626 -273502887.31689072 0 0 0 0 1714775017.9515381 665276044.03647709 0 665276044.03647709 -637453185.9870472 0 0 0 0 -388226.23045641929 -2730360.0536338165 0 -2730360.0536338165 -689726.75835256837 0 0 0 0 -211238.603957735 -3935255.0635309294 0 -3935255.0635309294 525566.56849490665 0 0 0 0 -923684571.48937988 -487141850.97275734 0 -487141850.97275734 251969961.77021503 0 0 0 0 5256719.6496887207 35132975.633399367 0 35132975.633399367 -22721741.23858881 0 0 0 0 -252773863.07527924 11426059.299800038 0 11426059.299800038 1992662.8266220093 0 0 0 0 -4583897.1593248546 -1761717.4010639116 0 -1761717.4010639116 802558.11272686359 0 0 0 0 -4144459.8087539673 -2221008.0138584943 0 -2221008.0138584943 721592.27598816203 0 0 0 0 -3893072.3745727539 -1823398.8767321052 0 -1823398.8767321052 1196224.6109788348 0 0 0 0 -3496339.9188079834 -1830091.2266556972 0 -1830091.2266556972 -1827.504027406595 0 0 0 0 -487765092.71113205 1154048621.3131673 0 1154048621.3131673 -1078836317.4088526 0 0 0 0 -3061116.0477127433 -2469981.8631608337 0 -2469981.8631608337 -1189092.1107215856 0 0 0 0 -565160008.55749512 633424751.89451671 0 633424751.89451671 -349796163.24825275 0 0 0 0 -5051983.9886779785 -849406663.58907974 0 -849406663.58907974 559807523.77981377 0 0 0 0 -6209104.7924181372 -820068.75999446586 0 -820068.75999446586 1693721.657441196 0 0 0 0 987259809.11749268 997361036.71565247 0 997361036.71565247 141043158.31286362 0 0 0 0 219832607.24047089 -307108141.54267639 0 -307108141.54267639 -1899042285.9304435 0 0 0 0 -7064166868.5172424 1268545871.8303456 0 1268545871.8303456 1162860676.5889721 0 0 0 0 608487698.81515503 -816501012.3784771 0 -816501012.3784771 26835799.518151283 0 0 0 0 -3016960066.4055634 -378884865.64538276 0 -378884865.64538276 241318236.7760489 0 0 0 0 -1303316211.1881104 -138058178.90908617 0 -138058178.90908617 1768225.6537247507 0 0 0 0 -1136784951.6884766 -625527429.20303726 0 -625527429.20303726 -180670558.01334423 0 0 0 0 -11699328.477722168 -255824739.04177681 0 -255824739.04177681 122090522.53335744 0 0 0 0 -197836186.63491821 -120484723.33365959 0 -120484723.33365959 30856112.782706469 0 0 0 0 -555565039.4519043 -1002416706.4235289 0 -1002416706.4235289 30530381.326513097 0 0 0 0 207332163.25338745 -65225744.22735703 0 -65225744.22735703 252559546.18504816 0 0 0 0 10595234.819213867 -194990331.43819636 0 -194990331.43819636 430183174.41373551 0 0 0 0 -7003460597.7752686 2103695351.0500841 0 2103695351.0500841 154277435.29860497 0 0 0 0 -5397362.6366601586 -4179818.8705233261 0 -4179818.8705233261 -1407580.374380643 0 0 0 0 -3865373.998886317 -148973.19954717904 0 -148973.19954717904 1284557.4337255601 0 0 0 0 -763585849.99920654 -456975808.96368265 0 -456975808.96368265 -743348119.75144958 0 0 0 0 -6558744148.8909912 728586888.41248512 0 728586888.41248512 975945832.00793171 0 0 0 0 -2483609980.9765625 -1164693994.9438572 0 -1164693994.9438572 -530813541.95978355 0 0 0 0 -4966353809.2581787 1701429488.2048187 0 1701429488.2048187 -2010571023.2436562 0 0 0 0 -3619937834.0791626 2315480663.822464 0 2315480663.822464 -1801358096.4245663 0 0 0 0 -5070580710.4830933 565233020.69868994 0 565233020.69868994 148742063.24321747 0 0 0 0 -2048303745.4570923 155096659.11945343 0 155096659.11945343 4035491.0921854973 0 0 0 0 -2058291717.4367676 136566517.22147942 0 136566517.22147942 -30281419.857219696 0 0 0 0 -3181794098.0038452 1356220267.6974449 0 1356220267.6974449 -87855614.797416687 0 0 0 0 146934431.42071533 -295762279.25107074 0 -295762279.25107074 296820208.55822432 0 0 0 0 -3097621003.2606812 1322325415.4671898 0 1322325415.4671898 -201989041.8956871 0 0 0 0 -12644530.193086907 -11075046.828438498 0 -11075046.828438498 -6094882.687252108 0 0 0 0 351770655.34828568 207114864.60464424 0 207114864.60464424 58925952.408147812 0 0 0 0 324722598.90698242 178208677.967731 0 178208677.967731 89863216.711151123 0 0 0 0 -2353732.1913964823 2242347.0230178908 0 2242347.0230178908 -2405436.5824434292 0 0 0 0 -997928643.78008246 -631593836.03451383 0 -631593836.03451383 -200493745.9410443 0 0 0 0 -995259598.33984375 -358626517.04162347 0 -358626517.04162347 -144234572.22745347 0 0 0 0 334064609.26159668 154783899.39708328 0 154783899.39708328 135839442.71086121 0 0 0 0 -772529652.44152832 -545767862.64848793 0 -545767862.64848793 -205483296.74393293 0 0 0 0 -722628921.99401855 -506671200.7196275 0 -506671200.7196275 -222076234.33467937 0 0 0 0 -566974451.10620117 -430402776.87486762 0 -430402776.87486762 -238909224.5679802 0 0 0 0 -577815968.96244812 -419354627.07281113 0 -419354627.07281113 -193021518.28533155 0 0 0 0 -385585791.21142578 -392415511.82384491 0 -392415511.82384491 -282132910.91811454 0 0 0 0 -359223890.83482742 -190590400.4024033 0 -190590400.4024033 -130424277.65990424 0 0 0 0 -245651960.78817749 -294388127.66396064 0 -294388127.66396064 -291093497.48252404 0 0 0 0 -611100764.74415588 -284764745.68552339 0 -284764745.68552339 -225474446.80192137 0 0 0 0 -649567799.14428711 -394117178.46031404 0 -394117178.46031404 -202152128.0391508 0 0 0 0 -580973536.51187134 -335629327.61979479 0 -335629327.61979479 -332743734.1926868 0 0 0 0 -509625168.25366211 -408101222.14469588 0 -408101222.14469588 -320577669.1309849 0 0 0 0 -682237191.58746338 -423385494.47276127 0 -423385494.47276127 -196290955.75961554 0 0 0 0 -487642895.72860718 -279908154.37773651 0 -279908154.37773651 -194201345.73830247 0 0 0 0 -411058951.46368408 -330541338.4910357 0 -330541338.4910357 -230390153.88563186 0 0 0 0 133379735.34908295 46900643.351703644 0 46900643.351703644 -82125481.927902222 0 0 0 0 166091336.88729858 25741534.448924065 0 25741534.448924065 -88422837.86268425 0 0 0 0 -2271068.9119270071 3000205.4877851978 0 3000205.4877851978 -6970717.903372067 0 0 0 0 -741244872.425354 -262413487.36070466 0 -262413487.36070466 -299066057.79086089 0 0 0 0 361463735.34844971 121424381.88352013 0 121424381.88352013 112689443.6750946 0 0 0 0 229634217.97790527 153405353.8484726 0 153405353.8484726 136597548.83285236 0 0 0 0 -290776.01998583972 -336718.85331400856 0 -336718.85331400856 353993.56324991025 0 0 0 0 272553684.09524536 75886139.824508667 0 75886139.824508667 103462329.23761749 0 0 0 0 -112685401.62683105 -130055059.69249344 0 -130055059.69249344 -179651806.40790176 0 0 0 0 56367687.02355957 -71917177.214504242 0 -71917177.214504242 -159709400.68602943 0 0 0 0 -1757862.2325744629 -6487593.4872150421 0 -6487593.4872150421 -106172720.0696106 0 0 0 0 -485180.80856323242 -64060859.374916077 0 -64060859.374916077 -172975505.79179335 0 0 0 0 -2464321.982055217 -2911795.3592941128 0 -2911795.3592941128 1079454.0139124366 0 0 0 0 -17646678.377807617 -31381861.857147217 0 -31381861.857147217 -73339812.396495819 0 0 0 0 5373711.4447631836 -33365434.845830917 0 -33365434.845830917 -150188636.72933578 0 0 0 0 -10339674.91104126 -33082606.207558632 0 -33082606.207558632 -113070736.25558472 0 0 0 0 -12784144.686645508 -38633594.560119629 0 -38633594.560119629 -115692310.12449455 0 0 0 0 -8664307.1781005859 -35627540.783256531 0 -35627540.783256531 -116911593.49826241 0 0 0 0 -32651362.789978027 -44949978.023471832 0 -44949978.023471832 -97757366.582958221 0 0 0 0 -33638355.01385498 -44845345.667985916 0 -44845345.667985916 -76940455.618228912 0 0 0 0 -12851060.784179688 -35736116.556873322 0 -35736116.556873322 -112058980.02417946 0 0 0 0 -27373325.584655762 -74158934.351820946 0 -74158934.351820946 -143460323.10502148 0 0 0 0 2945290.0414428711 -17462587.655041695 0 -17462587.655041695 -156125618.83800888 0 0 0 0 -25868620.759124756 -47647387.063929081 0 -47647387.063929081 -109963980.13064766 0 0 0 0 -30329902.037780762 -59079365.816358566 0 -59079365.816358566 -114033406.80205154 0 0 0 0 -41642108.995788574 -44718151.09129715 0 -44718151.09129715 -76780399.822977066 0 0 0 0 -39972279.317626953 -62029786.459571838 0 -62029786.459571838 -87840973.965360641 0 0 0 0 -50766751.270721436 -67322531.312470436 0 -67322531.312470436 -109202106.37185526 0 0 0 0 -49455972.865458488 -41070651.01935786 0 -41070651.01935786 -111794294.81400681 0 0 0 0 7373314.8016052246 8815973.9147872925 0 8815973.9147872925 -10503781.953222275 0 0 0 0 -2747358.1430664062 -21120153.424090147 0 -21120153.424090147 487471.555103302 0 0 0 0 8306794.4208984375 4568345.6057701111 0 4568345.6057701111 -19098292.782176971 0 0 0 0 3660928.7929992676 3692805.3942360878 0 3692805.3942360878 -11711106.984357834 0 0 0 0 -542123.80244711041 2724920.4280950353 0 2724920.4280950353 1094928.0035191998 0 0 0 0 265495431.2644043 310286761.35448551 0 310286761.35448551 -38212129.208862305 0 0 0 0 284102105.43237305 -2440785.4140489101 0 -2440785.4140489101 166269080.2489177 0 0 0 0 -1364768.7947547659 1058670.6518049166 0 1058670.6518049166 9665.7339288416551 0 0 0 0 3917984.3569335938 8501722.8480753899 0 8501722.8480753899 2089806.5177516937 0 0 0 0 36293446.85736084 7213281.9122223854 0 7213281.9122223854 2140593.3697559983 0 0 0 0 22334829.143737793 -14043103.586078644 0 -14043103.586078644 2469988.6097438335 0 0 0 0 42004739.728149414 -26229125.952971935 0 -26229125.952971935 9810360.1482586861 0 0 0 0 32301702.903717041 -18154645.933672905 0 -18154645.933672905 14397127.278926849 0 0 0 0 40239170.403793335 -24199971.630748421 0 -24199971.630748421 12961408.606996536 0 0 0 0 51063016.258361816 -30797721.515425205 0 -30797721.515425205 16082916.986420155 0 0 0 0 61971916.3671875 -15170819.12688303 0 -15170819.12688303 18647789.809484005 0 0 0 0 55942164.726257324 -11232233.090739667 0 -11232233.090739667 16078328.213673592 0 0 0 0 65726051.080200195 14069653.347433329 0 14069653.347433329 52336591.147936076 0 0 0 0 45321053.733566284 -245174.54606258869 0 -245174.54606258869 42591945.723712444 0 0 0 0 112237502.35772705 -2252790.4262160063 0 -2252790.4262160063 25056694.889401436 0 0 0 0 60205718.38092041 -16268580.06416595 0 -16268580.06416595 22792811.851084948 0 0 0 0 78874781.764526367 -27276681.605777025 0 -27276681.605777025 16488889.933651388 0 0 0 0 94316983.295501709 -40398007.632760227 0 -40398007.632760227 19511565.665753365 0 0 0 0 57498334.053894043 -39635302.070968986 0 -39635302.070968986 23831443.669201374 0 0 0 0 44690542.636138916 -4222075.3379671574 0 -4222075.3379671574 17549667.331896782 0 0 0 0 -1258610306.0681381 -763804900.55567002 0 -763804900.55567002 -183948426.67643642 0 0 0 0 403379896.59521484 -132444512.39592457 0 -132444512.39592457 -585924389.15096664 0 0 0 0 -1819789.968898803 3331313.4494266585 0 3331313.4494266585 1356472.5198700347 0 0 0 0 -527136177.93212891 319941090.81728554 0 319941090.81728554 244106562.29185247 0 0 0 0 -549640050.09301758 77597506.011508465 0 77597506.011508465 -543039800.71276474 0 0 0 0 -732563574.9050293 -608971959.89861298 0 -608971959.89861298 -765442176.02668953 0 0 0 0 -608759104.83947754 -212841065.70367813 0 -212841065.70367813 -177597175.93923855 0 0 0 0 -507393784.88537598 45938173.833304167 0 45938173.833304167 255505420.50764894 0 0 0 0 -240581031.13635254 64087427.611679554 0 64087427.611679554 38052100.722665071 0 0 0 0 -410943946.9532156 -240600030.88625395 0 -240600030.88625395 -20218773.463757992 0 0 0 0 -780264801.94677734 -236260164.18017399 0 -236260164.18017399 94305086.709195375 0 0 0 0 -901874408.91552734 -564570512.03793228 0 -564570512.03793228 -244065280.72775447 0 0 0 0 -801699871.46457672 -296449809.68960917 0 -296449809.68960917 37067483.63290596 0 0 0 0 -1295858099.9114075 -385962136.92646086 0 -385962136.92646086 5669253.9847860336 0 0 0 0 -986309836.07727051 -322852244.081815 0 -322852244.081815 -162585188.72718239 0 0 0 0 -582939648.87023926 -442012812.86590976 0 -442012812.86590976 -137264425.41912746 0 0 0 0 -502729793.3979187 -374714961.54393113 0 -374714961.54393113 -324945728.81484085 0 0 0 0 -671900460.66009521 -509617950.48317915 0 -509617950.48317915 -291923841.38975656 0 0 0 0 -1049214078.1256104 -186167082.53247863 0 -186167082.53247863 -325705166.88103104 0 0 0 0 -738101288.6282959 -578350164.09994686 0 -578350164.09994686 -469453534.64567351 0 0 0 0 -873184905.48034668 -295551867.89738071 0 -295551867.89738071 -515173912.56558102 0 0 0 0 -89209261.364135742 -231162960.20457244 0 -231162960.20457244 -218017450.58060235 0 0 0 0 -226607193.41853333 -180956074.59346592 0 -180956074.59346592 64488741.552019358 0 0 0 0 -189159248.54626465 -281241081.83832502 0 -281241081.83832502 -229359467.28310573 0 0 0 0 -462980567.61546326 -458449059.53997344 0 -458449059.53997344 -148602840.59152222 0 0 0 0 -407547592.86430359 -168864567.96165717 0 -168864567.96165717 12512573.438092947 0 0 0 0 243414458.24249268 44369340.795473576 0 44369340.795473576 28644478.718209505 0 0 0 0 -36298694.133682251 -55423714.234367013 0 -55423714.234367013 475141978.52086163 0 0 0 0 13650969.182067871 -395806684.31071043 0 -395806684.31071043 121885876.39866519 0 0 0 0 -406690132.06860828 -119109027.69168346 0 -119109027.69168346 631019687.64114046 0 0 0 0 -15754366.585205078 370032936.6537956 0 370032936.6537956 402855573.26984167 0 0 0 0 -58671932.159210205 130893196.93807572 0 130893196.93807572 452077870.6699692 0 0 0 0 -124640465.82556152 97483724.253501713 0 97483724.253501713 509070416.45420504 0 0 0 0 -104024084.8059082 147976153.0986042 0 147976153.0986042 561072082.35424554 0 0 0 0 32448885.750762939 -202787182.8354162 0 -202787182.8354162 143635203.94282281 0 0 0 0 -4931872.1378436834 -1889276.2586834058 0 -1889276.2586834058 170048.82522003073 0 0 0 0 -104419719.65600586 120649627.80935568 0 120649627.80935568 145045450.21227834 0 0 0 0 167203295.78103638 79959317.676453725 0 79959317.676453725 29113088.310361922 0 0 0 0 21537172.933700562 202940180.98862797 0 202940180.98862797 190598233.95977104 0 0 0 0 1282319.5469360352 -165466374.80352515 0 -165466374.80352515 209950435.99128765 0 0 0 0 -78650136.051299095 -13807143.952393288 0 -13807143.952393288 -40741559.038286746 0 0 0 0 -326175506.54165649 -18341709.255810395 0 -18341709.255810395 114024347.07547215 0 0 0 0 -8849419.8574829549 -9259947.6655561179 0 -9259947.6655561179 31980177.68481994 0 0 0 0 -237051223.90950012 -67155369.793503374 0 -67155369.793503374 87460924.157386184 0 0 0 0 -169493274.12393188 -61576845.016459644 0 -61576845.016459644 425665349.9842751 0 0 0 0 -170318227.69247437 -29992199.645638049 0 -29992199.645638049 71216877.665984273 0 0 0 0 -187592644.29199219 107430901.93822543 0 107430901.93822543 79606068.905569747 0 0 0 0 -170734751.68945312 56011817.598589033 0 56011817.598589033 10112478.111451805 0 0 0 0 -3661081.0272620469 -8209508.9807306752 0 -8209508.9807306752 19481405.365603015 0 0 0 0 -248332871.10519251 56820079.346581429 0 56820079.346581429 40148665.063272461 0 0 0 0 -121719545.06904602 65087391.452818565 0 65087391.452818565 -5940312.5778740291 0 0 0 0 -175154506.98389435 42985673.320819922 0 42985673.320819922 -10213514.983746342 0 0 0 0 -103483491.92123413 12711713.720493197 0 12711713.720493197 -61208408.87103188 0 0 0 0 -998539.44071851426 -6061223.9252749383 0 -6061223.9252749383 9010603.2305522375 0 0 0 0 -298030333.37442017 -150904472.59799892 0 -150904472.59799892 -155619671.85560155 0 0 0 0 -64429919.411071777 -178837787.54489288 0 -178837787.54489288 -204861958.99550763 0 0 0 0 -120796658.23128891 4890353.8290389022 0 4890353.8290389022 -62104194.868369401 0 0 0 0 6726580.4044799805 -34086202.167877078 0 -34086202.167877078 -50530414.956256106 0 0 0 0 -206611315.65863037 -92950603.693366051 0 -92950603.693366051 -134178329.36580616 0 0 0 0 -109902601.77253723 31091355.973445877 0 31091355.973445877 -99421198.986288667 0 0 0 0 -274684254.9336853 -75028974.314153194 0 -75028974.314153194 -75351955.315119445 0 0 0 0 -355155394.57781982 -195784669.69272637 0 -195784669.69272637 -159193289.0559926 0 0 0 0 -138026149.57846069 -118447390.19946766 0 -118447390.19946766 -192669399.29762155 0 0 0 0 -351180398.12310791 -190995844.23446757 0 -190995844.23446757 -179157807.22686172 0 0 0 0 -446611421.52337646 -276288404.70094365 0 -276288404.70094365 -180936590.51660526 0 0 0 0 -215284113.48150635 -136165518.15799248 0 -136165518.15799248 -185305772.88057619 0 0 0 0 -373679056.74731445 -143151397.5828315 0 -143151397.5828315 -117624529.85202956 0 0 0 0 -436527644.00973511 -213949014.39465314 0 -213949014.39465314 -132450830.57382634 0 0 0 0 -327087603.05964661 -145752114.51980436 0 -145752114.51980436 -187716892.12163669 0 0 0 0 -673881329.43560791 -209982126.29959834 0 -209982126.29959834 -144783724.52802482 0 0 0 0 -525946013.06130219 -304681857.13463444 0 -304681857.13463444 -160229784.28067517 0 0 0 0 -663201762.77322197 -435008505.83874249 0 -435008505.83874249 -288740704.40014005 0 0 0 0 -466920369.440979 -179241675.12942338 0 -179241675.12942338 -163500610.62443781 0 0 0 0 -214249756.43196106 -12269363.129536539 0 -12269363.129536539 37654681.063371062 0 0 0 0 -197194186.90892029 -64589237.558495909 0 -64589237.558495909 -147081822.61265552 0 0 0 0 -344456632.51010132 -124500923.2890285 0 -124500923.2890285 -10721015.736598253 0 0 0 0 170029.8297306184 -3679422.2554256395 0 -3679422.2554256395 3097559.8260865612 0 0 0 0 -127960476.68713379 -59409013.877925247 0 -59409013.877925247 -87785447.78757596 0 0 0 0 -299112709.7076416 -57482134.253281176 0 -57482134.253281176 27624566.832298845 0 0 0 0 -294865327.35789967 -151548434.54069954 0 -151548434.54069954 -125654981.35581648 0 0 0 0 -377879454.30114746 -175304375.88459226 0 -175304375.88459226 -42721558.504605681 0 0 0 0 -414287739.16600037 -216893884.61549413 0 -216893884.61549413 -62389007.242187142 0 0 0 0 -392133451.93086243 -140694842.9542487 0 -140694842.9542487 -40386563.066538125 0 0 0 0 -378936822.81365967 -167091290.20341453 0 -167091290.20341453 10175.509923383943 0 0 0 0 591227.85484521242 -2195431.9218114316 0 -2195431.9218114316 673436.80909153796 0 0 0 0 -546514807.74874878 -299594395.53097022 0 -299594395.53097022 -103715709.61941725 0 0 0 0 -519604845.96070862 -262691210.94982979 0 -262691210.94982979 -78409632.388558507 0 0 0 0 -2250656.7428898588 -4156230.5600637272 0 -4156230.5600637272 -3157095.2625236781 0 0 0 0 -15401064.374664307 -15489609.911809135 0 -15489609.911809135 -5891701.6570657454 0 0 0 0 -518896477.10720825 17934371.604258455 0 17934371.604258455 -12685677.304215193 0 0 0 0 -128028.97233045101 -56436.38675833866 0 -56436.38675833866 -719311.3828517138 0 0 0 0 -459798658.69067383 -194657184.4345029 0 -194657184.4345029 -232493510.12300396 0 0 0 0 -460726332.96130371 -202657331.02605236 0 -202657331.02605236 -76665264.897405922 0 0 0 0 -403863007.52044678 -232424516.43324372 0 -232424516.43324372 -108881261.84942198 0 0 0 0 -461800483.48271179 -206528839.8554801 0 -206528839.8554801 -245583.6977375065 0 0 0 0 -542068065.9107666 -260106546.91120306 0 -260106546.91120306 -35690353.72327847 0 0 0 0 -501413282.04504395 -223628174.0567877 0 -223628174.0567877 -37161106.136782169 0 0 0 0 -2713216.1406887025 -2708498.2017004192 0 -2708498.2017004192 -1870386.8546384948 0 0 0 0 -23509174.272598267 -16948370.469457626 0 -16948370.469457626 -3613.5816065729632 0 0 0 0 -560062271.47434998 -290955405.32009006 0 -290955405.32009006 -56430175.990706682 0 0 0 0 -13511596.222137451 -14274542.747951409 0 -14274542.747951409 -6437158.3839714676 0 0 0 0 -13235760.071624756 -13121834.308795555 0 -13121834.308795555 -5459650.528203629 0 0 0 0 -5678652.7727050781 -21293986.43431183 0 -21293986.43431183 -15395.058513304964 0 0 0 0 7731850.275604248 -12238813.071096668 0 -12238813.071096668 -9433686.0259233341 0 0 0 0 -8372019.1984405518 -13813762.258471105 0 -13813762.258471105 -9414722.9723093361 0 0 0 0 -6742412.971786499 -15700744.466803148 0 -15700744.466803148 -11310570.104795396 0 0 0 0 -14759456.151245117 -14439625.840011794 0 -14439625.840011794 -5302881.4034311576 0 0 0 0 36491813.315795898 -24748655.733860016 0 -24748655.733860016 -44943774.318289757 0 0 0 0 -2162156.6874289215 -7745162.6286765635 0 -7745162.6286765635 3923695.3792127669 0 0 0 0 -500876123.14402771 -303257625.12545025 0 -303257625.12545025 -182328533.68317258 0 0 0 0 -689193.95090827346 2550042.9517004117 0 2550042.9517004117 -13344211.695521815 0 0 0 0 34205912.593254089 28129420.800976276 0 28129420.800976276 -14180511.803985596 0 0 0 0 -20238499.95488739 -10002450.102781534 0 -10002450.102781534 2910794.2752685547 0 0 0 0 -11668304.432380676 -50199321.087408066 0 -50199321.087408066 -42928812.980247498 0 0 0 0 20346562.912963867 -30876452.893592834 0 -30876452.893592834 -73589022.879306793 0 0 0 0 -467939443.08944702 -262866261.73703647 0 -262866261.73703647 -177900607.1943841 0 0 0 0 -659456549.90093994 -295511751.21322483 0 -295511751.21322483 -148831625.95476389 0 0 0 0 -12017461.00484848 -13966218.788058996 0 -13966218.788058996 -50808577.416727066 0 0 0 0 -47277428.601066589 -59770726.804670334 0 -59770726.804670334 -65532788.674777985 0 0 0 0 -602974.25057220459 -1752336.1718846038 0 -1752336.1718846038 -617914.60541683808 0 0 0 0 -22830271.7109375 -31749409.299736023 0 -31749409.299736023 -71244753.41992569 0 0 0 0 -29315647.979492188 -39103080.899534225 0 -39103080.899534225 -41116548.329204559 0 0 0 0 -8557386.3574124128 -6664239.1664041765 0 -6664239.1664041765 6076140.7030482413 0 0 0 0 -50674198.076538086 -49643237.891054153 0 -49643237.891054153 -44573384.46856308 0 0 0 0 -23946005.857421875 -29842358.083194733 0 -29842358.083194733 -44730715.364810944 0 0 0 0 -8583912.4666748047 -11383020.826133706 0 -11383020.826133706 -12636330.187945653 0 0 0 0 -2702595.8465108573 -5909680.8430422097 0 -5909680.8430422097 -5377553.5632530823 0 0 0 0 -7090645.8699302673 -9230189.1905034781 0 -9230189.1905034781 -4114896.0528059006 0 0 0 0 -9961966.3592529297 -7338640.9057273865 0 -7338640.9057273865 -5344982.5154280663 0 0 0 0 -11698833.600341797 -9260243.6809101105 0 -9260243.6809101105 -6994073.1311049461 0 0 0 0 -3284744.0218165964 -5044721.3955179751 0 -5044721.3955179751 -6249703.7682344513 0 0 0 0 -2783219.8804016113 -7035916.1954670548 0 -7035916.1954670548 -8111247.8430204093 0 0 0 0 -4631398.6223754883 -6510274.102052886 0 -6510274.102052886 -7995712.1130379513 0 0 0 0 2693139.2906188965 -2206773.274732531 0 -2206773.274732531 -5563865.9996871073 0 0 0 0 -10248811.353378609 -6940287.4238726571 0 -6940287.4238726571 -2171892.6264128792 0 0 0 0 -484897.84003442526 -1422847.3900715467 0 -1422847.3900715467 -2626716.078777059 0 0 0 0 -2320158.7080078125 -1832158.8847345177 0 -1832158.8847345177 -3545.5063139855397 0 0 0 0 -9735941.3099060059 -8610410.2090258598 0 -8610410.2090258598 -10463210.824442863 0 0 0 0 -7925428.205964148 -5006794.4023007713 0 -5006794.4023007713 -1123282.2460157783 0 0 0 0 -3343953.7697601318 -2323987.0881283153 0 -2323987.0881283153 2307468.711456568 0 0 0 0 -3212550.3244628906 940640.07555298763 0 940640.07555298763 -28191.220913428588 0 0 0 0 -8401045.5530977845 -3581331.7756967414 0 -3581331.7756967414 -537849.92121063429 0 0 0 0 -19264369.159179688 -12762596.157177456 0 -12762596.157177456 -3295770.155424715 0 0 0 0 1433661.7240600586 916179.43554775743 0 916179.43554775743 -4860.7271923314584 0 0 0 0 -19717.421257480979 -6448.7437568381429 0 -6448.7437568381429 575.31305246787576 0 0 0 0 -19228318.124206543 -11850136.361643013 0 -11850136.361643013 -4704787.8384085968 0 0 0 0 -10636808.028182983 -12710636.989383698 0 -12710636.989383698 -6075537.2219772339 0 0 0 0 -9420759.6478881836 -10554371.063419342 0 -10554371.063419342 -2723931.1115584373 0 0 0 0 -10547690.203918457 -8535040.0896613598 0 -8535040.0896613598 -6229079.6627206802 0 0 0 0 -8115154.3651733398 -10052814.524770737 0 -10052814.524770737 -5574482.7376461029 0 0 0 0 -18501227.717102051 -4631425.9567975951 0 -4631425.9567975951 -3555.2161468065356 0 0 0 0 -23055154.100997925 -6208213.0915462319 0 -6208213.0915462319 -533074.14546646981 0 0 0 0 -7266744.9848632812 -886026.0919281505 0 -886026.0919281505 4150420.5266050026 0 0 0 0 9971033.8789367676 4542955.3456238108 0 4542955.3456238108 -7130090.7418690231 0 0 0 0 -14255.865128442645 445.72327622026205 0 445.72327622026205 -1548.8097202951278 0 0 0 0 -14471394.635253906 -8497926.9601746518 0 -8497926.9601746518 -6318408.7584993318 0 0 0 0 -4734431.1262817383 -6196955.889488114 0 -6196955.889488114 -6022402.4717410551 0 0 0 0 -9771528.5403289795 -10143528.355572224 0 -10143528.355572224 -6279415.7045726776 0 0 0 0 -9563493.0533208251 -3763545.4307995513 0 -3763545.4307995513 -416951.49766777828 0 0 0 0 -16550672.615570068 -2226512.6877708435 0 -2226512.6877708435 8514815.3020241261 0 0 0 0 -2492514.9730606079 -5059496.2697235346 0 -5059496.2697235346 6218210.5149526596 0 0 0 0 -29644443.636016846 -8499646.0168978348 0 -8499646.0168978348 3056649.8158241697 0 0 0 0 -11891954.670477122 -6601350.8642695509 0 -6601350.8642695509 -288523.16209589044 0 0 0 0 -3413746.7982330322 -1693792.2287621498 0 -1693792.2287621498 -5700266.0257530212 0 0 0 0 -18701526.836242676 -5078186.0307102203 0 -5078186.0307102203 2816646.8444981575 0 0 0 0 -32099538.04989624 -14916193.04087925 0 -14916193.04087925 -181650.90811443329 0 0 0 0 -1182849.5309930183 -240636.91550477594 0 -240636.91550477594 -62128.610174328089 0 0 0 0 -9977855.2109069824 -11659466.296461582 0 -11659466.296461582 -121808.55518889427 0 0 0 0 -3516461.5651674494 -1318173.7446050197 0 -1318173.7446050197 -464036.87712822622 0 0 0 0 -5424953.6473999023 -7041768.2684941292 0 -7041768.2684941292 -4020810.2036247253 0 0 0 0 10753181.247909546 -7030478.9661769867 0 -7030478.9661769867 -4939416.1764431 0 0 0 0 -7358036.8982906342 -6448639.6067134216 0 -6448639.6067134216 -6718412.3254219256 0 0 0 0 10270908.360631943 -35634663.637709148 0 -35634663.637709148 18318886.117736816 0 0 0 0 -7582287.4717254639 -8910084.4178676605 0 -8910084.4178676605 -3657256.198674202 0 0 0 0 -6403210.0210876465 -10603671.170618534 0 -10603671.170618534 -8219205.58548069 0 0 0 0 -1981595.2898483276 -6460606.2780662775 0 -6460606.2780662775 -4494068.4714927673 0 0 0 0 -7483341.1406555176 -8106559.012597084 0 -8106559.012597084 -3473844.3456907272 0 0 0 0 -7429726.1660461426 -8141843.8518681526 0 -8141843.8518681526 -3549884.9304459095 0 0 0 0 -8314663.9396972656 -8877417.7894246578 0 -8877417.7894246578 -3619476.4880590439 0 0 0 0 -8671424.65234375 -8481850.3540980816 0 -8481850.3540980816 -1033574.261074543 0 0 0 0 -8612224.7716898024 -7595956.1386016198 0 -7595956.1386016198 2500912.8493762081 0 0 0 0 -46305904.500427246 -57639140.910331726 0 -57639140.910331726 -57760991.207896948 0 0 0 0 -9325526.1865081787 -59156580.237632751 0 -59156580.237632751 -115378631.40901947 0 0 0 0 -2808192.3624416292 -3480940.9279266559 0 -3480940.9279266559 2287966.5612981939 0 0 0 0 16913351.38458252 -29770901.496803761 0 -29770901.496803761 -16024739.374789238 0 0 0 0 -60226461.404327393 -82155027.853096008 0 -82155027.853096008 -102552692.34750271 0 0 0 0 -20931185.584701538 -80588116.314833164 0 -80588116.314833164 -180040484.88936186 0 0 0 0 -9794272.5955963135 -124984291.97676444 0 -124984291.97676444 -257196910.05865288 0 0 0 0 -75172187.305480957 -138837111.05181122 0 -138837111.05181122 -144641988.36448038 0 0 0 0 -49169287.838226318 -82702383.614118576 0 -82702383.614118576 -71442044.823490143 0 0 0 0 -55002868.524995804 -35991522.58066994 0 -35991522.58066994 -144020137.28165817 0 0 0 0 -11922230.101013184 -72223101.57608223 0 -72223101.57608223 -152318437.75455856 0 0 0 0 -14749434.245910645 -40298253.429962158 0 -40298253.429962158 -107467968.62438965 0 0 0 0 -38458753.139923096 -25498244.155768394 0 -25498244.155768394 -29028545.643959045 0 0 0 0 6651962.3485107422 -44028691.196695328 0 -44028691.196695328 -22315187.647895813 0 0 0 0 -8269226.0230102539 -7996980.8916516304 0 -7996980.8916516304 -3318496.8868589401 0 0 0 0 -33943504.805046082 -15033121.593192101 0 -15033121.593192101 -50923201.787414551 0 0 0 0 -10469644.228926763 -5078628.4325422943 0 -5078628.4325422943 2483321.2522832355 0 0 0 0 -35365034.724121094 -30327461.630962372 0 -30327461.630962372 -27384411.933303833 0 0 0 0 -938532.54148121178 -22657.002138666809 0 -22657.002138666809 824181.4438611716 0 0 0 0 -9176752.5668029785 -5662333.4159255028 0 -5662333.4159255028 -4498654.1012806892 0 0 0 0 -3225762.4325256348 -748310.35028743744 0 -748310.35028743744 1493335.8445968628 0 0 0 0 -2663093.6782150269 -14744942.986093998 0 -14744942.986093998 2039493.5246067047 0 0 0 0 -2487322.2737832963 -3060008.5587029085 0 -3060008.5587029085 -3045089.2869058219 0 0 0 0 -5333059.1386402063 -1826207.5919245258 0 -1826207.5919245258 -1057828.4077857304 0 0 0 0 -41279461.807128906 8192255.3459243774 0 8192255.3459243774 6321564.7448272705 0 0 0 0 -8043537.5527970046 -3995523.76900433 0 -3995523.76900433 3010653.6671953415 0 0 0 0 61887763.152587891 -11985612.918501854 0 -11985612.918501854 -18375979.635243416 0 0 0 0 54324732.819404602 -65873220.431072772 0 -65873220.431072772 13249898.571496964 0 0 0 0 55857821.42578125 -42435005.783795357 0 -42435005.783795357 19539491.126745701 0 0 0 0 73977273.887466431 -41536368.465263605 0 -41536368.465263605 12379150.364610672 0 0 0 0 -1963891.7783095539 -2050418.3853759393 0 -2050418.3853759393 1007624.1216189717 0 0 0 0 70952213.174430847 -34233095.2665236 0 -34233095.2665236 -1021779.3738298416 0 0 0 0 -4848799.8939317763 1013771.5617012531 0 1013771.5617012531 1556850.6233126801 0 0 0 0 -95185275.988182068 -83237158.749604583 0 -83237158.749604583 -68444510.25868988 0 0 0 0 -65977180.199462891 -32718782.276382446 0 -32718782.276382446 -10153224.380981445 0 0 0 0 -93820664.319702148 -80067960.008622169 0 -80067960.008622169 -81730189.013711929 0 0 0 0 -56560660.58392334 -78037413.841119766 0 -78037413.841119766 -93070371.000972748 0 0 0 0 -97333518.035522461 -90815651.544837475 0 -90815651.544837475 -64802554.773903847 0 0 0 0 -261416937.42907715 -117874159.3455227 0 -117874159.3455227 90587265.178712845 0 0 0 0 -99331961.70072937 -91173675.330310822 0 -91173675.330310822 -46294018.416843414 0 0 0 0 -144426255.1137085 -1159528.0732710361 0 -1159528.0732710361 2530517.5811369419 0 0 0 0 -90907804.131851196 -106616478.46802306 0 -106616478.46802306 62981113.95836401 0 0 0 0 -1824697.1189695299 1101789.5195278004 0 1101789.5195278004 915958.48453213507 0 0 0 0 309554868.9710083 -23399502.545965187 0 -23399502.545965187 -41620820.460445613 0 0 0 0 115046749.14128542 -78287111.180394083 0 -78287111.180394083 -3205025.2110080719 0 0 0 0 114682923.28216553 -16642358.895401001 0 -16642358.895401001 6022434.3567247391 0 0 0 0 -72611626.882659912 -52919673.737935781 0 -52919673.737935781 158008439.38898182 0 0 0 0 184155275.70915222 -157064061.34088951 0 -157064061.34088951 16401740.985325336 0 0 0 0 -60149677.568115234 -68416964.386600018 0 -68416964.386600018 49098795.579495907 0 0 0 0 -65235805.733947754 -158920140.82543468 0 -158920140.82543468 82104631.923518181 0 0 0 0 -95009756.567626953 -86786967.177237511 0 -86786967.177237511 46673890.433661938 0 0 0 0 -27190744.721984863 -71346053.396419764 0 -71346053.396419764 33289281.255910873 0 0 0 0 -58880691.131111145 -79658430.124683321 0 -79658430.124683321 51219401.075963736 0 0 0 0 -24467801.167114258 -61200705.637719631 0 -61200705.637719631 60476404.939474106 0 0 0 0 -20311733.506408691 -77242362.885620117 0 -77242362.885620117 47172234.127326965 0 0 0 0 -735803.52587890625 -70580800.381224632 0 -70580800.381224632 41289127.217689514 0 0 0 0 -27997596.852050781 -81205747.346495867 0 -81205747.346495867 40666382.87566185 0 0 0 0 686955.71447753906 -77142723.607153654 0 -77142723.607153654 36078576.690201759 0 0 0 0 37252823.749145508 -78523150.879451752 0 -78523150.879451752 30800173.354254723 0 0 0 0 33476527.746826172 -64482392.244941235 0 -64482392.244941235 25699058.903516769 0 0 0 0 65127797.188827515 -58561636.002086923 0 -58561636.002086923 22350650.675031632 0 0 0 0 25208975.468383789 -53212726.08278513 0 -53212726.08278513 23999836.147981882 0 0 0 0 36044692.832771301 -50523258.730702996 0 -50523258.730702996 24313193.229836941 0 0 0 0 -334077.23059082031 -62172803.343801498 0 -62172803.343801498 36603670.21517539 0 0 0 0 24734658.147323608 -68170813.577388287 0 -68170813.577388287 38031259.138085842 0 0 0 0 -7064156.0812988281 -62612319.438169241 0 -62612319.438169241 63256846.573432922 0 0 0 0 16663515.130432129 -43077966.873095989 0 -43077966.873095989 23696697.345082283 0 0 0 0 17288386.885429382 -38192070.800068378 0 -38192070.800068378 25652517.786820412 0 0 0 0 3525961.688873291 -14581927.831502438 0 -14581927.831502438 -1548971.0062885284 0 0 0 0 -8668214.7769851685 -26356505.553833842 0 -26356505.553833842 53792340.946548462 0 0 0 0 -46607132.867401123 -22937505.270794392 0 -22937505.270794392 144728613.92464137 0 0 0 0 -1541058.7377708107 -1914908.2585707344 0 -1914908.2585707344 1423774.3008145872 0 0 0 0 -77505614.044494629 -83112407.812884569 0 -83112407.812884569 103628087.9737072 0 0 0 0 -130563679.10464478 -8619523.4277973175 0 -8619523.4277973175 10319410.832014084 0 0 0 0 -185524043.67894745 9104841.8283610344 0 9104841.8283610344 19085845.352823257 0 0 0 0 -152992559.81469727 -31735594.594068527 0 -31735594.594068527 11926283.454328895 0 0 0 0 -210701287.68833923 -63378692.907290936 0 -63378692.907290936 10100736.462873265 0 0 0 0 -106717586.62843704 -53396506.023135811 0 -53396506.023135811 -120864892.99307299 0 0 0 0 1059350.8634835333 3290918.2274595946 0 3290918.2274595946 -1031283.1496612388 0 0 0 0 -31868455.043304443 -31812277.348672867 0 -31812277.348672867 -12673493.048835278 0 0 0 0 -99953355.79095459 -17545289.315957546 0 -17545289.315957546 4669502.514465332 0 0 0 0 -24753466.782089233 2027018.4967885017 0 2027018.4967885017 -53692678.937338114 0 0 0 0 -181178266.13240051 -27801527.597863913 0 -27801527.597863913 83819623.413152218 0 0 0 0 -4117882.952580452 -11175983.876153558 0 -11175983.876153558 -11889369.184160233 0 0 0 0 -8884912.0061340332 -73103953.513162613 0 -73103953.513162613 47373662.72061348 0 0 0 0 1043185.4871078692 3202775.0104000047 0 3202775.0104000047 -1034183.0031736661 0 0 0 0 -118580220.14978027 -24609036.896063209 0 -24609036.896063209 2011559.5332465172 0 0 0 0 32468094.402069092 -64538119.442695618 0 -64538119.442695618 -8662713.124448061 0 0 0 0 -18239180.495483398 -49786546.60424757 0 -49786546.60424757 21683282.964800835 0 0 0 0 32479545.512939453 -63824011.479192734 0 -63824011.479192734 10424098.984258652 0 0 0 0 43521251.375946045 -41969126.290675163 0 -41969126.290675163 19328887.82934761 0 0 0 0 39187496.537628174 -52508914.963311195 0 -52508914.963311195 3302931.3831501007 0 0 0 0 566028.24594318867 1707824.5126141906 0 1707824.5126141906 -577173.17870519497 0 0 0 0 114006720.42893982 -70401145.217687607 0 -70401145.217687607 208301.85521507263 0 0 0 0 -192587510.80915833 -14705964.63886261 0 -14705964.63886261 7107060.0628356934 0 0 0 0 -191084194.32717896 -9329785.2730174065 0 -9329785.2730174065 9726077.3673381805 0 0 0 0 -1779978.0188542008 304893.47967860103 0 304893.47967860103 172849.01114058588 0 0 0 0 -197031678.97678375 2510524.2769446373 0 2510524.2769446373 3413424.0933380127 0 0 0 0 -168886127.47998047 3767161.4709894657 0 3767161.4709894657 2974141.6879119873 0 0 0 0 9392579.2103118896 20732580.572206497 0 20732580.572206497 -45885983.63561964 0 0 0 0 498126.48582975566 1097736.8571180403 0 1097736.8571180403 1178538.4185470818 0 0 0 0 -180651390.97439575 -16889692.975343704 0 -16889692.975343704 -1617761.6389598846 0 0 0 0 -30752741.680465698 -40022220.955327988 0 -40022220.955327988 -9093354.627632618 0 0 0 0 -32136116.350712672 -5090608.5298192184 0 -5090608.5298192184 4377815.0264290366 0 0 0 0 -140845138.77417755 -6470583.7947211266 0 -6470583.7947211266 143659729.21209908 0 0 0 0 -16063951.441436768 77778647.876424789 0 77778647.876424789 -9034801.2881069183 0 0 0 0 24212746.229278564 -36210173.58804512 0 -36210173.58804512 380926.93432235718 0 0 0 0 18560592.532897949 -76327484.661994934 0 -76327484.661994934 20263320.311763763 0 0 0 0 -45679769.037261963 -59727939.644837379 0 -59727939.644837379 23167832.541788101 0 0 0 0 -19866215.237341881 -39576428.379004806 0 -39576428.379004806 38679831.512468338 0 0 0 0 -15475227.761009827 -8296364.1200225055 0 -8296364.1200225055 -2670862.6815076172 0 0 0 0 -20476669.799133301 -24221255.774066925 0 -24221255.774066925 -1459453.0526049137 0 0 0 0 -19165635.527526855 -5033897.0664213784 0 -5033897.0664213784 -874684.49942895444 0 0 0 0 -44324044.282928467 25294956.172151953 0 25294956.172151953 23849707.935243804 0 0 0 0 -29001661.913669229 -7796818.0324224066 0 -7796818.0324224066 2397321.6379695055 0 0 0 0 -7684977.3862071037 477558.27086812258 0 477558.27086812258 5272476.8251694236 0 0 0 0 -55585782.105499268 -10832548.623499023 0 -10832548.623499023 4902204.3326100847 0 0 0 0 -60247302.917724609 21824451.654476631 0 21824451.654476631 23338364.081395686 0 0 0 0 -19887429.200927734 -9713581.3018202893 0 -9713581.3018202893 1818301.1672253283 0 0 0 0 -20402658.495422363 -5527397.5061249528 0 -5527397.5061249528 5240.5367391026921 0 0 0 0 -21539591.516113281 -4840102.0122825727 0 -4840102.0122825727 -382133.9706155248 0 0 0 0 -28261414.095581055 -4739516.6264587212 0 -4739516.6264587212 8039032.9467602484 0 0 0 0 -35454574.197662354 -9091331.1110901292 0 -9091331.1110901292 35026528.123932377 0 0 0 0 -19386937.832504272 -2948797.602806556 0 -2948797.602806556 12144650.595665611 0 0 0 0 -69770499.803390503 739056.86128414341 0 739056.86128414341 -9453.2555738385636 0 0 0 0 -30498238.773376465 -14084277.132330984 0 -14084277.132330984 -3929968.1560737942 0 0 0 0 -60611670.155378103 -11295734.918764345 0 -11295734.918764345 10553208.317307517 0 0 0 0 -32039289.964080811 -9880755.1465972513 0 -9880755.1465972513 9066376.4214863963 0 0 0 0 -30903772.241233826 -9271421.9295576122 0 -9271421.9295576122 -3190.8635061703317 0 0 0 0 -36088627.583648682 -7488686.7134832246 0 -7488686.7134832246 5764704.3740496058 0 0 0 0 -29737684.788780212 -8918358.6501022093 0 -8918358.6501022093 6072079.7824718487 0 0 0 0 -33242712.661804199 -6197707.1200809162 0 -6197707.1200809162 12580610.100696465 0 0 0 0 -63928692.76940918 13114722.458230495 0 13114722.458230495 11127978.725512996 0 0 0 0 -9494587.0537270755 -358403.79635835439 0 -358403.79635835439 4025580.4494907684 0 0 0 0 -30341622.924468994 -10685070.39342849 0 -10685070.39342849 4486464.5219763536 0 0 0 0 -41023195.127853394 -16879794.381368142 0 -16879794.381368142 2358475.5603313297 0 0 0 0 -46385090.68270874 4322649.390009474 0 4322649.390009474 -423085.56632410642 0 0 0 0 -61514247.046295166 -4866085.6517235562 0 -4866085.6517235562 16181.585525405353 0 0 0 0 -37021882.61138916 -4188664.5742858183 0 -4188664.5742858183 -5151475.3032417912 0 0 0 0 -29830113.255401611 -5198344.2278978722 0 -5198344.2278978722 -4799.9326089779079 0 0 0 0 -37022835.588635921 -4408383.5534775667 0 -4408383.5534775667 4431900.6921719797 0 0 0 0 -803946.51273560524 -924504.93026009947 0 -924504.93026009947 640826.78018264379 0 0 0 0 -13997131.956207275 -19294814.330853119 0 -19294814.330853119 -8392996.7164607868 0 0 0 0 -35665382.537109375 -58329.917416710407 0 -58329.917416710407 3101470.9411630929 0 0 0 0 -40679358.015197754 -4266293.1073242724 0 -4266293.1073242724 9602252.2291692644 0 0 0 0 -39466546.350891113 -8647627.0657178946 0 -8647627.0657178946 18579927.109626651 0 0 0 0 -34621542.669281006 -5134615.9791104607 0 -5134615.9791104607 -4809520.6408066694 0 0 0 0 -24479954.461401373 3422615.3926011398 0 3422615.3926011398 1219892.8915340407 0 0 0 0 -23534788.406021118 15142239.080105204 0 15142239.080105204 6968409.2361770421 0 0 0 0 -31987128.717834473 7186716.1684399471 0 7186716.1684399471 23435439.090866275 0 0 0 0 -29740647.059143066 -5408700.5021477193 0 -5408700.5021477193 3916808.5975528769 0 0 0 0 -48557921.727752686 447792.87093852088 0 447792.87093852088 20695817.29218623 0 0 0 0 -27008376.731933594 -16433336.219478391 0 -16433336.219478391 14987845.984650521 0 0 0 0 111551.58987043798 -1016163.8250665748 0 -1016163.8250665748 -54879.826027261901 0 0 0 0 -35494691.255615234 -10111586.123774007 0 -10111586.123774007 14675980.158327647 0 0 0 0 -21139316.058349609 -11963891.347609349 0 -11963891.347609349 12444680.210080065 0 0 0 0 -19762072.165306747 4662548.995703809 0 4662548.995703809 5334516.7361850683 0 0 0 0 -59215978.890640259 4429250.8248312473 0 4429250.8248312473 62140794.372988701 0 0 0 0 -7847692.577041626 -26748783.818434834 0 -26748783.818434834 32455090.621031761 0 0 0 0 -34176146.4741745 -10161040.24175787 0 -10161040.24175787 13885374.573235512 0 0 0 0 -50551749.129150391 35124665.999873161 0 35124665.999873161 13460082.505477071 0 0 0 0 -6752543.2291723192 1838972.0683824867 0 1838972.0683824867 3687185.4762089327 0 0 0 0 -31162046.636993408 -1111526.2393267155 0 -1111526.2393267155 6956257.6437035799 0 0 0 0 -24594052.982299805 -8430274.2906265259 0 -8430274.2906265259 11856161.136475563 0 0 0 0 -22015517.130554199 -3228346.9015035629 0 -3228346.9015035629 10710289.148905605 0 0 0 0 -11088478.209106445 -107803.22317814827 0 -107803.22317814827 10431309.904242635 0 0 0 0 9087595.9525756836 20817827.069997787 0 20817827.069997787 10082421.33820343 0 0 0 0 -12644072.821395874 345540.75218439102 0 345540.75218439102 11580419.634531021 0 0 0 0 -9314341.235553354 11170019.282254338 0 11170019.282254338 7865588.8646588372 0 0 0 0 -8525104.2585144043 15254870.592457771 0 15254870.592457771 23028234.536050797 0 0 0 0 -34813908.207137138 -1967320.0095025022 0 -1967320.0095025022 6364713.2260478474 0 0 0 0 -21695019.227622986 72389766.029803276 0 72389766.029803276 73796997.63101387 0 0 0 0 -16249260.766304173 10715059.861520089 0 10715059.861520089 13166291.14269867 0 0 0 0 -23103196.060650721 4143729.6959899943 0 4143729.6959899943 1483089.2668102582 0 0 0 0 -24697808.741775513 -2081930.6343584061 0 -2081930.6343584061 19655804.965132713 0 0 0 0 -28837.738973796368 182717.26764166495 0 182717.26764166495 -60749.201822156843 0 0 0 0 -34407519.740203857 -18406421.860053558 0 -18406421.860053558 -3103441.8011343069 0 0 0 0 6288365.529510498 4458366.9269822985 0 4458366.9269822985 -8517462.5725889597 0 0 0 0 -30218860.031060576 -6383456.2335608853 0 -6383456.2335608853 -5805570.169095546 0 0 0 0 -682962.79357340932 561780.2535776794 0 561780.2535776794 -369947.16205961705 0 0 0 0 -11583156.858436584 12363074.871195285 0 12363074.871195285 -1083167.0340422075 0 0 0 0 -1876417.137512207 -8590016.2816572543 0 -8590016.2816572543 -11908.044669916842 0 0 0 0 181251.11322021484 7111594.4752005413 0 7111594.4752005413 3111625.5410594642 0 0 0 0 143897.86175537109 6965300.9551719055 0 6965300.9551719055 2147286.3137307167 0 0 0 0 234884.43338012695 7301435.6916946005 0 7301435.6916946005 3027920.9350136518 0 0 0 0 -1583972.5072099268 962775.58067856729 0 962775.58067856729 -2784.5286473187334 0 0 0 0 -5150875.3473815918 4665848.8048923202 0 4665848.8048923202 -393974.79212271422 0 0 0 0 -5639902.2834777832 -843470.32128867507 0 -843470.32128867507 2613618.7383676022 0 0 0 0 1389627.4999542236 -3511072.9703614791 0 -3511072.9703614791 1999.6647579072853 0 0 0 0 -1457453.8675921708 1015841.5188835785 0 1015841.5188835785 -538673.15795604838 0 0 0 0 -8962916.0674133301 593716.78100178111 0 593716.78100178111 3549563.1744181588 0 0 0 0 -8737785.7017211914 51449.718564298004 0 51449.718564298004 -837143.93291002419 0 0 0 0 -3583784.7880859375 -6495181.9543138221 0 -6495181.9543138221 3306755.5971707185 0 0 0 0 -9573768.5785827637 5743956.1752242111 0 5743956.1752242111 6821396.4165123403 0 0 0 0 -2570062.4215478748 1381984.127893813 0 1381984.127893813 -109216.5929121943 0 0 0 0 -1573683.5253346115 1599981.9259126857 0 1599981.9259126857 -481420.32743587403 0 0 0 0 -8805807.1570568532 2816275.9930421412 0 2816275.9930421412 935198.67387752724 0 0 0 0 -2540274.8552856445 9673869.2276017666 0 9673869.2276017666 5562850.4867911339 0 0 0 0 -12216177.981735229 13922388.697268859 0 13922388.697268859 28380394.750169456 0 0 0 0 -2691377.476776123 19032333.338456988 0 19032333.338456988 -2249198.9419855177 0 0 0 0 -1442835.6592102051 2457852.7214021683 0 2457852.7214021683 2806411.3316966295 0 0 0 0 -2162700.5369153768 3564621.85099363 0 3564621.85099363 216129.74684042562 0 0 0 0 -22846072.473799348 -1624863.1642968114 0 -1624863.1642968114 2142911.6546369228 0 0 0 0 -32156031.606658936 49173464.105919316 0 49173464.105919316 100856418.45705026 0 0 0 0 -25187684.570553645 1413467.5661149602 0 1413467.5661149602 892114.63508020295 0 0 0 0 -25981541.85848999 17160452.28365165 0 17160452.28365165 41374952.13849178 0 0 0 0 2209848.1719360352 -9140126.8150894642 0 -9140126.8150894642 -15410448.585253239 0 0 0 0 -619552.45483398438 10471399.154970407 0 10471399.154970407 15908781.346701145 0 0 0 0 -22974468.43548584 24832151.954052448 0 24832151.954052448 -1064222.3656549454 0 0 0 0 -2946714.141723156 -12013191.584316961 0 -12013191.584316961 31189692.173732281 0 0 0 0 -29060828.967895508 16663171.693232059 0 16663171.693232059 -3632335.0285041332 0 0 0 0 -560688.8904260993 264742.15163382888 0 264742.15163382888 104322.93359020608 0 0 0 0 -41222201.346435547 39695523.298484325 0 39695523.298484325 -25040485.960178375 0 0 0 0 -3777122.3722411245 2883914.514924197 0 2883914.514924197 315028.0687471705 0 0 0 0 -2898580.791015625 -2846865.7262074947 0 -2846865.7262074947 -5022797.2408035994 0 0 0 0 -40471839.664306641 -8400930.6349544525 0 -8400930.6349544525 -10476837.247590542 0 0 0 0 -1963571.7104336023 1500194.859431304 0 1500194.859431304 -408448.50421698164 0 0 0 0 1910702.6553344727 11767427.547974244 0 11767427.547974244 906843.78146443516 0 0 0 0 26707753.119689941 -10973584.425510406 0 -10973584.425510406 -67882423.865410089 0 0 0 0 46778377.397064209 30016310.947545886 0 30016310.947545886 -75693852.817198277 0 0 0 0 -146468.60772065818 1235561.6426228457 0 1235561.6426228457 -146792.14999843115 0 0 0 0 29409575.119873047 78606999.095332861 0 78606999.095332861 7631521.0622624177 0 0 0 0 42655887.288825989 63322354.683645964 0 63322354.683645964 -57869711.89324522 0 0 0 0 -28217295.695102647 2292840.9723540898 0 2292840.9723540898 705806.5650694822 0 0 0 0 -81933000.266921997 52862822.277117744 0 52862822.277117744 168978017.25394279 0 0 0 0 5386210.6766967773 -982019.974406956 0 -982019.974406956 -19870739.938481212 0 0 0 0 -17452020.782821655 2173891.580057038 0 2173891.580057038 10376060.351593837 0 0 0 0 -16529513.453826904 1066846.7941362262 0 1066846.7941362262 4567916.9341993332 0 0 0 0 -20677836.732894897 3146205.2972403653 0 3146205.2972403653 10136921.550685197 0 0 0 0 -20591774.180130005 9705713.1303325891 0 9705713.1303325891 25011151.902967215 0 0 0 0 -18621842.506103516 12912024.227884293 0 12912024.227884293 1984298.735497117 0 0 0 0 -16166138.670791626 1908025.7657831907 0 1908025.7657831907 6075040.7833639383 0 0 0 0 -11683308.374557495 442433.30456501245 0 442433.30456501245 2319668.4178434014 0 0 0 0 -11203153.80178833 -445813.37732869387 0 -445813.37732869387 -17638732.415586941 0 0 0 0 -30458000.947669983 36468081.523082018 0 36468081.523082018 -9262194.9851790667 0 0 0 0 -71327409.652084351 -20495490.81679827 0 -20495490.81679827 42431308.377312183 0 0 0 0 -2155373.4879157543 -935708.82610848173 0 -935708.82610848173 745189.83690162282 0 0 0 0 -96847465.76234436 -10504063.202142954 0 -10504063.202142954 2660013.5373132229 0 0 0 0 -67069619.03717041 -59023608.193044424 0 -59023608.193044424 -41306048.30104804 0 0 0 0 -27434983.265151978 3298976.3215277791 0 3298976.3215277791 818529.6260240078 0 0 0 0 -58336221.206344604 -19578033.835835099 0 -19578033.835835099 23806956.972786427 0 0 0 0 -11961151.587763429 -2136826.2552056722 0 -2136826.2552056722 844111.58657393092 0 0 0 0 -8250057.659362793 -4889537.7895998955 0 -4889537.7895998955 7310292.4775687456 0 0 0 0 -6739597.5044250488 -2306052.7901408672 0 -2306052.7901408672 2073156.0669622421 0 0 0 0 -38413060.369674683 -2415201.0972139835 0 -2415201.0972139835 54502681.959085464 0 0 0 0 1787923.9403076172 -7357158.4205665588 0 -7357158.4205665588 25139914.304854155 0 0 0 0 -11141783.452586785 -5547574.4030343704 0 -5547574.4030343704 -188569.33459488611 0 0 0 0 -11687430.466075897 -2538805.6247566938 0 -2538805.6247566938 3649936.3457870483 0 0 0 0 -35573166.661956787 -32744464.775191903 0 -32744464.775191903 46780553.483664513 0 0 0 0 -10634123.296691895 -1185249.9356908798 0 -1185249.9356908798 5374656.4731287956 0 0 0 0 6692018.8760986328 -24663326.890097618 0 -24663326.890097618 28647053.774870872 0 0 0 0 -35502711.450836182 -16098284.704183757 0 -16098284.704183757 26910955.402227879 0 0 0 0 -17508541.882080078 -11595097.397404194 0 -11595097.397404194 -24143050.971813202 0 0 0 0 -19123587.470069885 -82907.770987942815 0 -82907.770987942815 5560336.1533893347 0 0 0 0 -13250215.204940796 -34857722.760008454 0 -34857722.760008454 474042.15974140167 0 0 0 0 -17240831.156097412 -3073785.7735694647 0 -3073785.7735694647 1328428.2547515333 0 0 0 0 -8474551.915949285 -3600767.7611016221 0 -3600767.7611016221 3561736.7276154882 0 0 0 0 -16761559.293424368 1097012.2917929059 0 1097012.2917929059 114532.79017575155 0 0 0 0 -10758914.150501344 31384.120207026601 0 31384.120207026601 2006759.5350884041 0 0 0 0 -21417586.028568268 -232433.81608894467 0 -232433.81608894467 -6146330.5171041489 0 0 0 0 -304241.11460876465 23523266.451567173 0 23523266.451567173 -115969811.95532608 0 0 0 0 -83088842.802093506 19118586.701878309 0 19118586.701878309 110940024.61463737 0 0 0 0 -807082.44283260219 93030.515802018344 0 93030.515802018344 40551.907279418781 0 0 0 0 -80497.206163808703 556001.50586260669 0 556001.50586260669 90004.693174281274 0 0 0 0 -9720523.5099334717 -10671936.73791337 0 -10671936.73791337 8597236.2670738697 0 0 0 0 4608522.1120681763 26007637.251951456 0 26007637.251951456 -10324282.868909836 0 0 0 0 -11061337.353832215 -3136461.035999652 0 -3136461.035999652 3125294.6757637872 0 0 0 0 -15178427.232086182 -1461218.609590888 0 -1461218.609590888 5257233.4289281368 0 0 0 0 -13446597.200308025 -707596.42848476954 0 -707596.42848476954 -282306.20988981833 0 0 0 0 -16034647.591766357 1123582.7312152982 0 1123582.7312152982 1635533.142190218 0 0 0 0 -13957087.14932251 -33886116.44623673 0 -33886116.44623673 41751722.503324538 0 0 0 0 -50878451.544189453 -43469.858316063881 0 -43469.858316063881 21235351.000776052 0 0 0 0 -71764415.868225098 1243607.3277888298 0 1243607.3277888298 46047805.350522771 0 0 0 0 -11127344.291397095 -7562035.1874189377 0 -7562035.1874189377 16350688.42548871 0 0 0 0 22637090.854827881 2561182.2780288458 0 2561182.2780288458 9365305.0347962379 0 0 0 0 -11387866.818664551 3072329.4175870419 0 3072329.4175870419 12894742.626312375 0 0 0 0 -11633717.235190131 3563755.6529100388 0 3563755.6529100388 8465078.8607243076 0 0 0 0 -40652663.00680542 -7287550.0716103315 0 -7287550.0716103315 25308125.57776618 0 0 0 0 -2471010.7276153564 -10328415.960375786 0 -10328415.960375786 10522754.224359989 0 0 0 0 -40764937.704101562 1586150.7028497458 0 1586150.7028497458 4844361.3883986175 0 0 0 0 -44125995.791160583 -15093947.250328422 0 -15093947.250328422 9474680.2039220333 0 0 0 0 -41048063.549057007 -1414753.7183776349 0 -1414753.7183776349 11826570.856623173 0 0 0 0 -51973561.318389893 -23724542.281074286 0 -23724542.281074286 32251776.135923147 0 0 0 0 -43621331.134277344 -37676503.789687097 0 -37676503.789687097 -19632930.363951921 0 0 0 0 -26077277.945404053 3020510.9064319693 0 3020510.9064319693 -65887599.598795235 0 0 0 0 -57024912.435424805 34296513.400363684 0 34296513.400363684 -26642294.292201042 0 0 0 0 -26181539.546949387 4037291.3127940409 0 4037291.3127940409 -3324114.9004945755 0 0 0 0 -45113195.414245605 7621247.6851154845 0 7621247.6851154845 31402744.552057818 0 0 0 0 -45017782.150878906 13505107.515682213 0 13505107.515682213 13055246.958131589 0 0 0 0 -35491545.080841064 17914118.655616578 0 17914118.655616578 -22196635.879306875 0 0 0 0 -12635287.9765625 34736421.327450752 0 34736421.327450752 -24064054.382315956 0 0 0 0 -40915269.945053101 58083415.934940815 0 58083415.934940815 -18963422.379835844 0 0 0 0 -90728180.115570068 42862674.408530951 0 42862674.408530951 16413934.468217671 0 0 0 0 -2662985.177387163 -898175.57559640706 0 -898175.57559640706 922308.27615597949 0 0 0 0 12745906.9373703 9035922.5894016922 0 9035922.5894016922 -2604396.2108120918 0 0 0 0 4212413.5276489258 48443842.093680359 0 48443842.093680359 -19017641.985475302 0 0 0 0 14632114.162536621 -195619598.33814335 0 -195619598.33814335 95937670.401949048 0 0 0 0 -20881357.864318848 21254946.194393873 0 21254946.194393873 334849.47450363636 0 0 0 0 -21346916.085205078 6610295.4684854746 0 6610295.4684854746 -6523533.6053450108 0 0 0 0 -22591370.9765625 32795687.028704286 0 32795687.028704286 -17230288.573001385 0 0 0 0 -18479251.598236084 6899027.0556864738 0 6899027.0556864738 40991675.958650589 0 0 0 0 -43141420.765869141 4361816.5150442123 0 4361816.5150442123 30657584.89162159 0 0 0 0 -9126318.7117004395 6433842.5520224571 0 6433842.5520224571 30598845.041082382 0 0 0 0 -8918865.5420728624 -2975579.8151714057 0 -2975579.8151714057 3290358.6225400623 0 0 0 0 -16721724.605072021 27652334.366797447 0 27652334.366797447 42255697.228042468 0 0 0 0 -25089136.837188721 -29456771.734452128 0 -29456771.734452128 774385.25159645081 0 0 0 0 -13001085.556616277 3185577.7373246523 0 3185577.7373246523 2242305.6573515167 0 0 0 0 -3786217.2653198242 5410572.6900315285 0 5410572.6900315285 7900938.6015517712 0 0 0 0 -7748056.982673645 588168.58799674362 0 588168.58799674362 3491798.7663894645 0 0 0 0 -2059909.6494140625 5242663.8779482841 0 5242663.8779482841 12216570.626583576 0 0 0 0 -11105788.968221739 -2089452.9273574576 0 -2089452.9273574576 4581638.2185684256 0 0 0 0 13786829.483734131 26279977.568836749 0 26279977.568836749 11083224.859632075 0 0 0 0 4515483.2649383545 7669250.9127140045 0 7669250.9127140045 -19784109.713549137 0 0 0 0 -16064918.051202297 4407639.2496745884 0 4407639.2496745884 5245835.7143626995 0 0 0 0 -47557175.679168701 14754233.448967457 0 14754233.448967457 -51828151.299494505 0 0 0 0 25184829.212097168 12944719.054393232 0 12944719.054393232 -12080198.564543724 0 0 0 0 8318598.9849853516 8380414.3689838052 0 8380414.3689838052 20294653.319553241 0 0 0 0 519716.22726637125 406833.27329476178 0 406833.27329476178 -255825.98757018082 0 0 0 0 1921782.6576327831 8171307.5076738233 0 8171307.5076738233 -2066988.457571503 0 0 0 0 -24310494.777130127 352891.54917955399 0 352891.54917955399 1947450.0430805683 0 0 0 0 -5822853.4044189453 15827776.938100338 0 15827776.938100338 -10887418.84366703 0 0 0 0 -874257.7419065088 -920777.02526513301 0 -920777.02526513301 -613947.16673635412 0 0 0 0 -3965380.6827545166 -3138406.5547099113 0 -3138406.5547099113 -1291306.1130228043 0 0 0 0 -9283996.4700012207 43783689.762350559 0 43783689.762350559 12138501.888211012 0 0 0 0 -107846384.03344727 121367279.36760354 0 121367279.36760354 -108463027.32004738 0 0 0 0 -13405035.659848109 4105271.3411893398 0 4105271.3411893398 6355231.7746695736 0 0 0 0 -44278302.607330322 -24371600.332195759 0 -24371600.332195759 10918603.178946674 0 0 0 0 -196063629.81874084 58407524.842293978 0 58407524.842293978 -22493250.350046873 0 0 0 0 -22012200.326782227 -557983.04374885559 0 -557983.04374885559 -11245980.424302101 0 0 0 0 -42540501.170974731 -77089425.763797522 0 -77089425.763797522 -130413947.85978127 0 0 0 0 172965.45194230974 -1659985.9570870716 0 -1659985.9570870716 -710898.824329447 0 0 0 0 -74599210.261127472 -56345220.174028754 0 -56345220.174028754 -43184823.681433678 0 0 0 0 -75824441.448677063 -59187723.648918033 0 -59187723.648918033 -40346593.733797073 0 0 0 0 -25109639.33493042 -49551920.821908474 0 -49551920.821908474 -74515095.574713707 0 0 0 0 -48224070.128540039 -40872620.830109596 0 -40872620.830109596 -36159427.203504562 0 0 0 0 -12512507.50592804 -13352912.605684519 0 -13352912.605684519 -29589234.334644318 0 0 0 0 15091425.39364624 -170473.73720526695 0 -170473.73720526695 -55775727.624750376 0 0 0 0 -23024023.326019287 -2038273.5930633545 0 -2038273.5930633545 8431369.7457611561 0 0 0 0 -7420546.4358520508 -6526507.6219210625 0 -6526507.6219210625 -17541826.891703606 0 0 0 0 -3932667.1204986572 8898433.9637290239 0 8898433.9637290239 1209156.5681438446 0 0 0 0 -21315888.718078613 -15769059.784963608 0 -15769059.784963608 -18793624.478923798 0 0 0 0 -7623357.2263793945 1465466.9634612799 0 1465466.9634612799 10887606.709495068 0 0 0 0 -10967824.050895751 -1319378.2357320935 0 -1319378.2357320935 4210063.1714355294 0 0 0 0 -3000517.5050764009 -314212.7918465659 0 -314212.7918465659 1798795.5757911368 0 0 0 0 -9194814.9689941406 9624750.5814638138 0 9624750.5814638138 16137651.168532372 0 0 0 0 -8048768.7628173828 -1328842.944357872 0 -1328842.944357872 2517257.3988113403 0 0 0 0 -813700.09381103516 3189547.811811924 0 3189547.811811924 -13508521.620801926 0 0 0 0 -15292613.523254395 -5383196.1039142609 0 -5383196.1039142609 -15146332.209729195 0 0 0 0 -10925754.654571533 5017194.0694055557 0 5017194.0694055557 -12242781.947929382 0 0 0 0 -27043147.084503174 11588948.623492241 0 11588948.623492241 -2670013.1247825623 0 0 0 0 -8676154.034737587 13283716.141072378 0 13283716.141072378 -3728900.5786800385 0 0 0 0 -28196410.439819336 -1904440.2643013 0 -1904440.2643013 -14770763.99347496 0 0 0 0 -27381683.130599976 -5295347.6233768463 0 -5295347.6233768463 -670790.49974441528 0 0 0 0 -25237222.424316406 -11065411.832601547 0 -11065411.832601547 -20092152.811500549 0 0 0 0 -20181267.929794312 -3932700.3579626083 0 -3932700.3579626083 -15582875.840864182 0 0 0 0 -22565695.001220703 -9953026.2599258423 0 -9953026.2599258423 -20548598.104961395 0 0 0 0 -25915614.196960449 -12450233.22013855 0 -12450233.22013855 -19043638.65250206 0 0 0 0 -23080180.182800293 -13637954.202983856 0 -13637954.202983856 -24237912.133209229 0 0 0 0 -14669112.994628906 -3609577.9407758713 0 -3609577.9407758713 -17634819.758750916 0 0 0 0 -11617675.259887695 -13383543.946020126 0 -13383543.946020126 -24539217.669500351 0 0 0 0 -29617066.792785645 -22195520.477745056 0 -22195520.477745056 -29785055.929955959 0 0 0 0 -16144119.884033203 -11783152.738162994 0 -11783152.738162994 -28364257.204973221 0 0 0 0 -18647995.069519043 -23903612.128763199 0 -23903612.128763199 -41237915.126268387 0 0 0 0 -37095197.152954102 -20646865.833127975 0 -20646865.833127975 -26002922.490459442 0 0 0 0 -38264777.501980782 -33551556.338067532 0 -33551556.338067532 -30800477.818271637 0 0 0 0 -32993220.519927979 -23044449.264358521 0 -23044449.264358521 -31158582.891359329 0 0 0 0 -28059019.899681091 -12934422.641278267 0 -12934422.641278267 -18726866.545940399 0 0 0 0 -23823989.597793579 -11264784.048788071 0 -11264784.048788071 -22621935.458621979 0 0 0 0 -26101038.132141113 -17102987.401111603 0 -17102987.401111603 -27283450.638051987 0 0 0 0 -33707412.589355469 -16760656.906097412 0 -16760656.906097412 -25552631.20148468 0 0 0 0 -36542738.446655273 -18740624.919496536 0 -18740624.919496536 -27227218.351230621 0 0 0 0 -29115953.368453979 -19943405.698534012 0 -19943405.698534012 -29572847.677599907 0 0 0 0 -49271777.72505188 -24773233.245907784 0 -24773233.245907784 -24782340.038677216 0 0 0 0 -48872446.250854492 -25668532.266271591 0 -25668532.266271591 -26648539.669073105 0 0 0 0 -64280762.084587097 -23365500.872173548 0 -23365500.872173548 3223065.6836185455 0 0 0 0 -74036917.303527832 -29485121.59157753 0 -29485121.59157753 -20734440.205285072 0 0 0 0 -5916918.8119333088 -3535195.6809210256 0 -3535195.6809210256 -1270058.16900062 0 0 0 0 -54391744.839370728 -36777549.476554871 0 -36777549.476554871 -14256665.075134277 0 0 0 0 -70684951.711135864 -50323213.652092934 0 -50323213.652092934 -14140959.228225708 0 0 0 0 -82368652.054986954 -42893281.613619208 0 -42893281.613619208 -11087135.866573334 0 0 0 0 -79603551.252729416 -60158800.894601107 0 -60158800.894601107 -23765718.73780632 0 0 0 0 -72009865.672271729 -49521924.364496231 0 -49521924.364496231 -14625195.193276405 0 0 0 0 -73893875.398391724 -34679523.297766685 0 -34679523.297766685 -23306460.913303375 0 0 0 0 -52874139.058868408 -53414574.845165253 0 -53414574.845165253 -38896530.950841904 0 0 0 0 -18321300.816619873 -4209619.9316334724 0 -4209619.9316334724 -1684252.1329054832 0 0 0 0 -19143884.702526093 -2613108.9617869854 0 -2613108.9617869854 2517433.9103479385 0 0 0 0 -14629442.856124878 -28729893.364200115 0 -28729893.364200115 -20157469.102931976 0 0 0 0 -8563737.7198028564 -6961851.1032013893 0 -6961851.1032013893 -7659764.8852081299 0 0 0 0 -21512693.555311203 -6776352.3660443425 0 -6776352.3660443425 2270470.9011087418 0 0 0 0 -21752502.662773132 -5959245.9578754902 0 -5959245.9578754902 15478256.240819931 0 0 0 0 -31697533.63041687 -5450398.4259390831 0 -5450398.4259390831 46236965.835281372 0 0 0 0 -26202424.177581787 -11671153.451412201 0 -11671153.451412201 8156977.9419879913 0 0 0 0 -29642158.031005859 -41950049.462617874 0 -41950049.462617874 5611019.1234531403 0 0 0 0 -38503178.454467773 -37196380.824029922 0 -37196380.824029922 30684386.963708878 0 0 0 0 -15932715.17848587 -1054418.5032124519 0 -1054418.5032124519 3353030.3556613922 0 0 0 0 -11486911.016647339 7519254.1919980049 0 7519254.1919980049 16958259.301753998 0 0 0 0 -10417100.763010383 379976.77486849576 0 379976.77486849576 1127546.1269062944 0 0 0 0 -15324539.459030151 -363759.74457645416 0 -363759.74457645416 806433.44717502594 0 0 0 0 -63848081.040496826 -20788698.861427307 0 -20788698.861427307 8203468.7788729668 0 0 0 0 -41062313.754119873 8995661.3579330444 0 8995661.3579330444 -7080204.564242363 0 0 0 0 -8920294.1744689941 10952507.182263374 0 10952507.182263374 -7606912.3770418167 0 0 0 0 -66663840.495178223 6475636.2198295593 0 6475636.2198295593 13432209.783858538 0 0 0 0 -19989426.020751953 -5259289.7354879379 0 -5259289.7354879379 3615700.0365562439 0 0 0 0 -2701664.3465027288 -705525.43836717308 0 -705525.43836717308 1787356.7204509582 0 0 0 0 -13921970.627256081 -337752.26952973381 0 -337752.26952973381 2543623.3414600277 0 0 0 0 -11656479.393997192 655802.26589035988 0 655802.26589035988 673773.68770217896 0 0 0 0 -11005449.577205658 -2172551.8086361885 0 -2172551.8086361885 3111410.8746709824 0 0 0 0 -9075424.1284516752 193938.8605396226 0 193938.8605396226 3022242.9747826792 0 0 0 0 -9760273.1892988533 -2341857.9102066681 0 -2341857.9102066681 3214782.9513918161 0 0 0 0 -44391577.929321289 -528799.68723583221 0 -528799.68723583221 8583824.9492168427 0 0 0 0 -3081502.2009277344 5382973.0643091202 0 5382973.0643091202 8445829.8717870712 0 0 0 0 -7713916.3921508789 777598.58310031891 0 777598.58310031891 12801562.500597 0 0 0 0 -9083577.3929203451 -3353924.1120280363 0 -3353924.1120280363 3955415.9607674135 0 0 0 0 -18585326.959106445 -24903843.256707191 0 -24903843.256707191 -1972429.7266349792 0 0 0 0 -49159543.653900146 -329686.73986148834 0 -329686.73986148834 -1770835.5466804504 0 0 0 0 -19761968.284057617 -7319483.3422803879 0 -7319483.3422803879 -11202183.556150436 0 0 0 0 -13768054.600341797 8687370.2755889893 0 8687370.2755889893 6870742.4756355286 0 0 0 0 -22449939.435058594 -7318871.0014152527 0 -7318871.0014152527 -3529214.3975601196 0 0 0 0 2522497.7012634277 -1600449.1608686447 0 -1600449.1608686447 -8967286.1464557648 0 0 0 0 -13164874.578796387 -2357486.2935466766 0 -2357486.2935466766 -10029362.482246399 0 0 0 0 -23535718.645019531 -3984833.1423873901 0 -3984833.1423873901 -9013183.4507579803 0 0 0 0 -25067126.37701416 -9330665.0393352509 0 -9330665.0393352509 -9969441.6694097519 0 0 0 0 -27849723.893066406 -12366434.52409935 0 -12366434.52409935 -17174846.701983929 0 0 0 0 -19676625.563598633 -9088745.5775089264 0 -9088745.5775089264 -17638723.653873444 0 0 0 0 -23912912.294784546 -7304506.0835895538 0 -7304506.0835895538 -16447806.053955078 0 0 0 0 -23647836.109054565 -13356036.864659309 0 -13356036.864659309 -24981099.335599899 0 0 0 0 -26382601.157104492 -14331855.163600922 0 -14331855.163600922 -28786367.024539948 0 0 0 0 -30662014.300537109 -15703525.001081467 0 -15703525.001081467 -24519142.447937012 0 0 0 0 -60176797.438964844 -14748225.175952911 0 -14748225.175952911 -12454751.592777252 0 0 0 0 -36526950.768814087 -3615960.405620575 0 -3615960.405620575 -8401306.6595077515 0 0 0 0 -37625629.599365234 -4929999.1931657791 0 -4929999.1931657791 -9839653.2059059143 0 0 0 0 -34494412.670379639 -3557862.1611242294 0 -3557862.1611242294 -13086903.305660248 0 0 0 0 -35153655.802154541 -16123614.778324127 0 -16123614.778324127 -20703298.926954269 0 0 0 0 -25531230.520782471 -8447239.241601944 0 -8447239.241601944 -14451724.106859207 0 0 0 0 -24476022.320760727 3517830.3508241177 0 3517830.3508241177 -8116882.4406013489 0 0 0 0 -29355916.529968262 -6537681.5373106003 0 -6537681.5373106003 -7460280.0719680786 0 0 0 0 -6160510.4283270314 3829386.8091349229 0 3829386.8091349229 211640.6476951912 0 0 0 0 -13765322.383203506 -4567213.9852503538 0 -4567213.9852503538 690697.95921707153 0 0 0 0 -14248504.055924311 -2547676.8532450441 0 -2547676.8532450441 629138.18738639634 0 0 0 0 -34150813.182426453 -1983885.4626634121 0 -1983885.4626634121 -10202216.63445282 0 0 0 0 -2011481.8489503805 2100210.8905802965 0 2100210.8905802965 260632.85153701901 0 0 0 0 -16552606.182220459 -216885.30115127563 0 -216885.30115127563 1858817.12827833 0 0 0 0 -15033549.432319641 -1620183.106212616 0 -1620183.106212616 -10489310.510372162 0 0 0 0 -15300565.649932861 -4597601.5574941635 0 -4597601.5574941635 1876925.5425770208 0 0 0 0 -15907303.557445526 -1685852.8748904467 0 -1685852.8748904467 327222.07876205444 0 0 0 0 -4871523.0605316162 -4961497.4580364227 0 -4961497.4580364227 33546301.059799194 0 0 0 0 -73014375.870422363 97044993.748178482 0 97044993.748178482 -63929493.042821884 0 0 0 0 -25890215.122010883 -7743484.4407180808 0 -7743484.4407180808 749226.08728763857 0 0 0 0 -54503677.417678833 51602724.94019556 0 51602724.94019556 46484467.761539459 0 0 0 0 -15703237.870634384 6907919.5088274181 0 6907919.5088274181 5408081.8803138249 0 0 0 0 -39948278.173356801 2914257.4905718565 0 2914257.4905718565 17911819.577995475 0 0 0 0 1317731.6941530704 -14562900.636718944 0 -14562900.636718944 -81656293.846458435 0 0 0 0 1376254.8278045654 -21700223.686706543 0 -21700223.686706543 -11711592.709831238 0 0 0 0 -24640267.348008104 -5459047.327069141 0 -5459047.327069141 -1985127.5613810094 0 0 0 0 -17927130.336181641 -3886132.029440403 0 -3886132.029440403 11482339.428826332 0 0 0 0 -80150370.524246216 -40067928.261353254 0 -40067928.261353254 -24197590.346549988 0 0 0 0 -13947754.101287842 1898954.0178260803 0 1898954.0178260803 -7757613.0564308167 0 0 0 0 -19844358.567962646 20892678.218032837 0 20892678.218032837 -137088587.65207672 0 0 0 0 -3240215.1321182251 -10365329.487677217 0 -10365329.487677217 15462099.858844876 0 0 0 0 -3517745.1465301514 -12571143.986746311 0 -12571143.986746311 2260486.9950327873 0 0 0 0 -470143.29300137609 2419321.9198110225 0 2419321.9198110225 2818205.9095775196 0 0 0 0 -30521539.791768003 -7363224.1418136396 0 -7363224.1418136396 8270510.1084676338 0 0 0 0 -97613855.109680176 -114662184.21164322 0 -114662184.21164322 136634423.03265381 0 0 0 0 -3324252.0016326904 -6078014.1829998493 0 -6078014.1829998493 24664484.653093338 0 0 0 0 -20107383.403453469 -11393285.437112218 0 -11393285.437112218 3584729.8854374718 0 0 0 0 -3446943.9982784316 -12004367.224243414 0 -12004367.224243414 -2141172.0100669484 0 0 0 0 106563481.8649292 34883713.236454248 0 34883713.236454248 28781406.067469835 0 0 0 0 -31157157.283813477 6352897.972638607 0 6352897.972638607 91574907.811002001 0 0 0 0 -25542612.317504004 -14044487.413762216 0 -14044487.413762216 916739.70796600496 0 0 0 0 -149353.88963212073 716624.89999692258 0 716624.89999692258 876330.07229622058 0 0 0 0 -25307590.516357422 -32591221.867686868 0 -32591221.867686868 -29988245.510781765 0 0 0 0 -5896755.0172424316 -6124534.9911501408 0 -6124534.9911501408 14110549.970818996 0 0 0 0 -2386942.6084899902 -9497349.3350427151 0 -9497349.3350427151 -7552135.3310475945 0 0 0 0 -31417564.45716095 -23662550.314210892 0 -23662550.314210892 -37470576.081754684 0 0 0 0 -47125527.952430725 -848028.44589042664 0 -848028.44589042664 -8160551.5704231262 0 0 0 0 -130173535.07526398 -21156400.155286551 0 -21156400.155286551 75057158.345063686 0 0 0 0 -29833874.397445679 -14716776.71421051 0 -14716776.71421051 -32563545.34098053 0 0 0 0 -27994428.220291138 -17065525.412946701 0 -17065525.412946701 -29669330.463449478 0 0 0 0 -29138762.123469889 -7431508.2605138831 0 -7431508.2605138831 3371154.8108759341 0 0 0 0 -72547961.275802612 -26735037.80766964 0 -26735037.80766964 4826523.1471381187 0 0 0 0 -59240985.639511108 9852827.8296533227 0 9852827.8296533227 9350453.3340778351 0 0 0 0 -33645571.755096436 702697.21994237602 0 702697.21994237602 5773748.4480934143 0 0 0 0 -33037285.51159668 -12806567.914298773 0 -12806567.914298773 9732398.9500181675 0 0 0 0 -36055759.586928368 -14507590.095072299 0 -14507590.095072299 12510067.434242249 0 0 0 0 -13959514.045474797 -6828483.6840312108 0 -6828483.6840312108 5014103.4583277907 0 0 0 0 -26262176.773010254 -12802616.177760124 0 -12802616.177760124 15389361.583462954 0 0 0 0 -21710903.533279419 -11277002.570450783 0 -11277002.570450783 11193532.923723459 0 0 0 0 -24512875.357322142 -9212391.8724325001 0 -9212391.8724325001 5409089.6349793477 0 0 0 0 225786898.69693756 -125431399.73765039 0 -125431399.73765039 -16841106.534184933 0 0 0 0 27362547.799255371 -3676868.7480945587 0 -3676868.7480945587 205834890.56590796 0 0 0 0 -186596.67543029785 -23557029.735387206 0 -23557029.735387206 -43503385.673557341 0 0 0 0 1371532.2790309079 -3098464.3760659015 0 -3098464.3760659015 -455054.35649859649 0 0 0 0 -18321499.438718796 -21428723.65328753 0 -21428723.65328753 10954368.549875259 0 0 0 0 -10434265.684356689 -11333723.276893616 0 -11333723.276893616 10191608.320497513 0 0 0 0 -28349510.447174072 -27005938.393623114 0 -27005938.393623114 -2493778.7239588499 0 0 0 0 -362251102.23340607 -244580920.72440052 0 -244580920.72440052 259590514.07350826 0 0 0 0 -430755457.32134247 -154468872.18453532 0 -154468872.18453532 9276821.8124485016 0 0 0 0 -505868998.71098328 208367297.52698088 0 208367297.52698088 3361871.2082309723 0 0 0 0 318340627.97676086 194312741.24983788 0 194312741.24983788 -367095444.90229988 0 0 0 0 319135091.00681305 -7610526.822327137 0 -7610526.822327137 -235830705.29565048 0 0 0 0 50147197.617218018 552671868.31406116 0 552671868.31406116 -519086136.03909302 0 0 0 0 -121551875.56048584 113676816.88576412 0 113676816.88576412 -28696125.322278023 0 0 0 0 -86773008.653030396 -9956115.6232097149 0 -9956115.6232097149 43552274.458072662 0 0 0 0 3904059.9461669922 32279617.504475117 0 32279617.504475117 -8498253.7190647125 0 0 0 0 1117465.091003418 -4090789.8104653358 0 -4090789.8104653358 36906940.635853767 0 0 0 0 78966189.966766357 -26472595.585112095 0 -26472595.585112095 27547811.408278465 0 0 0 0 -23400374.42351532 -13037104.020205498 0 -13037104.020205498 35748771.931469917 0 0 0 0 -13169713.671478271 6611196.3918988705 0 6611196.3918988705 41485858.806983471 0 0 0 0 -105024817.364151 -47253694.699313879 0 -47253694.699313879 45801867.536682129 0 0 0 0 -67816092.48991394 14851622.559932232 0 14851622.559932232 47756925.35242331 0 0 0 0 -163624448.7115612 -78281944.215258479 0 -78281944.215258479 19742905.419676781 0 0 0 0 -185998910.8513031 25623794.257271767 0 25623794.257271767 47748680.758008003 0 0 0 0 -125879876.59718037 50767291.870499134 0 50767291.870499134 33506093.280200958 0 0 0 0 -153723990.85386658 -68419824.392770767 0 -68419824.392770767 8837936.8795208931 0 0 0 0 -164408215.13755798 -121697875.58430481 0 -121697875.58430481 -27829449.963036537 0 0 0 0 -164481896.77220154 -70378623.266098976 0 -70378623.266098976 35723538.758278847 0 0 0 0 -96380393.280937195 -85810598.129529238 0 -85810598.129529238 -8970251.0766472816 0 0 0 0 -111908074.62927246 -60109184.389893651 0 -60109184.389893651 40686008.668379307 0 0 0 0 -93083075.193450928 -50970788.985176563 0 -50970788.985176563 33857496.12142849 0 0 0 0 -109762545.4495697 -58308351.731281281 0 -58308351.731281281 7772477.2092389278 0 0 0 0 -79862912.859207153 -62786404.404698133 0 -62786404.404698133 7808958.0916323662 0 0 0 0 -67714103.541984558 -48695362.857539177 0 -48695362.857539177 -29113761.990633488 0 0 0 0 -12163889.533548355 2906840.9352608621 0 2906840.9352608621 15392459.207791328 0 0 0 0 -42868360.754692078 -23242907.556719065 0 -23242907.556719065 75605156.780478001 0 0 0 0 -1197467.7769927979 -64677773.146277905 0 -64677773.146277905 -68758972.4672544 0 0 0 0 -98759283.5572052 -152532945.01812458 0 -152532945.01812458 -62035980.902401686 0 0 0 0 -4604530.7610360347 1975311.2106218506 0 1975311.2106218506 1319839.0108397419 0 0 0 0 -116009505.72692871 -27905747.52684021 0 -27905747.52684021 29571481.748303413 0 0 0 0 -32953675.83203125 391475.58313083649 0 391475.58313083649 3048597.1341457367 0 0 0 0 -55323447.747780107 -12147396.493892111 0 -12147396.493892111 10340069.562847476 0 0 0 0 -102108811.41556549 44047.74022102356 0 44047.74022102356 51817465.077947617 0 0 0 0 -26292484.896783121 -3575201.5573187992 0 -3575201.5573187992 11903962.932790501 0 0 0 0 -32653426.657787479 -1182986.4153055502 0 -1182986.4153055502 5938679.6595368534 0 0 0 0 -50202161.607437134 -17371380.684480667 0 -17371380.684480667 -16580447.50384903 0 0 0 0 -31834125.15851593 -11094201.744344354 0 -11094201.744344354 16677126.614827812 0 0 0 0 -37072134.899200439 -18630633.580429077 0 -18630633.580429077 -27231440.389419675 0 0 0 0 -4560792.8350143433 942344.38720309734 0 942344.38720309734 -2826927.8205757141 0 0 0 0 -19613877.592971802 18372832.507461309 0 18372832.507461309 8051061.8993825912 0 0 0 0 -25694201.454299927 -1043811.944507122 0 -1043811.944507122 -2076923.448318243 0 0 0 0 -13991495.061141968 -12918805.024721861 0 -12918805.024721861 2501487.0904912949 0 0 0 0 -39367601.277961731 -13574145.270123243 0 -13574145.270123243 3576564.3489844799 0 0 0 0 -27811897.226570129 -2974498.6152276993 0 -2974498.6152276993 4532124.7907061577 0 0 0 0 -19405471.988936871 1850585.4476585761 0 1850585.4476585761 12746438.59935019 0 0 0 0 -27215466.25976181 -1598153.223285377 0 -1598153.223285377 5776957.1691365242 0 0 0 0 -28480417.499511719 -4002276.5438218117 0 -4002276.5438218117 9799188.6913385391 0 0 0 0 -24262666.076980591 2422339.9964776039 0 2422339.9964776039 5462253.8327059746 0 0 0 0 -20884351.644134521 -4794483.8045482635 0 -4794483.8045482635 8535044.6798555851 0 0 0 0 -29579036.92150116 -3268512.2421281338 0 -3268512.2421281338 14283197.348511219 0 0 0 0 -17752695.962276418 3356917.1002579071 0 3356917.1002579071 12220276.253346954 0 0 0 0 -45317302.80758667 5967681.3531084061 0 5967681.3531084061 33613040.891572952 0 0 0 0 -32197016.762374878 -6828648.056781292 0 -6828648.056781292 9491866.4047323465 0 0 0 0 -117929812.29122162 -38059002.641197205 0 -38059002.641197205 21015093.594333649 0 0 0 0 -156364939.57219696 7680269.7407941818 0 7680269.7407941818 92813126.714851379 0 0 0 0 -37371155.770198822 3202818.1584763527 0 3202818.1584763527 -18637176.486427307 0 0 0 0 -89378775.08373642 -39139016.357012749 0 -39139016.357012749 -62344042.093967438 0 0 0 0 -264080031.95554733 -148987499.56895828 0 -148987499.56895828 -12201596.71818924 0 0 0 0 -3488012.7397231087 -1714794.6042065546 0 -1714794.6042065546 -211979.15605643578 0 0 0 0 82247112.509544373 332661507.05855465 0 332661507.05855465 239132803.33131027 0 0 0 0 16567127.963607788 17648726.795544624 0 17648726.795544624 61653756.795074463 0 0 0 0 -274863784.77580261 -109278248.1685791 0 -109278248.1685791 90952156.96193409 0 0 0 0 -213212329.12445068 -111641219.52290344 0 -111641219.52290344 89184695.404747009 0 0 0 0 -127910537.06964588 -95321300.69188571 0 -95321300.69188571 24796918.418434143 0 0 0 0 -161853020.6103363 -68772810.039834976 0 -68772810.039834976 90776237.891350269 0 0 0 0 -41927352.535423279 45544961.154384613 0 45544961.154384613 60197228.506137848 0 0 0 0 -109499505.38555717 9270831.9823691845 0 9270831.9823691845 164689264.60855103 0 0 0 0 -11762364.329856593 -6328093.4040408693 0 -6328093.4040408693 -1429546.6197366398 0 0 0 0 -161760050.10533524 -83232962.435897827 0 -83232962.435897827 -18104996.272911072 0 0 0 0 84122147.130958557 174830244.934412 0 174830244.934412 148343663.42095327 0 0 0 0 20549574.2954216 9958159.6569838524 0 9958159.6569838524 49119935.103485107 0 0 0 0 -62480012.690765381 29047818.894805908 0 29047818.894805908 106972385.13866425 0 0 0 0 9041908.0179367065 89149808.935855865 0 89149808.935855865 88050969.921580315 0 0 0 0 -26900126.818489294 -14055434.720418714 0 -14055434.720418714 -3420167.8602919839 0 0 0 0 -103432596.47077179 -46298106.233385086 0 -46298106.233385086 11958850.802137375 0 0 0 0 -38969444.413215637 -28635172.621446609 0 -28635172.621446609 -32289267.96112442 0 0 0 0 -10687094.558639526 24952877.037679672 0 24952877.037679672 33051060.367236137 0 0 0 0 -154667114.15035629 -80987404.236069679 0 -80987404.236069679 -12545236.133495331 0 0 0 0 -73937382.5990448 38348847.025592804 0 38348847.025592804 55356897.965206146 0 0 0 0 -45805154.768615723 6856479.1344547272 0 6856479.1344547272 82542469.768745422 0 0 0 0 -135691366.37046814 -50046666.977135658 0 -50046666.977135658 -810272.74794006348 0 0 0 0 -52628850.560508728 41668705.606399536 0 41668705.606399536 39250575.143680573 0 0 0 0 -134776862.77836609 -48689160.427474976 0 -48689160.427474976 13256075.544579506 0 0 0 0 -200164152.77030945 -42498740.525844574 0 -42498740.525844574 14784521.67609024 0 0 0 0 -185570705.95092773 -61386872.482475281 0 -61386872.482475281 -24249878.889894485 0 0 0 0 -213344462.56291199 -128044231.20439148 0 -128044231.20439148 -46488913.569763184 0 0 0 0 -181984867.83590698 -123597324.66234016 0 -123597324.66234016 -82967607.913757324 0 0 0 0 -278896016.15817261 -138300373.43355942 0 -138300373.43355942 -113386878.28226471 0 0 0 0 4837713.3612594604 1099430.0143318176 0 1099430.0143318176 -32245350.449440002 0 0 0 0 -286787363.11184692 -156411988.22718048 0 -156411988.22718048 -63869488.848052979 0 0 0 0 -240078030.83985901 -142048292.65681076 0 -142048292.65681076 -211391915.58455658 0 0 0 0 -237356985.87956238 -175272558.61416245 0 -175272558.61416245 -142861684.61927032 0 0 0 0 -244522556.5435667 -100885796.5738318 0 -100885796.5738318 -51160003.864830017 0 0 0 0 -297184828.88212585 -315722462.891325 0 -315722462.891325 -212017277.34388739 0 0 0 0 -176581815.90211487 -37802445.858728409 0 -37802445.858728409 29679351.590633392 0 0 0 0 -194076476.0294342 -116576250.8096199 0 -116576250.8096199 -65018941.279823303 0 0 0 0 -345926873.85223389 -268439843.60939789 0 -268439843.60939789 -95184157.713773727 0 0 0 0 -158574800.37402344 -130474537.26656914 0 -130474537.26656914 -74456581.584646225 0 0 0 0 -222762696.35372925 -143864743.17232513 0 -143864743.17232513 -3125159.398147583 0 0 0 0 -304741692.66400909 -134555772.0402317 0 -134555772.0402317 35265116.352600098 0 0 0 0 -393616367.33889771 -139798032.98656654 0 -139798032.98656654 504923793.2980957 0 0 0 0 -302468446.57917786 -248020087.68199539 0 -248020087.68199539 72148344.158315659 0 0 0 0 -3608589.9762268066 -77714965.481956482 0 -77714965.481956482 83638781.714530945 0 0 0 0 295164782.88375854 307591642.72465706 0 307591642.72465706 227489558.66343689 0 0 0 0 -1331129.7909395993 -379952.39822276682 0 -379952.39822276682 1131971.8906861264 0 0 0 0 -1624815.2124293856 -167453.25548993424 0 -167453.25548993424 315437.044423379 0 0 0 0 -25906150.425201416 126729138.18355942 0 126729138.18355942 479765246.9956398 0 0 0 0 -118605786.77485466 -17691005.425935268 0 -17691005.425935268 -69981624.698154449 0 0 0 0 -125972836.9599762 44950065.185451508 0 44950065.185451508 235633838.76095963 0 0 0 0 73279968.827407837 61935391.282569885 0 61935391.282569885 172742825.08243179 0 0 0 0 236269503.87350273 52645005.887442112 0 52645005.887442112 35265614.754814148 0 0 0 0 -309411640.10845947 -132853168.01243019 0 -132853168.01243019 127967587.64669228 0 0 0 0 -218281549.62602234 238030834.5799942 0 238030834.5799942 -45761980.393596888 0 0 0 0 369312.59323850088 1313326.5931051746 0 1313326.5931051746 -376857.38037769496 0 0 0 0 149066040.66668701 -200873049.85536289 0 -200873049.85536289 128800865.74037933 0 0 0 0 -585404729.43645477 190431068.66962624 0 190431068.66962624 152852403.30844498 0 0 0 0 -54251618.94190979 -15639534.750835419 0 -15639534.750835419 13827947.553081512 0 0 0 0 -3392931.0065123886 -1980743.8430416174 0 -1980743.8430416174 2510623.1610697638 0 0 0 0 -33766349.88508606 210928964.00331116 0 210928964.00331116 26597516.076730728 0 0 0 0 -4779687.2568479404 -574981.21209717542 0 -574981.21209717542 579003.98937418871 0 0 0 0 -251770489.94530869 -207448460.99915886 0 -207448460.99915886 -123359577.80702972 0 0 0 0 -99961820.065109253 39047271.374004364 0 39047271.374004364 150584754.99266815 0 0 0 0 -130932668.46031952 24704836.445005417 0 24704836.445005417 87832356.646434784 0 0 0 0 -207606937.40516663 -64062288.327692032 0 -64062288.327692032 142454397.37320137 0 0 0 0 -155422610.62900543 -43424362.842422962 0 -43424362.842422962 146856173.44776917 0 0 0 0 -85132025.850585938 -4826952.9896430969 0 -4826952.9896430969 91193218.383687049 0 0 0 0 -45780828.796783447 -19704764.065948486 0 -19704764.065948486 91443941.605927467 0 0 0 0 84171490.04510498 -86445931.970170975 0 -86445931.970170975 114350416.44172287 0 0 0 0 -129659982.00770569 -77405012.701059341 0 -77405012.701059341 191215178.53572083 0 0 0 0 -107513364.49687195 -92227716.022773743 0 -92227716.022773743 186719357.93097401 0 0 0 0 -75152966.233306885 -82363965.345615387 0 -82363965.345615387 109132371.81237411 0 0 0 0 -91898413.684062958 -62715297.106170654 0 -62715297.106170654 169408441.75075531 0 0 0 0 -91546078.188049316 -70924184.178430557 0 -70924184.178430557 114369242.25841141 0 0 0 0 -34361322.603729248 -55225036.67358017 0 -55225036.67358017 87733467.045585632 0 0 0 0 -75939608.61575079 -67296415.226229787 0 -67296415.226229787 84296497.580581665 0 0 0 0 -126517204.09725952 24019330.980869293 0 24019330.980869293 -26986731.737960815 0 0 0 0 -79851714.239479065 -24019303.743507624 0 -24019303.743507624 17493837.497932434 0 0 0 0 -7370352.9408807755 -55245342.54422617 0 -55245342.54422617 -45931089.076652527 0 0 0 0 -40847367.232162476 -60976103.62297821 0 -60976103.62297821 -41471111.592697144 0 0 0 0 -46498957.426193237 -49735033.187549591 0 -49735033.187549591 -16920193.078041077 0 0 0 0 -55994578.041213989 -73713947.322862625 0 -73713947.322862625 -7548946.8678817749 0 0 0 0 -7710.226180665195 2237419.2020392157 0 2237419.2020392157 1039908.8427483961 0 0 0 0 -165987581.11018372 -104889487.55023575 0 -104889487.55023575 -98101914.77980423 0 0 0 0 -191988468.10757065 -171761109.28790188 0 -171761109.28790188 -156308698.38105774 0 0 0 0 -200862889.11775208 -82161246.823994637 0 -82161246.823994637 37827912.158737183 0 0 0 0 -107802292.28527832 -112958345.09347534 0 -112958345.09347534 79340316.667022705 0 0 0 0 -49874585.368255615 -83384224.660652161 0 -83384224.660652161 37284734.651402473 0 0 0 0 -102320300.51580811 -128045710.56966782 0 -128045710.56966782 246615724.12575912 0 0 0 0 -13807827.541115176 -9257732.5759882443 0 -9257732.5759882443 662438.79684148543 0 0 0 0 20352053.508773804 -782487.24331665039 0 -782487.24331665039 16500761.542617798 0 0 0 0 26090664.48008728 41221783.460273743 0 41221783.460273743 -24183911.056167603 0 0 0 0 -316095135.08015442 -84324185.449958801 0 -84324185.449958801 24322761.706474304 0 0 0 0 -232100133.79927063 -171532290.60236931 0 -171532290.60236931 -74528220.906417847 0 0 0 0 -132472287.07049561 -111240410.96157265 0 -111240410.96157265 69692339.394485474 0 0 0 0 -146529418.24894714 -33408316.458171844 0 -33408316.458171844 -110416530.00690842 0 0 0 0 -182679816.81929016 41973680.414497375 0 41973680.414497375 215090248.15985489 0 0 0 0 -65169219.357533582 -14162404.799352605 0 -14162404.799352605 8255159.7420360586 0 0 0 0 7131501.2634429932 25168500.160114288 0 25168500.160114288 -32003743.511381149 0 0 0 0 -289897439.59385395 -307536790.40420318 0 -307536790.40420318 -45831304.839149475 0 0 0 0 -522276.1869378984 953474.85870543495 0 953474.85870543495 825434.02733705193 0 0 0 0 93341947.840240479 -279488940.15104675 0 -279488940.15104675 -248967003.38361359 0 0 0 0 -45170879.096099854 -24206884.391338587 0 -24206884.391338587 -67683600.199279785 0 0 0 0 -86318275.407775879 31529761.862904549 0 31529761.862904549 -12436281.806840897 0 0 0 0 -39463899.352386475 -10412107.269336224 0 -10412107.269336224 -84891598.918928146 0 0 0 0 -63189756.217651367 -22837854.029685974 0 -22837854.029685974 -60298385.887363434 0 0 0 0 -85020373.527931213 -61606909.444101334 0 -61606909.444101334 -32254854.917963028 0 0 0 0 -29629457.82754577 -17505873.888445668 0 -17505873.888445668 -1602878.9680045824 0 0 0 0 -63669522.128692627 -91374707.882068634 0 -91374707.882068634 -80527853.88467598 0 0 0 0 -198053179.52597046 -78211066.436674118 0 -78211066.436674118 86029481.826944351 0 0 0 0 27206770.375911176 -35388156.007014483 0 -35388156.007014483 -3761220.0670280457 0 0 0 0 -66759852.393494621 -12771080.635923626 0 -12771080.635923626 9738548.8908027988 0 0 0 0 -84333225.225402832 -10610901.330949306 0 -10610901.330949306 -65349538.27525425 0 0 0 0 -48006965.286895752 -14403698.780543327 0 -14403698.780543327 -92951533.702181816 0 0 0 0 -69736432.379843801 -18502028.469070002 0 -18502028.469070002 6485207.3052361943 0 0 0 0 -18637189.70603849 -8407747.2854272649 0 -8407747.2854272649 -242369.11170122959 0 0 0 0 189818930.82173157 -193044055.25186062 0 -193044055.25186062 -63955336.299607277 0 0 0 0 -53688553.008728027 -168185102.05421829 0 -168185102.05421829 -47564907.483352661 0 0 0 0 -117273496.69502258 -92245959.728034735 0 -92245959.728034735 -7776756.1492366791 0 0 0 0 -13275825.107696533 -96975554.15687418 0 -96975554.15687418 7268688.2322330475 0 0 0 0 70160458.327514648 -169802542.82271957 0 -169802542.82271957 -17589708.066045761 0 0 0 0 136542402.31994629 -168680781.39638901 0 -168680781.39638901 -57857430.435396194 0 0 0 0 775039.57849121094 -75941221.283911943 0 -75941221.283911943 -12731637.283491135 0 0 0 0 -34615728.83114624 -66788276.05387044 0 -66788276.05387044 -7594510.3238406181 0 0 0 0 -53419634.024215698 -71387073.90378201 0 -71387073.90378201 40265805.265336514 0 0 0 0 -28736383.146942139 -85903828.741043091 0 -85903828.741043091 23784386.858044624 0 0 0 0 -5326778.7310791016 -71228897.453971386 0 -71228897.453971386 29281597.849627972 0 0 0 0 -37653686.426605225 -58533228.071790695 0 -58533228.071790695 16480370.176836014 0 0 0 0 3496582.7421569824 -73028286.800469398 0 -73028286.800469398 27926750.274244308 0 0 0 0 -18951611.667633057 -95914607.632090092 0 -95914607.632090092 12824845.95941925 0 0 0 0 42920539.24597168 -91703479.13215065 0 -91703479.13215065 22573847.847042084 0 0 0 0 -4657624.6459922791 -79467641.210256949 0 -79467641.210256949 36568150.827269554 0 0 0 0 88454525.363811493 -67510856.878183067 0 -67510856.878183067 19678371.492619038 0 0 0 0 51285184.403198242 -68091126.440459251 0 -68091126.440459251 26691824.922848701 0 0 0 0 117448910.02814865 -85515750.124724388 0 -85515750.124724388 5984317.8060894012 0 0 0 0 104175138.33230591 -72247322.239049435 0 -72247322.239049435 10857303.411741257 0 0 0 0 63827428.909057617 -118360140.09965992 0 -118360140.09965992 10380815.213093758 0 0 0 0 -46801281.427139282 -68704318.143144131 0 -68704318.143144131 -111390142.45132065 0 0 0 0 -67036600.242156982 9804176.2201728821 0 9804176.2201728821 -98653224.166810036 0 0 0 0 -42891296.729595184 -30559907.145612121 0 -30559907.145612121 -74833602.502511978 0 0 0 0 -20249491.891052246 -88288712.210473061 0 -88288712.210473061 1068396.3398704529 0 0 0 0 -54455479.785362244 -75886898.731058657 0 -75886898.731058657 20761081.725212574 0 0 0 0 -33604311.338943481 -38598462.813855112 0 -38598462.813855112 -56807477.363633156 0 0 0 0 95329848.334732056 -110251177.7430892 0 -110251177.7430892 -31659752.942186832 0 0 0 0 589967.49730369821 1826626.1889241189 0 1826626.1889241189 -584775.92308854591 0 0 0 0 -252435967.4987793 -4346605.2542190552 0 -4346605.2542190552 18604112.950085163 0 0 0 0 -66544808.384475708 -16522145.389493942 0 -16522145.389493942 -100575627.83260155 0 0 0 0 -203792361.5300293 -93580999.219223022 0 -93580999.219223022 -138596555.38077641 0 0 0 0 -229602426.41751099 85490163.521979451 0 85490163.521979451 -64337579.170532227 0 0 0 0 -65207667.597488403 5230845.0180865526 0 5230845.0180865526 -220931187.09358406 0 0 0 0 -39376386.766418457 17225482.57670784 0 17225482.57670784 -153796199.80914593 0 0 0 0 -48940864.114105225 575028.02765369415 0 575028.02765369415 -32613962.63628602 0 0 0 0 -49835937.839144707 48948919.045270056 0 48948919.045270056 -93374337.459289551 0 0 0 0 36872027.315711975 -3486105.894928813 0 -3486105.894928813 -71627084.094873428 0 0 0 0 -17578737.245101929 42770051.909320474 0 42770051.909320474 -57134008.508804798 0 0 0 0 -85232937.100067139 34807474.35576582 0 34807474.35576582 -138090956.24419487 0 0 0 0 -85169401.8465271 30068660.599676132 0 30068660.599676132 -52452135.934184074 0 0 0 0 -209196914.77708435 -92408546.454761982 0 -92408546.454761982 -51798489.488536835 0 0 0 0 -197774263.64417076 47530491.050956666 0 47530491.050956666 -66868012.309901237 0 0 0 0 -71786816.53314209 -4243871.9961652756 0 -4243871.9961652756 -49815410.47244978 0 0 0 0 -75492283.819915771 32084533.010638237 0 32084533.010638237 -97863868.351975203 0 0 0 0 -69245504.924163818 -17702547.348361969 0 -17702547.348361969 1172869.5816144943 0 0 0 0 -120285407.50645447 -66718917.092386246 0 -66718917.092386246 -25283670.475436211 0 0 0 0 -121309383.29626465 9581559.5071525574 0 9581559.5071525574 -12903130.284452438 0 0 0 0 -59368846.743462928 -11438342.019215647 0 -11438342.019215647 9558151.3880801667 0 0 0 0 -85678887.018520355 790762.83834457397 0 790762.83834457397 37317547.648651123 0 0 0 0 -88897023.330856323 57237440.42115593 0 57237440.42115593 153227370.39443207 0 0 0 0 -93827373.037078857 -47450343.171126366 0 -47450343.171126366 11531206.363652706 0 0 0 0 -62389442.190890953 -14997044.040614724 0 -14997044.040614724 7519051.5617550127 0 0 0 0 -25962454.954537377 -10173366.63660866 0 -10173366.63660866 -3264728.4496605471 0 0 0 0 -53917712.364181519 15518480.824737549 0 15518480.824737549 -82368896.670009613 0 0 0 0 -111666904.60354614 -91326006.94320631 0 -91326006.94320631 -41171814.279628754 0 0 0 0 -228356521.91822815 -72066256.717998028 0 -72066256.717998028 -44031639.842433929 0 0 0 0 -195837474.61987305 39340658.288917542 0 39340658.288917542 -86110756.63718605 0 0 0 0 -41006696.173294067 -14923220.33332634 0 -14923220.33332634 -38693444.243114471 0 0 0 0 -8367446.9791404009 -2837800.1221577749 0 -2837800.1221577749 -503181.37169991527 0 0 0 0 -58077925.544658661 23726931.651430607 0 23726931.651430607 7201833.1521110535 0 0 0 0 -3988824261.8175354 -1057266876.1741933 0 -1057266876.1741933 -1590245327.9546621 0 0 0 0 -11992314790.713562 -583256269.44742513 0 -583256269.44742513 -2973176302.2419558 0 0 0 0 -4559393.614926666 788266.95613472164 0 788266.95613472164 -801511.81749927008 0 0 0 0 -11015377161.57724 -2889018208.0545411 0 -2889018208.0545411 886651591.36420155 0 0 0 0 -4798887524.8970642 -2238293898.5816197 0 -2238293898.5816197 -452189480.61341834 0 0 0 0 -6613379172.000946 -1818468231.095705 0 -1818468231.095705 -67866699.992776468 0 0 0 0 -5549769696.0458832 -1448164041.0735774 0 -1448164041.0735774 -568749315.70285153 0 0 0 0 -5970336402.0456848 -1946806560.7713084 0 -1946806560.7713084 -343801044.80727303 0 0 0 0 -8868098.8634980917 709721.20226233453 0 709721.20226233453 -587546.34278383607 0 0 0 0 -6028483242.0975571 -2293020077.4609232 0 -2293020077.4609232 -531698896.91802806 0 0 0 0 -5579095341.640625 -1940135866.7078156 0 -1940135866.7078156 -627166776.88127136 0 0 0 0 -5599664527.3609314 -2280228685.4388075 0 -2280228685.4388075 -797533081.84062052 0 0 0 0 -4046157860.5616379 -1460393863.2061694 0 -1460393863.2061694 617375480.56802106 0 0 0 0 -4098776168.9806767 -1907131549.139179 0 -1907131549.139179 30202974.589686155 0 0 0 0 -3876212481.072998 -1172564030.6605146 0 -1172564030.6605146 489486859.48140121 0 0 0 0 -4141435423.7648315 -1429069225.2340598 0 -1429069225.2340598 1022643264.8305094 0 0 0 0 -3826793240.916687 -1358345528.7575643 0 -1358345528.7575643 -79025637.088683069 0 0 0 0 -2149897402.1639099 -203114171.74114186 0 -203114171.74114186 -75541315.472515404 0 0 0 0 -4218873492.2244873 564564657.08386469 0 564564657.08386469 106905698.21018124 0 0 0 0 -617365656.91744995 -155844437.07934999 0 -155844437.07934999 -300003352.93362081 0 0 0 0 -1587463221.1159058 473530550.96135986 0 473530550.96135986 -385991998.22044849 0 0 0 0 -774651371.99136353 -71836467.416883707 0 -71836467.416883707 -563399048.18339539 0 0 0 0 180004267.98460388 -345410607.80794621 0 -345410607.80794621 -410649673.15002489 0 0 0 0 -581927875.33001709 125158852.51316655 0 125158852.51316655 -418100798.01412916 0 0 0 0 379978809.03916931 445837171.54708433 0 445837171.54708433 -536761425.10492367 0 0 0 0 -1194283901.3135986 2362320386.6864991 0 2362320386.6864991 84914831.638527632 0 0 0 0 -2573389721.9691772 280400215.6765542 0 280400215.6765542 -130886024.01313853 0 0 0 0 -5797197431.5944672 2549852857.7993031 0 2549852857.7993031 421637911.43185472 0 0 0 0 -1866137363.4372101 1157531601.6449924 0 1157531601.6449924 -540364701.65834808 0 0 0 0 -10233052976.113159 -4389342812.523798 0 -4389342812.523798 -2950694264.4890199 0 0 0 0 -8385039.5355336219 2704551.379955858 0 2704551.379955858 -854852.52335645352 0 0 0 0 -4366028546.5700073 -3851575276.4679718 0 -3851575276.4679718 -3128078973.4339643 0 0 0 0 7914220.7739257812 277783591.44048309 0 277783591.44048309 902963587.57438087 0 0 0 0 126170999.66828918 -561808843.3741945 0 -561808843.3741945 191777473.02303123 0 0 0 0 -115975156.46957397 -193346996.65289044 0 -193346996.65289044 211049754.4252677 0 0 0 0 -177404737.33139038 -449599935.63376141 0 -449599935.63376141 740527004.4891367 0 0 0 0 -2156968570.5257454 -1678646629.8938324 0 -1678646629.8938324 -1634278306.9759419 0 0 0 0 -20140566.574734896 7193968.4997153878 0 7193968.4997153878 -1595262.7360904943 0 0 0 0 -2000115217.8559265 -1882916278.6507459 0 -1882916278.6507459 -1619879473.4227314 0 0 0 0 -3995297080.8007812 -2572182114.8311543 0 -2572182114.8311543 -1262282274.2444263 0 0 0 0 -4351105360.432251 -1040264160.4483687 0 -1040264160.4483687 -536870082.21702605 0 0 0 0 -1991697371.5157547 -2108062844.9105964 0 -2108062844.9105964 -2187333627.4402175 0 0 0 0 -7850019865.5200195 -1559721782.0261974 0 -1559721782.0261974 -602376806.01331413 0 0 0 0 -5478812044.4998932 -101331713.30766252 0 -101331713.30766252 -2142516655.3355203 0 0 0 0 -6616941193.0380554 -1089832808.8383892 0 -1089832808.8383892 -681344417.9712652 0 0 0 0 -5509462507.6273499 -239728823.84814736 0 -239728823.84814736 -655480226.38046861 0 0 0 0 -4573653818.6793213 477153574.17082071 0 477153574.17082071 -504254949.42769885 0 0 0 0 -6599145074.0028534 696018557.15646863 0 696018557.15646863 679297156.94304442 0 0 0 0 -4779751311.7550297 -1044281360.6942211 0 -1044281360.6942211 -309833127.31622994 0 0 0 0 -816818142.58729553 -1228756666.9187801 0 -1228756666.9187801 -483473094.31289029 0 0 0 0 -7056749.3253481686 -969845.23991230503 0 -969845.23991230503 1877968.9979385156 0 0 0 0 -2797091577.3218231 2155274295.2656431 0 2155274295.2656431 1179585750.549062 0 0 0 0 -1958003332.9053192 -273947044.86898017 0 -273947044.86898017 -597210.96996015636 0 0 0 0 -6600157959.8945684 -2390389926.2595925 0 -2390389926.2595925 572898892.60389733 0 0 0 0 -5365106427.8425674 -707191986.94412351 0 -707191986.94412351 -115216218.24314117 0 0 0 0 -3842730.2030109316 -1472495.9300101995 0 -1472495.9300101995 214622.65193404024 0 0 0 0 -5535233327.1852722 77109143.360189483 0 77109143.360189483 2772212110.6405978 0 0 0 0 -5693497.9061973095 70650.662492372096 0 70650.662492372096 774925.67323750386 0 0 0 0 -5003058173.0529785 -3359294492.1733837 0 -3359294492.1733837 -110892701.02672482 0 0 0 0 -691475783.64407349 43933969.869816303 0 43933969.869816303 364475390.73252225 0 0 0 0 -6051679025.676136 617721557.67250478 0 617721557.67250478 1463710148.6973343 0 0 0 0 -3312013900.0926666 -638372131.44371843 0 -638372131.44371843 279735202.14792585 0 0 0 0 -4099444856.2005081 -1778430463.029057 0 -1778430463.029057 377794577.61572373 0 0 0 0 -1088757214.0919189 -936345048.41187716 0 -936345048.41187716 -238310757.03570056 0 0 0 0 -2650819815.7107544 -2271224849.0580354 0 -2271224849.0580354 176375338.84792799 0 0 0 0 -3322514479.6053162 -1938428386.516737 0 -1938428386.516737 340014375.79592627 0 0 0 0 -3075326057.0357666 -792464166.41596603 0 -792464166.41596603 -368947923.75265133 0 0 0 0 -2888639560.5987549 -1679808780.7236969 0 -1679808780.7236969 -602677250.56400287 0 0 0 0 -2639324573.7711182 -1699192071.7907255 0 -1699192071.7907255 -602226472.34224236 0 0 0 0 -1157545056.0948486 -1140703139.426538 0 -1140703139.426538 -1040518306.8865654 0 0 0 0 -2556938993.9910355 -1338791472.9153531 0 -1338791472.9153531 -268758357.38943088 0 0 0 0 -27093062.675966382 9965271.929703895 0 9965271.929703895 -1818742.0122574489 0 0 0 0 -1214606035.8158569 -1053595598.6476121 0 -1053595598.6476121 -358816046.61403096 0 0 0 0 -1120824908.7891235 -1373158372.551614 0 -1373158372.551614 -391520509.02861512 0 0 0 0 5493446.8160324097 123307694.5378443 0 123307694.5378443 136645073.98510075 0 0 0 0 -121687670.94995117 -30715167.75880909 0 -30715167.75880909 75396727.200999856 0 0 0 0 -841658808.81497192 236027361.50925863 0 236027361.50925863 -319756267.63302279 0 0 0 0 -35080931.897365451 11003683.459676668 0 11003683.459676668 675336.12858728319 0 0 0 0 -93169121.056915283 31726055.294382095 0 31726055.294382095 73666103.737364322 0 0 0 0 -315525925.48925781 -643952588.62659192 0 -643952588.62659192 -2113072326.9108286 0 0 0 0 -2747735174.5875244 -856640232.31865036 0 -856640232.31865036 -132479671.33935738 0 0 0 0 -1303665600.735218 -720120654.2684859 0 -720120654.2684859 -66177574.64082551 0 0 0 0 -2775365547.3464966 91109126.010640979 0 91109126.010640979 285008703.57739973 0 0 0 0 -216814636.58129883 -1580067756.7609997 0 -1580067756.7609997 -325515080.66720462 0 0 0 0 -1693278.8112638146 -1093355.2260634378 0 -1093355.2260634378 -1082361.837131087 0 0 0 0 -1361778607.7038269 -1496994866.4042859 0 -1496994866.4042859 -138851729.08158898 0 0 0 0 -1031684790.2640381 57036588.314680696 0 57036588.314680696 84139007.138683826 0 0 0 0 -2287263016.8649292 165872804.20001101 0 165872804.20001101 129262564.47685909 0 0 0 0 -1346065153.7806091 -210396502.98660064 0 -210396502.98660064 -116588738.45798504 0 0 0 0 -1353478036.8293228 -433370576.005427 0 -433370576.005427 42333938.346874118 0 0 0 0 -1493813949.6291504 -150608561.69496393 0 -150608561.69496393 151085630.81793195 0 0 0 0 -1188936650.4206238 -279257220.24843127 0 -279257220.24843127 99406.076540878334 0 0 0 0 -853650526.74603271 -58154876.204742089 0 -58154876.204742089 112784731.0620138 0 0 0 0 -295767580.15431213 -148222168.77515447 0 -148222168.77515447 -85362341.583978355 0 0 0 0 -800259525.49560547 -211429874.91496551 0 -211429874.91496551 258439.6319793014 0 0 0 0 -170568382.32611084 22447931.569248565 0 22447931.569248565 328650.52024014719 0 0 0 0 -69477803.362258911 77062636.405308574 0 77062636.405308574 -111756212.93795153 0 0 0 0 -15144843.419139836 -1216749.9228519946 0 -1216749.9228519946 -279526.26500536647 0 0 0 0 -1116844898.0316162 -349854816.2050606 0 -349854816.2050606 66572362.114459872 0 0 0 0 -42099611.26083374 25930321.349188752 0 25930321.349188752 -53222770.40256121 0 0 0 0 -18785283.90672452 -1179422.8649186641 0 -1179422.8649186641 -504845.18499679095 0 0 0 0 -374711493.04016113 -407018848.89369643 0 -407018848.89369643 -126285106.85184747 0 0 0 0 -38366717.615447998 -7950201.3991997167 0 -7950201.3991997167 9456294.2387819067 0 0 0 0 -10648540.765592441 -3320838.3396300152 0 -3320838.3396300152 2978636.6917834571 0 0 0 0 -21345987.274749756 -22723522.75496313 0 -22723522.75496313 -11529990.423979469 0 0 0 0 -298714049.64230347 -273115840.22823566 0 -273115840.22823566 -119716973.33366475 0 0 0 0 -2988295.3203344345 -960264.46934334189 0 -960264.46934334189 558661.15416003135 0 0 0 0 -208385072.26049805 -43832952.747126341 0 -43832952.747126341 22642104.904592514 0 0 0 0 -145292733.72680664 -59896189.969630599 0 -59896189.969630599 -38536575.136059523 0 0 0 0 -170165744.32394409 -14783127.034772038 0 -14783127.034772038 44722010.415952206 0 0 0 0 -120973606.23538208 -36294579.33266592 0 -36294579.33266592 -16675434.517132759 0 0 0 0 -125861110.43366241 -58066830.69350183 0 -58066830.69350183 -16283525.384179354 0 0 0 0 -112436050.37695312 -26686735.491649151 0 -26686735.491649151 15817038.766944885 0 0 0 0 -114573012.32999611 3684900.1553348005 0 3684900.1553348005 30357206.019652367 0 0 0 0 -109632830.80657959 7648145.4229507446 0 7648145.4229507446 32373541.884437561 0 0 0 0 -70860940.057342529 17533920.020500183 0 17533920.020500183 45557805.831697464 0 0 0 0 -77018924.885345459 -25050323.460055828 0 -25050323.460055828 6432442.113527298 0 0 0 0 -13964470.674837384 -13423471.969409674 0 -13423471.969409674 4778236.6776143359 0 0 0 0 -80616618.000366211 -31688574.184718132 0 -31688574.184718132 -5405859.7665157318 0 0 0 0 -76941294.811340332 -27363329.399359226 0 -27363329.399359226 10545161.356952667 0 0 0 0 -70401579.184631348 1900048.6365494728 0 1900048.6365494728 16602643.314951658 0 0 0 0 -100898946.94595337 -44437918.381718159 0 -44437918.381718159 -49988.587820529938 0 0 0 0 -111182869.17533875 -14684736.281726241 0 -14684736.281726241 19655924.310952187 0 0 0 0 -63405529.997070312 -1446154.4139032364 0 -1446154.4139032364 28362797.35581255 0 0 0 0 -105681586.26348877 5208980.4123601913 0 5208980.4123601913 88828093.983078957 0 0 0 0 -39861957.805969238 -41191691.016662121 0 -41191691.016662121 -93339569.759775162 0 0 0 0 -5480640.9666667636 -214585.85703122616 0 -214585.85703122616 243759.07072964031 0 0 0 0 -132739838.5291748 -70337475.900895119 0 -70337475.900895119 80220722.222471237 0 0 0 0 -81297094.3722229 -29527262.729310274 0 -29527262.729310274 26747696.272543907 0 0 0 0 -103650530.49621582 -67688270.073446274 0 -67688270.073446274 -34466947.162773132 0 0 0 0 -5557084.6684708148 1505399.3458520249 0 1505399.3458520249 3378704.8437737352 0 0 0 0 -75804704.405273438 48367031.265291691 0 48367031.265291691 30056559.556359291 0 0 0 0 -51843076.780639648 -34485094.193716049 0 -34485094.193716049 -36559070.249068558 0 0 0 0 -37460067.143203735 20985769.771855593 0 20985769.771855593 6915828.8530845642 0 0 0 0 -24073486.04068388 -6846161.0614330359 0 -6846161.0614330359 4319251.9996288102 0 0 0 0 -67315438.203964233 2595887.8062642813 0 2595887.8062642813 7777802.3762893677 0 0 0 0 -45426719.650268555 -18297191.769941211 0 -18297191.769941211 38039413.188879013 0 0 0 0 -15495334.112649225 -7955918.7387060896 0 -7955918.7387060896 1088967.5043617496 0 0 0 0 -16291087.803436279 -2734242.0618591309 0 -2734242.0618591309 4346889.1581068039 0 0 0 0 -15062133.14440918 -2326232.6420640945 0 -2326232.6420640945 3801190.5910732746 0 0 0 0 -12050065.790771484 -6047276.9526352882 0 -6047276.9526352882 4822331.3549804688 0 0 0 0 -12416135.240978032 -2951135.1609593555 0 -2951135.1609593555 1725363.1217055013 0 0 0 0 -16002645.106807709 -3153530.360034585 0 -3153530.360034585 3142916.1408462524 0 0 0 0 -15784990.618621826 -1761004.3404176235 0 -1761004.3404176235 -1450314.3047018051 0 0 0 0 -33518133.468933105 -34906855.763370991 0 -34906855.763370991 3467457.8322439194 0 0 0 0 -23132619.158325195 -559227.6144824028 0 -559227.6144824028 -799198.73152732849 0 0 0 0 11033914.682312012 -41385414.931997538 0 -41385414.931997538 -12962908.542112827 0 0 0 0 -11104216.111934442 -7811110.9816954508 0 -7811110.9816954508 65584.102146977559 0 0 0 0 -19118208.791641235 -2489890.3508892059 0 -2489890.3508892059 -496850.92658519745 0 0 0 0 54661.143238455057 122194.62506236322 0 122194.62506236322 -43028.011155389133 0 0 0 0 -29221994.46697998 -6088565.3768997192 0 -6088565.3768997192 5344678.0423965454 0 0 0 0 17274563.659790039 -113467480.04972935 0 -113467480.04972935 -39300447.1147995 0 0 0 0 -59104823.908660889 3046417.9522342682 0 3046417.9522342682 29128351.29830265 0 0 0 0 -24913212.368904114 -76298850.735177159 0 -76298850.735177159 114322702.02841949 0 0 0 0 -3333502.5983879492 -884841.50502120703 0 -884841.50502120703 22803.296451778151 0 0 0 0 -12375444.165165156 -14338564.932689592 0 -14338564.932689592 2657711.4204403791 0 0 0 0 -70006650.062206268 -200182.44200968742 0 -200182.44200968742 8954253.7191123962 0 0 0 0 -79307535.82973671 -55457654.469828784 0 -55457654.469828784 3304255.5687866211 0 0 0 0 -33395783.616210938 -10754846.449494839 0 -10754846.449494839 -9527816.8085393906 0 0 0 0 -38585328.705971479 -1266821.9088077992 0 -1266821.9088077992 11095140.256395541 0 0 0 0 -66742103.937805176 -27984.434227466583 0 -27984.434227466583 1930859.7821204662 0 0 0 0 -253681488.61720276 -19104730.31071806 0 -19104730.31071806 180167075.63510895 0 0 0 0 -39815959.787124634 -109671006.27640247 0 -109671006.27640247 -112582308.62615776 0 0 0 0 -9331560.921257019 -56215138.627522528 0 -56215138.627522528 91788012.374100685 0 0 0 0 -2760443.6900549084 -6918390.9102630401 0 -6918390.9102630401 1007274.6773484719 0 0 0 0 39727972.234725952 -49178501.097907066 0 -49178501.097907066 78443456.644963741 0 0 0 0 -204820972.39395142 -208112580.46233749 0 -208112580.46233749 309138139.75368357 0 0 0 0 -120255983.05899048 -415189818.85730219 0 -415189818.85730219 67236325.607648849 0 0 0 0 -232225059.68849945 -123599447.95385933 0 -123599447.95385933 103947533.32885551 0 0 0 0 -183521082.37771606 -71348607.69179821 0 -71348607.69179821 121417075.0518012 0 0 0 0 -74306255.216400146 -25528288.966939449 0 -25528288.966939449 81973362.481517792 0 0 0 0 -128478526.32363892 -90027286.623368263 0 -90027286.623368263 46649522.343957424 0 0 0 0 22364738.472625732 -181551851.33068919 0 -181551851.33068919 -47071156.977869749 0 0 0 0 10335483.523406982 -270029340.50077188 0 -270029340.50077188 -165224392.26215935 0 0 0 0 -82820123.186889648 -217586434.04620194 0 -217586434.04620194 -114527507.10018814 0 0 0 0 -134419986.72860718 -10575139.817007661 0 -10575139.817007661 24451522.581383526 0 0 0 0 -162906156.33065796 145460362.16007212 0 145460362.16007212 -409648845.35668927 0 0 0 0 -107734725.32933044 -322839422.19237089 0 -322839422.19237089 -481148415.32133675 0 0 0 0 290012019.77174377 -138162557.13620901 0 -138162557.13620901 -198410748.11936355 0 0 0 0 141788928.2429657 -276835089.36028618 0 -276835089.36028618 -220851649.47885364 0 0 0 0 552713.4206059128 -305363.95589386672 0 -305363.95589386672 -389415.77266487782 0 0 0 0 976017.69912719727 -6985416.1872165203 0 -6985416.1872165203 8896038.4417984486 0 0 0 0 -20274775.762397766 14981661.759422839 0 14981661.759422839 -13742645.740692616 0 0 0 0 -11928054.349196313 -619378.78467393667 0 -619378.78467393667 1911373.8832622226 0 0 0 0 -7711620.1857777312 -4954448.8050909191 0 -4954448.8050909191 -1012907.1729115122 0 0 0 0 -20691223.17276001 -1721735.8552129269 0 -1721735.8552129269 1216975.2528829575 0 0 0 0 41990168.921707153 12527799.095998645 0 12527799.095998645 -42268704.091765404 0 0 0 0 -28552958.058422089 -3876590.1348026395 0 -3876590.1348026395 1007007.2814075947 0 0 0 0 -24248777.89276123 4592526.5099644661 0 4592526.5099644661 548275.33654761314 0 0 0 0 -17753485.459566176 816897.82376848161 0 816897.82376848161 676152.5216942844 0 0 0 0 28629339.580200195 -9202243.8631551266 0 -9202243.8631551266 -134107320.4292748 0 0 0 0 28629175.589035034 -23235992.633213639 0 -23235992.633213639 3475823.2781555653 0 0 0 0 -41389091.448394775 31603578.373407364 0 31603578.373407364 41353363.253748655 0 0 0 0 -33962253.267456055 31456655.527689695 0 31456655.527689695 32633687.556763172 0 0 0 0 -39700944.345611572 8247125.022462368 0 8247125.022462368 34187642.255509049 0 0 0 0 -35875602.088806152 1151151.0897469521 0 1151151.0897469521 9089910.1819152832 0 0 0 0 -7263176.3513147216 -1119726.8310370147 0 -1119726.8310370147 669906.33760058577 0 0 0 0 -26452410.781951904 6724534.8237719536 0 6724534.8237719536 7835940.2583742142 0 0 0 0 -24445941.447601318 -1695183.2646114826 0 -1695183.2646114826 2165575.6815969944 0 0 0 0 -40096462.393676758 19183527.118899941 0 19183527.118899941 11641114.871701479 0 0 0 0 -31273457.649414062 10966501.246935964 0 10966501.246935964 19006459.271790981 0 0 0 0 2955336.1719055176 20010856.815187931 0 20010856.815187931 10969589.92176342 0 0 0 0 41683520.563171387 36838924.487863898 0 36838924.487863898 -16757411.225480556 0 0 0 0 -2259570.2299003266 -685340.93436205387 0 -685340.93436205387 290664.67139593768 0 0 0 0 -26096744.91897583 -7232290.591509819 0 -7232290.591509819 4652648.2122809887 0 0 0 0 -29628643.910766602 23044622.248403788 0 23044622.248403788 449935.7372199297 0 0 0 0 -19009970.205749512 41871407.145733714 0 41871407.145733714 -95605412.332307816 0 0 0 0 -21366858.910888672 56040407.846008323 0 56040407.846008323 -12553453.597421408 0 0 0 0 -55079822.766906738 54370932.658762947 0 54370932.658762947 25577723.320755675 0 0 0 0 -50831754.838241577 33105981.089083098 0 33105981.089083098 63763357.654391766 0 0 0 0 -90003490.165740967 107548162.63669425 0 107548162.63669425 -9934203.5886003375 0 0 0 0 -169076475.80717468 18739077.228873171 0 18739077.228873171 152995788.17736977 0 0 0 0 -2100760.2689686865 439875.40007508174 0 439875.40007508174 337125.89458336646 0 0 0 0 -761696488.09396362 558466350.10355926 0 558466350.10355926 -166935039.70956695 0 0 0 0 405874504.16015625 -50279579.692647129 0 -50279579.692647129 -458598331.38201892 0 0 0 0 -967057906.98583603 -894848804.45270574 0 -894848804.45270574 510988658.45546442 0 0 0 0 -899910477.41555786 418697199.60183573 0 418697199.60183573 248725032.76409915 0 0 0 0 97035691.670684814 178317063.99392915 0 178317063.99392915 182982375.70866638 0 0 0 0 -230346160.1809082 -31662002.292819872 0 -31662002.292819872 56500136.33776284 0 0 0 0 77063902.656707764 -48153132.765606999 0 -48153132.765606999 -158525079.39338601 0 0 0 0 -34192997.421508789 -87235614.561809778 0 -87235614.561809778 139709931.46230796 0 0 0 0 -15706875.167510986 19556243.747285843 0 19556243.747285843 36339080.923864126 0 0 0 0 59298948.19817543 -52037671.181342579 0 -52037671.181342579 -23519490.857690439 0 0 0 0 -2533603.3838371038 1763398.7563024834 0 1763398.7563024834 1443935.4589600575 0 0 0 0 68924607.903076172 6254846.3149141371 0 6254846.3149141371 -13153558.187474009 0 0 0 0 36853851.805686951 93456467.313596755 0 93456467.313596755 57967319.471329629 0 0 0 0 -29788387.164081261 1129944.564564554 0 1129944.564564554 1664181.9591830806 0 0 0 0 63893991.202575684 93483536.07165134 0 93483536.07165134 -118005132.13379505 0 0 0 0 -227949618.17389679 28579996.393422723 0 28579996.393422723 201745091.57517129 0 0 0 0 -31546039.447880164 1481073.1932819691 0 1481073.1932819691 1435756.683504889 0 0 0 0 10211369.960830688 -82993317.080812275 0 -82993317.080812275 168305087.9086262 0 0 0 0 -51855806.381591797 -41121739.569315031 0 -41121739.569315031 32710426.639613688 0 0 0 0 -13325523.758346558 -768105.822755225 0 -768105.822755225 -16783772.01695931 0 0 0 0 -16138342.521652222 -39844750.067294978 0 -39844750.067294978 -34473477.636335269 0 0 0 0 -8461842.4609527588 -13904802.723420024 0 -13904802.723420024 5934587.8017041087 0 0 0 0 -18493920.826763704 -3259707.4503300264 0 -3259707.4503300264 327417.66065066541 0 0 0 0 -1776634.3638753146 -4645975.9245983269 0 -4645975.9245983269 1311088.5030975821 0 0 0 0 9126347.4346923828 25222009.091585547 0 25222009.091585547 23937413.19116503 0 0 0 0 -42031061.975280762 -8812614.6765646935 0 -8812614.6765646935 48839537.220301151 0 0 0 0 -3088734.9319189209 16096.00388212502 0 16096.00388212502 3965.4997875238769 0 0 0 0 -10445101.563669905 5949935.6667569317 0 5949935.6667569317 6459948.6141269803 0 0 0 0 -5044313.2434997559 -817249.56643474102 0 -817249.56643474102 2159385.9375838041 0 0 0 0 -13270607.0513031 892957.38839832693 0 892957.38839832693 1233390.5116678909 0 0 0 0 -10450789.34954834 -1059253.6318199635 0 -1059253.6318199635 1835416.5787936449 0 0 0 0 -11432930.907115981 -1906020.74880106 0 -1906020.74880106 3454327.7802771805 0 0 0 0 -28640225.175720215 -783240.55112290382 0 -783240.55112290382 -4987978.7600212097 0 0 0 0 -12688419.781137899 -1140892.8075181302 0 -1140892.8075181302 1282320.1900615019 0 0 0 0 -5986155.2053844631 799599.18502407521 0 799599.18502407521 -191193.2431503504 0 0 0 0 -9060635.1994018555 -51836.895676612854 0 -51836.895676612854 1324516.0425395966 0 0 0 0 -5035354.7778320312 -418192.88211631775 0 -418192.88211631775 510508.41185188293 0 0 0 0 -11146901.061248735 940634.05667290092 0 940634.05667290092 1985584.171219267 0 0 0 0 -4708767.0291748047 -1692697.4212646484 0 -1692697.4212646484 4523717.9808082581 0 0 0 0 -23401816.331866913 1090441.7121374235 0 1090441.7121374235 1090187.7385381223 0 0 0 0 -8224268.0366821289 437537.59724712372 0 437537.59724712372 299552.70428276062 0 0 0 0 -6228077.722659871 -2520772.3118995111 0 -2520772.3118995111 2931008.6857857644 0 0 0 0 -7926242.4802246094 -999496.03979730606 0 -999496.03979730606 2001471.989566803 0 0 0 0 -18234839.083780244 -2871051.6974762641 0 -2871051.6974762641 6140416.8052450363 0 0 0 0 -5337957.3258056641 -1709878.7846412659 0 -1709878.7846412659 4601689.207444191 0 0 0 0 -23400121.329225056 1465703.3384079337 0 1465703.3384079337 1426020.0294726198 0 0 0 0 -4293399.6208496094 -1902657.9741516113 0 -1902657.9741516113 174168.78294563293 0 0 0 0 -88364845.920288086 -14293569.307776451 0 -14293569.307776451 -6086397.6076431274 0 0 0 0 -4500054.6088018846 -747753.08785195649 0 -747753.08785195649 202685.58308110945 0 0 0 0 -64038001.137584686 -3493945.4399724603 0 -3493945.4399724603 2837885.1354227066 0 0 0 0 -8429312.54311819 -946784.07674755156 0 -946784.07674755156 469895.43694252137 0 0 0 0 -8379018.6263427734 -265775.83938038349 0 -265775.83938038349 1854525.0475699753 0 0 0 0 -14839253.421326026 4874116.6328140348 0 4874116.6328140348 3547665.4739617235 0 0 0 0 -10946516.68296814 -4391732.5859186649 0 -4391732.5859186649 -2870871.0209789276 0 0 0 0 -26929852.844146729 2551414.9604015276 0 2551414.9604015276 833545.47518138587 0 0 0 0 -17564027.917602539 721944.39442557469 0 721944.39442557469 -2909921.9887412637 0 0 0 0 -19751115.124847412 -4913811.2853956223 0 -4913811.2853956223 3203082.1988401413 0 0 0 0 -17049668.977813721 -3307489.7972874641 0 -3307489.7972874641 2801450.2261567116 0 0 0 0 -20872989.378875732 -2798422.7581017017 0 -2798422.7581017017 8231876.5682935715 0 0 0 0 -10942069.417801332 4288673.7514345124 0 4288673.7514345124 3202626.5568791102 0 0 0 0 -21612804.65447998 2829445.9433646202 0 2829445.9433646202 7866413.8665933609 0 0 0 0 -35541260.518493652 33485688.113734007 0 33485688.113734007 11288331.218702793 0 0 0 0 -108105478.49697876 -1220617.8010493517 0 -1220617.8010493517 13229686.498389959 0 0 0 0 -1622540.2125134096 684348.52520373464 0 684348.52520373464 725020.01333854278 0 0 0 0 -147851279.03120422 86934619.417936325 0 86934619.417936325 109720814.23846912 0 0 0 0 -14898048.909332275 -1694972.5934376717 0 -1694972.5934376717 7321006.8268613815 0 0 0 0 -367832367.22817993 -116258562.31587496 0 -116258562.31587496 128460048.11512116 0 0 0 0 -17908271.863098145 2844042.1640954018 0 2844042.1640954018 3810584.9143486023 0 0 0 0 -12746971.442718506 -3890842.6830911636 0 -3890842.6830911636 8331190.7144939899 0 0 0 0 -12872281.762130737 -4849112.5713441372 0 -4849112.5713441372 5191338.8154163361 0 0 0 0 -7053757.8223876953 -5779248.1725691557 0 -5779248.1725691557 5259859.0824375153 0 0 0 0 -30645881.735794067 -51857302.896638699 0 -51857302.896638699 28320591.361513563 0 0 0 0 -10606513.578140259 948645.36797392368 0 948645.36797392368 8658007.0416288376 0 0 0 0 -5416873.0409002602 -884330.7443594262 0 -884330.7443594262 3994920.1110648573 0 0 0 0 4773964.2421875 -2986182.7245286522 0 -2986182.7245286522 -6381.405348323221 0 0 0 0 -11621055.10105896 34488192.711212501 0 34488192.711212501 -456680389.70644087 0 0 0 0 -9207214.1531017423 3821851.4625132605 0 3821851.4625132605 4142701.2240316025 0 0 0 0 -281251171.34851074 -85992658.195710331 0 -85992658.195710331 233131990.19213045 0 0 0 0 -10072526.60971415 -2099853.5326370895 0 -2099853.5326370895 679260.84196387383 0 0 0 0 -420694533.21801758 234189690.43591785 0 234189690.43591785 27885477.413578145 0 0 0 0 32170.817925289273 -1196422.3053704873 0 -1196422.3053704873 -5207336.0360796768 0 0 0 0 2499194.7843933105 -9742271.8009599447 0 -9742271.8009599447 1946413.5391955376 0 0 0 0 -53674906.40864563 7345781.7517083418 0 7345781.7517083418 -10758551.929538343 0 0 0 0 -53038678.597503662 9106172.5125015117 0 9106172.5125015117 -8047635.877929897 0 0 0 0 129860753.74761796 -16063211.402425896 0 -16063211.402425896 -25597076.11360161 0 0 0 0 -3878575.8645756543 -2103980.9073960409 0 -2103980.9073960409 3792139.8524876293 0 0 0 0 -4832277.0107116699 -3907911.2558517456 0 -3907911.2558517456 5920925.5760471821 0 0 0 0 7982150.1585922241 53522033.552241713 0 53522033.552241713 -4052317.9570067711 0 0 0 0 -5794740.4425964355 -9630391.0983910561 0 -9630391.0983910561 5082617.3249573708 0 0 0 0 -6104882.5305480957 -10905185.335859299 0 -10905185.335859299 1793912.1000230312 0 0 0 0 15423803.970756531 -3739899.8331251144 0 -3739899.8331251144 -29220859.533184528 0 0 0 0 20586791.118110657 -20829062.687236547 0 -20829062.687236547 -2912195.4186296463 0 0 0 0 -18114543.379951477 -12172664.073010623 0 -12172664.073010623 6483030.8280324936 0 0 0 0 -41393944.183776855 -8218899.5566909909 0 -8218899.5566909909 8187904.8005516306 0 0 0 0 -32837031.524291992 -34317415.602858052 0 -34317415.602858052 -4523826.1340548694 0 0 0 0 27220642.02532959 -63307705.602942601 0 -63307705.602942601 -7900594.7317728698 0 0 0 0 55287432.393226624 -11696029.984216154 0 -11696029.984216154 -27750612.14088583 0 0 0 0 104910.56754428148 -156188.1061437428 0 -156188.1061437428 -1195475.3292522181 0 0 0 0 -668403.01876831055 58418975.454149365 0 58418975.454149365 -102493607.52132162 0 0 0 0 287954644.02081299 -230795029.03322613 0 -230795029.03322613 -88708312.312382758 0 0 0 0 -116491182.73019409 -176980192.11205733 0 -176980192.11205733 -69493482.500466242 0 0 0 0 -341917751.52279663 793458.57107492257 0 793458.57107492257 -13776394.025054732 0 0 0 0 -104508187.12008667 -1072596.9486006312 0 -1072596.9486006312 -14789894.537794596 0 0 0 0 17529.820683062077 -711617.12420858443 0 -711617.12420858443 -3188390.5352868964 0 0 0 0 -75178135.51739502 19688587.529856712 0 19688587.529856712 -9119238.1195710581 0 0 0 0 -125975232.46182251 26339062.512519937 0 26339062.512519937 -8222262.7335941698 0 0 0 0 -96772434.570678711 7017990.9350468609 0 7017990.9350468609 -7271647.6490560872 0 0 0 0 -91489423.662261963 5171229.3846904002 0 5171229.3846904002 1354.388626613759 0 0 0 0 -95354750.455062866 683164.91891859262 0 683164.91891859262 -5207279.3532938408 0 0 0 0 -97627579.456890106 11982523.141086036 0 11982523.141086036 3346937.1384326611 0 0 0 0 -76771754.838500977 4322973.4427839052 0 4322973.4427839052 3530.918603180879 0 0 0 0 -30201249.177088737 -8899632.9506588895 0 -8899632.9506588895 -5412564.6629228797 0 0 0 0 -66248130.945007324 4779176.6872217311 0 4779176.6872217311 18941.456769074885 0 0 0 0 -82389384.712722778 -5465860.7097315267 0 -5465860.7097315267 661112.62045589928 0 0 0 0 -76663337.927337646 8094191.6165612284 0 8094191.6165612284 -7906273.8455283539 0 0 0 0 -92032752.336559296 -5872006.8084232444 0 -5872006.8084232444 -19163135.890375488 0 0 0 0 -76376958.631317139 -4825391.056926012 0 -4825391.056926012 2244594.7680392377 0 0 0 0 -79538486.927276611 3384749.4012168646 0 3384749.4012168646 8955189.6966560185 0 0 0 0 -88569470.832275391 45241274.729612693 0 45241274.729612693 -78038087.16084227 0 0 0 0 118433142.17082214 55116617.303466648 0 55116617.303466648 -123476514.41417859 0 0 0 0 230758624.45721436 85522807.45547007 0 85522807.45547007 -136908066.39529687 0 0 0 0 -486470.57059940696 594530.48395037651 0 594530.48395037651 -279318.9249221622 0 0 0 0 -348614378.25737 121580828.60703035 0 121580828.60703035 459981535.75354159 0 0 0 0 214677843.82772827 15316350.785562903 0 15316350.785562903 -227623011.89686576 0 0 0 0 -20130947.599933624 21743.368137553334 0 21743.368137553334 13464084.98764348 0 0 0 0 -10576765.575698853 -2651636.8958681822 0 -2651636.8958681822 8055506.0053776503 0 0 0 0 -12281694.29536438 3299331.9658054113 0 3299331.9658054113 -12626954.774106443 0 0 0 0 -23520496.813110352 -33900382.048800856 0 -33900382.048800856 -2899143.864892602 0 0 0 0 -30854347.930489078 2389421.3958680779 0 2389421.3958680779 896445.45869660564 0 0 0 0 -27363938.477142334 -13182139.765410662 0 -13182139.765410662 52455968.599511385 0 0 0 0 -587709172.13595581 196288328.83432376 0 196288328.83432376 474678970.98158437 0 0 0 0 -67119677.733337402 40751382.774938524 0 40751382.774938524 95377404.73582527 0 0 0 0 -32107450.501261041 1977418.3765788842 0 1977418.3765788842 1209214.3966810093 0 0 0 0 207551085.18011475 -70636677.593731284 0 -70636677.593731284 -126387007.06893027 0 0 0 0 24795334.333358765 -14860630.569819644 0 -14860630.569819644 -79540801.343568325 0 0 0 0 -3507990.526662685 -57650.312934339046 0 -57650.312934339046 2072205.9207303347 0 0 0 0 -26814642.412322998 -59018126.046728015 0 -59018126.046728015 17561014.750252157 0 0 0 0 -24883187.965087891 -7864070.3088793159 0 -7864070.3088793159 8916680.6415421963 0 0 0 0 -32526319.120868683 -8539916.6453238875 0 -8539916.6453238875 37446593.456846237 0 0 0 0 -15334796.363785639 -769869.70670396462 0 -769869.70670396462 313494.31944362988 0 0 0 0 -169478379.59832764 48656356.938350052 0 48656356.938350052 -8092310.4828518704 0 0 0 0 -13972115.754233144 5664400.4363105111 0 5664400.4363105111 228896.08886314812 0 0 0 0 -1527952.377900511 2454387.4187856447 0 2454387.4187856447 22719.569583326615 0 0 0 0 207438891.52984619 -78388273.992455989 0 -78388273.992455989 34117454.262136929 0 0 0 0 -86613818.528869629 -93861369.683634281 0 -93861369.683634281 73642870.923422933 0 0 0 0 -16531681.318954468 40901834.888391495 0 40901834.888391495 65570694.95232296 0 0 0 0 -17407672.705352783 -3263702.0119777918 0 -3263702.0119777918 20240156.710278824 0 0 0 0 -28108755.0546875 -15079455.213679314 0 -15079455.213679314 20286811.205632437 0 0 0 0 -25270473.972045898 -25464655.973461151 0 -25464655.973461151 7138998.5803331137 0 0 0 0 -5206569.1306762695 -22326708.998230934 0 -22326708.998230934 -24105654.689025402 0 0 0 0 -10108730.935302734 -12275282.153357625 0 -12275282.153357625 7479100.5103942789 0 0 0 0 -9246332.5822753906 -1233306.8078110218 0 -1233306.8078110218 2220742.4309620857 0 0 0 0 -14024103.964328572 -1774710.5411845874 0 -1774710.5411845874 -338348.52473126946 0 0 0 0 -14986753.622385025 -231764.20830833167 0 -231764.20830833167 6877448.0838084221 0 0 0 0 -18129909.903625488 -17170118.097135067 0 -17170118.097135067 28023821.292987227 0 0 0 0 -15544200.263961792 31230517.011559725 0 31230517.011559725 -18868222.334108353 0 0 0 0 -4158625.0632553101 11179342.161110878 0 11179342.161110878 -4778904.2621803284 0 0 0 0 -21141219.333770752 3546567.0145902634 0 3546567.0145902634 1318934.1107873917 0 0 0 0 -17445079.956863403 -3451005.1253442764 0 -3451005.1253442764 -2301492.1772041321 0 0 0 0 -23557408.03062439 2205915.4950675964 0 2205915.4950675964 4103540.6737518311 0 0 0 0 -1535352.7900153175 -693810.21872431785 0 -693810.21872431785 940077.54308759235 0 0 0 0 -11648088.114746094 8600645.2649273872 0 8600645.2649273872 6071816.0427254438 0 0 0 0 -2767436.2892098725 -1620192.0506689856 0 -1620192.0506689856 113431.05527688924 0 0 0 0 -8442599.3671417236 -8996468.1289148331 0 -8996468.1289148331 3855038.8207740784 0 0 0 0 -1017615.403014943 -825230.498263021 0 -825230.498263021 142217.33351463615 0 0 0 0 -9904072.103767395 -57910679.777916431 0 -57910679.777916431 -105068637.77096081 0 0 0 0 7569353.3997955322 -219900.44973301888 0 -219900.44973301888 -31547910.713627815 0 0 0 0 -32098782.61151123 47036066.099675179 0 47036066.099675179 -87257582.836623669 0 0 0 0 -112821220.02212524 85632475.75478363 0 85632475.75478363 -44307852.532398224 0 0 0 0 -264035753.26882935 -5135075.6142201424 0 -5135075.6142201424 24817180.095432281 0 0 0 0 -63897304.734313965 -16607851.456184387 0 -16607851.456184387 20224334.270564079 0 0 0 0 -118977802.69642639 58811361.855037451 0 58811361.855037451 1839061.2199745178 0 0 0 0 -57376626.135101318 22417323.917192459 0 22417323.917192459 18688009.864871979 0 0 0 0 -67777776.168701172 27635484.295570374 0 27635484.295570374 20821247.64940834 0 0 0 0 -59962368.59576416 -12783467.192258835 0 -12783467.192258835 33010757.929237366 0 0 0 0 -98584604.594390869 -8991446.4762649536 0 -8991446.4762649536 26517009.484773636 0 0 0 0 -52838433.916809082 -6588800.8737983704 0 -6588800.8737983704 23760619.972436905 0 0 0 0 -52187081.347137451 -3424964.3669967651 0 -3424964.3669967651 32496639.639404297 0 0 0 0 -31888188.038574219 42469228.426792145 0 42469228.426792145 -26582624.600261927 0 0 0 0 -51561348.70300293 46755369.02425766 0 46755369.02425766 -28181238.248484612 0 0 0 0 -41409943.154266357 34508163.206331253 0 34508163.206331253 -16195221.135641098 0 0 0 0 -63530428.896411896 46740601.394262195 0 46740601.394262195 -6453258.8721427917 0 0 0 0 -43256566.613861084 29191782.983567238 0 29191782.983567238 7292875.8959064484 0 0 0 0 -44244970.835357666 33756844.198637962 0 33756844.198637962 -251963.4882144928 0 0 0 0 -27853624.318969727 21749896.835826874 0 21749896.835826874 7276862.4815378189 0 0 0 0 -40824195.902450562 13913955.17470932 0 13913955.17470932 23083838.778963089 0 0 0 0 -62330130.292205811 27194213.813768387 0 27194213.813768387 19264185.003692627 0 0 0 0 -32752955.351516724 6171162.4401702881 0 6171162.4401702881 16411615.90643692 0 0 0 0 -44708992.95614624 19476144.397500992 0 19476144.397500992 15760626.615333557 0 0 0 0 -23852930.119598389 -1550772.7365903854 0 -1550772.7365903854 51937284.99603653 0 0 0 0 -29212704.872161865 -10435160.520851135 0 -10435160.520851135 37210774.095493317 0 0 0 0 -59423498.339904785 -9920679.2213878632 0 -9920679.2213878632 41626140.993927002 0 0 0 0 -42850475.748413086 -17513713.478534698 0 -17513713.478534698 53218967.426757812 0 0 0 0 -48284042.109191895 3810599.8671836853 0 3810599.8671836853 36138771.407902241 0 0 0 0 -74021984.576637268 16290937.728886366 0 16290937.728886366 38496530.267776489 0 0 0 0 -20424599.972625732 -11109677.688090324 0 -11109677.688090324 31147715.180874586 0 0 0 0 -56694968.015640259 6397439.3552584648 0 6397439.3552584648 36336516.902534485 0 0 0 0 -37939950.195892334 -11095423.410942078 0 -11095423.410942078 61094933.361761093 0 0 0 0 -27953532.574142456 -27310659.843847036 0 -27310659.843847036 47764300.784460068 0 0 0 0 -33092311.670883179 1575593.080915451 0 1575593.080915451 13464263.760659218 0 0 0 0 -43277942.327178955 -37310706.330584526 0 -37310706.330584526 -2658186.5087647438 0 0 0 0 -54330421.498123169 14423776.223993063 0 14423776.223993063 5691996.3325538635 0 0 0 0 -25785965.503953233 -2052831.489947997 0 -2052831.489947997 373619.46605269099 0 0 0 0 -39832219.255569458 3836737.9265985489 0 3836737.9265985489 20116771.922107697 0 0 0 0 -31419912.560546875 -3050196.5810852051 0 -3050196.5810852051 21194694.285451651 0 0 0 0 -26075957.270181157 -3351286.0698176138 0 -3351286.0698176138 -1273986.110368819 0 0 0 0 -20837421.50459522 -850964.40517109632 0 -850964.40517109632 119215.28537139762 0 0 0 0 -33292552.293113708 1589476.6917185783 0 1589476.6917185783 10179868.78295517 0 0 0 0 -16808375.456542969 -2579269.1757230759 0 -2579269.1757230759 2411724.7941055298 0 0 0 0 -24801246.36643219 14968011.622042179 0 14968011.622042179 3149587.9221286774 0 0 0 0 -13370270.562011719 -797742.32145452499 0 -797742.32145452499 11011360.049153328 0 0 0 0 -18785849.991153419 2860517.2053137235 0 2860517.2053137235 -3139317.8791402932 0 0 0 0 -30893940.536254883 6397904.956278801 0 6397904.956278801 12972742.760471344 0 0 0 0 -30856750.318237305 14994434.416485786 0 14994434.416485786 3486673.9124336243 0 0 0 0 -32125506.197631836 18357608.001162529 0 18357608.001162529 -6475301.9271216393 0 0 0 0 -27853879.457334518 21364288.994784176 0 21364288.994784176 -4490330.9089622498 0 0 0 0 -24584141.267822266 -3231080.8295564651 0 -3231080.8295564651 -1960397.5692448616 0 0 0 0 -18308380.470226809 -2254487.2290831916 0 -2254487.2290831916 1130095.00314601 0 0 0 0 -27199598.586685181 -31246.966034054756 0 -31246.966034054756 -689033.40521240234 0 0 0 0 -26533545.059387207 2639956.7061090469 0 2639956.7061090469 -2392064.6748538017 0 0 0 0 -3757826.2275048792 405978.07347562164 0 405978.07347562164 1195164.8344799355 0 0 0 0 -17270936.620204121 -645458.16863145679 0 -645458.16863145679 -3046643.3279061988 0 0 0 0 -19099315.347747803 1437084.9562368393 0 1437084.9562368393 5408105.4144458771 0 0 0 0 -16028162.850242615 -2479985.8910450935 0 -2479985.8910450935 -37434.654718399048 0 0 0 0 -16321707.182540894 -2020638.4799499512 0 -2020638.4799499512 5223617.8523550034 0 0 0 0 -1747513.771697998 -11601831.631118774 0 -11601831.631118774 -6345496.9149622917 0 0 0 0 -16652278.781036377 -3685826.9290909767 0 -3685826.9290909767 13479064.433224201 0 0 0 0 -13606310.364532471 779870.96995353699 0 779870.96995353699 5824622.7916717529 0 0 0 0 -18896187.272572473 4435839.4237740301 0 4435839.4237740301 2447678.7473272365 0 0 0 0 -55936392.322193146 9903289.6798831224 0 9903289.6798831224 53630614.034033298 0 0 0 0 -180136.54568663985 960025.7195994542 0 960025.7195994542 -115761.11863789332 0 0 0 0 6062552.0341339111 48915439.497598171 0 48915439.497598171 -11116685.321465135 0 0 0 0 -19811549.403373718 8766887.4635672569 0 8766887.4635672569 38558060.295515537 0 0 0 0 -25502666.104133036 -131899.97338305693 0 -131899.97338305693 1286057.9068470648 0 0 0 0 -10227685.109901667 -3681686.9425385152 0 -3681686.9425385152 1760697.5924271045 0 0 0 0 -9667382.3659057617 -5707895.6737070084 0 -5707895.6737070084 34282276.955878973 0 0 0 0 -18729217.116582334 15237699.201909261 0 15237699.201909261 7529284.6577526992 0 0 0 0 -32406407.521669388 103356.87753254175 0 103356.87753254175 19724959.293625355 0 0 0 0 -72839091.620147705 14757838.241971016 0 14757838.241971016 15013224.036850691 0 0 0 0 -17914131.625991821 9541046.5902276039 0 9541046.5902276039 -1203301.661652565 0 0 0 0 -4882210.0251664147 1662352.7258400433 0 1662352.7258400433 747700.43891761778 0 0 0 0 -71910646.689014435 40958018.272383153 0 40958018.272383153 -13982519.298735112 0 0 0 0 -58919020.87298584 1571934.5064003468 0 1571934.5064003468 -13615225.733561993 0 0 0 0 -38341713.60042572 17787338.290658772 0 17787338.290658772 22044457.912688673 0 0 0 0 -33588422.740608215 27056640.104137897 0 27056640.104137897 20039427.788255692 0 0 0 0 -13536349.045122899 4084004.9115705695 0 4084004.9115705695 4463491.0488798805 0 0 0 0 -28884291.247825623 -13359053.187186956 0 -13359053.187186956 33441815.709917068 0 0 0 0 -41191257.226119995 26259154.039714336 0 26259154.039714336 56652.643419742584 0 0 0 0 -69286181.224990845 -15228693.834220409 0 -15228693.834220409 69724001.524180889 0 0 0 0 -25268568.486530211 2535213.1105830572 0 2535213.1105830572 655367.51964971027 0 0 0 0 -29492723.344261169 23858251.056680024 0 23858251.056680024 -4480388.7451257706 0 0 0 0 -40962635.574035645 -17323430.937734604 0 -17323430.937734604 26606257.711731911 0 0 0 0 -19598264.78195028 4391882.7735189535 0 4391882.7735189535 2920585.9239994967 0 0 0 0 -3975084.3784921169 -3053211.4955765251 0 -3053211.4955765251 1745100.0822305307 0 0 0 0 -30732930.525527954 15269414.89765358 0 15269414.89765358 -13378547.359375 0 0 0 0 -22976673.99779129 4956961.228374958 0 4956961.228374958 307800.02437496185 0 0 0 0 -61307964.725885391 5747939.9312940836 0 5747939.9312940836 26861196.885082245 0 0 0 0 -24192738.899154395 9844387.6159460433 0 9844387.6159460433 2837071.8827585871 0 0 0 0 -17861092.418792725 13277496.759339333 0 13277496.759339333 -768071.16807603836 0 0 0 0 -20626373.237380981 2428275.6775034666 0 2428275.6775034666 3343644.4538850784 0 0 0 0 -19678733.309494019 8528130.7670717239 0 8528130.7670717239 18866498.878678322 0 0 0 0 -20259707.995016098 -44494108.571655035 0 -44494108.571655035 11366198.092963219 0 0 0 0 -8501222.2071970776 2335165.6018376127 0 2335165.6018376127 4024916.225904224 0 0 0 0 -36002861.925361633 32889502.202259302 0 32889502.202259302 10262225.787267923 0 0 0 0 -46958848.079017639 10004005.885131001 0 10004005.885131001 29737409.692894578 0 0 0 0 -25389973.253585659 6580489.8795154858 0 6580489.8795154858 7250.3895462293876 0 0 0 0 -32098139.26763916 10945234.816695333 0 10945234.816695333 8113785.6837441921 0 0 0 0 -86061143.952758789 38406023.251371384 0 38406023.251371384 -2403122.636598587 0 0 0 0 -68826312.560012817 23817671.390598297 0 23817671.390598297 8256625.504108429 0 0 0 0 -24920995.273407578 9373283.9428245649 0 9373283.9428245649 8321069.9277956029 0 0 0 0 -69882197.633880615 42068075.626536369 0 42068075.626536369 9658740.1466398239 0 0 0 0 -73796177.573486328 29829556.403730392 0 29829556.403730392 -300329.04279232025 0 0 0 0 -23403921.383863106 13819066.409460774 0 13819066.409460774 -1047796.8766225938 0 0 0 0 -17437697.811340332 12536927.642299652 0 12536927.642299652 21257536.315264463 0 0 0 0 -59906488.969791412 36676338.430642009 0 36676338.430642009 18824342.36753273 0 0 0 0 -1640462.3511199951 11046028.640307665 0 11046028.640307665 6157139.5393447876 0 0 0 0 -41435244.611420929 14796635.672346421 0 14796635.672346421 9111518.6913699303 0 0 0 0 -17381718.343292236 -2259930.536283493 0 -2259930.536283493 3227469.2281589508 0 0 0 0 -17311229.27173252 7434085.8540809527 0 7434085.8540809527 -1345106.362274295 0 0 0 0 -9330423.6781768799 15158261.656273544 0 15158261.656273544 -16837808.449761391 0 0 0 0 -4646536.1730651855 8316760.0829849243 0 8316760.0829849243 6085381.9744758606 0 0 0 0 -6756164.4798985347 -3299729.6860032603 0 -3299729.6860032603 -4953040.8167989664 0 0 0 0 -61946357.336151123 18802499.964722633 0 18802499.964722633 -18083564.319404602 0 0 0 0 -48636692.649200439 31079422.808996201 0 31079422.808996201 -33257105.960990906 0 0 0 0 -24257098.403324977 20485923.077785175 0 20485923.077785175 2021107.4489008165 0 0 0 0 -5582842.9121920317 16156.656743768603 0 16156.656743768603 3551334.8109048363 0 0 0 0 -49727172.448303223 6511499.6527757645 0 6511499.6527757645 8043200.7295970917 0 0 0 0 -55478349.344360352 45664997.402899742 0 45664997.402899742 -17428689.998394012 0 0 0 0 -31855513.312071025 -6805237.516688183 0 -6805237.516688183 -723843.85822289996 0 0 0 0 -22634219.249145508 5873017.0018365383 0 5873017.0018365383 6559921.4343643188 0 0 0 0 -3509660.0302025005 548535.00358758867 0 548535.00358758867 945051.01377795823 0 0 0 0 -28089374.561495624 6201129.9450818822 0 6201129.9450818822 6100196.3205369785 0 0 0 0 -17883825.998596191 3696406.0956435204 0 3696406.0956435204 13248351.783567429 0 0 0 0 -48937205.262512207 -13560054.959768295 0 -13560054.959768295 -4563172.820432663 0 0 0 0 -60544795.257247925 -11728365.388809681 0 -11728365.388809681 -4671623.444152832 0 0 0 0 -62813935.61479187 -6031652.5091352463 0 -6031652.5091352463 6543146.3552274704 0 0 0 0 -20125472.547646049 2622259.7197263017 0 2622259.7197263017 -6262016.8230024446 0 0 0 0 -44712394.982498169 -19198881.12642622 0 -19198881.12642622 2622590.2053089142 0 0 0 0 -49742076.388092041 24978886.154263973 0 24978886.154263973 -6861943.2134742737 0 0 0 0 -61478740.63583374 -21302623.549748898 0 -21302623.549748898 14227840.997127533 0 0 0 0 19343783.988311768 -34542833.257745743 0 -34542833.257745743 -11764950.192120075 0 0 0 0 -12321328.005327297 3290513.2658550218 0 3290513.2658550218 -2144334.5803806586 0 0 0 0 -49659949.222797394 -53519799.46655035 0 -53519799.46655035 3141039.1022987366 0 0 0 0 21055633.819892883 33156697.189843893 0 33156697.189843893 -5396637.1792678833 0 0 0 0 -129482090.70152283 -7325093.9761834145 0 -7325093.9761834145 21730580.350423813 0 0 0 0 -159057386.60559082 -46457580.634731293 0 -46457580.634731293 -21981098.301626205 0 0 0 0 -132645376.76144409 -86828310.662985802 0 -86828310.662985802 -126043772.07732391 0 0 0 0 -207660266.64202881 22197038.345258713 0 22197038.345258713 -84298175.162239075 0 0 0 0 -93365245.242431641 -25216595.018556595 0 -25216595.018556595 -33197179.194153547 0 0 0 0 -52243415.405059814 -64615471.783502579 0 -64615471.783502579 -43808886.614669561 0 0 0 0 -76981672.29800415 -18337459.120816231 0 -18337459.120816231 23383476.973077774 0 0 0 0 -63500641.859527588 -13267840.073459625 0 -13267840.073459625 18697318.172110558 0 0 0 0 -22428205.781311035 50301184.667506218 0 50301184.667506218 -8955292.9785385132 0 0 0 0 -91550914.43371582 -596074.23172283173 0 -596074.23172283173 27259564.737645566 0 0 0 0 -22275959.900463633 12728367.729409091 0 12728367.729409091 -303569.99226986803 0 0 0 0 -31797099.276428223 13412635.931580544 0 13412635.931580544 -288711.56631398201 0 0 0 0 653034.47633361816 -33294663.668832302 0 -33294663.668832302 66217217.055012703 0 0 0 0 7976677.7453918457 -23802693.93542099 0 -23802693.93542099 10911149.370262146 0 0 0 0 10559224.550170898 -51178711.581424713 0 -51178711.581424713 54082159.761445045 0 0 0 0 -826780.21201173961 -19989.943688351661 0 -19989.943688351661 507321.18265068904 0 0 0 0 6880446.8380889893 -35287473.44101429 0 -35287473.44101429 23575694.40704155 0 0 0 0 -2220481.7367921025 14202687.82904141 0 14202687.82904141 -311088.78806218039 0 0 0 0 -56685391.168182373 31049684.030551434 0 31049684.030551434 -5424139.0149972439 0 0 0 0 -80418328.555007935 161256186.2158699 0 161256186.2158699 -66609685.592147827 0 0 0 0 96254618.694564819 16022506.416624546 0 16022506.416624546 7757049.5489805937 0 0 0 0 -501062793.44279099 24544707.048614323 0 24544707.048614323 -4790921.3073616028 0 0 0 0 -137660935.12120724 -89871697.374197707 0 -89871697.374197707 -20220061.391654491 0 0 0 0 -12339593.40746022 6698092.6736815982 0 6698092.6736815982 2268411.1623745365 0 0 0 0 1372635.2250952572 29759.336908556521 0 29759.336908556521 -970471.15328111593 0 0 0 0 -963061.15396605432 449911.81276229024 0 449911.81276229024 344813.64288431173 0 0 0 0 -356475167.39117432 -40252847.707958221 0 -40252847.707958221 14077922.705732346 0 0 0 0 -131862509.1121521 -190285196.24361181 0 -190285196.24361181 -246629402.24380493 0 0 0 0 52311971.186538696 -95563157.371147633 0 -95563157.371147633 -47364042.260559082 0 0 0 0 -35327907.668243408 -43132454.51946044 0 -43132454.51946044 29345287.768405914 0 0 0 0 -77848524.180664062 -31243098.872699738 0 -31243098.872699738 26220564.57759285 0 0 0 0 -10641890.463937759 250794367.19080526 0 250794367.19080526 -57503965.22300148 0 0 0 0 -62552617.353302002 -122787370.92689657 0 -122787370.92689657 -27961495.535902977 0 0 0 0 31875975.444244385 -183438233.07106042 0 -183438233.07106042 -178451062.0126369 0 0 0 0 -13103867.169527397 6801199.9251613617 0 6801199.9251613617 356093.23622464575 0 0 0 0 -203795416.00476074 -67252561.300796747 0 -67252561.300796747 62593046.054068565 0 0 0 0 -168556606.03872681 -65852984.43124342 0 -65852984.43124342 17429320.29066658 0 0 0 0 -117699488.46673584 -139113377.21918869 0 -139113377.21918869 21760443.23164463 0 0 0 0 -87019269.821105957 -119992808.30177164 0 -119992808.30177164 25100565.218955994 0 0 0 0 -64177609.284126282 -46680391.962703884 0 -46680391.962703884 53769419.721776009 0 0 0 0 -148415172.55444336 -15256630.829948664 0 -15256630.829948664 123547815.27038193 0 0 0 0 -6297188.6805925667 1889954.5806358829 0 1889954.5806358829 984421.47862976952 0 0 0 0 -221140012.66436768 -4398631.7078227997 0 -4398631.7078227997 67443635.659758568 0 0 0 0 -58237443.978179932 -54584037.61464262 0 -54584037.61464262 82720085.000583649 0 0 0 0 -57216029.694152832 5412909.2923135757 0 5412909.2923135757 5494856.0804566145 0 0 0 0 69139790.374816895 33704163.546746731 0 33704163.546746731 8035011.346852541 0 0 0 0 -10481978.400739655 3712389.7211997006 0 3712389.7211997006 2067669.5570231192 0 0 0 0 46519455.735992432 -2133333.481071949 0 -2133333.481071949 -3977491.8054872751 0 0 0 0 9007030.33984375 89695155.727158308 0 89695155.727158308 79865770.226649284 0 0 0 0 -44640208.089935303 2906567.1400632858 0 2906567.1400632858 25142821.194660902 0 0 0 0 -13171608.974472046 67184970.983970582 0 67184970.983970582 35776079.55452776 0 0 0 0 -8591851.6079711914 81851937.499028206 0 81851937.499028206 23752812.814247608 0 0 0 0 50830335.316238403 98215009.428544164 0 98215009.428544164 16342863.395143509 0 0 0 0 23422426.115116596 21661094.266117565 0 21661094.266117565 -55543312.93126297 0 0 0 0 79867445.028259277 15106856.145987988 0 15106856.145987988 -40034969.75481987 0 0 0 0 23597074.846756458 31131333.88102755 0 31131333.88102755 58064169.883505821 0 0 0 0 -20743992.657073975 -36494372.3395257 0 -36494372.3395257 -102871264.84336281 0 0 0 0 -38437234.071105957 36481853.579489708 0 36481853.579489708 -48342748.620634556 0 0 0 0 -49017419.033081055 -17572628.798792839 0 -17572628.798792839 -153284579.84489536 0 0 0 0 -165835674.88726807 14255613.887838364 0 14255613.887838364 -109891926.24701262 0 0 0 0 -504847511.893507 -57371609.759676158 0 -57371609.759676158 -76967579.331985474 0 0 0 0 -213451789.19940186 -97002096.570537567 0 -97002096.570537567 -230772157.74621582 0 0 0 0 -179694759.21153259 13382797.718006849 0 13382797.718006849 -33693894.979070663 0 0 0 0 -187358682.28686523 53153729.847505569 0 53153729.847505569 -184336082.57442093 0 0 0 0 -53011548.449554443 12163942.562090874 0 12163942.562090874 -36298010.206546783 0 0 0 0 -2081760.9663000032 1753015.2991533577 0 1753015.2991533577 -3493209.0328996046 0 0 0 0 -13146945.70715332 8035527.2107567787 0 8035527.2107567787 3417763.8307814598 0 0 0 0 -11450195.627961015 4580732.6053154692 0 4580732.6053154692 2058242.1984664146 0 0 0 0 -11256511.276290894 -484538.10262584686 0 -484538.10262584686 -357783.26583099365 0 0 0 0 -10527782.832061768 234576.87235474586 0 234576.87235474586 307838.96922779083 0 0 0 0 -5910707.633317247 3005538.1453086995 0 3005538.1453086995 -1021274.1040003663 0 0 0 0 -12095851.661546573 1308313.0687998161 0 1308313.0687998161 4086268.0872839354 0 0 0 0 11192056.163803101 11104678.732296467 0 11104678.732296467 5895982.824277699 0 0 0 0 -4411074.3976347223 -3416495.6368428916 0 -3416495.6368428916 -3269489.1669144584 0 0 0 0 393749910.94871521 196403514.90126604 0 196403514.90126604 -262846988.55496979 0 0 0 0 1027048.2777404785 3482412.5152680278 0 3482412.5152680278 4117106.7544746399 0 0 0 0 1047522.235841915 783025.43571753055 0 783025.43571753055 178164.92840944004 0 0 0 0 -278494821.30116272 109150056.80560935 0 109150056.80560935 310301829.5038476 0 0 0 0 1071973.7588078529 -150611.87752611004 0 -150611.87752611004 -938693.96151693922 0 0 0 0 1729717.7283935547 -1032712.6614427567 0 -1032712.6614427567 -3495030.3365510702 0 0 0 0 1395224.7479907423 -787777.85776744224 0 -787777.85776744224 -5243521.0538167143 0 0 0 0 -3096770.3617973328 -3292125.2226569653 0 -3292125.2226569653 -1351283.6468682289 0 0 0 0 414743.24568210542 726537.65968190134 0 726537.65968190134 -2164191.0389010003 0 0 0 0 8918339.7057800293 3236959.1361247301 0 3236959.1361247301 -8200609.9982714653 0 0 0 0 -51512379.496147156 103399900.23046106 0 103399900.23046106 -202054194.3791877 0 0 0 0 -226730897.21994019 213202898.69757205 0 213202898.69757205 -32501614.260159314 0 0 0 0 -719202816.14422989 298396270.10800022 0 298396270.10800022 -2734883.2807350159 0 0 0 0 -28634.705665655434 503312.1407648325 0 503312.1407648325 -664630.91209544148 0 0 0 0 4498308.1806640625 622234398.37736332 0 622234398.37736332 -116113747.89620537 0 0 0 0 21089515.806625366 20827307.728105545 0 20827307.728105545 -6408766.6853694916 0 0 0 0 -13650543.228866577 -12846121.795506835 0 -12846121.795506835 4440833.0011940002 0 0 0 0 -722605.89916411787 629180.43222357333 0 629180.43222357333 -2715983.1984200533 0 0 0 0 -1240397.8856506348 533752.43427562714 0 533752.43427562714 14213342.955500126 0 0 0 0 897980.61679077148 -7947025.041572094 0 -7947025.041572094 -29784438.424009323 0 0 0 0 -8145132.1690063477 10947710.558110237 0 10947710.558110237 -2697913.6576280594 0 0 0 0 -1677483.8527679443 12990899.22961688 0 12990899.22961688 3846316.8931941986 0 0 0 0 9329705.5814666748 3595476.6293611526 0 3595476.6293611526 -5091044.4275093079 0 0 0 0 -3880288.7986373901 8143867.7126455307 0 8143867.7126455307 -2545699.0360174179 0 0 0 0 -27468472.125076294 10329759.800004482 0 10329759.800004482 705865.74543952942 0 0 0 0 -8139056.9108276367 10812202.677653313 0 10812202.677653313 -14577170.674652696 0 0 0 0 -49821228.602443695 25687602.133034468 0 25687602.133034468 -8501321.7677650452 0 0 0 0 -19977821.974273682 15516736.20320797 0 15516736.20320797 -13578199.95168066 0 0 0 0 10786389.692199707 25584227.466174126 0 25584227.466174126 -27972503.701539993 0 0 0 0 -10377733.097686768 28448880.054635048 0 28448880.054635048 -27750481.0014925 0 0 0 0 -24181853.484649658 37488097.83428669 0 37488097.83428669 -17034257.08540535 0 0 0 0 14248755.203826904 9350891.0857143402 0 9350891.0857143402 -61104764.174923897 0 0 0 0 75988711.438964844 31709531.337337017 0 31709531.337337017 -54250987.390708447 0 0 0 0 20571839.102706909 53388268.251780748 0 53388268.251780748 -23395358.658198357 0 0 0 0 63554411.211029053 -22731611.917695403 0 -22731611.917695403 -213432477.55159664 0 0 0 0 29245562.762451172 120122129.6229341 0 120122129.6229341 -70248228.248227119 0 0 0 0 -20848277.117645264 162910034.55683899 0 162910034.55683899 -98875589.551856995 0 0 0 0 30418515.87991333 132724291.56924772 0 132724291.56924772 65116965.537760735 0 0 0 0 230669949.46795654 180200738.77226686 0 180200738.77226686 -51177041.181913853 0 0 0 0 211352013.96665955 2023057.0814447403 0 2023057.0814447403 119466660.06157494 0 0 0 0 -41449983.571105957 204287740.99967766 0 204287740.99967766 99750787.998188972 0 0 0 0 339006045.4666748 125857150.65707016 0 125857150.65707016 -49654955.083692074 0 0 0 0 -268984588.90498352 -22260771.593128681 0 -22260771.593128681 38855514.437436104 0 0 0 0 -6175173.5223725475 -81036.832185693085 0 -81036.832185693085 443310.76866821153 0 0 0 0 -172463610.37289429 80779205.994586945 0 80779205.994586945 -1226340.7924185991 0 0 0 0 -43434909.515441895 38798330.816184044 0 38798330.816184044 -16155116.043961525 0 0 0 0 -144270082.68652344 -36880251.596113682 0 -36880251.596113682 -10171726.029045731 0 0 0 0 -158859228.43315506 57482098.643300176 0 57482098.643300176 -2253236.2951850891 0 0 0 0 -62778426.066650391 18507084.991141319 0 18507084.991141319 -1442208.3629407883 0 0 0 0 -52299475.318141699 9185403.5820605196 0 9185403.5820605196 -1036999.4171881042 0 0 0 0 -80791908.471679688 11665623.060768604 0 11665623.060768604 17543699.625516891 0 0 0 0 -82145643.143920898 13363885.389710665 0 13363885.389710665 17768877.227707148 0 0 0 0 -70552694.564693451 17143723.831415653 0 17143723.831415653 -8983954.9841842651 0 0 0 0 -90009543.463012695 31121141.000908375 0 31121141.000908375 1362603.8134839535 0 0 0 0 -82329478.774612427 14339689.476687551 0 14339689.476687551 16722638.737406731 0 0 0 0 -81514424.669921875 -8604099.1650700569 0 -8604099.1650700569 -8749878.0859125853 0 0 0 0 -81775630.430175781 13958603.399102211 0 13958603.399102211 14303222.568834305 0 0 0 0 -126852473.28793335 8892502.0070707798 0 8892502.0070707798 14632879.161822319 0 0 0 0 -62714616.627746582 8382332.6894046068 0 8382332.6894046068 596618.15936374664 0 0 0 0 -84906955.92364502 275588841.45133233 0 275588841.45133233 -162977047.33218479 0 0 0 0 -161386113.89178467 173535375.50453997 0 173535375.50453997 234880600.72002029 0 0 0 0 -21013039.627308484 1487401.9824121296 0 1487401.9824121296 2813978.8393174633 0 0 0 0 -12411921.059844971 253042680.17107224 0 253042680.17107224 60456693.498542786 0 0 0 0 3786970.4359741211 235910711.95084643 0 235910711.95084643 34582720.34192276 0 0 0 0 29575756.79397583 254355699.45229316 0 254355699.45229316 46140818.671779633 0 0 0 0 17458422.611083984 266166107.09974265 0 266166107.09974265 56760676.327294111 0 0 0 0 -47706476.725271225 -97883194.088464394 0 -97883194.088464394 38646954.872780323 0 0 0 0 -11724850.576418005 -2225528.5286166631 0 -2225528.5286166631 6393648.3915378489 0 0 0 0 -60100136.945320129 5412048.9465637207 0 5412048.9465637207 4050368.258228302 0 0 0 0 -107590896.33425903 10548241.612075329 0 10548241.612075329 12693199.423449516 0 0 0 0 -22609187.316460505 712427.88945843652 0 712427.88945843652 991639.82106842753 0 0 0 0 -48633841.473219797 14071661.233262334 0 14071661.233262334 -3367392.9421613771 0 0 0 0 -33342078.169128418 -29878564.763084412 0 -29878564.763084412 14638549.089199066 0 0 0 0 -46592149.067520142 17406958.274620056 0 17406958.274620056 -1710426.8146333694 0 0 0 0 -58813555.447433472 7969140.2693328857 0 7969140.2693328857 -8461346.4718828201 0 0 0 0 -27888557.315786466 -1167680.6797662023 0 -1167680.6797662023 1566557.1481135986 0 0 0 0 -113195709.81521606 -41406754.875176668 0 -41406754.875176668 211576817.71480274 0 0 0 0 -12295934.063674927 4395526.7251653671 0 4395526.7251653671 12345755.672371984 0 0 0 0 -19926713.640469179 3851533.1714904495 0 3851533.1714904495 -938181.06813647528 0 0 0 0 -22799432.339544699 9222755.072342921 0 9222755.072342921 -1652950.4466169584 0 0 0 0 -11342419.694290161 1558306.2972309589 0 1558306.2972309589 9976567.213570714 0 0 0 0 -27365597.603045225 5361976.8877481632 0 5361976.8877481632 -3335620.4237974202 0 0 0 0 -65389591.460769653 70608092.517636001 0 70608092.517636001 10047827.209292412 0 0 0 0 -146299689.94674683 93238541.433690786 0 93238541.433690786 295724221.24856365 0 0 0 0 20853682.700078011 71825932.541585684 0 71825932.541585684 158373305.9479866 0 0 0 0 -285646137.91262817 189970392.54630613 0 189970392.54630613 112845519.5438683 0 0 0 0 -255292118.58816528 -28853370.985987186 0 -28853370.985987186 161691720.55980825 0 0 0 0 -11838096.290344238 -11622728.832584262 0 -11622728.832584262 150814341.19550323 0 0 0 0 -60587461.335968018 -123196807.91098022 0 -123196807.91098022 -15722557.514203548 0 0 0 0 -119204673.42651367 -103660847.77939296 0 -103660847.77939296 -13527450.911467552 0 0 0 0 -300928478.73100281 -297735249.90467095 0 -297735249.90467095 -139660296.36269951 0 0 0 0 -40694870.362495422 217894773.8264814 0 217894773.8264814 -114917986.40112877 0 0 0 0 -165410850.31929016 7166566.3494164944 0 7166566.3494164944 98044731.423008442 0 0 0 0 -713261713.93936157 86612040.134476185 0 86612040.134476185 92492887.958461523 0 0 0 0 -217089741.90986633 360744940.68050718 0 360744940.68050718 -404930311.75924683 0 0 0 0 -64915507.953887939 113745040.72390223 0 113745040.72390223 -55213193.898848295 0 0 0 0 -1570917.4485931396 -37153008.559310436 0 -37153008.559310436 -230368189.31240082 0 0 0 0 -688552075.74555969 267451310.67032886 0 267451310.67032886 -104165751.90302181 0 0 0 0 -153806.86425951868 112729.08624803275 0 112729.08624803275 -1081515.9056789931 0 0 0 0 -12120938.143707275 -42736445.609545231 0 -42736445.609545231 -43899855.071960926 0 0 0 0 -330395953.1999054 -252759758.82027841 0 -252759758.82027841 325986717.69676971 0 0 0 0 -710188578.42956543 225655309.86543155 0 225655309.86543155 -167461399.37133604 0 0 0 0 224143082.99382019 -17001555.475018024 0 -17001555.475018024 -149324022.94846296 0 0 0 0 1157754.419571951 -2333737.0727201155 0 -2333737.0727201155 -445099.9041355041 0 0 0 0 70916434.901153564 12240742.418753624 0 12240742.418753624 -45261823.225321949 0 0 0 0 -315721647.02033997 178887872.6457988 0 178887872.6457988 820874519.76819873 0 0 0 0 -5057451.7423095703 -2668252.7492957115 0 -2668252.7492957115 -16369063.740157366 0 0 0 0 59020314.168128967 -71120572.40608114 0 -71120572.40608114 16331652.797367573 0 0 0 0 55756247.274307251 -59089067.520292878 0 -59089067.520292878 -27710492.620562315 0 0 0 0 -33939648.259368896 -158571322.12056923 0 -158571322.12056923 -128747998.24105066 0 0 0 0 -71494044.640975952 -118457948.13397712 0 -118457948.13397712 81321323.232617855 0 0 0 0 4052461.1281738281 -86231667.018738508 0 -86231667.018738508 85918500.666291088 0 0 0 0 -30117786.604474932 -7387097.6640384197 0 -7387097.6640384197 -2555134.490870364 0 0 0 0 -25681697.979084343 -7895896.9134719037 0 -7895896.9134719037 -2435213.9520952227 0 0 0 0 -887964335.0332756 -323347553.01381946 0 -323347553.01381946 -110903869.15391374 0 0 0 0 -1827570216.9794273 1170615474.3668897 0 1170615474.3668897 -338095335.02545297 0 0 0 0 -2080999.4127822369 -4608506.3451454574 0 -4608506.3451454574 -503782.32017575286 0 0 0 0 -433238472.41197205 474152640.35165739 0 474152640.35165739 -186724349.04553246 0 0 0 0 -4197927223.2719269 478044304.28207171 0 478044304.28207171 1301835088.8349173 0 0 0 0 -6614750434.0689545 1765744838.0397019 0 1765744838.0397019 1024905148.3023083 0 0 0 0 -4200712803.8345032 580649303.69008303 0 580649303.69008303 404225806.33288872 0 0 0 0 -2116277039.691925 738021248.96023977 0 738021248.96023977 -145897138.81329581 0 0 0 0 -4163120690.2745209 1771024847.9096715 0 1771024847.9096715 534875877.41982603 0 0 0 0 -6606340472.9238586 3551328068.2474313 0 3551328068.2474313 -560378041.44730353 0 0 0 0 -3313804341.598732 2529913849.6823559 0 2529913849.6823559 -1073165334.5372486 0 0 0 0 -2629808806.6028748 1704686687.1082985 0 1704686687.1082985 -1042580473.8148234 0 0 0 0 -20917807.270034648 -6476406.5582664721 0 -6476406.5582664721 -2324332.3894869499 0 0 0 0 4771150.0484430492 -9970174.4763571545 0 -9970174.4763571545 -1649817.9675094602 0 0 0 0 -626530295.00863647 377014988.1636939 0 377014988.1636939 843386071.40130091 0 0 0 0 35927196.948043823 -39499083.532839775 0 -39499083.532839775 -21536031.427897453 0 0 0 0 -3577239.8171198219 -6707002.3325529788 0 -6707002.3325529788 -1769197.7229248439 0 0 0 0 -2608420064.5733185 4580841205.2083502 0 4580841205.2083502 -5126041260.0171824 0 0 0 0 444086186.81814575 -1652823324.2036822 0 -1652823324.2036822 -2938882929.2151055 0 0 0 0 -6577618055.7897339 -7225594.1125975158 0 -7225594.1125975158 4277317.7093629921 0 0 0 0 -2400779.2132137269 -1954629.4385817833 0 -1954629.4385817833 -2482285.2389525753 0 0 0 0 -2443255664.9320526 -1592161841.2684734 0 -1592161841.2684734 27928242.282974362 0 0 0 0 -6599931486.7467804 -4933079844.6652632 0 -4933079844.6652632 -2080166924.2522123 0 0 0 0 -3021107974.3854675 -1880430920.2584054 0 -1880430920.2584054 -91902431.325368106 0 0 0 0 -6609070260.4304504 -1591151305.4550414 0 -1591151305.4550414 688598457.02669179 0 0 0 0 -2218360840.1459122 -837690390.92202401 0 -837690390.92202401 -118286041.78958006 0 0 0 0 -1780961444.0372925 -1055411350.8642499 0 -1055411350.8642499 -349940980.82826889 0 0 0 0 -1312055258.3670349 -1639631443.6050286 0 -1639631443.6050286 -1121611441.412322 0 0 0 0 224947526.06777954 -131517957.80917889 0 -131517957.80917889 -437577192.07922149 0 0 0 0 210016816.53105164 29856183.792495251 0 29856183.792495251 -170147036.54529738 0 0 0 0 -301366941.35418701 78270546.638075173 0 78270546.638075173 -165194090.81912374 0 0 0 0 -90056065.044265747 -44872595.713127725 0 -44872595.713127725 -351087922.52536714 0 0 0 0 -1544989516.6233826 -950144927.47606218 0 -950144927.47606218 -591828650.5338465 0 0 0 0 -2258571398.1330261 -374050027.18946362 0 -374050027.18946362 -7962060.1352803707 0 0 0 0 -842264975.19491577 -540648925.34583938 0 -540648925.34583938 -147426532.8865788 0 0 0 0 -1768965718.2715149 -405339353.48793942 0 -405339353.48793942 78412417.288757145 0 0 0 0 -336747484.1559906 335171012.5734154 0 335171012.5734154 -344466530.56924748 0 0 0 0 -1033508691.923584 172346820.66839504 0 172346820.66839504 -71223095.38472262 0 0 0 0 -2356897113.6254272 -43396303.150894046 0 -43396303.150894046 -4521951.7581986487 0 0 0 0 -1279129658.8564911 -373292441.46736813 0 -373292441.46736813 -170725466.23252022 0 0 0 0 -3001218693.392334 -708854838.86026931 0 -708854838.86026931 -126791092.12001598 0 0 0 0 -3135921534.3626099 -717215695.34915185 0 -717215695.34915185 42309952.585025668 0 0 0 0 -3049793084.2223206 -776676516.02172184 0 -776676516.02172184 33255176.251241475 0 0 0 0 -2215055683.3452454 -440759216.2603789 0 -440759216.2603789 36749525.477104783 0 0 0 0 -3235030297.7045479 -1392377758.0300846 0 -1392377758.0300846 -764347331.32015455 0 0 0 0 -2915976188.8961487 -497400931.68773568 0 -497400931.68773568 368137701.36431652 0 0 0 0 -6614339930.2987518 -2858240857.6669879 0 -2858240857.6669879 -1126797881.9446721 0 0 0 0 -9652054.661294505 -431178.87553879619 0 -431178.87553879619 1028917.5706752044 0 0 0 0 -3251791941.2588196 -795557395.57732582 0 -795557395.57732582 619781413.19320464 0 0 0 0 -3299450094.7501221 -1051997404.886003 0 -1051997404.886003 267155007.80611801 0 0 0 0 -2981447971.6610565 -902661019.73283327 0 -902661019.73283327 319190199.68735039 0 0 0 0 -1967615073.5164948 1821905696.9022841 0 1821905696.9022841 -790356526.11312926 0 0 0 0 -3428241938.7581177 2688003262.5387926 0 2688003262.5387926 -1253851270.3811684 0 0 0 0 -2185092145.5786743 1443695935.7006691 0 1443695935.7006691 -845983708.34027815 0 0 0 0 -723697450.36329651 730892658.67493534 0 730892658.67493534 -1309607204.1662219 0 0 0 0 -1223444600.539917 2149170226.1453018 0 2149170226.1453018 -2387390557.7935047 0 0 0 0 -3996105434.6132774 2100995763.7123339 0 2100995763.7123339 -410704379.52415162 0 0 0 0 -6605654632.2807198 3988338548.3646994 0 3988338548.3646994 -1396294361.3135266 0 0 0 0 -3565643076.4787903 2009112494.3387153 0 2009112494.3387153 -391161221.43235111 0 0 0 0 -5195720581.8476868 2169925998.5303764 0 2169925998.5303764 -3388007.2785887253 0 0 0 0 -3650012785.7767601 1877504475.2910998 0 1877504475.2910998 -457057386.49511755 0 0 0 0 -2512831866.9583969 889073980.61947417 0 889073980.61947417 -532576539.73501384 0 0 0 0 -2355481305.8379745 1196701553.1886992 0 1196701553.1886992 -625807223.73627722 0 0 0 0 -599983277.36062622 815319881.88339221 0 815319881.88339221 -970525637.29805303 0 0 0 0 -1211369711.9130859 570608147.32115531 0 570608147.32115531 -710982781.64051521 0 0 0 0 -1216066640.8798981 1176054381.8927338 0 1176054381.8927338 -1069940742.2505349 0 0 0 0 -413510680.02056122 705540510.89247942 0 705540510.89247942 -600074796.42676306 0 0 0 0 -550494287.07624054 611564028.77993536 0 611564028.77993536 -661863330.3887341 0 0 0 0 -13341822.947304644 1299921.7426697034 0 1299921.7426697034 5394769.8164799819 0 0 0 0 -440458034.76613235 140520130.94781923 0 140520130.94781923 -353345298.54247808 0 0 0 0 -4762709.4960174561 -1877770.5735330582 0 -1877770.5735330582 3353341.28256464 0 0 0 0 -5948553.9071922302 -2034840.9924824238 0 -2034840.9924824238 8213877.0836799145 0 0 0 0 -9934877.9109651931 -1013776.6604885999 0 -1013776.6604885999 2777163.967222793 0 0 0 0 -3065430.7645501681 -879658.88197817653 0 -879658.88197817653 2400256.9047287703 0 0 0 0 33198425.128242493 743942107.3074832 0 743942107.3074832 -1274510237.0664325 0 0 0 0 -1130052166.8575516 695476809.80332994 0 695476809.80332994 -436797103.58616877 0 0 0 0 -50439290.647201538 -43676763.712485425 0 -43676763.712485425 46291834.006782517 0 0 0 0 -16965028.060997598 -589805.09037360549 0 -589805.09037360549 2626166.8764068987 0 0 0 0 22655383.263549805 -24844990.662452698 0 -24844990.662452698 -68217068.411820367 0 0 0 0 52393615.220375061 198822364.18057761 0 198822364.18057761 141753039.36732841 0 0 0 0 -362820.4097090438 -636828.7921382793 0 -636828.7921382793 -38998.801819370507 0 0 0 0 -25090347.969039917 66082.053201198578 0 66082.053201198578 -24561040.29948099 0 0 0 0 -43815888.568359375 -52170660.381665632 0 -52170660.381665632 18660554.920613293 0 0 0 0 514538.07657241821 38865795.756999902 0 38865795.756999902 62603570.032248527 0 0 0 0 138141941.6267395 82238399.716490299 0 82238399.716490299 -55030276.794757947 0 0 0 0 -243921472.56680298 -70243357.676898122 0 -70243357.676898122 54045806.444735289 0 0 0 0 -7937772.7369289249 153400.16286198236 0 153400.16286198236 1485541.6741616898 0 0 0 0 131368061.5848521 -36229946.915253505 0 -36229946.915253505 2267032.5522406548 0 0 0 0 -2565791.0330297463 541829.9178728275 0 541829.9178728275 2793294.7702122536 0 0 0 0 10675359.330345154 -68961780.936233282 0 -68961780.936233282 232292084.7488699 0 0 0 0 135725867.20147705 249632856.87652493 0 249632856.87652493 134076326.64152181 0 0 0 0 29899241.657455444 202528992.50258937 0 202528992.50258937 180097085.44077966 0 0 0 0 9603134.4543151855 308286180.9041158 0 308286180.9041158 218284206.14051771 0 0 0 0 -67813263.868911743 176132615.93754077 0 176132615.93754077 179592741.53471363 0 0 0 0 -53017329.087669373 225353818.02155745 0 225353818.02155745 -41685922.765948057 0 0 0 0 -196879728.32870483 177396448.75808066 0 177396448.75808066 219182534.64961991 0 0 0 0 592955.884765625 40216625.472598642 0 40216625.472598642 283503050.179075 0 0 0 0 -987210.24766837806 -2931665.830715463 0 -2931665.830715463 -205322.87190508735 0 0 0 0 17164951.867824554 -22330086.985028435 0 -22330086.985028435 607372.58136262 0 0 0 0 -26224795.351013184 339002740.57499653 0 339002740.57499653 841565639.86885941 0 0 0 0 -2078869575.9251785 1749518884.0121531 0 1749518884.0121531 -1956917811.8250713 0 0 0 0 -14284729.472216118 2085546.3631325094 0 2085546.3631325094 2571635.6981935073 0 0 0 0 -26253729.798477173 18679595.469161928 0 18679595.469161928 37821173.873356655 0 0 0 0 -1169268027.2409 3928330537.5928187 0 3928330537.5928187 -6558718179.3115339 0 0 0 0 -4532433.3269075155 1862068.4876112342 0 1862068.4876112342 306456.76525286422 0 0 0 0 -6536929404.1588745 -2893532.2594747925 0 -2893532.2594747925 5847788.443900045 0 0 0 0 -3014217.6648046225 723305.95537124097 0 723305.95537124097 625016.3347369103 0 0 0 0 -4894791388.5644073 -3904026165.5250134 0 -3904026165.5250134 -1493420875.3272357 0 0 0 0 -6605378191.6967545 -3634770060.1413341 0 -3634770060.1413341 -1383761218.850415 0 0 0 0 -6484298.2824707031 -354592468.73742056 0 -354592468.73742056 -206069161.00222868 0 0 0 0 -4513152.6518719569 622496.16766176745 0 622496.16766176745 227963.02984015836 0 0 0 0 892319713.41378784 238945321.20223039 0 238945321.20223039 -341959363.92525482 0 0 0 0 -6478309744.6998692 -3332526257.5266147 0 -3332526257.5266147 -1416971590.893862 0 0 0 0 -3533596684.6416779 -1859986372.8083606 0 -1859986372.8083606 -778521385.35589468 0 0 0 0 -10503754.782796271 2569682.6170357931 0 2569682.6170357931 -947310.4811528062 0 0 0 0 -3412638541.1568041 -1225928682.815027 0 -1225928682.815027 -465418328.09637475 0 0 0 0 -6615922027.0670547 -1777110153.863523 0 -1777110153.863523 637532781.07933843 0 0 0 0 -4422442585.9582825 -772656942.98424494 0 -772656942.98424494 933547032.62871754 0 0 0 0 -4087505709.0920715 -760603138.65663826 0 -760603138.65663826 917303249.23661196 0 0 0 0 -3986162976.441288 -932746058.15133047 0 -932746058.15133047 294978114.36007762 0 0 0 0 -2148603899.760437 138244471.15886629 0 138244471.15886629 383762862.71851361 0 0 0 0 -4002455066.0800209 -21805816.870956033 0 -21805816.870956033 610731578.53746438 0 0 0 0 -6612521662.1609421 360061919.41702217 0 360061919.41702217 1365474969.3363802 0 0 0 0 -18453603.218816757 251981840.97507212 0 251981840.97507212 -50255491.898672581 0 0 0 0 -139775630.99417114 -77446478.769117594 0 -77446478.769117594 -166429090.53696001 0 0 0 0 75753712.024707794 -291497602.773314 0 -291497602.773314 -101027766.53121376 0 0 0 0 -2122606172.3419342 156446744.4106214 0 156446744.4106214 126839880.72439098 0 0 0 0 -1615873935.9472809 -388143828.48844433 0 -388143828.48844433 363896199.13257897 0 0 0 0 -1615586533.611784 -380391264.74988461 0 -380391264.74988461 221178224.5352335 0 0 0 0 -1212943288.8482666 156469483.42230263 0 156469483.42230263 71094526.563627258 0 0 0 0 13106742.460792542 72769886.744121298 0 72769886.744121298 -16483426.188603401 0 0 0 0 24124947.778386354 -164604093.14783534 0 -164604093.14783534 -217099769.68682432 0 0 0 0 -14543529.95986113 4356123.3220392466 0 4356123.3220392466 -3253917.2962505147 0 0 0 0 -1298797148.8441772 -1094720533.8402269 0 -1094720533.8402269 -496164837.26307029 0 0 0 0 -150232685.9130249 -266077286.68121976 0 -266077286.68121976 -141082539.34957731 0 0 0 0 -205645735.06345177 -146247392.62796819 0 -146247392.62796819 407182979.71837115 0 0 0 0 56842611.483089447 199939634.91246241 0 199939634.91246241 415278329.95967555 0 0 0 0 286624461.7237854 31494491.467799604 0 31494491.467799604 -202819902.30910504 0 0 0 0 -23935246.711109161 95686141.556767046 0 95686141.556767046 194929768.1703645 0 0 0 0 13943505.597740173 68795948.529759228 0 68795948.529759228 59090068.34781003 0 0 0 0 -14585598.016830444 105926428.86444056 0 105926428.86444056 156251753.11965919 0 0 0 0 -17800539.096435547 173044231.13063955 0 173044231.13063955 232874199.87707359 0 0 0 0 410258.78603143245 -109934.22314745747 0 -109934.22314745747 -624378.89642289327 0 0 0 0 -5273075.1175079346 78249584.267096043 0 78249584.267096043 188512376.54182732 0 0 0 0 -63386031.822277069 20123713.126939163 0 20123713.126939163 61889060.464528561 0 0 0 0 -82929723.752290726 117994270.47410834 0 117994270.47410834 218357425.42137519 0 0 0 0 -39628955.004234314 -1615325.1425106525 0 -1615325.1425106525 -87751588.390292168 0 0 0 0 -147304898.71830368 31203829.461982422 0 31203829.461982422 111280276.28213874 0 0 0 0 -13310951.853713989 36943634.533257961 0 36943634.533257961 46717020.528248072 0 0 0 0 -23124957.518005371 55078602.433707237 0 55078602.433707237 41454456.515401125 0 0 0 0 -3718069.5331954956 19793431.626686096 0 19793431.626686096 -18685548.877446175 0 0 0 0 -21359030.436830766 4486742.0095648076 0 4486742.0095648076 -2967330.7807834032 0 0 0 0 -10638014.741470337 23875215.094126701 0 23875215.094126701 -51926286.340075493 0 0 0 0 26407071.275924683 60900220.167099476 0 60900220.167099476 -67214690.778746605 0 0 0 0 18610945.492630005 49427422.592731476 0 49427422.592731476 -73210593.459474087 0 0 0 0 9885401.1734848022 31623307.859070063 0 31623307.859070063 -78946218.056367874 0 0 0 0 51773479.289886475 49466843.710818291 0 49466843.710818291 -75259411.945567369 0 0 0 0 -71313686.514343262 99911276.763864517 0 99911276.763864517 -109032186.68287003 0 0 0 0 -237881497.17979431 96770619.79443121 0 96770619.79443121 14691063.070794106 0 0 0 0 -104626506.86236954 54375515.345179558 0 54375515.345179558 33854363.389361382 0 0 0 0 74708721.766967773 48725945.769411087 0 48725945.769411087 30681229.469688416 0 0 0 0 -316466542.06855392 -58183460.149204254 0 -58183460.149204254 32708571.750013351 0 0 0 0 -140550824.19506073 -24191737.781520367 0 -24191737.781520367 67266232.061077118 0 0 0 0 -68107754.585777283 15487065.757597446 0 15487065.757597446 -20599314.289228439 0 0 0 0 -10010343.727786541 66640890.30407612 0 66640890.30407612 103430765.43032455 0 0 0 0 -3241802.760197334 846314.03255402856 0 846314.03255402856 1629121.5946431048 0 0 0 0 -52770310.965713501 9298893.8576831818 0 9298893.8576831818 9965068.8575882912 0 0 0 0 -46608434.569217682 25369152.996492624 0 25369152.996492624 32472091.064721107 0 0 0 0 -38236626.482196808 7943837.5168464184 0 7943837.5168464184 1378925.5663719177 0 0 0 0 -5820237.5043527149 -973818.71926915646 0 -973818.71926915646 -467233.79227924626 0 0 0 0 -42930695.743095398 21943971.252738237 0 21943971.252738237 44851340.357808113 0 0 0 0 -38857340.448097229 31651340.540515423 0 31651340.540515423 27805605.960208893 0 0 0 0 -22379417.384536743 36675377.447894335 0 36675377.447894335 31127150.016569138 0 0 0 0 -79491582.255554199 131185993.34414768 0 131185993.34414768 -2100927.5771913528 0 0 0 0 -93132829.525970459 138820369.49301279 0 138820369.49301279 36935772.581283659 0 0 0 0 -106982450.16911316 132596924.45383793 0 132596924.45383793 35875239.30074887 0 0 0 0 -100070441.78236389 87201439.044522405 0 87201439.044522405 97611621.801996708 0 0 0 0 -105537041.34029579 59286210.479949743 0 59286210.479949743 -40987368.924230337 0 0 0 0 -97120917.854950905 11901659.117237225 0 11901659.117237225 18545868.995506287 0 0 0 0 -98691275.865794182 24149924.553053796 0 24149924.553053796 -2595529.7399187088 0 0 0 0 -85720874.906097412 4572848.7077040672 0 4572848.7077040672 18072823.776742756 0 0 0 0 -95505960.760528564 12942644.070495605 0 12942644.070495605 18834007.388176292 0 0 0 0 -131407067.7336235 -20421867.879169106 0 -20421867.879169106 13594447.303949356 0 0 0 0 -117925654.62263489 6427855.4633977413 0 6427855.4633977413 39636516.806156874 0 0 0 0 -83535028.764274597 280988.67526233196 0 280988.67526233196 18061131.38029623 0 0 0 0 -102245887.91925049 -58460439.060943604 0 -58460439.060943604 -43553823.574332237 0 0 0 0 -17644352.302530706 1625422.5099169761 0 1625422.5099169761 -7356921.9245758057 0 0 0 0 -23098534.285484314 74315519.507831037 0 74315519.507831037 215311764.06120622 0 0 0 0 13751131.797241211 -51016039.309183121 0 -51016039.309183121 140096833.51375306 0 0 0 0 -625798.83343748748 -761255.81555793807 0 -761255.81555793807 -177860.90840537613 0 0 0 0 -17932189.261520326 -29633122.235639036 0 -29633122.235639036 10519927.565652847 0 0 0 0 -7401916.3308792114 -2132431.4672050476 0 -2132431.4672050476 3715272.6486368179 0 0 0 0 -7178905.9218215942 -30219.418728351593 0 -30219.418728351593 3765870.7977457047 0 0 0 0 -5859489.1243183389 -2244833.8519135602 0 -2244833.8519135602 3678188.079799118 0 0 0 0 -13945623.196434021 3184792.5957007408 0 3184792.5957007408 -923858.20568263531 0 0 0 0 -1468373.963941026 -561270.81540447474 0 -561270.81540447474 200748.17761849519 0 0 0 0 -39394372.918029785 -9687906.9203395844 0 -9687906.9203395844 7272904.3674488068 0 0 0 0 -90835821.130783081 -10392320.814849138 0 -10392320.814849138 26594474.289430141 0 0 0 0 -5536379.1394119263 -64825.559673786163 0 -64825.559673786163 3432936.0302422047 0 0 0 0 -10162845.391317293 -2578291.521208019 0 -2578291.521208019 4922492.364027611 0 0 0 0 -6181525.0880813599 -2981327.2683086395 0 -2981327.2683086395 5737908.7628247738 0 0 0 0 -110135846.42359161 63146444.962697506 0 63146444.962697506 -116683654.84785795 0 0 0 0 10769101.981409073 -4433645.7274898291 0 -4433645.7274898291 -16713015.010511398 0 0 0 0 231324.62008954585 -759622.0289749261 0 -759622.0289749261 1066023.0566966254 0 0 0 0 -9284834.2306559104 -2275699.6840247847 0 -2275699.6840247847 3286401.4263464478 0 0 0 0 -82829763.445068359 21571865.465768814 0 21571865.465768814 4051755.4192819595 0 0 0 0 -86398669.986587524 26379765.032137394 0 26379765.032137394 8820392.6831555367 0 0 0 0 -74624205.45161438 5504761.3208270073 0 5504761.3208270073 -1953691.7780418396 0 0 0 0 -102470438.45485687 13562050.042672157 0 13562050.042672157 18418671.633853912 0 0 0 0 -86865373.276031494 16913829.267327428 0 16913829.267327428 22553970.569581985 0 0 0 0 -91088001.278579712 10208172.479824781 0 10208172.479824781 16095937.48326683 0 0 0 0 -72436493.284675598 14914669.960322857 0 14914669.960322857 2608057.7935237885 0 0 0 0 36671919.971008301 47679774.856688023 0 47679774.856688023 -15187975.421439886 0 0 0 0 -52249636.151893616 56017945.782459974 0 56017945.782459974 38021260.180426121 0 0 0 0 -73744426.790809631 12694268.841772556 0 12694268.841772556 9299403.1464306116 0 0 0 0 -65724542.366127014 22758662.113085747 0 22758662.113085747 12568824.007131577 0 0 0 0 -19242441.638633728 29551416.870536804 0 29551416.870536804 -19578586.594073772 0 0 0 0 -1605423.3642501831 825292.0358915329 0 825292.0358915329 -15334140.231163979 0 0 0 0 -25521037.307979584 -15797120.75237608 0 -15797120.75237608 -24938614.257989168 0 0 0 0 -34314514.230190277 1295548.5057346821 0 1295548.5057346821 -6803015.3418903351 0 0 0 0 35229757.737922668 -11082641.397260189 0 -11082641.397260189 -60373325.614200115 0 0 0 0 38243746.390659332 128471527.94610798 0 128471527.94610798 -101336037.41645122 0 0 0 0 44767909.57742691 -3551694.0021264553 0 -3551694.0021264553 -290773613.47580051 0 0 0 0 70092484.919219971 81636497.435664892 0 81636497.435664892 -34875313.243738592 0 0 0 0 -15987771.16660881 228334595.39061645 0 228334595.39061645 264237189.76549119 0 0 0 0 -23406590.863853455 162397643.92918581 0 162397643.92918581 -85485945.296717286 0 0 0 0 -85761230.196041107 22308289.180490494 0 22308289.180490494 28245254.210335732 0 0 0 0 -1187224.335996516 -531313.68238829635 0 -531313.68238829635 1347424.7279768675 0 0 0 0 -77838404.38911438 25696929.473899126 0 25696929.473899126 -8666898.7815303802 0 0 0 0 -96270967.667625427 9747013.1546266079 0 9747013.1546266079 19558864.928245187 0 0 0 0 -114584770.19324493 23942986.871587217 0 23942986.871587217 14956674.263932943 0 0 0 0 -125592546.03486633 58926073.613890111 0 58926073.613890111 -16223079.780343324 0 0 0 0 -2033086.5766681507 -870325.34443368576 0 -870325.34443368576 2363389.9983483991 0 0 0 0 -142798654.71342468 60546827.499971166 0 60546827.499971166 134137017.27160394 0 0 0 0 -163330672.41218185 129102335.63547757 0 129102335.63547757 8947356.8632415533 0 0 0 0 -102650154.24185944 -8697870.6236126423 0 -8697870.6236126423 35630764.260350823 0 0 0 0 -106107252.05475235 -5588830.8615655303 0 -5588830.8615655303 106426123.96277809 0 0 0 0 -1235418.1491176337 -550814.32349470444 0 -550814.32349470444 1403840.8527843903 0 0 0 0 -125509941.53242111 -4753641.4886413813 0 -4753641.4886413813 124054709.88161612 0 0 0 0 -64526181.883781433 61230380.45085907 0 61230380.45085907 111952652.55579185 0 0 0 0 -78424303.822212219 17843547.161628008 0 17843547.161628008 25155011.331510544 0 0 0 0 -78709408.435962677 23711110.589719772 0 23711110.589719772 67295028.281930923 0 0 0 0 -49255608.321014404 36337351.426877022 0 36337351.426877022 15919191.907860279 0 0 0 0 -46440572.108778 6935579.1393303573 0 6935579.1393303573 7715961.5755954981 0 0 0 0 -77446416.114088058 11497604.690474987 0 11497604.690474987 51884805.449510574 0 0 0 0 -10683888.176424388 5962116.2180844229 0 5962116.2180844229 3873754.0201513767 0 0 0 0 -93663501.08719635 50314062.378179073 0 50314062.378179073 -2172326.8454080522 0 0 0 0 -30330801.304340363 -64487309.428017616 0 -64487309.428017616 128071518.59607625 0 0 0 0 -52278082.236839294 -16076224.024438381 0 -16076224.024438381 70489130.704672098 0 0 0 0 -108606371.74617958 80368321.091349155 0 80368321.091349155 -906380.23301708698 0 0 0 0 -5037267.4632426612 3011288.692287853 0 3011288.692287853 2720528.4644489014 0 0 0 0 -52955751.650314331 9609017.1493003964 0 9609017.1493003964 106793743.54960804 0 0 0 0 -55058411.394065857 -2100287.7316194773 0 -2100287.7316194773 47874359.890074611 0 0 0 0 19028247.113471985 -132657512.07313338 0 -132657512.07313338 383243446.11346865 0 0 0 0 -349718931.74581146 -31813929.604367256 0 -31813929.604367256 407352849.92192 0 0 0 0 -65439652.634647369 237356735.15058634 0 237356735.15058634 257976292.96300387 0 0 0 0 66451334.077739716 192033764.3631686 0 192033764.3631686 -19114341.654518653 0 0 0 0 -1720633.3338036723 834703.3359281756 0 834703.3359281756 1249564.1025009437 0 0 0 0 -36329689.380493164 43907898.469707072 0 43907898.469707072 -13053277.773503866 0 0 0 0 -23267293.008256912 85019783.903671473 0 85019783.903671473 113649942.73511779 0 0 0 0 -16926928.686254501 -25366494.661170304 0 -25366494.661170304 100509123.62490511 0 0 0 0 -39238719.001800537 35379291.705575079 0 35379291.705575079 67594817.64361088 0 0 0 0 -129601506.19124603 41480752.814097106 0 41480752.814097106 -35754448.457479239 0 0 0 0 -272457869.35245514 121759946.34378731 0 121759946.34378731 -7681783.3525868431 0 0 0 0 -1516172.0343490355 432364.97891572677 0 432364.97891572677 296764.05517161632 0 0 0 0 8323152.0487995148 -201773193.77339536 0 -201773193.77339536 146954362.2135188 0 0 0 0 -107258154.99863434 -81715294.725678027 0 -81715294.725678027 112632562.40248609 0 0 0 0 -183652733.90087509 134768471.99533308 0 134768471.99533308 444453025.13546568 0 0 0 0 -86849.570606157184 354660.60377911571 0 354660.60377911571 -139307.83130028751 0 0 0 0 -228709739.17969799 -208817255.52719513 0 -208817255.52719513 21178006.390979469 0 0 0 0 -251471473.22193146 84985656.805560589 0 84985656.805560589 141544837.54652807 0 0 0 0 -287196451.25714874 -55278919.522305608 0 -55278919.522305608 236047172.66712153 0 0 0 0 -199971723.53309727 -111009784.35582826 0 -111009784.35582826 133319804.00639343 0 0 0 0 -298772562.77045536 75268855.979771167 0 75268855.979771167 162470186.2152853 0 0 0 0 -362585082.64724731 296133520.13628554 0 296133520.13628554 -235853502.0657548 0 0 0 0 -134086529.00024033 -51740407.381487846 0 -51740407.381487846 -263474524.85283709 0 0 0 0 -178365153.09574127 -201648229.30588627 0 -201648229.30588627 168070523.19566178 0 0 0 0 63484349.208045959 349513578.00436342 0 349513578.00436342 -192665416.44751692 0 0 0 0 -2052707.7616605628 -691067.10494105332 0 -691067.10494105332 -89129.969178281724 0 0 0 0 -86487024.180000305 -56389514.300585508 0 -56389514.300585508 -45127381.398049355 0 0 0 0 -23351364.562309265 9119296.6311235428 0 9119296.6311235428 -13370035.563215256 0 0 0 0 -20640968.678222656 1864011.5088653564 0 1864011.5088653564 -8840221.9148483276 0 0 0 0 -15414560.178939819 5340471.6213979721 0 5340471.6213979721 -11570888.053804398 0 0 0 0 -14429862.399790764 2272795.8540167809 0 2272795.8540167809 -2799807.4883842468 0 0 0 0 -14149227.010528564 4011492.0552368164 0 4011492.0552368164 -1902578.8508987427 0 0 0 0 -6720727.6816819049 -1919194.8083607648 0 -1919194.8083607648 -89840.694759409875 0 0 0 0 -252164919.94394684 385586692.43983769 0 385586692.43983769 -448525496.6815691 0 0 0 0 -193504150.68797302 147730280.65413284 0 147730280.65413284 -169985789.98589221 0 0 0 0 -671789810.08638 165326505.15943646 0 165326505.15943646 -39116444.803166389 0 0 0 0 -403223483.97691345 9888132.3249225616 0 9888132.3249225616 -437907327.2952261 0 0 0 0 -288861782.85680008 72201990.997410059 0 72201990.997410059 -16599523.782454491 0 0 0 0 -332544814.33546448 252027849.06071854 0 252027849.06071854 -173300370.7905035 0 0 0 0 -8255915.4419441223 -3701841.8467960358 0 -3701841.8467960358 344733.30704116821 0 0 0 0 -1762606.2234039307 -10651052.261761904 0 -10651052.261761904 6516907.3869857788 0 0 0 0 7306511.4230775833 -9269674.4282782078 0 -9269674.4282782078 -4291139.1374664307 0 0 0 0 -6275001.9652175903 -7925177.7061834335 0 -7925177.7061834335 11639964.393371582 0 0 0 0 412914.20132446289 -6916747.8926773071 0 -6916747.8926773071 -9569925.0822143555 0 0 0 0 23352.619267690927 45983.676038173027 0 45983.676038173027 23195.09762888588 0 0 0 0 479256.58906555176 -6624770.2437019348 0 -6624770.2437019348 -14037864.20135498 0 0 0 0 -7275983.1149253845 -6870751.6911344528 0 -6870751.6911344528 10537137.549201965 0 0 0 0 -658501.18638214655 -2541582.2407286884 0 -2541582.2407286884 -6641045.2873761747 0 0 0 0 -450727825.5581665 75943005.806118011 0 75943005.806118011 -25626812.361606359 0 0 0 0 -778407404.21561432 84074721.926827431 0 84074721.926827431 -328657.88782596588 0 0 0 0 -774050179.23182106 380359063.20584619 0 380359063.20584619 -198359992.85069656 0 0 0 0 -498864079.15799332 296904352.26740646 0 296904352.26740646 -176197349.21910858 0 0 0 0 -945677574.9372673 118588844.02977371 0 118588844.02977371 -5516003.166852951 0 0 0 0 -1632571.9279600233 -565207.16669878177 0 -565207.16669878177 -1063184.8753811182 0 0 0 0 -10032375.246566772 7158626.2200574875 0 7158626.2200574875 -234322.97294998169 0 0 0 0 179450.55676269531 3709526.2278671265 0 3709526.2278671265 3874680.3422698975 0 0 0 0 -13613630.239288386 -4299945.6790560335 0 -4299945.6790560335 -4629396.1433550157 0 0 0 0 -19509691.846054077 7248520.1400957108 0 7248520.1400957108 5061901.2712450027 0 0 0 0 -12460959.645645142 4197477.7873306274 0 4197477.7873306274 -2597536.090801239 0 0 0 0 -18176559.669616699 7102664.1236867905 0 7102664.1236867905 -380309.85766983032 0 0 0 0 -23680988.218467712 6499125.1006193161 0 6499125.1006193161 83841.121015548706 0 0 0 0 -20997148.845657349 3384942.4045572281 0 3384942.4045572281 5186996.9007930756 0 0 0 0 -8273875.742389679 -6245765.4230546951 0 -6245765.4230546951 7011565.210111618 0 0 0 0 -55906626.407608032 -22143679.031375885 0 -22143679.031375885 22638476.170033455 0 0 0 0 -20058965.490305088 1155494.51105016 0 1155494.51105016 -619182.9042597441 0 0 0 0 -2137169.0358982263 -5504354.8608686905 0 -5504354.8608686905 -729582.74972836301 0 0 0 0 -7003158.7473831177 -2446294.4518909454 0 -2446294.4518909454 5320495.518705368 0 0 0 0 332610.37687683105 3303842.014538765 0 3303842.014538765 3017483.5964813232 0 0 0 0 -165581.31363677979 890045.81861305237 0 890045.81861305237 5589004.1262340546 0 0 0 0 -51312012.044864655 -74600559.160812378 0 -74600559.160812378 -18614868.586185694 0 0 0 0 -302041.41479127668 -4499258.4697214672 0 -4499258.4697214672 -981954.39864540566 0 0 0 0 13872079.36866951 4666022.2287921906 0 4666022.2287921906 -26109648.51492691 0 0 0 0 -69428363.326782227 -83866514.771091461 0 -83866514.771091461 -6167991.0174808502 0 0 0 0 -63202387.396255493 -63056121.507667542 0 -63056121.507667542 -57576522.531768799 0 0 0 0 575101.47388839722 3037145.9018783569 0 3037145.9018783569 1955463.2229442596 0 0 0 0 1605399.1675167084 2263665.97275877 0 2263665.97275877 -3034071.7373313904 0 0 0 0 3692029.675163269 -1771258.9458861351 0 -1771258.9458861351 4764878.921421051 0 0 0 0 115629.67622554925 122968.94284596015 0 122968.94284596015 -23372.525543417782 0 0 0 0 -7918329.2785758972 9944828.4104328156 0 9944828.4104328156 -2624306.4434909821 0 0 0 0 -2332895.418296814 3573065.4103965759 0 3573065.4103965759 4597798.5033144951 0 0 0 0 -1138263.488822937 6034516.2620983124 0 6034516.2620983124 -746305.2948589325 0 0 0 0 758950.77876281738 2976832.2698564529 0 2976832.2698564529 -3519619.0176429749 0 0 0 0 1608196.41497612 2269345.1579427719 0 2269345.1579427719 -3042418.6240081787 0 0 0 0 981309.12855529785 3501794.0240573883 0 3501794.0240573883 -6758749.6092181206 0 0 0 0 -11807513.264389038 7636345.0660085678 0 7636345.0660085678 17641949.329974413 0 0 0 0 -23347707.364368439 26700558.668024063 0 26700558.668024063 -5946577.9672422409 0 0 0 0 -8617544.2724990845 -3823711.0097646713 0 -3823711.0097646713 14318403.801822901 0 0 0 0 -9570891.1070556641 -5453780.8762836456 0 -5453780.8762836456 11554174.053499222 0 0 0 0 -640316.16985519044 -1480647.4892348852 0 -1480647.4892348852 -4101579.2863920084 0 0 0 0 23805921.42191124 -35580704.295393944 0 -35580704.295393944 28767846.841926575 0 0 0 0 -34333242.215582371 -8735054.9835509062 0 -8735054.9835509062 54092173.147885323 0 0 0 0 -75764511.367336273 48754516.514497757 0 48754516.514497757 12095627.841711044 0 0 0 0 9444514.3453712463 20257943.59414506 0 20257943.59414506 -125982988.088449 0 0 0 0 12698532.177642822 851770.30132007599 0 851770.30132007599 -25471549.265766859 0 0 0 0 7244311.2732257843 -3783968.6017379761 0 -3783968.6017379761 -25350541.950805187 0 0 0 0 3237829.9494299889 9436951.9801176786 0 9436951.9801176786 -30664428.638972282 0 0 0 0 -18740234.288036346 -34369089.128225386 0 -34369089.128225386 54141542.032677174 0 0 0 0 -18742908.66902411 -34843796.826306365 0 -34843796.826306365 23460.488450527191 0 0 0 0 -7525717.4273338318 -80044304.852003634 0 -80044304.852003634 -50015119.337675691 0 0 0 0 -65972219.563797951 74755463.623164505 0 74755463.623164505 -21038010.975631714 0 0 0 0 -46771508.663854599 52628002.139177814 0 52628002.139177814 -89386246.5365538 0 0 0 0 -2758819.2077314109 -1970073.1333944222 0 -1970073.1333944222 -79277.187545888795 0 0 0 0 -9592642.2727813721 8893548.7330880761 0 8893548.7330880761 37442149.741183072 0 0 0 0 -1180134.7097120592 -216536.11583187804 0 -216536.11583187804 442224.93383062707 0 0 0 0 -14261295.16608429 -11595293.578588843 0 -11595293.578588843 22666519.96848321 0 0 0 0 -10153522.562940598 -4561990.3062755466 0 -4561990.3062755466 5314129.0615127087 0 0 0 0 28681130.50435257 -6441635.1802043915 0 -6441635.1802043915 -13191631.898732185 0 0 0 0 -6111039.6467821077 -5041445.3225928582 0 -5041445.3225928582 36831.500161243137 0 0 0 0 84673822.964774609 482290397.58642036 0 482290397.58642036 -1216956845.374198 0 0 0 0 77931575.689002991 -40673042.583245993 0 -40673042.583245993 6996436.3709559441 0 0 0 0 -2575513.9829093283 2241491.3468068093 0 2241491.3468068093 -3455093.7922365176 0 0 0 0 -992107441.55825043 -928783097.42798162 0 -928783097.42798162 170025592.54146603 0 0 0 0 -1819145296.7019958 273026792.23989964 0 273026792.23989964 -873590811.412817 0 0 0 0 -148019679.17385101 -902975642.12313843 0 -902975642.12313843 -53428863.833769143 0 0 0 0 -17397699.046543121 -6709425.273170948 0 -6709425.273170948 7847484.98985219 0 0 0 0 -7383696.5674286336 -6977403.1347548123 0 -6977403.1347548123 848733.86023005284 0 0 0 0 -24278087.85625571 -5681982.7978877723 0 -5681982.7978877723 18976309.262938499 0 0 0 0 -23726860.195602417 -21311820.181958675 0 -21311820.181958675 40773541.010941505 0 0 0 0 -5565958.7293815613 -8776346.0427429676 0 -8776346.0427429676 -1508925.4917508364 0 0 0 0 -12686707.08437252 -14459964.779168233 0 -14459964.779168233 -2008729.1390693188 0 0 0 0 -1775640.9217090607 -10491464.74792254 0 -10491464.74792254 -4144325.2441596985 0 0 0 0 -420579.01053642499 -2567285.3185229059 0 -2567285.3185229059 -4542563.7965448163 0 0 0 0 -1616631.9019203186 -10822115.803246021 0 -10822115.803246021 -4770743.1420431137 0 0 0 0 9553477.5872306824 -2425670.7025556564 0 -2425670.7025556564 -10416843.224302053 0 0 0 0 1375973.2538299561 -16296637.853526115 0 -16296637.853526115 -2213892.3054065704 0 0 0 0 -1663916.7894439697 -27440300.201111794 0 -27440300.201111794 -31822520.274183273 0 0 0 0 3983762.8202400208 -5010036.1691093445 0 -5010036.1691093445 -19155710.272025108 0 0 0 0 4051642.187615633 -3429140.4987468868 0 -3429140.4987468868 -8048984.2003564835 0 0 0 0 5831092.5380363464 -1146474.2194833755 0 -1146474.2194833755 -10861147.381961823 0 0 0 0 2220024.925368309 5311955.6924935579 0 5311955.6924935579 -10441339.5546875 0 0 0 0 772559.50688835687 -2482800.1210622252 0 -2482800.1210622252 -4407637.0947752688 0 0 0 0 12314714.260088444 -5376535.7858085036 0 -5376535.7858085036 -8873348.5420341492 0 0 0 0 7677371.0477828979 -5103338.7712526321 0 -5103338.7712526321 -2530009.4293425083 0 0 0 0 7280544.186958313 -5802396.7487678528 0 -5802396.7487678528 -549058.04599571228 0 0 0 0 1986692.2582401037 -10036739.631027877 0 -10036739.631027877 -4321324.5519695282 0 0 0 0 -3749951.312005166 -1431997.7717154874 0 -1431997.7717154874 1081799.4141032472 0 0 0 0 -174309814.49474907 -36587296.052474976 0 -36587296.052474976 -15644449.439733505 0 0 0 0 -38558572.313364029 -44732179.05843544 0 -44732179.05843544 -51998366.092687607 0 0 0 0 -139674927.56041908 -46165694.738573074 0 -46165694.738573074 -39647145.962087631 0 0 0 0 -99641921.055427551 -19795868.164361954 0 -19795868.164361954 -56897855.074258804 0 0 0 0 -139414068.4875195 -47595307.441303015 0 -47595307.441303015 -33606577.555969238 0 0 0 0 -125385963.20584536 -70357262.375010014 0 -70357262.375010014 -91255482.734901428 0 0 0 0 -16305368.654834747 -1476604.4941396713 0 -1476604.4941396713 17730640.991174698 0 0 0 0 -1474016.682542772 -388412.81603704067 0 -388412.81603704067 664574.90419905074 0 0 0 0 -97262762.567434311 -20097982.520917892 0 -20097982.520917892 17508156.177183487 0 0 0 0 -100732671.53820193 12257311.92029959 0 12257311.92029959 -12699123.096376419 0 0 0 0 -16726394.467786789 -14644038.959952354 0 -14644038.959952354 6646412.371717453 0 0 0 0 -11317570.648445129 -58837.936326503754 0 -58837.936326503754 7820525.1002902985 0 0 0 0 26129046.133421659 -4503084.3868122697 0 -4503084.3868122697 -32409769.055139542 0 0 0 0 -38809267.320990562 29562328.220508337 0 29562328.220508337 -35139677.735326827 0 0 0 0 -16926795.52848649 -31815023.6513381 0 -31815023.6513381 -45523066.378193855 0 0 0 0 -152043722.8699913 52581407.858595371 0 52581407.858595371 43400505.093878865 0 0 0 0 -82870014.733911276 -140037869.23841476 0 -140037869.23841476 -21537956.889820099 0 0 0 0 3073881.8301105499 -13789427.089349508 0 -13789427.089349508 10159454.016509235 0 0 0 0 -517993.56429718621 -3182097.6734771961 0 -3182097.6734771961 -129692.44327533903 0 0 0 0 -19038254.700729847 -2869634.549195528 0 -2869634.549195528 17528576.755671978 0 0 0 0 -117956833.50121331 35974337.479068756 0 35974337.479068756 8111425.0117796659 0 0 0 0 -23703927.808593273 25096291.506675005 0 25096291.506675005 -11217069.66337204 0 0 0 0 332321.3652095953 689388.45721166162 0 689388.45721166162 -486531.18954173825 0 0 0 0 -500437946.07550049 -90471163.947383642 0 -90471163.947383642 118949004.11099291 0 0 0 0 -243773.82453675495 1232831.737534917 0 1232831.737534917 -263165.92328551924 0 0 0 0 76333879.66011858 -40594011.763774753 0 -40594011.763774753 -42468046.82576704 0 0 0 0 -270285845.70577717 -74327524.780944824 0 -74327524.780944824 -6647633.0460767746 0 0 0 0 -245587827.00668406 25197960.52140522 0 25197960.52140522 -72951398.753561974 0 0 0 0 -12806711.38297236 -3316891.9804263115 0 -3316891.9804263115 14603735.682661533 0 0 0 0 3245798.2992033958 -4996616.6529994011 0 -4996616.6529994011 900543.35897350311 0 0 0 0 -12460210.290306091 21108095.801093102 0 21108095.801093102 -3402241.8941116333 0 0 0 0 -2891330.1355299857 1439816.6029944997 0 1439816.6029944997 836358.60990764853 0 0 0 0 35875870.564620018 -22600900.739419937 0 -22600900.739419937 -114105665.69548416 0 0 0 0 -586992.93193099718 1893311.4206795683 0 1893311.4206795683 -1025630.5298317298 0 0 0 0 -324427986.29866648 -41495116.186707973 0 -41495116.186707973 41779979.135984421 0 0 0 0 -140390.78868026566 -37580.817887512036 0 -37580.817887512036 21840.700110908132 0 0 0 0 -305382901.47697258 9260031.8714675903 0 9260031.8714675903 36368646.280475616 0 0 0 0 -357666672.30602646 -111222475.10173035 0 -111222475.10173035 -65661901.391056061 0 0 0 0 -211523020.77491379 17707206.525887489 0 17707206.525887489 -15844916.279148102 0 0 0 0 -273729137.90076751 -129940763.54312408 0 -129940763.54312408 140095463.61044312 0 0 0 0 -414475.08344367938 1544685.8023554182 0 1544685.8023554182 -1646519.4800727302 0 0 0 0 -350699696.67601967 98887650.574874878 0 98887650.574874878 22074683.149185181 0 0 0 0 -252991336.23669052 -92104822.873233795 0 -92104822.873233795 -50992966.969125748 0 0 0 0 229262397.28992653 -480005152.11977959 0 -480005152.11977959 184637919.02993011 0 0 0 0 -217018286.10829926 -34844847.554479599 0 -34844847.554479599 -14614608.843818665 0 0 0 0 -231403525.32379723 9459652.766740799 0 9459652.766740799 -11816770.96390152 0 0 0 0 11014476.104888916 66024747.478637695 0 66024747.478637695 75012767.239212036 0 0 0 0 12558400.375188351 60746636.292315006 0 60746636.292315006 31334430.05166626 0 0 0 0 32273074.048536301 40250655.56511879 0 40250655.56511879 -75277751.198005676 0 0 0 0 72423462.331178665 8142262.0849761963 0 8142262.0849761963 -51037291.874675751 0 0 0 0 52888677.816408157 115798178.1651516 0 115798178.1651516 121009031.94955063 0 0 0 0 203472330.20698166 111545514.16915703 0 111545514.16915703 15645204.037906647 0 0 0 0 -20194803.295935631 12982522.447032928 0 12982522.447032928 129583316.09817463 0 0 0 0 141971191.40506148 -23854180.507862449 0 -23854180.507862449 2038468.5116558075 0 0 0 0 84812054.188587427 136100011.58884311 0 136100011.58884311 81048741.724416733 0 0 0 0 -7810923.6312153554 4212879.9373658989 0 4212879.9373658989 5674150.4950417802 0 0 0 0 -56422137.048309326 17670623.21887207 0 17670623.21887207 42558118.259628296 0 0 0 0 -34978919.012651935 5163000.5986393569 0 5163000.5986393569 3451624.1924924627 0 0 0 0 -47226839.506393433 11084369.085622787 0 11084369.085622787 38702897.046379089 0 0 0 0 -207957096.44767189 -194257951.04450512 0 -194257951.04450512 158820257.6307888 0 0 0 0 -26645259.130325317 26992800.090126038 0 26992800.090126038 23606122.570737839 0 0 0 0 -14373510.829956055 18098839.103909492 0 18098839.103909492 14614656.472488403 0 0 0 0 -174897959.93459415 64370758.898078918 0 64370758.898078918 7429157.33934021 0 0 0 0 -156161981.67513561 87313690.897186279 0 87313690.897186279 -9176836.0687618256 0 0 0 0 -296208152.99902445 33805662.090634048 0 33805662.090634048 23007042.968002319 0 0 0 0 -157566.71531655247 593989.2865655811 0 593989.2865655811 -354072.6619128976 0 0 0 0 124674861.78870487 144207340.01447296 0 144207340.01447296 -254208351.82006836 0 0 0 0 223962904.73286057 315929870.98484421 0 315929870.98484421 -151904433.87939405 0 0 0 0 -187366225.77103806 4812377.6156749725 0 4812377.6156749725 -11711044.601689279 0 0 0 0 -57205522.131978989 -14309295.507602692 0 -14309295.507602692 20806080.97359848 0 0 0 0 -46158443.584176064 -40441030.497558594 0 -40441030.497558594 -37508628.77630195 0 0 0 0 -135900054.48407459 -18053467.896892071 0 -18053467.896892071 -37763172.373537064 0 0 0 0 -76355612.264649272 -82719363.573500514 0 -82719363.573500514 -65837785.049156189 0 0 0 0 -43504403.004567146 -63740042.536104202 0 -63740042.536104202 -66285692.797206879 0 0 0 0 -85469614.468439102 -38789460.09692502 0 -38789460.09692502 13176701.385318756 0 0 0 0 -9065051.1777496338 -44899792.508102417 0 -44899792.508102417 -75761728.497058392 0 0 0 0 -43960344.988304138 -51672519.958993912 0 -51672519.958993912 75907622.896757126 0 0 0 0 -59319783.385949135 14770604.135881424 0 14770604.135881424 112331828.26469421 0 0 0 0 -19663261.749459267 -25388699.122156143 0 -25388699.122156143 6012295.6774482727 0 0 0 0 -29624709.397084381 5462531.4843193032 0 5462531.4843193032 683369.24245815678 0 0 0 0 81661752.256103039 23003537.483757019 0 23003537.483757019 26217572.269348145 0 0 0 0 -157855496.05713272 69419891.137046814 0 69419891.137046814 266994692.69968033 0 0 0 0 -23375271.846412659 14954765.86763382 0 14954765.86763382 20248209.256000519 0 0 0 0 -17864190.382335663 9771470.7962255478 0 9771470.7962255478 2242346.293258667 0 0 0 0 -24776273.480836742 3696492.2902390324 0 3696492.2902390324 -109833.95415985771 0 0 0 0 -21503542.822036743 9972445.332654953 0 9972445.332654953 11432839.423489571 0 0 0 0 -19943273.018699646 7136460.4851160049 0 7136460.4851160049 -1414605.3986549377 0 0 0 0 -20241114.988708019 736362.60472500324 0 736362.60472500324 -7904370.3196735382 0 0 0 0 4595259.8233203888 12062616.054371119 0 12062616.054371119 -17189027.367694855 0 0 0 0 -10978854.010223389 11019687.929569244 0 11019687.929569244 1642786.6348195076 0 0 0 0 -13846328.417579651 18739017.491065979 0 18739017.491065979 -17417080.163578033 0 0 0 0 -31354000.512290955 29039781.878641129 0 29039781.878641129 -14866482.384924889 0 0 0 0 -33122432.33045578 11517899.363057613 0 11517899.363057613 -19322579.295269012 0 0 0 0 -51906651.308509827 19417589.714416504 0 19417589.714416504 4141701.6830997467 0 0 0 0 -67386721.764007568 28029083.842460632 0 28029083.842460632 29672651.762300491 0 0 0 0 -33029439.359939575 21572253.197908401 0 21572253.197908401 2667161.9016685486 0 0 0 0 -19179374.85975647 22426680.497207642 0 22426680.497207642 353833.31585645676 0 0 0 0 -37166176.758354187 21972035.005039215 0 21972035.005039215 14023972.31684494 0 0 0 0 -24450652.14630127 18509199.693730354 0 18509199.693730354 1120955.6036510468 0 0 0 0 -37221769.009414673 -43329788.90448761 0 -43329788.90448761 -10456939.945386887 0 0 0 0 -104473678.96697998 -21739328.133622169 0 -21739328.133622169 38053919.618142128 0 0 0 0 -4806153.1273574829 -4326097.7223510742 0 -4326097.7223510742 24483295.130922318 0 0 0 0 -25424212.637680054 -38906069.148109436 0 -38906069.148109436 42459483.766604424 0 0 0 0 -23684933.830352783 -6906058.9466762543 0 -6906058.9466762543 29195453.840942383 0 0 0 0 -103490573.64929962 32219930.940367699 0 32219930.940367699 22672664.43083477 0 0 0 0 -55951698.875396729 4958631.9360408783 0 4958631.9360408783 36827276.131505966 0 0 0 0 -52041660.308416367 25188117.736743689 0 25188117.736743689 -49495184.639379501 0 0 0 0 -116636401.2856369 -15184619.945693016 0 -15184619.945693016 -12054216.372244835 0 0 0 0 -123416184.58177185 29664695.470183372 0 29664695.470183372 8586973.7982840538 0 0 0 0 1196038.1504796445 -1738232.3964270968 0 -1738232.3964270968 1074028.0343596973 0 0 0 0 -72817793.844223022 45765710.229314804 0 45765710.229314804 -7503449.3597311974 0 0 0 0 1913175.5515441895 -25966798.740562439 0 -25966798.740562439 -13159280.419694901 0 0 0 0 15672768.942955017 -15581474.236170769 0 -15581474.236170769 -12715997.313858032 0 0 0 0 3208540.7616539001 -6509739.470295608 0 -6509739.470295608 13842991.539785981 0 0 0 0 -16235240.596595388 -5285352.2662730422 0 -5285352.2662730422 9607688.1955250874 0 0 0 0 -907337821.65634918 537247160.36607885 0 537247160.36607885 -226945206.38291132 0 0 0 0 -1612946442.089241 1101392264.1827493 0 1101392264.1827493 -174715838.16000473 0 0 0 0 -1117511347.7159882 281541738.4084481 0 281541738.4084481 57256620.602788389 0 0 0 0 -697656.6808857061 -1804514.27729782 0 -1804514.27729782 474642.64299268182 0 0 0 0 -1055841183.3915977 1483945613.6116326 0 1483945613.6116326 -989503616.2299695 0 0 0 0 -1658359976.647049 767813816.30751848 0 767813816.30751848 -835242810.38468981 0 0 0 0 -992070.30876279576 423984.64181578346 0 423984.64181578346 -122636.20941866923 0 0 0 0 -732239795.35140991 916653702.37599087 0 916653702.37599087 -909146630.07202601 0 0 0 0 -963233659.4618845 1397772236.2015429 0 1397772236.2015429 -1229122542.9369822 0 0 0 0 -7472239.4073851891 -1808139.7161749122 0 -1808139.7161749122 134567.78967017471 0 0 0 0 -1166575426.2597351 1996873661.5911322 0 1996873661.5911322 -1197716644.7170792 0 0 0 0 7684096.7791309357 -109720253.31443146 0 -109720253.31443146 441388360.7556138 0 0 0 0 -233404878.39603424 14501957.079658031 0 14501957.079658031 -274947525.68953377 0 0 0 0 -271376143.16056824 1924714559.3446798 0 1924714559.3446798 1395900204.5166302 0 0 0 0 -1955675833.1043892 1138294856.5325933 0 1138294856.5325933 3216088142.1837926 0 0 0 0 -2024004181.7923164 551294955.54601097 0 551294955.54601097 416126350.59570771 0 0 0 0 1678947644.2157097 -1099579888.0647523 0 -1099579888.0647523 296580663.06237173 0 0 0 0 457020188.76199722 -2949105837.5057654 0 -2949105837.5057654 1067480811.4672017 0 0 0 0 -4102031772.2859268 -914617077.11958623 0 -914617077.11958623 78757452.19263649 0 0 0 0 -1993227321.2928391 -340077793.15276027 0 -340077793.15276027 140506714.60650784 0 0 0 0 -168391043.36295319 -2388978282.2794323 0 -2388978282.2794323 -633259004.14242685 0 0 0 0 261577990.17756259 391701932.51290041 0 391701932.51290041 -2648990836.6844215 0 0 0 0 -2053966396.6245461 -2890156822.4841194 0 -2890156822.4841194 -3100647315.0541754 0 0 0 0 -1625234855.1813469 -1737785461.4835844 0 -1737785461.4835844 -118032767.58706295 0 0 0 0 278731900.11640632 -251074521.76910201 0 -251074521.76910201 -5389695123.6001577 0 0 0 0 -1026407.6984291077 -908301.81822092878 0 -908301.81822092878 21645.223640604003 0 0 0 0 -5702838621.9464874 -1452537658.2532818 0 -1452537658.2532818 -1960762157.8899183 0 0 0 0 -4939743676.9115524 -2423821794.577858 0 -2423821794.577858 -1173733722.272234 0 0 0 0 -1363722.5062571857 -93138.001309615676 0 -93138.001309615676 664405.85991875292 0 0 0 0 -2213651126.4849205 476757965.86925393 0 476757965.86925393 -2322287935.4643598 0 0 0 0 -2785111972.8082037 1390614550.4676261 0 1390614550.4676261 -360212275.66601419 0 0 0 0 -3364131640.659771 578483838.21329439 0 578483838.21329439 -1286940531.6167517 0 0 0 0 -2170288126.2895203 235957976.73149461 0 235957976.73149461 -1898628094.272552 0 0 0 0 -91725430.210857391 -680250245.49426627 0 -680250245.49426627 1536640473.2474918 0 0 0 0 168593027.65113831 -2311372516.1272202 0 -2311372516.1272202 1569437118.5539887 0 0 0 0 -15958568.778388977 2448520.9777412415 0 2448520.9777412415 13264664.1994524 0 0 0 0 -9755287.269226037 -7162131.2148166401 0 -7162131.2148166401 4080299.4827758558 0 0 0 0 79532523.274345398 -2734323455.8024998 0 -2734323455.8024998 1836306925.8832226 0 0 0 0 717133929.9908905 -1956036419.528368 0 -1956036419.528368 1748728467.1335838 0 0 0 0 -367175569.63906097 -1902034368.3995748 0 -1902034368.3995748 1275469100.7776599 0 0 0 0 -21493299.966099739 -7803507.2989521027 0 -7803507.2989521027 16500548.354369164 0 0 0 0 -1119798367.115078 2807840194.2173367 0 2807840194.2173367 -590271889.4127903 0 0 0 0 -17127677.756855417 -7016967.1166008282 0 -7016967.1166008282 5345716.983941556 0 0 0 0 -20601955.726606369 -2943701.2429065704 0 -2943701.2429065704 20710260.508945465 0 0 0 0 -1655952.0106487274 -1212420183.2754409 0 -1212420183.2754409 -38192112.641763687 0 0 0 0 -2582001165.9414749 1572425750.1159399 0 1572425750.1159399 441837736.85082197 0 0 0 0 -23612874.836704381 19306.268344643526 0 19306.268344643526 9996807.345323775 0 0 0 0 -1454534989.6754007 493785610.65445763 0 493785610.65445763 867703746.61711502 0 0 0 0 -35700208.019897461 -5592710.2492923737 0 -5592710.2492923737 42388128.928386688 0 0 0 0 -68428999.491760254 4362710.0013008118 0 4362710.0013008118 40468291.294435501 0 0 0 0 -29216106.616902959 3388936.0665584225 0 3388936.0665584225 12243634.206652967 0 0 0 0 -27096230.022661209 -6950396.5602073669 0 -6950396.5602073669 25714029.331804276 0 0 0 0 -27271233.219637871 -7463784.1347608566 0 -7463784.1347608566 82547842.645820618 0 0 0 0 -26344999.52573967 -2985032.346326828 0 -2985032.346326828 33404959.063098907 0 0 0 0 -17700542.010316849 21286077.782923698 0 21286077.782923698 41664392.522609711 0 0 0 0 -17992402.98058939 13383061.438347816 0 13383061.438347816 1586961.1627311707 0 0 0 0 -15455443.318244934 880291.49423980713 0 880291.49423980713 18027877.029090881 0 0 0 0 -17620172.525466919 5219017.730298996 0 5219017.730298996 19426311.642757416 0 0 0 0 -5701165.5848370241 4063041.3098686235 0 4063041.3098686235 5629541.5883178264 0 0 0 0 -9076294.6748533249 19000346.770431206 0 19000346.770431206 2863697.1788463593 0 0 0 0 -5408947.433506012 28788259.884469509 0 28788259.884469509 -3708256.1906738281 0 0 0 0 -8867541.5843839645 9519967.3218202591 0 9519967.3218202591 -20720507.049305916 0 0 0 0 -6153801.6017452804 3217454.5964795877 0 3217454.5964795877 2345722.5747271329 0 0 0 0 -16410130.982499599 8470671.1730298996 0 8470671.1730298996 5229957.2332303524 0 0 0 0 -1087397.245786516 2297017.9339700313 0 2297017.9339700313 782303.30976001918 0 0 0 0 -5309762.8958337642 542597.53386397671 0 542597.53386397671 2760269.4247601097 0 0 0 0 -109887961.07298994 -13926214.981806636 0 -13926214.981806636 5907612.0673271418 0 0 0 0 -243994672.16869783 -321684730.3750844 0 -321684730.3750844 288995598.71253836 0 0 0 0 -170475843.35767764 178829283.98160338 0 178829283.98160338 709303800.19120502 0 0 0 0 32812259.623059839 -490363545.27500892 0 -490363545.27500892 342812616.42522287 0 0 0 0 363777410.37294912 -10878634.632673025 0 -10878634.632673025 232638643.98466426 0 0 0 0 -2352374.2369437078 547384.31920996634 0 547384.31920996634 589008.7871650845 0 0 0 0 -2373179080.7930641 -966421862.12296009 0 -966421862.12296009 -91783222.559525728 0 0 0 0 -217557453.71838856 956843322.89457679 0 956843322.89457679 160540978.84193659 0 0 0 0 -66448672.67489624 -124554851.0313971 0 -124554851.0313971 -453051062.83374929 0 0 0 0 -3304527064.4597087 145370677.85224724 0 145370677.85224724 302329981.53207254 0 0 0 0 -2137199474.1312208 -266057613.55278242 0 -266057613.55278242 296608029.50103092 0 0 0 0 -2777501311.4638586 4118933.897726059 0 4118933.897726059 354057770.61808825 0 0 0 0 -1686770323.0421953 447628970.42958295 0 447628970.42958295 210372057.36295342 0 0 0 0 -1781825128.8772221 13212702.545173287 0 13212702.545173287 373463139.86879927 0 0 0 0 -17592160.487825394 5745959.9556398392 0 5745959.9556398392 15448686.183509827 0 0 0 0 -971789338.43247032 -339407667.49173403 0 -339407667.49173403 -132518359.74630046 0 0 0 0 -6522887.3283727095 4013834.5337087079 0 4013834.5337087079 6841275.0643363474 0 0 0 0 -2606094326.7163372 75180570.299561501 0 75180570.299561501 -218168960.63478732 0 0 0 0 -2521424116.8296614 -103094258.97418413 0 -103094258.97418413 12248652.660599232 0 0 0 0 -2284155467.2837152 558885888.35374856 0 558885888.35374856 211059419.91584611 0 0 0 0 -3069093995.694725 -5068055.7452858686 0 -5068055.7452858686 -24194229.465080231 0 0 0 0 -675246090.14836931 2063170491.9459326 0 2063170491.9459326 -496717667.86949873 0 0 0 0 -2747586580.2712412 -374946882.38773513 0 -374946882.38773513 -1407536019.1884754 0 0 0 0 -2717694871.3611717 -103374255.92783022 0 -103374255.92783022 -343053288.32026339 0 0 0 0 -2299811013.370121 158005282.44828266 0 158005282.44828266 -1229110380.9408069 0 0 0 0 -2224227643.8552017 497411692.798931 0 497411692.798931 -150434819.41411704 0 0 0 0 -2528004241.1813793 219764603.02871263 0 219764603.02871263 -357811569.2279799 0 0 0 0 -2606729410.1675911 95795934.160561562 0 95795934.160561562 -30686912.976802111 0 0 0 0 -2630570142.113451 714254663.32698059 0 714254663.32698059 -41929214.448622704 0 0 0 0 -2435652744.8513927 578163876.62791705 0 578163876.62791705 39432789.134426117 0 0 0 0 -2956855530.3662987 1135566699.6232085 0 1135566699.6232085 -14318516.420509577 0 0 0 0 -3270716746.1081705 577009613.36521554 0 577009613.36521554 39434168.64470607 0 0 0 0 -2935561305.624197 351773900.30161023 0 351773900.30161023 96407785.120215535 0 0 0 0 -2890581264.8370037 198710228.75413537 0 198710228.75413537 22760744.050867796 0 0 0 0 -2862159276.8731499 256058070.09637487 0 256058070.09637487 135275355.94998169 0 0 0 0 -2985823655.1244669 232861878.36163092 0 232861878.36163092 309507886.12261629 0 0 0 0 -3758644348.3165631 347705243.5043695 0 347705243.5043695 338422376.43592072 0 0 0 0 -3135960100.4230452 337402131.02209419 0 337402131.02209419 109979980.38526344 0 0 0 0 -3655828893.2380514 682578069.70457685 0 682578069.70457685 589964350.21226382 0 0 0 0 -3473656227.6120105 35533427.584210873 0 35533427.584210873 236706353.04406023 0 0 0 0 -4419071769.3038778 449610945.98851252 0 449610945.98851252 521190222.87212837 0 0 0 0 -3461635361.4479704 35572850.376277447 0 35572850.376277447 -128526436.80409026 0 0 0 0 -5080682221.799633 108258386.33893216 0 108258386.33893216 802693959.98324013 0 0 0 0 -5103432923.6081524 804235786.08249319 0 804235786.08249319 1005632430.6410679 0 0 0 0 -6613249642.0417576 -109012770.99406824 0 -109012770.99406824 1443375858.8980219 0 0 0 0 -4624917788.2731209 955418077.51664519 0 955418077.51664519 985586603.63589513 0 0 0 0 -6615802421.1111212 2080522011.1596963 0 2080522011.1596963 1008007280.4304799 0 0 0 0 -4611654274.4702568 1129536255.9755111 0 1129536255.9755111 425108931.86525726 0 0 0 0 -3714015271.3042097 2090668465.7536633 0 2090668465.7536633 -278990702.52950418 0 0 0 0 -2468857669.1556625 1122036919.819346 0 1122036919.819346 -41405791.306500793 0 0 0 0 -3685746696.4542828 2283203228.4893961 0 2283203228.4893961 925082861.30474901 0 0 0 0 -6602915735.2838993 3848436961.1606264 0 3848436961.1606264 619643969.50023925 0 0 0 0 -1677840226.5749168 4146079588.5626249 0 4146079588.5626249 -2007850975.408144 0 0 0 0 -4836051202.4068451 -2604651447.5366306 0 -2604651447.5366306 2777176169.8762612 0 0 0 0 -6051286.2461795919 5284558.6756015439 0 5284558.6756015439 -787120.54658678232 0 0 0 0 816501215.34511185 148430560.80219468 0 148430560.80219468 110588298.37160075 0 0 0 0 -918220681.7237587 1343559225.3204861 0 1343559225.3204861 -680741807.39115739 0 0 0 0 -2336864811.3026333 462305191.92761874 0 462305191.92761874 352927101.95076519 0 0 0 0 -2255634629.8027534 827982333.83991992 0 827982333.83991992 -17935374.190189213 0 0 0 0 -2693071227.2921047 933984508.85919201 0 933984508.85919201 1407890783.4777308 0 0 0 0 -2129439835.6670465 1337214.2974462956 0 1337214.2974462956 1321031821.7662077 0 0 0 0 -2853442297.6563759 626585376.39573002 0 626585376.39573002 1350614785.6399038 0 0 0 0 -2170349660.8095741 785206139.82084537 0 785206139.82084537 -361180647.44975936 0 0 0 0 -1964187809.2448549 906337517.43581343 0 906337517.43581343 -654552891.68911266 0 0 0 0 -2096932160.950428 856190995.26507711 0 856190995.26507711 -448569033.86335576 0 0 0 0 -2353085922.6199875 871830463.88597536 0 871830463.88597536 719196665.18416715 0 0 0 0 -2745846733.6141472 1149096680.8527365 0 1149096680.8527365 578634207.52662063 0 0 0 0 -2525905612.8002205 1517618617.532743 0 1517618617.532743 1193239050.8320277 0 0 0 0 -1867720282.8709157 1675983057.2325339 0 1675983057.2325339 363374966.40004134 0 0 0 0 -2298409471.4229507 1075061051.1222363 0 1075061051.1222363 1236639767.6110678 0 0 0 0 -834794278.034935 1649331.4586644173 0 1649331.4586644173 841889131.23882699 0 0 0 0 -17038393.45946857 -2140928.6990953861 0 -2140928.6990953861 1678711.6099063389 0 0 0 0 -1637637210.2827988 -979985788.22615767 0 -979985788.22615767 2971743728.635097 0 0 0 0 -1989155719.605917 1369511269.0200436 0 1369511269.0200436 1045433303.1468458 0 0 0 0 -1670309917.9636765 925510242.84121859 0 925510242.84121859 1102538201.2060847 0 0 0 0 -1855034135.9752502 996409968.60928106 0 996409968.60928106 1377537250.9163759 0 0 0 0 -2450312914.3892822 2781512564.1847053 0 2781512564.1847053 -818504114.81390858 0 0 0 0 737539117.10681915 -1871662937.4937725 0 -1871662937.4937725 -821860118.72632766 0 0 0 0 -2896850397.7566986 3768930714.7031178 0 3768930714.7031178 -2016002450.6802168 0 0 0 0 2406915345.9128571 -391091211.02727938 0 -391091211.02727938 -6683710004.0288429 0 0 0 0 -1609235321.381506 -667001351.03361273 0 -667001351.03361273 2600161118.0174489 0 0 0 0 -6455105.676390335 4182936.2113550226 0 4182936.2113550226 -707233.41744454787 0 0 0 0 -3207818654.3736877 5251549371.2455139 0 5251549371.2455139 -547427601.32279241 0 0 0 0 -3291968113.2609787 804284778.46642435 0 804284778.46642435 3263288905.1954741 0 0 0 0 -3728720194.3839569 1320847987.8069415 0 1320847987.8069415 1872823007.2187176 0 0 0 0 -2832532443.7056961 732138534.78326011 0 732138534.78326011 1737950987.9482822 0 0 0 0 -2804940989.8981705 2463197739.2670703 0 2463197739.2670703 -2439976264.4897718 0 0 0 0 -4807677927.0854263 2678789636.1126108 0 2678789636.1126108 949555898.75379896 0 0 0 0 -2325940830.2162399 5409314475.8901291 0 5409314475.8901291 -2752063355.9458938 0 0 0 0 -9787679.872229496 -45843.04959493503 0 -45843.04959493503 1457371.9009244288 0 0 0 0 -1023791386.2759666 -1012968998.786936 0 -1012968998.786936 1682234753.4173651 0 0 0 0 -417763752.65689087 308202677.63183993 0 308202677.63183993 -568983072.12634945 0 0 0 0 -490622625.82418823 859201564.10811198 0 859201564.10811198 548213151.40906084 0 0 0 0 768791058.18245316 26532175.04896301 0 26532175.04896301 -167160200.59826416 0 0 0 0 272876555.95978165 885877548.83115029 0 885877548.83115029 -105460083.0528661 0 0 0 0 -171475247.1815033 792952246.01015747 0 792952246.01015747 -798382994.50147653 0 0 0 0 -116598916.01443481 719931111.42837906 0 719931111.42837906 -744663504.0028342 0 0 0 0 -3163349903.3862686 212434565.90164566 0 212434565.90164566 1183157362.9172282 0 0 0 0 -620876591.29653549 398283040.02232319 0 398283040.02232319 -518779021.32479209 0 0 0 0 -729192659.56741333 511514983.93563068 0 511514983.93563068 -190840751.84251204 0 0 0 0 -1852314706.943512 356864437.40210158 0 356864437.40210158 -451295732.60604733 0 0 0 0 -3448861304.2266312 680048600.17690146 0 680048600.17690146 -126565775.92157193 0 0 0 0 -4468876389.1448593 1986419156.6474378 0 1986419156.6474378 -371555446.78711867 0 0 0 0 -6616937936.7690554 1135980203.1829188 0 1135980203.1829188 26877394.94782728 0 0 0 0 -3739252568.9556961 221543289.78115833 0 221543289.78115833 287872387.45610708 0 0 0 0 -6601530018.4109907 -654290086.46614516 0 -654290086.46614516 802487520.60911107 0 0 0 0 -2731784594.060997 5801131357.7753983 0 5801131357.7753983 -1488027774.2578804 0 0 0 0 -1079482072.6545792 -1910458911.5149302 0 -1910458911.5149302 -1447695741.1510606 0 0 0 0 -3884059717.59095 984129857.10381985 0 984129857.10381985 -3345449821.2736125 0 0 0 0 -296295145.90447998 -122287357.872401 0 -122287357.872401 -64947121.039102554 0 0 0 0 -245957357.67726135 -79113013.256197929 0 -79113013.256197929 82134878.531037331 0 0 0 0 -2002572.1868764851 1622172.2040304244 0 1622172.2040304244 1551199.2240694724 0 0 0 0 -299284473.84181976 -144599117.42092991 0 -144599117.42092991 -225174653.70199203 0 0 0 0 -403240917.70643616 -97232629.364387512 0 -97232629.364387512 22301494.741867781 0 0 0 0 -402303626.3126297 -99521229.064363718 0 -99521229.064363718 -1624759.2753601074 0 0 0 0 -400515842.82967186 -104556715.22505856 0 -104556715.22505856 -136876.43241882324 0 0 0 0 -477383123.30062103 -123889543.95552349 0 -123889543.95552349 15340646.926814079 0 0 0 0 -330363100.79711914 -125454761.22266006 0 -125454761.22266006 1797825.0043575764 0 0 0 0 -222683524.1911087 -124980379.85487747 0 -124980379.85487747 61220012.289758682 0 0 0 0 -203825369.51348877 -199454397.53504562 0 -199454397.53504562 210530139.63621521 0 0 0 0 -14390060.628608704 -174489963.00465488 0 -174489963.00465488 71664901.286817551 0 0 0 0 -117317022.61423492 6995189.4073953629 0 6995189.4073953629 18678189.871671677 0 0 0 0 -6057157.9130297899 32328681.802968979 0 32328681.802968979 23598012.126235962 0 0 0 0 -226297516.5740509 -1394490.5705165863 0 -1394490.5705165863 -24817950.525067806 0 0 0 0 -88716434.876548767 25465547.138299942 0 25465547.138299942 -20375599.259390831 0 0 0 0 -154544216.28935242 -109716912.08623314 0 -109716912.08623314 63594639.878417969 0 0 0 0 -231248643.46917725 -40971850.03407383 0 -40971850.03407383 1983185.5522651672 0 0 0 0 -271151619.34565544 -116280892.74590969 0 -116280892.74590969 -51909065.02374649 0 0 0 0 -236191100.48822403 -329934.05597519875 0 -329934.05597519875 -21606534.540932178 0 0 0 0 -2003328.7812476698 1540349.5977977477 0 1540349.5977977477 1771750.8358064461 0 0 0 0 -212405300.22899437 69571096.207868755 0 69571096.207868755 -54618184.740756989 0 0 0 0 -219902402.64684439 4829393.6546646953 0 4829393.6546646953 -32544095.739599228 0 0 0 0 -367878511.13927937 159246067.92560303 0 159246067.92560303 51735590.956300735 0 0 0 0 -411995579.71391773 -90142689.003413558 0 -90142689.003413558 -76413740.035048485 0 0 0 0 -226965366.34494781 -108171670.18298817 0 -108171670.18298817 -48941333.300765991 0 0 0 0 -227820708.34592819 -118634738.02815676 0 -118634738.02815676 19248475.812046051 0 0 0 0 -269589611.00418472 -115101258.24673033 0 -115101258.24673033 -68941475.00961113 0 0 0 0 -310336066.44532776 -142318701.34622097 0 -142318701.34622097 -2222857.4564523697 0 0 0 0 -300635792.39811707 -79906596.680424213 0 -79906596.680424213 27318775.574394226 0 0 0 0 -227370714.2976532 -19607060.712032318 0 -19607060.712032318 13505004.443855286 0 0 0 0 -241114294.60842896 -17824180.946470261 0 -17824180.946470261 37404027.905700207 0 0 0 0 -194024454.90002441 -72146181.588309288 0 -72146181.588309288 -23335832.155305862 0 0 0 0 -160906609.51087189 15682199.563925505 0 15682199.563925505 16161422.352767944 0 0 0 0 -152636777.87797546 -40551719.364927292 0 -40551719.364927292 -7218087.6086177826 0 0 0 0 -126416726.14173126 -55810904.327421188 0 -55810904.327421188 -16689509.530225754 0 0 0 0 -78766176.447525024 15239262.383122206 0 15239262.383122206 -16441571.117586136 0 0 0 0 -55084523.660153866 24261003.432235956 0 24261003.432235956 -32029873.597728729 0 0 0 0 -54349470.767288208 4167498.1268773079 0 4167498.1268773079 -16225759.546785355 0 0 0 0 -105185731.82460022 3711490.188038826 0 3711490.188038826 -21326698.875593662 0 0 0 0 -31577815.518951416 45219161.822426796 0 45219161.822426796 -41976293.588900805 0 0 0 0 -33101525.965545654 30825913.093995094 0 30825913.093995094 -44099514.609287024 0 0 0 0 -38280973.782455444 72675763.522075891 0 72675763.522075891 -78733921.527407646 0 0 0 0 -11541023.370285034 20095844.039362907 0 20095844.039362907 -129531715.24155807 0 0 0 0 -13199616.370452881 23547191.938407898 0 23547191.938407898 -48226743.053834915 0 0 0 0 -39050395.78717041 42607433.552953243 0 42607433.552953243 2186932.1824398041 0 0 0 0 -23977467.031997681 -31540622.211877823 0 -31540622.211877823 120668417.11143303 0 0 0 0 28939122.661506653 -2731845.953742981 0 -2731845.953742981 -10358376.552614689 0 0 0 0 -103986264.89833069 97508024.456510544 0 97508024.456510544 26966900.284919739 0 0 0 0 15087523.872871399 52557226.434780121 0 52557226.434780121 -24685674.828045368 0 0 0 0 -88980306.275159836 62828353.491358519 0 62828353.491358519 -8774245.2546043396 0 0 0 0 23620484.572860718 -39560457.118930817 0 -39560457.118930817 -184774690.61074877 0 0 0 0 13366041.194702148 5567786.5230197906 0 5567786.5230197906 -148347146.09313965 0 0 0 0 -20914460.928268433 -31159704.287230492 0 -31159704.287230492 -44107698.690572739 0 0 0 0 -29762821.348669052 6983290.3021300137 0 6983290.3021300137 -91297404.27287674 0 0 0 0 29670882.292404175 -47201121.487029076 0 -47201121.487029076 -127303657.38473892 0 0 0 0 -104357884.22918701 16453344.065077782 0 16453344.065077782 -8972178.1635601521 0 0 0 0 -23432155.481658936 -20127184.210762978 0 -20127184.210762978 -33624335.624284267 0 0 0 0 -56473143.348846436 -70546899.660826683 0 -70546899.660826683 -108529683.0961628 0 0 0 0 -5379915.2664031982 30767028.933556557 0 30767028.933556557 -7257465.0044693947 0 0 0 0 34593249.197937012 18257283.802455902 0 18257283.802455902 90478526.514960766 0 0 0 0 30635879.805419922 -80908690.236480713 0 -80908690.236480713 251332320.41574097 0 0 0 0 80136642.641174316 700489.2240524292 0 700489.2240524292 93236007.345606804 0 0 0 0 81645388.141601562 -77092858.451652527 0 -77092858.451652527 132630961.66716003 0 0 0 0 26626963.739532471 -8523664.0283565521 0 -8523664.0283565521 -31981815.928687572 0 0 0 0 -20917557.232646942 -25521035.377069235 0 -25521035.377069235 58394294.134616852 0 0 0 0 -9470554.1078414917 23255971.781350613 0 23255971.781350613 98994494.683977127 0 0 0 0 -566448.32978455722 -1943117.852288828 0 -1943117.852288828 -787627.70760515775 0 0 0 0 -23141461.758514404 -64324084.24741745 0 -64324084.24741745 192628084.96694803 0 0 0 0 -45146096.166015625 -33953716.803848267 0 -33953716.803848267 185689109.43409395 0 0 0 0 -18724746.109771729 -31426217.863695145 0 -31426217.863695145 61434239.001731873 0 0 0 0 15056463.584732056 -39568713.355140686 0 -39568713.355140686 60266882.538013458 0 0 0 0 1985529.4320220947 -58504561.022942066 0 -58504561.022942066 115550305.02565384 0 0 0 0 55735158.375976562 -32160363.425010681 0 -32160363.425010681 173375714.47481537 0 0 0 0 80437547.549377441 -68603985.18629837 0 -68603985.18629837 115345873.99350739 0 0 0 0 27044729.280975342 -25259424.305915833 0 -25259424.305915833 -43635099.752778769 0 0 0 0 273264223.92964935 160977695.48562145 0 160977695.48562145 -362955227.49282837 0 0 0 0 -309830861.00534058 53780471.62556839 0 53780471.62556839 308979549.75579262 0 0 0 0 31842513.685623169 15553654.378751755 0 15553654.378751755 11033846.528429031 0 0 0 0 2136476.8644256592 14451592.33385849 0 14451592.33385849 39993989.608259201 0 0 0 0 -32145357.758430481 -3649822.3655357361 0 -3649822.3655357361 158301255.87361813 0 0 0 0 -478152.75634599291 993102.52545279264 0 993102.52545279264 -168340.25600209832 0 0 0 0 26937630.741577148 20098934.150314331 0 20098934.150314331 428233635.78094482 0 0 0 0 -18651.232825670391 27604.01462841779 0 27604.01462841779 4863.598848503083 0 0 0 0 -286966498.90396881 -88722121.777159691 0 -88722121.777159691 190778921.32109833 0 0 0 0 18825128.672325134 34978825.362683296 0 34978825.362683296 -17155290.776195526 0 0 0 0 -419366377.49084473 -274175993.68924141 0 -274175993.68924141 23395438.504924774 0 0 0 0 -443978505.39505005 -281259812.80365753 0 -281259812.80365753 33124027.893432617 0 0 0 0 386988376.4234848 312164971.70879841 0 312164971.70879841 66312130.808073044 0 0 0 0 -1192233.330291016 791386.67319837213 0 791386.67319837213 1522561.6558559351 0 0 0 0 -233458126.69729996 118826732.96077919 0 118826732.96077919 -56603851.427303314 0 0 0 0 -555461657.53997803 -116014649.00672531 0 -116014649.00672531 195124791.03113174 0 0 0 0 -384746170.01913452 15027347.86566925 0 15027347.86566925 289544348.44125748 0 0 0 0 -170619208.71153259 -150510107.86322212 0 -150510107.86322212 -74464081.03334856 0 0 0 0 -245984755.49840546 52185592.827541828 0 52185592.827541828 71343743.990115166 0 0 0 0 78117.518564388156 -1338425.015313996 0 -1338425.015313996 -348270.0740257923 0 0 0 0 100254.2093719095 -2603362.3976869183 0 -2603362.3976869183 -381215.88802419207 0 0 0 0 -13020771.789169312 28500417.457426071 0 28500417.457426071 29918167.346075058 0 0 0 0 -91758124.246231079 -87740288.326112747 0 -87740288.326112747 -68416862.351210147 0 0 0 0 22063721.706005096 5722301.3083763123 0 5722301.3083763123 -66952818.938991547 0 0 0 0 -14623833.574859619 -22901415.90622139 0 -22901415.90622139 4199178.3733801842 0 0 0 0 -208926889.9683342 -23788763.595301151 0 -23788763.595301151 -96214650.693599701 0 0 0 0 -212284348.32650375 -110218690.41189814 0 -110218690.41189814 -57419364.674026489 0 0 0 0 -164188500.54545593 -107330861.32181549 0 -107330861.32181549 -58418418.16248107 0 0 0 0 -186280493.55715752 -36555736.385848045 0 -36555736.385848045 -46469849.646251678 0 0 0 0 -13030024.02167511 -20331844.115225792 0 -20331844.115225792 -60418753.833625793 0 0 0 0 -93228392.882385254 -80174294.749612808 0 -80174294.749612808 -54848011.614229918 0 0 0 0 -126124974.39685059 -48641237.651878357 0 -48641237.651878357 16029390.424516678 0 0 0 0 -17696594.377586365 -1991517.1583900452 0 -1991517.1583900452 -14735268.628040314 0 0 0 0 -146865084.92446899 -107487411.41667747 0 -107487411.41667747 -33343285.257632732 0 0 0 0 -127158879.70209694 -36640169.135685444 0 -36640169.135685444 -17763349.530563354 0 0 0 0 -116774656.46110535 -58625943.175576687 0 -58625943.175576687 -18031584.815826416 0 0 0 0 -179397959.45326233 -50883671.007995605 0 -50883671.007995605 31418623.961271286 0 0 0 0 -347858772.68046856 -199446868.96458399 0 -199446868.96458399 -83897461.700992584 0 0 0 0 -1463624.1282350793 -346124.25471881963 0 -346124.25471881963 1015136.3373507615 0 0 0 0 2314.985639680177 1132539.2426652163 0 1132539.2426652163 -1282792.3476146404 0 0 0 0 -420025421.31370544 306569900.57862282 0 306569900.57862282 -139727482.72825146 0 0 0 0 -69228371.110191345 -73613894.36759758 0 -73613894.36759758 -24702949.857841492 0 0 0 0 29315577.229011536 -35654429.469041824 0 -35654429.469041824 -56113902.619844437 0 0 0 0 -296238684.51029968 -46015128.632217407 0 -46015128.632217407 125035794.86538506 0 0 0 0 -301359016.74617004 -20803454.599388123 0 -20803454.599388123 32178687.496986389 0 0 0 0 -277266220.04064941 108643053.68611526 0 108643053.68611526 -29896313.504375458 0 0 0 0 -205918.05887770653 -1130807.490627252 0 -1130807.490627252 9106.2641768809408 0 0 0 0 -324725380.15071106 -3849022.4821357727 0 -3849022.4821357727 102138714.75201797 0 0 0 0 275508.45000033733 1441164.3918580525 0 1441164.3918580525 -1371793.6137268133 0 0 0 0 64290521.042060852 -147799810.9452095 0 -147799810.9452095 -177162755.81918907 0 0 0 0 -121854614.27362823 163996291.95417213 0 163996291.95417213 -16353005.726173401 0 0 0 0 138734822.22925568 18124025.147117615 0 18124025.147117615 -22388518.36989975 0 0 0 0 -365961544.65801239 -42694901.268654823 0 -42694901.268654823 72742121.937850952 0 0 0 0 -171554568.17202759 -182309360.32829285 0 -182309360.32829285 -171559322.24030972 0 0 0 0 -161842816.254673 -116472552.20963144 0 -116472552.20963144 3099394.989692688 0 0 0 0 -172491002.09011078 -92832977.768404007 0 -92832977.768404007 23277172.204784393 0 0 0 0 -169743441.12757111 -87962222.744568825 0 -87962222.744568825 4451971.8264656067 0 0 0 0 -198590906.2871933 -73944191.019711494 0 -73944191.019711494 13805618.786487579 0 0 0 0 470787.4553589765 1879725.6793547049 0 1879725.6793547049 -897974.22469269112 0 0 0 0 -481228079.00820351 47046449.71381855 0 47046449.71381855 82858570.673633575 0 0 0 0 -141492878.1685791 44815.378448486328 0 44815.378448486328 65415621.0689888 0 0 0 0 -91848572.614013672 -146954113.12699699 0 -146954113.12699699 43338302.767028809 0 0 0 0 -81881872.750648499 -112242701.28331375 0 -112242701.28331375 274204055.37030792 0 0 0 0 -59490453.295942307 -19049074.701147556 0 -19049074.701147556 57491212.596885681 0 0 0 0 104794475.41761017 -10987188.679120064 0 -10987188.679120064 50083171.845092773 0 0 0 0 74366596.353816986 226840757.81375408 0 226840757.81375408 284748734.10486603 0 0 0 0 167255759.10371399 -164495558.10046577 0 -164495558.10046577 302785796.8730011 0 0 0 0 -118172879.52577209 71376935.464443207 0 71376935.464443207 79455431.328477859 0 0 0 0 -275749659.6510849 -113792820.84417868 0 -113792820.84417868 248651083.34042358 0 0 0 0 -109988861.76942444 -353929.96586608887 0 -353929.96586608887 34555359.88155365 0 0 0 0 -89884778.27419281 -66739145.46506691 0 -66739145.46506691 6006033.25573349 0 0 0 0 -43060318.098640442 89576270.959949493 0 89576270.959949493 -53558608.97246933 0 0 0 0 -253818020.84414673 -79724378.27519989 0 -79724378.27519989 -28170531.03931427 0 0 0 0 -233650144.60258484 75367495.036985397 0 75367495.036985397 32826232.878818512 0 0 0 0 -187477275.2057724 77458308.642601013 0 77458308.642601013 -5841700.5706310272 0 0 0 0 -194925351.3948884 161556776.49344277 0 161556776.49344277 -15123256.393981934 0 0 0 0 -325408486.33654022 83368567.877622604 0 83368567.877622604 45699896.142307281 0 0 0 0 -290740828.40658951 151174215.47992682 0 151174215.47992682 51577708.076284409 0 0 0 0 -1051277.6538972855 892862.98550079018 0 892862.98550079018 743205.05358690768 0 0 0 0 -143505020.37134171 53431365.343892336 0 53431365.343892336 -341431098.72971344 0 0 0 0 -470058777.70088196 -67448780.829740524 0 -67448780.829740524 30733173.30954361 0 0 0 0 -347237849.41316986 12367626.215826035 0 12367626.215826035 -47948211.058940887 0 0 0 0 -11184607.852218628 -143264149.02647042 0 -143264149.02647042 130371210.44188499 0 0 0 0 -69946939.436569214 4937341.0395355225 0 4937341.0395355225 122568749.83073878 0 0 0 0 587798.56079807878 -877650.19837319385 0 -877650.19837319385 -1136401.6165442523 0 0 0 0 -240777992.17551422 175947193.37719154 0 175947193.37719154 33471938.527403831 0 0 0 0 854491.46272080019 -1563648.3324190229 0 -1563648.3324190229 -1922825.4271855466 0 0 0 0 -40095793.632850647 -57499807.941390991 0 -57499807.941390991 135065253.56511617 0 0 0 0 -417651384.50381088 -7487090.4014153481 0 -7487090.4014153481 116237729.77037048 0 0 0 0 -133958146.42219543 -4626310.9436397552 0 -4626310.9436397552 -238312942.70656967 0 0 0 0 -138745802.26810455 222168625.11292171 0 222168625.11292171 -122884323.81744003 0 0 0 0 -316898874.37905884 -167913326.4003334 0 -167913326.4003334 15623670.655525208 0 0 0 0 -404454098.79529381 60151852.139537334 0 60151852.139537334 90392226.195495605 0 0 0 0 -71104124.885059357 159776522.54438114 0 159776522.54438114 -256134436.91597557 0 0 0 0 -982681.32473491132 -625552.6662999331 0 -625552.6662999331 754714.49649169669 0 0 0 0 -20924610.245903015 -48462518.370639801 0 -48462518.370639801 12262878.007557869 0 0 0 0 108939088.68527222 5003743.9896612167 0 5003743.9896612167 -183356179.3142395 0 0 0 0 52069614.483383179 -158344172.37482071 0 -158344172.37482071 54452946.038403511 0 0 0 0 702385.97396186367 -938101.27654753113 0 -938101.27654753113 -1235095.1028677672 0 0 0 0 -32990917.803524017 71072848.987113953 0 71072848.987113953 -54668290.145685196 0 0 0 0 -88160733.313735962 -91444082.190313339 0 -91444082.190313339 23069684.970743179 0 0 0 0 2229518.2444915771 149857547.51673126 0 149857547.51673126 83833111.432657123 0 0 0 0 -5336420.089556098 2497354.4146348285 0 2497354.4146348285 5224265.0586494002 0 0 0 0 -12332930.143638611 312259.85273075104 0 312259.85273075104 9372181.2871189117 0 0 0 0 -11933749.816192627 -4481726.4014253616 0 -4481726.4014253616 15133073.256858826 0 0 0 0 -17487600.7690477 -1414231.2672318236 0 -1414231.2672318236 8683710.3475060649 0 0 0 0 -10331892.906429291 -1745875.8910152912 0 -1745875.8910152912 3199854.4438095093 0 0 0 0 94237429.7918396 101321438.16483974 0 101321438.16483974 -163372759.89408875 0 0 0 0 -226245214.85778809 -78533261.616201401 0 -78533261.616201401 104062428.06682968 0 0 0 0 -11327895.373627014 1335455.4987743869 0 1335455.4987743869 8790270.0455393288 0 0 0 0 -29409138.515518188 -17298337.221711874 0 -17298337.221711874 27819395.125457764 0 0 0 0 -109914979.07878494 22823423.927296638 0 22823423.927296638 8939723.8111753464 0 0 0 0 -9317363.9076901954 3761888.6401244085 0 3761888.6401244085 5956071.2440994792 0 0 0 0 -15153866.143157959 1804570.2028083801 0 1804570.2028083801 1813522.7494335175 0 0 0 0 -9271281.5382176079 -4393337.0324971881 0 -4393337.0324971881 8034605.9973654682 0 0 0 0 25046848.073551178 9566211.7331167459 0 9566211.7331167459 18965881.931279182 0 0 0 0 -6939166.7708942238 -2605180.7152573243 0 -2605180.7152573243 7205722.4658128191 0 0 0 0 4219112.4955062866 -6937487.2488284111 0 -6937487.2488284111 10472859.515611887 0 0 0 0 31732729.42930603 -16368095.288176298 0 -16368095.288176298 10953547.451252997 0 0 0 0 -475123.45489692315 768106.93392208964 0 768106.93392208964 2546292.2295785369 0 0 0 0 -111160045.53726196 35171406.900415421 0 35171406.900415421 47830790.397476196 0 0 0 0 -80737449.688293457 59298378.186079979 0 59298378.186079979 49862878.551093578 0 0 0 0 -8364864.263092041 -20701792.124528885 0 -20701792.124528885 66014679.940998316 0 0 0 0 -172554952.93353271 77936141.410968781 0 77936141.410968781 18050241.994066238 0 0 0 0 -56343060.350452423 47430094.27819252 0 47430094.27819252 25487314.847835541 0 0 0 0 -86741135.962856293 10173333.994153857 0 10173333.994153857 180631646.696603 0 0 0 0 -46247328.66834259 14084931.472651631 0 14084931.472651631 12235394.956645489 0 0 0 0 -237578272.6350441 -38453285.444975853 0 -38453285.444975853 91005953.125069618 0 0 0 0 -90339934.854217529 -48502204.937433839 0 -48502204.937433839 10318899.337519169 0 0 0 0 -141866607.8624258 -57955837.83194758 0 -57955837.83194758 36706704.83010006 0 0 0 0 -82961813.86265564 -55221574.261658907 0 -55221574.261658907 27719363.837929249 0 0 0 0 -78123466.141544342 -17767619.694790363 0 -17767619.694790363 50764467.862332821 0 0 0 0 -79012746.124904633 -23821568.765028894 0 -23821568.765028894 79804239.749340296 0 0 0 0 -36542477.496307373 -39889912.258604169 0 -39889912.258604169 51973384.336885691 0 0 0 0 -74583768.488304138 -23111699.93419826 0 -23111699.93419826 53672270.200267792 0 0 0 0 -10765815.282241821 3659476.2054932117 0 3659476.2054932117 39308761.813528508 0 0 0 0 -11419891.113162994 1454966.5478855371 0 1454966.5478855371 53018486.135103941 0 0 0 0 32929571.482643127 75147086.821647421 0 75147086.821647421 139670807.36263895 0 0 0 0 30319203.508895874 -14120359.594278336 0 -14120359.594278336 45983639.149764568 0 0 0 0 8825525.3671722412 -192085193.46844292 0 -192085193.46844292 -157592765.49920648 0 0 0 0 -43216956.919090271 66650420.945471235 0 66650420.945471235 270848407.31810367 0 0 0 0 57866.705607634038 366983.64726187708 0 366983.64726187708 -190203.06602202827 0 0 0 0 -34059799.139465332 -45338709.232133657 0 -45338709.232133657 186398718.56594893 0 0 0 0 -16309518.804078888 -2221015.451845821 0 -2221015.451845821 7578205.5662936885 0 0 0 0 5622900.7113647461 -4271804.3353731632 0 -4271804.3353731632 54915470.098450184 0 0 0 0 -27526116.712141037 19046944.507649153 0 19046944.507649153 67573781.349095941 0 0 0 0 4289872.7041015625 -4088523.3871495724 0 -4088523.3871495724 37918025.414483786 0 0 0 0 12847292.386764526 19125271.544695854 0 19125271.544695854 60197590.312157869 0 0 0 0 -6493865.9340686798 43252104.506299384 0 43252104.506299384 149528376.79101384 0 0 0 0 -9910402.1471481323 -3237356.4167022705 0 -3237356.4167022705 15373967.530590534 0 0 0 0 -6853155.0730323792 -909650.00578117371 0 -909650.00578117371 5523789.8834228516 0 0 0 0 -11569885.048819166 -3199119.0350656174 0 -3199119.0350656174 7048136.063102711 0 0 0 0 -3105580.0244903564 -82545923.747502685 0 -82545923.747502685 -64620556.745244861 0 0 0 0 -13163321.220623016 1900284.7588603497 0 1900284.7588603497 6340286.3262214661 0 0 0 0 -10685791.536895752 -62976091.141941369 0 -62976091.141941369 117467159.36676569 0 0 0 0 -73630504.63609314 -13677308.424908161 0 -13677308.424908161 42216600.605670691 0 0 0 0 -107126114.15757942 -77727517.700085163 0 -77727517.700085163 30756163.86989212 0 0 0 0 28419069.71698761 8974887.7561366558 0 8974887.7561366558 5068038.4873390198 0 0 0 0 -14245782.913658142 -62008568.994843662 0 -62008568.994843662 -17202056.969217777 0 0 0 0 97605958.615005493 -7235707.2259360552 0 -7235707.2259360552 7655853.447155714 0 0 0 0 38810364.580183029 -52305764.831755549 0 -52305764.831755549 102449370.80560255 0 0 0 0 183147573.23966217 29003437.201863527 0 29003437.201863527 128345142.459692 0 0 0 0 31187345.740394592 -171714600.10800266 0 -171714600.10800266 106949002.2693145 0 0 0 0 283846415.4925766 -231882128.91336608 0 -231882128.91336608 107342111.1683231 0 0 0 0 -79358880.629776955 -243754255.10314351 0 -243754255.10314351 388029875.26696014 0 0 0 0 -16321090.015953064 -77342003.02262485 0 -77342003.02262485 -32516118.434902191 0 0 0 0 -62218935.285675049 -131481591.14757988 0 -131481591.14757988 193588491.50123239 0 0 0 0 -88617587.297058105 -164412887.62205625 0 -164412887.62205625 164439171.10274744 0 0 0 0 -146596622.94534302 -159277535.59884572 0 -159277535.59884572 184501912.59342289 0 0 0 0 -138394488.80012512 -25848814.293122768 0 -25848814.293122768 176595215.19590926 0 0 0 0 29068532.777397156 -61707341.647805929 0 -61707341.647805929 173806184.34007096 0 0 0 0 -131050.5159435235 570450.65088852588 0 570450.65088852588 -232034.89922007208 0 0 0 0 -111384240.21446991 -94006926.544771731 0 -94006926.544771731 190836799.91050148 0 0 0 0 -260422376.77827454 -6662040.7580015659 0 -6662040.7580015659 17003546.102039099 0 0 0 0 -379647506.78646851 17060539.184310913 0 17060539.184310913 27500368.323652744 0 0 0 0 -138065.79147228086 -388773.88148287497 0 -388773.88148287497 -1862.1489287414588 0 0 0 0 -84517310.376754761 -112165470.1169126 0 -112165470.1169126 191454857.28766334 0 0 0 0 -82391584.939067841 -13089890.828917265 0 -13089890.828917265 -8654925.688416481 0 0 0 0 -77077563.818122864 -65526412.296240807 0 -65526412.296240807 26910423.626847267 0 0 0 0 -86094156.634662628 -53996557.436796188 0 -53996557.436796188 32842078.190680504 0 0 0 0 -123484288.04893112 -24658739.826489925 0 -24658739.826489925 83463159.844688892 0 0 0 0 -114528584.58101463 -85916566.135475516 0 -85916566.135475516 300922756.50575876 0 0 0 0 133455048.92667389 -442029652.56848621 0 -442029652.56848621 313684145.0154314 0 0 0 0 202041977.94623566 -377209219.52365589 0 -377209219.52365589 374713210.98774791 0 0 0 0 213708862.48730969 -180719887.83839241 0 -180719887.83839241 148916567.65604591 0 0 0 0 603207582.49205399 -247113387.18467188 0 -247113387.18467188 156382332.96299648 0 0 0 0 -148181.37355774455 -277705.04439636692 0 -277705.04439636692 1107734.4217816661 0 0 0 0 249440964.10386276 -654085573.91734099 0 -654085573.91734099 294364164.85088158 0 0 0 0 638873109.39683533 -739471980.71675968 0 -739471980.71675968 108173133.6969862 0 0 0 0 -57333385.627441406 405472120.61789334 0 405472120.61789334 269980452.93702507 0 0 0 0 99927181.740837097 -92797211.761618674 0 -92797211.761618674 -22712639.830767155 0 0 0 0 28677.346396669745 60763.107505196705 0 60763.107505196705 1396887.290390864 0 0 0 0 -110913414.1283989 -111558082.98523736 0 -111558082.98523736 77599439.303636551 0 0 0 0 -220324966.3105545 -33494395.600043535 0 -33494395.600043535 46739202.46604681 0 0 0 0 -233084.89104362531 -531245.81501060538 0 -531245.81501060538 -138067.47932428913 0 0 0 0 -125209973.74234772 7090436.0586285591 0 7090436.0586285591 -34306485.667644978 0 0 0 0 -421569876.6459198 43815537.86525774 0 43815537.86525774 62785639.516991615 0 0 0 0 -129318567.42256165 -25033967.77933836 0 -25033967.77933836 -81539133.270217896 0 0 0 0 5581727.1217699051 -32747414.588256478 0 -32747414.588256478 -362281.69109916687 0 0 0 0 -113052233.80350876 88597883.168991089 0 88597883.168991089 -22535150.704205036 0 0 0 0 1546665.004789263 1154751.626270812 0 1154751.626270812 -359407.10783987027 0 0 0 0 -88672508.635238647 65750389.295533657 0 65750389.295533657 -54888920.571128845 0 0 0 0 -80208020.019533157 56211603.938462019 0 56211603.938462019 -46220965.41869545 0 0 0 0 -68120038.629310608 45384227.462682724 0 45384227.462682724 -18983757.315110207 0 0 0 0 -8130615.9020881653 -7029758.2166514397 0 -7029758.2166514397 9617242.9639043808 0 0 0 0 990855.19928309321 -871599.1402241122 0 -871599.1402241122 276825.6653150483 0 0 0 0 1096323100.9351959 -419441231.26236296 0 -419441231.26236296 -22075291.129329681 0 0 0 0 -1113662.4706268869 -140230.81685506739 0 -140230.81685506739 1426510.1144408942 0 0 0 0 -7286928.9064292908 -5687982.3532601595 0 -5687982.3532601595 344189006.32536793 0 0 0 0 -6159039.8917160034 11606384.105586529 0 11606384.105586529 5278693.06637609 0 0 0 0 -2623581.646448724 -2206629.7495208476 0 -2206629.7495208476 1463609.4912128784 0 0 0 0 135215679.99223709 -268196711.63425303 0 -268196711.63425303 280461238.47967339 0 0 0 0 119881025.79364777 -282677664.47229052 0 -282677664.47229052 341095080.54876518 0 0 0 0 302968182.12662315 -255604976.77091956 0 -255604976.77091956 127485291.80512238 0 0 0 0 189136804.29164886 -50485585.779474258 0 -50485585.779474258 -95123632.797588348 0 0 0 0 115468327.97982025 -164858431.10353518 0 -164858431.10353518 345176651.1772325 0 0 0 0 101768809.09107208 -85212216.284310102 0 -85212216.284310102 170976651.32925224 0 0 0 0 30495443.096488953 -121123326.43792772 0 -121123326.43792772 523651392.42374682 0 0 0 0 -2068169.4965523705 -2289527.6514109541 0 -2289527.6514109541 -417094.51213251986 0 0 0 0 11511708.197647095 42163993.166749954 0 42163993.166749954 17833223.613130569 0 0 0 0 117435655.23629808 -349809804.03258026 0 -349809804.03258026 510951406.7353344 0 0 0 0 1030193.1324376613 582300.70395522006 0 582300.70395522006 -675620.28846059274 0 0 0 0 -140021811.94781494 86882870.860380411 0 86882870.860380411 -57502385.53026104 0 0 0 0 -1266359.61594183 -2333355.2517519705 0 -2333355.2517519705 -1911761.2854843773 0 0 0 0 -45418505.713623047 67921985.76272583 0 67921985.76272583 72953848.043757915 0 0 0 0 10935414.563331604 -54068833.146576881 0 -54068833.146576881 -46394936.96171093 0 0 0 0 261840373.72384644 -625401298.26243997 0 -625401298.26243997 424881666.11640453 0 0 0 0 74790494.862697601 -738000308.10641956 0 -738000308.10641956 956615029.25014496 0 0 0 0 127580526.53023529 60033112.010695517 0 60033112.010695517 244988231.19389915 0 0 0 0 -53631672.234624863 -652285825.83343339 0 -652285825.83343339 -273450597.71843052 0 0 0 0 466758377.56863403 -393974439.21029383 0 -393974439.21029383 -1568709116.8126557 0 0 0 0 -616960771.20511627 -621217309.19550252 0 -621217309.19550252 -349177009.86797738 0 0 0 0 26853504.179692268 66743381.676309854 0 66743381.676309854 -867865437.93495703 0 0 0 0 -540580970.73043823 273944227.01925278 0 273944227.01925278 -64580049.037368655 0 0 0 0 144264032.79740906 -31116987.028523147 0 -31116987.028523147 246556006.66972542 0 0 0 0 34184314.103885651 -134404841.12773085 0 -134404841.12773085 149877769.70645332 0 0 0 0 116000627.3781662 141894001.78529763 0 141894001.78529763 -107102891.81522751 0 0 0 0 -82418960.413215637 61564075.87480402 0 61564075.87480402 191048527.01003379 0 0 0 0 130015207.09857941 111760631.06562233 0 111760631.06562233 -47119169.77485019 0 0 0 0 15455859.321868896 39370256.668162823 0 39370256.668162823 -29931811.767807007 0 0 0 0 23227876.826400757 -204816078.47344375 0 -204816078.47344375 -234099648.68573093 0 0 0 0 159245258.72532272 -256397664.85139036 0 -256397664.85139036 -295251303.3667382 0 0 0 0 211957.62791773118 206600.98489308357 0 206600.98489308357 -360613.11210213136 0 0 0 0 13038085.746658325 -140802468.61740708 0 -140802468.61740708 -261115469.88814116 0 0 0 0 -61361469.602420807 -71311626.602659941 0 -71311626.602659941 25190297.334645748 0 0 0 0 -93183076.34210968 -137629730.77580595 0 -137629730.77580595 -75223355.938433647 0 0 0 0 -321826528.91227722 -276826338.75356865 0 -276826338.75356865 -73646063.769601971 0 0 0 0 -56829522.87727356 -124436059.96322346 0 -124436059.96322346 -8139049.3440198898 0 0 0 0 -168276485.14250183 -67853226.826112866 0 -67853226.826112866 150158608.54501629 0 0 0 0 -84525080.320884705 29421640.606256962 0 29421640.606256962 134715216.17233801 0 0 0 0 -6759342.9499723576 -2505279.9389159735 0 -2505279.9389159735 -673103.42708810396 0 0 0 0 -345850035.47328949 -113742004.02395868 0 -113742004.02395868 29073971.970582008 0 0 0 0 41040303.313072205 -109160701.36949468 0 -109160701.36949468 -164218691.32442808 0 0 0 0 -32323377.845733643 42364053.870328426 0 42364053.870328426 -39016009.236188889 0 0 0 0 106236353.54956818 294176642.72894424 0 294176642.72894424 -93014246.860338688 0 0 0 0 -2571043.3520747088 710682.99173368746 0 710682.99173368746 592983.06270910916 0 0 0 0 -464226344.22066498 267386147.3672502 0 267386147.3672502 126980656.69739437 0 0 0 0 -230687999.13723755 -548403186.96098995 0 -548403186.96098995 -610477535.00199366 0 0 0 0 -7903556.3428001404 -281620980.74638736 0 -281620980.74638736 -381793880.11952591 0 0 0 0 -159668327.9785614 -64100208.973114491 0 -64100208.973114491 -26162174.625436783 0 0 0 0 -741036345.35349655 -336707631.52299333 0 -336707631.52299333 -88396917.896296501 0 0 0 0 -504023834.83429718 187432065.74030161 0 187432065.74030161 -74666962.985303968 0 0 0 0 -523575575.0383091 184667807.53060901 0 184667807.53060901 -54716535.990206242 0 0 0 0 -195682085.20363235 177314165.51206827 0 177314165.51206827 -242690620.63749361 0 0 0 0 -402409581.4843235 172467238.03246021 0 172467238.03246021 -76703586.00204277 0 0 0 0 -127263.06797058554 -203370.4096846357 0 -203370.4096846357 -126622.38368981518 0 0 0 0 -331103046.77822399 -14095340.872024834 0 -14095340.872024834 31540329.731780052 0 0 0 0 -424055410.10011292 71951498.958017111 0 71951498.958017111 -46212524.011467934 0 0 0 0 -126901716.67902374 -36810521.719486713 0 -36810521.719486713 -147155906.86514902 0 0 0 0 -94462299.045089722 46576501.318957329 0 46576501.318957329 22579483.465041637 0 0 0 0 294109.49804581795 326044.22819813155 0 326044.22819813155 36836.979160126299 0 0 0 0 202071331.64700031 -141193335.87454385 0 -141193335.87454385 -50832272.407232285 0 0 0 0 191571275.72160053 26571381.827235878 0 26571381.827235878 -286175289.86272812 0 0 0 0 3802187.8895645142 -46947034.640731096 0 -46947034.640731096 -311138228.65608168 0 0 0 0 -224308795.19099426 17288724.931620598 0 17288724.931620598 10481456.23233062 0 0 0 0 -251190775.51983547 -207679712.76208401 0 -207679712.76208401 -332804455.16202784 0 0 0 0 -233522696.57886028 116623868.70575126 0 116623868.70575126 -124124735.92767906 0 0 0 0 -528858114.85192871 40844377.80546236 0 40844377.80546236 -122582755.85910892 0 0 0 0 -470228784.18227768 124660988.67882943 0 124660988.67882943 -168356896.13717151 0 0 0 0 -737040089.51286125 237036534.53819299 0 237036534.53819299 -49554912.171021461 0 0 0 0 -979222564.64432526 -420617205.54228497 0 -420617205.54228497 186190695.63868475 0 0 0 0 -719368497.83924103 -437012118.83609152 0 -437012118.83609152 -224655748.21315432 0 0 0 0 74831055.143983841 -109370231.23419797 0 -109370231.23419797 -166807205.80283451 0 0 0 0 -71438.495130881667 -320588.19841244258 0 -320588.19841244258 -1639576.2204236463 0 0 0 0 -1444873318.5659828 -50652603.725149632 0 -50652603.725149632 -129712266.47897005 0 0 0 0 -682552074.27552032 136680153.49406254 0 136680153.49406254 -100234257.91723359 0 0 0 0 -227974674.42163849 -142576361.54756165 0 -142576361.54756165 -466583760.10518432 0 0 0 0 -191975752.68891621 10526974.394421935 0 10526974.394421935 -181605995.51408243 0 0 0 0 36519986.400474548 -46833098.380099773 0 -46833098.380099773 -190391113.45399475 0 0 0 0 44096796.713569641 -3515124.5286271572 0 -3515124.5286271572 -345878002.28113294 0 0 0 0 19468066.080755234 -51158131.61800313 0 -51158131.61800313 -168001147.65563297 0 0 0 0 60119836.04221344 31129955.304700375 0 31129955.304700375 179785736.33537173 0 0 0 0 144000449.74924469 162089328.45008373 0 162089328.45008373 -61004622.691904187 0 0 0 0 -8366564.438526867 7504342.9473881535 0 7504342.9473881535 5628080.7218911108 0 0 0 0 21589013.509727478 319780150.77873558 0 319780150.77873558 382069290.50577426 0 0 0 0 630280278.49903488 -391204599.38616252 0 -391204599.38616252 371239637.8780005 0 0 0 0 910742957.36059666 -100846421.6276232 0 -100846421.6276232 286905719.52875042 0 0 0 0 1282211281.6622896 -1058141664.9973072 0 -1058141664.9973072 500000527.75868511 0 0 0 0 -1718374924.4955025 -1187467010.7973595 0 -1187467010.7973595 1434715168.3614125 0 0 0 0 -286417332.12778473 -445642765.34359217 0 -445642765.34359217 386880424.70080328 0 0 0 0 -824902206.98013878 867944009.18148041 0 867944009.18148041 774873309.57960129 0 0 0 0 14097266.390605927 163468253.71055412 0 163468253.71055412 842709839.6737721 0 0 0 0 -2452654447.1138153 1092295107.1308756 0 1092295107.1308756 582522513.27854228 0 0 0 0 -74187092.772785187 -176704824.41222984 0 -176704824.41222984 19246408.512080669 0 0 0 0 240105366.56642151 255726731.35080323 0 255726731.35080323 -34736184.813472912 0 0 0 0 -148483859.84463882 439124844.28266227 0 439124844.28266227 549100460.39785695 0 0 0 0 -9253654.5174963214 3957658.59881166 0 3957658.59881166 3069771.3443479291 0 0 0 0 -78630522.133499146 134617679.6131382 0 134617679.6131382 548957387.53845739 0 0 0 0 757507007.14282227 -5915841.4520616531 0 -5915841.4520616531 326336534.8419857 0 0 0 0 -4375687.4236912187 1187856.2140861056 0 1187856.2140861056 1103390.334432414 0 0 0 0 -1460813564.459549 -764233051.43243158 0 -764233051.43243158 277497162.57503915 0 0 0 0 -1091574833.4778976 -695099057.21937704 0 -695099057.21937704 286741287.3127712 0 0 0 0 217291328.65660858 -271209012.62656367 0 -271209012.62656367 -860067203.08885586 0 0 0 0 -1149830386.3167267 -55742425.042305112 0 -55742425.042305112 213743614.6338363 0 0 0 0 -1249059148.5913162 -590056148.64559543 0 -590056148.64559543 83313976.18651858 0 0 0 0 -54024990.745095015 -66656645.599559665 0 -66656645.599559665 -77618587.249862671 0 0 0 0 -53330380.99458003 -85540221.63383007 0 -85540221.63383007 -84919913.438919067 0 0 0 0 -178671185.54481506 -49574857.613571167 0 -49574857.613571167 -83282042.599411011 0 0 0 0 -27731731.235853195 -15015818.2643466 0 -15015818.2643466 -5483267.9542140961 0 0 0 0 -21266940.904270776 -13263170.766757516 0 -13263170.766757516 -9285780.2291852683 0 0 0 0 -43657175.118621409 -9629057.5288586915 0 -9629057.5288586915 -22117043.35839678 0 0 0 0 -38652286.699959114 9622865.662913315 0 9622865.662913315 25163834.102381535 0 0 0 0 30346810.176002502 57303518.690252066 0 57303518.690252066 30633890.830972552 0 0 0 0 -198126027.081604 -72224145.656158447 0 -72224145.656158447 -7399794.3057861328 0 0 0 0 -148907309.03479004 -104837784.7217865 0 -104837784.7217865 -183178458.04367447 0 0 0 0 2756561.2196991928 3642033.8976516258 0 3642033.8976516258 432217.10118818469 0 0 0 0 -27390854.883592606 -13926086.99972105 0 -13926086.99972105 -17455201.333118439 0 0 0 0 -34337614.355778694 -14132245.311543465 0 -14132245.311543465 -22604340.62726593 0 0 0 0 -41185742.750628948 -10767073.463412762 0 -10767073.463412762 -14950194.67780304 0 0 0 0 -37621019.032154083 589195.45963096619 0 589195.45963096619 -2178036.8644313812 0 0 0 0 -35706000.990592957 -3724981.4361457825 0 -3724981.4361457825 3931392.8686199188 0 0 0 0 -196480592.83011627 -36912264.978535175 0 -36912264.978535175 44317621.673870087 0 0 0 0 -39848799.028201409 1456805.065477838 0 1456805.065477838 1729475.4335351642 0 0 0 0 -31832180.575759888 8841606.4368858337 0 8841606.4368858337 -1562232.7867851257 0 0 0 0 -27517645.243766308 1738479.5774817467 0 1738479.5774817467 -13593092.445053101 0 0 0 0 -49686025.247703552 44433609.922299385 0 44433609.922299385 83627753.106713295 0 0 0 0 -25974893.515728563 -7705913.4883889221 0 -7705913.4883889221 -794891.58742829482 0 0 0 0 -10374901.979249824 -3466858.3007378187 0 -3466858.3007378187 5063404.1261584479 0 0 0 0 32449627.053962708 58087805.837547302 0 58087805.837547302 30894061.189873695 0 0 0 0 -38494116.733381271 -50175207.526327133 0 -50175207.526327133 -10262849.150091171 0 0 0 0 26161614.645103455 -9701076.3687496185 0 -9701076.3687496185 -92937193.843777657 0 0 0 0 6967688.6796264648 63406114.367015839 0 63406114.367015839 55181938.567633152 0 0 0 0 -15328392.47901535 35706949.563920021 0 35706949.563920021 41356487.720604897 0 0 0 0 52720059.804122925 -91495958.311673164 0 -91495958.311673164 -270568700.81381321 0 0 0 0 55903872.272460938 -18146607.584881544 0 -18146607.584881544 -91746966.275547981 0 0 0 0 94179785.835113525 80905015.283834219 0 80905015.283834219 -127254256.26886797 0 0 0 0 40370375.133140564 47004419.586791754 0 47004419.586791754 -4459982.0780367851 0 0 0 0 76036415.613788605 99050829.11891067 0 99050829.11891067 -9810548.221572876 0 0 0 0 145923965.46535492 101296206.12367296 0 101296206.12367296 -1250968.597688809 0 0 0 0 37629427.882247925 149683585.53373957 0 149683585.53373957 132268105.04765582 0 0 0 0 552275.54422460124 19254178.957206737 0 19254178.957206737 6655976.0057984442 0 0 0 0 -13248184.574188232 57873471.49516511 0 57873471.49516511 98512575.038193226 0 0 0 0 28195210.134979248 45201454.83496666 0 45201454.83496666 37225783.672939897 0 0 0 0 -159165328.52994537 -59429012.719604492 0 -59429012.719604492 -157288834.55340958 0 0 0 0 -9019114.1807290018 -1961587.2269856893 0 -1961587.2269856893 -336157.57430873439 0 0 0 0 -57529514.043897346 -212690.4596802434 0 -212690.4596802434 26269644.56125753 0 0 0 0 -167349657.61030579 -147804086.95149231 0 -147804086.95149231 -82928072.790115356 0 0 0 0 -208570161.3196106 141381739.86824989 0 141381739.86824989 239870750.7684691 0 0 0 0 1387914.895980835 187523580.56898451 0 187523580.56898451 -20887954.044592857 0 0 0 0 -158632428.8633728 -111676571.14466858 0 -111676571.14466858 -221172814.05961227 0 0 0 0 -142105037.66716766 -249118688.12869072 0 -249118688.12869072 -209630359.27835846 0 0 0 0 -63280236.577467889 10521350.988142263 0 10521350.988142263 22654975.301846571 0 0 0 0 -275425293.73867798 -204086394.03437424 0 -204086394.03437424 476494.20948028564 0 0 0 0 10441528.915672302 121434098.75772667 0 121434098.75772667 -19132424.080134511 0 0 0 0 -48977605.268966675 -36759972.671106339 0 -36759972.671106339 14704945.636083603 0 0 0 0 118011127.09391022 27845901.241327286 0 27845901.241327286 -328614094.89517784 0 0 0 0 -42170915.884950817 481711.52625256404 0 481711.52625256404 4156347.5627353862 0 0 0 0 -108577645.40774155 -35067073.43129158 0 -35067073.43129158 -16980252.843902588 0 0 0 0 -265068275.77657318 -223921086.96443558 0 -223921086.96443558 -119220185.03351974 0 0 0 0 -97882750.613400459 -74308431.268948555 0 -74308431.268948555 35195408.719612122 0 0 0 0 82974021.951324463 -73159947.836486816 0 -73159947.836486816 -9569618.8645858765 0 0 0 0 5612736.6645505466 261183.46081109345 0 261183.46081109345 -8054370.9688156992 0 0 0 0 -43382686.74051857 -129604583.5225215 0 -129604583.5225215 16044959.790153503 0 0 0 0 -52790628.566326141 -75590770.699009895 0 -75590770.699009895 -91938582.422393799 0 0 0 0 -40147856.10803318 -14859035.578500271 0 -14859035.578500271 -21476519.611495972 0 0 0 0 -31441710.677921295 -8730328.2403361797 0 -8730328.2403361797 -19039378.217834473 0 0 0 0 -4536848.2639007568 -385280.62926101685 0 -385280.62926101685 778523.64538574219 0 0 0 0 -20608099.233060557 6245939.1277164426 0 6245939.1277164426 -13786870.728962468 0 0 0 0 -17228550.993288174 -4262349.8191373348 0 -4262349.8191373348 -12740712.474519312 0 0 0 0 -25003971.184869509 -14968437.510535857 0 -14968437.510535857 -9842837.2199809439 0 0 0 0 -41295738.689323425 -18745190.962755203 0 -18745190.962755203 2448513.7841186523 0 0 0 0 4967024.6793937683 107176.32813119888 0 107176.32813119888 -10940543.762454033 0 0 0 0 2611421.760017395 -515063.75573062897 0 -515063.75573062897 -10752215.47817421 0 0 0 0 -7832153.7273123022 -1673061.0673964308 0 -1673061.0673964308 -22050971.645234004 0 0 0 0 -12865698.212985404 -7384223.3889996856 0 -7384223.3889996856 -12465733.220836446 0 0 0 0 160818616.32365131 33750489.849926949 0 33750489.849926949 -8242108.6613276005 0 0 0 0 -36325479.944927216 -29775251.18459034 0 -29775251.18459034 -24636604.859130859 0 0 0 0 -266325582.62196159 13089822.642234325 0 13089822.642234325 52423234.693296432 0 0 0 0 -80879925.715952873 -177826939.14494514 0 -177826939.14494514 -42610667.273071527 0 0 0 0 109584382.38822174 -143290552.39723873 0 -143290552.39723873 -290434877.59709549 0 0 0 0 -162444809.14115453 -133645236.37456155 0 -133645236.37456155 31283645.984308243 0 0 0 0 -33378265.038492203 -5960977.9898838997 0 -5960977.9898838997 -17644968.998184204 0 0 0 0 -62390419.671855927 -42013500.917996407 0 -42013500.917996407 -20756492.064021349 0 0 0 0 -90152565.701335907 -3341272.9026641846 0 -3341272.9026641846 12977850.674571991 0 0 0 0 -18808425.603121925 -6536232.8402661383 0 -6536232.8402661383 -14633387.012889259 0 0 0 0 -7976635.1500885217 -4146459.0079269959 0 -4146459.0079269959 1124273.1747641517 0 0 0 0 -259913508.5816021 -171160586.77627373 0 -171160586.77627373 169927743.10505295 0 0 0 0 41601401.236309052 -128071909.56297493 0 -128071909.56297493 126069310.22431564 0 0 0 0 -31121457.982524872 -33180268.488203049 0 -33180268.488203049 82544166.936946869 0 0 0 0 -6321977.7117266264 472860.51065963227 0 472860.51065963227 2352500.2927083783 0 0 0 0 -3650046.8775395579 -666668.27744360082 0 -666668.27744360082 452371.28138829209 0 0 0 0 -72379203.435287476 -322302054.52235413 0 -322302054.52235413 -56593870.922773361 0 0 0 0 -96345496.553965092 -347780211.37132502 0 -347780211.37132502 -83173453.116035461 0 0 0 0 -294908777.74471331 232063152.59412718 0 232063152.59412718 -217744436.27338028 0 0 0 0 -517632329.21630621 -293471740.9871285 0 -293471740.9871285 -79886094.727615356 0 0 0 0 -30309577.081266403 -45679898.321248055 0 -45679898.321248055 -20596280.653271675 0 0 0 0 374135.9501657486 -128592580.57410288 0 -128592580.57410288 -793029728.62712908 0 0 0 0 -956435802.21968937 296209366.95021439 0 296209366.95021439 -158434043.08470345 0 0 0 0 -831995313.84420609 -190001392.51783383 0 -190001392.51783383 -61886496.865724564 0 0 0 0 228479669.88334846 -94576918.53467989 0 -94576918.53467989 -301880556.1363616 0 0 0 0 -6393570.739607662 -18568484.427397296 0 -18568484.427397296 128685599.98187065 0 0 0 0 290730588.5731144 360562941.01067567 0 360562941.01067567 -176748857.85679567 0 0 0 0 -550339204.25163078 325468992.81378794 0 325468992.81378794 29681908.671739578 0 0 0 0 -89655116.878423691 -35068294.384080887 0 -35068294.384080887 -12888897.541887283 0 0 0 0 -58727525.957811356 -5257389.8770170212 0 -5257389.8770170212 -11337262.288331032 0 0 0 0 -46130427.171575546 -4380965.5309562683 0 -4380965.5309562683 -26881347.874900818 0 0 0 0 -65226110.488945007 6120163.7562732697 0 6120163.7562732697 -18565057.319540024 0 0 0 0 320856285.43206406 201534995.00868607 0 201534995.00868607 22026892.657874018 0 0 0 0 -10932934.356484307 -3101868.5390554518 0 -3101868.5390554518 -13149774.842047915 0 0 0 0 -58198119.737247944 -36347700.471773624 0 -36347700.471773624 -48174635.894784927 0 0 0 0 -9236488.9720666129 -2358117.8246819722 0 -2358117.8246819722 -11670664.709258521 0 0 0 0 -80422329.432446241 -27770095.879990578 0 -27770095.879990578 -8287939.644908905 0 0 0 0 -56447509.032688141 -19309765.334311485 0 -19309765.334311485 -2351108.3072456121 0 0 0 0 -52573980.578414917 -16862925.117206097 0 -16862925.117206097 -19280796.9600811 0 0 0 0 -44468104.26875782 1903323.5054531097 0 1903323.5054531097 -2574255.5715126395 0 0 0 0 -32873361.490011245 1943432.5951116551 0 1943432.5951116551 2498156.3092977311 0 0 0 0 -115525454.89333534 102953713.247702 0 102953713.247702 38715887.979222298 0 0 0 0 -281646343.79627609 96664042.440730572 0 96664042.440730572 48997688.457134247 0 0 0 0 1327828.0657577515 -41853822.598335981 0 -41853822.598335981 -29014345.726424217 0 0 0 0 -169697279.13993454 -6516740.6781792641 0 -6516740.6781792641 80403324.745857239 0 0 0 0 -52495104.827644348 92623641.416770697 0 92623641.416770697 -89990104.880140781 0 0 0 0 -50421737.287950039 -4613326.2697257996 0 -4613326.2697257996 -7043946.6910390854 0 0 0 0 46788484.480297089 20150688.140113115 0 20150688.140113115 11154692.162855625 0 0 0 0 -32212726.006729595 -859078.72248081304 0 -859078.72248081304 4083909.2490982236 0 0 0 0 -47249801.09657222 -25612617.427648008 0 -25612617.427648008 -18889653.657039642 0 0 0 0 -11370253.37733078 69015147.611269236 0 69015147.611269236 149473859.11012268 0 0 0 0 -159536418.94405556 83193904.704603195 0 83193904.704603195 187825317.91306281 0 0 0 0 -277842123.46079922 -164450387.09036088 0 -164450387.09036088 193235614.8261714 0 0 0 0 -42918387.721950531 -3426989.4130117893 0 -3426989.4130117893 39613138.949256897 0 0 0 0 22053210.069799423 86506507.560713768 0 86506507.560713768 160801713.03961158 0 0 0 0 -54548495.519667089 -18774094.749733925 0 -18774094.749733925 -9352889.1692771912 0 0 0 0 -12190659.559428575 -4388772.2318442436 0 -4388772.2318442436 -10785143.12670452 0 0 0 0 -10120293.206237793 -1739971.5586013794 0 -1739971.5586013794 19510995.285087585 0 0 0 0 -3188290.261932373 8507780.1407485008 0 8507780.1407485008 1904259.661290288 0 0 0 0 -19681245.278934039 6264803.5124578709 0 6264803.5124578709 457759.04571292119 0 0 0 0 160609338.10663605 88167996.403059959 0 88167996.403059959 -87497450.729290009 0 0 0 0 -21103509.664835609 3505083.3200278822 0 3505083.3200278822 308658.50989074493 0 0 0 0 -10153561.894251462 -12493071.334553355 0 -12493071.334553355 -10542124.307021122 0 0 0 0 -5108576.2392730713 -9199115.9151873589 0 -9199115.9151873589 -8045847.1590685844 0 0 0 0 -25801121.423522949 -20607145.227945566 0 -20607145.227945566 1164182.5033512115 0 0 0 0 -12192877.603210449 346319.13560533524 0 346319.13560533524 19335194.951924324 0 0 0 0 -14459000.105679583 -5943842.5075548831 0 -5943842.5075548831 -3741292.5869694618 0 0 0 0 -1587825.172618038 -157547.95617992245 0 -157547.95617992245 176923.66733002011 0 0 0 0 2502825.7282104492 -29855172.332736969 0 -29855172.332736969 962913.83507156372 0 0 0 0 -33758178.099090576 -20047516.624047279 0 -20047516.624047279 4508491.6442372799 0 0 0 0 -48122254.299560547 -17423813.859743118 0 -17423813.859743118 28891433.683704376 0 0 0 0 -1797781.5336485952 -507595.75472264551 0 -507595.75472264551 1092754.862339763 0 0 0 0 -5480946.8908956163 -525132.12966104597 0 -525132.12966104597 1470277.9363507666 0 0 0 0 -42821481.341178894 -117806806.65943003 0 -117806806.65943003 -32242661.292589188 0 0 0 0 -19250482.264556885 -21629169.1199646 0 -21629169.1199646 11615831.955406189 0 0 0 0 -24815739.997375488 -33997249.673347473 0 -33997249.673347473 -12159313.927438259 0 0 0 0 -54813692.344940186 3363138.1592340469 0 3363138.1592340469 11695954.902256012 0 0 0 0 -299063615.57025909 -67286190.918100119 0 -67286190.918100119 20721280.822278023 0 0 0 0 -165787494.01255798 -133970919.72196865 0 -133970919.72196865 -15226036.333784342 0 0 0 0 -276661620.21297455 -112836351.51390553 0 -112836351.51390553 37531410.213449478 0 0 0 0 -173205317.04916382 -55032617.529931068 0 -55032617.529931068 19212200.678770684 0 0 0 0 -825863466.98259735 -77352876.155759096 0 -77352876.155759096 24128304.801002979 0 0 0 0 -280140686.88734436 -35812932.954398632 0 -35812932.954398632 43232505.440937042 0 0 0 0 -1081094.3369226959 826302.99347174168 0 826302.99347174168 981472.16984822508 0 0 0 0 -1170803506.0576782 -108238529.04548836 0 -108238529.04548836 44249328.859248757 0 0 0 0 -532549685.51124573 294367793.88679695 0 294367793.88679695 -331214440.54389668 0 0 0 0 -98806331.155914307 -60787850.603749752 0 -60787850.603749752 -99689927.823876381 0 0 0 0 751556980.4150238 156887643.11382151 0 156887643.11382151 534195894.53676605 0 0 0 0 137331166.39207649 -777693948.82578146 0 -777693948.82578146 284397039.93341303 0 0 0 0 -965714920.92712402 483398932.74234223 0 483398932.74234223 -64054297.858498573 0 0 0 0 595015389.56036377 -1031306156.9400057 0 -1031306156.9400057 -16449330.527320862 0 0 0 0 66087.874172791839 -1108306.8658756949 0 -1108306.8658756949 -1723410.8260816718 0 0 0 0 945709935.26086426 -688428615.22899771 0 -688428615.22899771 -439518093.18677711 0 0 0 0 455171726.52574921 135669510.23656505 0 135669510.23656505 -717969340.51357317 0 0 0 0 -19942891.434799194 -380641909.73959792 0 -380641909.73959792 -96662512.182490706 0 0 0 0 225133490.49850273 -239308275.27121478 0 -239308275.27121478 -468178963.36455059 0 0 0 0 -8258811.716687344 8168372.1374068875 0 8168372.1374068875 2256689.5575793888 0 0 0 0 -1105314724.322937 -303609545.65400028 0 -303609545.65400028 137317492.82556862 0 0 0 0 -980181188.98454285 -1358631639.6646528 0 -1358631639.6646528 -658398076.42366457 0 0 0 0 -1609418915.8652496 -38700669.191420078 0 -38700669.191420078 293062619.74868011 0 0 0 0 968738959.79349518 604303292.92041636 0 604303292.92041636 -105277617.7706399 0 0 0 0 606593618.21127701 843374352.1107955 0 843374352.1107955 478999197.84267521 0 0 0 0 -32272672.920455933 44105978.184756041 0 44105978.184756041 31872019.569581807 0 0 0 0 -27086196.578659974 5487927.7547139619 0 5487927.7547139619 -40065.505559608107 0 0 0 0 351707878.06362152 209195103.50198936 0 209195103.50198936 350749535.4849503 0 0 0 0 703537695.18257904 -17112094.813821793 0 -17112094.813821793 -738584958.67008781 0 0 0 0 -1419658902.7259789 -881437653.33815098 0 -881437653.33815098 -145981395.0190134 0 0 0 0 733720777.84375763 -469401629.87376499 0 -469401629.87376499 -1790528300.8002753 0 0 0 0 -345378.59493459016 2710029.2499894463 0 2710029.2499894463 -326151.01842267299 0 0 0 0 16759088.76335907 34925436.152901649 0 34925436.152901649 -25346986.245257854 0 0 0 0 -27677197.9139245 2379087.1622934733 0 2379087.1622934733 3165085.4797805096 0 0 0 0 -1149061324.8415942 1440488393.5626717 0 1440488393.5626717 1315287160.1567354 0 0 0 0 -130711079.89783478 -20064652.561066628 0 -20064652.561066628 24701360.711198807 0 0 0 0 -24946772.196304321 -41398952.032410622 0 -41398952.032410622 -98393176.598738194 0 0 0 0 -30295381.871383667 5025411.2354373932 0 5025411.2354373932 -60496545.339593887 0 0 0 0 -33807915.953964233 -20138047.990114212 0 -20138047.990114212 -25883469.219673514 0 0 0 0 -37197934.711608887 -14570765.28022337 0 -14570765.28022337 -24816008.9727211 0 0 0 0 -48165391.19165802 12079169.112528324 0 12079169.112528324 -8292383.2687492371 0 0 0 0 -33162356.673065186 4080742.4339766502 0 4080742.4339766502 -15116081.694310188 0 0 0 0 -39969773.920639038 -16391396.311871529 0 -16391396.311871529 -8157729.038880825 0 0 0 0 -38479248.522003174 -1966388.6766386032 0 -1966388.6766386032 -19687243.588240623 0 0 0 0 -45359612.557144165 -6959261.1038994789 0 -6959261.1038994789 673239.46102523804 0 0 0 0 -30179314.208496094 -18361489.39361763 0 -18361489.39361763 -1314171.3673474789 0 0 0 0 -43846496.359344482 -7288886.7861213684 0 -7288886.7861213684 -1022360.9124202728 0 0 0 0 -40054324.209106445 -12137722.423550367 0 -12137722.423550367 11307837.716707945 0 0 0 0 -26165912.260915969 -6251453.5500916597 0 -6251453.5500916597 -2093843.2766236775 0 0 0 0 -43134612.749176025 -15243623.936700821 0 -15243623.936700821 4026865.7889270782 0 0 0 0 -29906925.969829559 -12136013.054272652 0 -12136013.054272652 4716517.772526741 0 0 0 0 -52270404.679031372 -24369663.745455742 0 -24369663.745455742 11505525.656921864 0 0 0 0 -38015234.998291016 -13689077.175966024 0 -13689077.175966024 5350022.5154526234 0 0 0 0 -42142922.824249268 -13081277.439423203 0 -13081277.439423203 5261910.8797140121 0 0 0 0 228895160.56230164 259345912.11338615 0 259345912.11338615 198014868.4092474 0 0 0 0 -39391953.779706001 6424168.4575767517 0 6424168.4575767517 45146407.651212692 0 0 0 0 -27324725.184052758 5785249.1000721948 0 5785249.1000721948 -933530.65247628512 0 0 0 0 383216188.5494194 53880595.611012459 0 53880595.611012459 -159577456.34144211 0 0 0 0 68368581.250465393 -76719605.689535141 0 -76719605.689535141 -80982061.560819626 0 0 0 0 57967142.761856079 61373851.038501263 0 61373851.038501263 -7596115.6317224503 0 0 0 0 140121284.19921494 127701126.51995182 0 127701126.51995182 2969253.2919960022 0 0 0 0 -4282678.9550804645 -1799062.6020250921 0 -1799062.6020250921 3641384.4809218892 0 0 0 0 170688830.2063446 6492676.9238080978 0 6492676.9238080978 -65687163.239295959 0 0 0 0 19414676.380168915 9076909.7987890244 0 9076909.7987890244 -3105285.689291954 0 0 0 0 -44376451.37840271 1563236.5694541931 0 1563236.5694541931 2011710.7974010408 0 0 0 0 -6536728.1228154469 917898.68224506546 0 917898.68224506546 -9090037.1939669568 0 0 0 0 48688301.116821289 -129204089.17394274 0 -129204089.17394274 166701277.95961535 0 0 0 0 14133955.134162903 23832294.575087547 0 23832294.575087547 -18188167.863489151 0 0 0 0 46163990.195762634 4562633.4231624603 0 4562633.4231624603 -7203504.6292066574 0 0 0 0 -32350739.339912415 -61889602.760866165 0 -61889602.760866165 -48330059.459256172 0 0 0 0 26668891.230743408 -27649132.485096931 0 -27649132.485096931 -54859806.805844307 0 0 0 0 66368050.066051483 -79820241.968604088 0 -79820241.968604088 -99940228.903194427 0 0 0 0 -250249254.65946198 -233929805.05800152 0 -233929805.05800152 -32363864.377126694 0 0 0 0 -163428778.96711349 -122419593.08708191 0 -122419593.08708191 -39914089.809813499 0 0 0 0 -60225259.789386749 -212741618.78460884 0 -212741618.78460884 -122216625.16040802 0 0 0 0 150487745.7326107 -140247277.78936338 0 -140247277.78936338 -97746048.77832222 0 0 0 0 -229274794.62059402 -471726722.50700092 0 -471726722.50700092 -284963515.95492363 0 0 0 0 -242915824.86032486 -351309555.65399408 0 -351309555.65399408 -5151217.90579319 0 0 0 0 -266394118.71696854 -207614709.36328697 0 -207614709.36328697 -10928498.21631813 0 0 0 0 -517796559.61011887 -274343938.07818508 0 -274343938.07818508 25361554.64091301 0 0 0 0 -243292421.52893806 -184021098.15030438 0 -184021098.15030438 -40447337.048055649 0 0 0 0 -419064941.68780327 -90087110.380245209 0 -90087110.380245209 38801277.833786011 0 0 0 0 -185008935.76761246 -247707848.17169666 0 -247707848.17169666 -196372221.99642944 0 0 0 0 -414625725.42487717 -393859022.58959961 0 -393859022.58959961 -289356949.32514 0 0 0 0 -154799629.7023468 -164803957.58031178 0 -164803957.58031178 -42809071.598455429 0 0 0 0 -120062194.45686531 -141291901.89144087 0 -141291901.89144087 -99065481.794235229 0 0 0 0 413508485.52073669 -259488665.88103342 0 -259488665.88103342 -49057189.613520145 0 0 0 0 -386853705.75463939 -544525857.90780044 0 -544525857.90780044 -113500253.56466389 0 0 0 0 -1454713.7225763686 1274134.9825004525 0 1274134.9825004525 -7518542.974514382 0 0 0 0 -43658389.621898651 -56819694.723097801 0 -56819694.723097801 -4796038.2931528091 0 0 0 0 289620.90726786945 923954.12886941805 0 923954.12886941805 -3381818.8823003452 0 0 0 0 -601223412.63055801 -199924640.32084179 0 -199924640.32084179 -27030312.562530518 0 0 0 0 402353036.92247581 112836857.96030664 0 112836857.96030664 -165408794.00338554 0 0 0 0 948788.18170087226 -667147.73553291243 0 -667147.73553291243 -2945062.8586017657 0 0 0 0 437399059.91687393 106353200.90876007 0 106353200.90876007 -307110320.26993656 0 0 0 0 -311226235.36551857 258731750.74714756 0 258731750.74714756 37150185.506141663 0 0 0 0 -317766441.4357872 72709536.925303459 0 72709536.925303459 17927428.979391098 0 0 0 0 566458.14627518691 -2424723.9695076831 0 -2424723.9695076831 -5938691.3806689642 0 0 0 0 -315656675.92585754 374602545.06823349 0 374602545.06823349 -27679252.575691223 0 0 0 0 423917268.16335678 -889892441.9587326 0 -889892441.9587326 -318436583.81344557 0 0 0 0 -452764.37415585481 -3603614.9356911574 0 -3603614.9356911574 -6505343.7402207181 0 0 0 0 -149109636.59137535 220737561.45811844 0 220737561.45811844 -11322087.136428833 0 0 0 0 -180652529.04117012 215366715.95783234 0 215366715.95783234 40173228.265838623 0 0 0 0 -133684914.92751789 149171784.00460768 0 149171784.00460768 41190728.932102203 0 0 0 0 -189251159.15790939 191876393.20866966 0 191876393.20866966 8838976.3442878723 0 0 0 0 -213222268.73291397 110836044.93136597 0 110836044.93136597 152161386.99244308 0 0 0 0 -64356291.901485443 58700471.650848389 0 58700471.650848389 -4668509.6242513657 0 0 0 0 53962491.49836731 -52140187.550573349 0 -52140187.550573349 -559702536.89141846 0 0 0 0 -106476852.85711098 -28872258.492087364 0 -28872258.492087364 -136942246.20274734 0 0 0 0 -195366342.65769958 -62869160.642681122 0 -62869160.642681122 485413392.06956863 0 0 0 0 -206639863.62696075 195799895.75219154 0 195799895.75219154 72493598.630525589 0 0 0 0 62594765.52878952 -302075563.18554115 0 -302075563.18554115 402673122.04215145 0 0 0 0 -99156368.798496246 102727850.03647804 0 102727850.03647804 131463910.62975693 0 0 0 0 8570376.6300086975 56940221.36192131 0 56940221.36192131 136452148.65326691 0 0 0 0 -105864452.36067581 6188401.2129974365 0 6188401.2129974365 273656962.32704353 0 0 0 0 -8172183.1806488037 -6800771.858499527 0 -6800771.858499527 113632776.06069946 0 0 0 0 -8125640.7634156048 -214490.46380165964 0 -214490.46380165964 95020942.020183563 0 0 0 0 15191627.444244385 -46961818.698219299 0 -46961818.698219299 145275491.6906395 0 0 0 0 61546831.357305527 172762720.60555553 0 172762720.60555553 -3992961.8437423706 0 0 0 0 15542741.968696594 34635286.094558716 0 34635286.094558716 -7870918.8746039867 0 0 0 0 114170736.62651443 -24690308.673309565 0 -24690308.673309565 -15623023.726081848 0 0 0 0 -625092.35954607837 -3845480.9642578531 0 -3845480.9642578531 -5854333.7234117873 0 0 0 0 -5841431.1459883209 -905217.69445664575 0 -905217.69445664575 3328489.3987920992 0 0 0 0 -5482100.7271617875 -5121949.3535088487 0 -5121949.3535088487 699911.17407677788 0 0 0 0 26011435.034089088 -71655805.88585043 0 -71655805.88585043 55637902.029140472 0 0 0 0 -63449427.226167679 48433948.407684326 0 48433948.407684326 -105191961.83365059 0 0 0 0 -264931366.832901 -197088237.81111526 0 -197088237.81111526 -118011746.41047478 0 0 0 0 -341374251.34129715 -365008253.79133415 0 -365008253.79133415 -161151224.69517517 0 0 0 0 -150156190.6074295 206963553.04883385 0 206963553.04883385 -36393893.935173035 0 0 0 0 -512486781.26270628 -118520528.08633709 0 -118520528.08633709 84621695.883789062 0 0 0 0 -413795139.80205154 257630068.37947083 0 257630068.37947083 150098389.06983376 0 0 0 0 -257131161.27326584 32559047.054012299 0 32559047.054012299 52002138.76448822 0 0 0 0 -169055453.54597473 54716189.353111267 0 54716189.353111267 46958773.111653805 0 0 0 0 -229805657.42503357 -715773.11485004425 0 -715773.11485004425 69149800.948989868 0 0 0 0 -308200152.62264061 -81552139.766923904 0 -81552139.766923904 5033627.9968528748 0 0 0 0 -43722065.186038971 -73777770.806037903 0 -73777770.806037903 -91208651.729973793 0 0 0 0 28475849.281131744 -49956346.058990479 0 -49956346.058990479 -114359820.86642456 0 0 0 0 -9816633.4095340054 -3913268.1857162272 0 -3913268.1857162272 -5984589.8052554838 0 0 0 0 -114430775.35776329 35590099.13801384 0 35590099.13801384 7265617.5112876892 0 0 0 0 -206855038.59321976 -23685913.968669891 0 -23685913.968669891 29328199.582012177 0 0 0 0 -241514124.16299629 30559860.255960464 0 30559860.255960464 9438128.2345705032 0 0 0 0 -13568727.829196734 2328472.9687008504 0 2328472.9687008504 8173725.9112686776 0 0 0 0 3323695.4395098686 -5420446.612413168 0 -5420446.612413168 -2215687.8222999573 0 0 0 0 -44327783.714393616 -93134401.023016453 0 -93134401.023016453 41479276.46805954 0 0 0 0 -3220982.4280873984 -13204997.94986682 0 -13204997.94986682 -20405641.858677458 0 0 0 0 -127493196.02355194 -804729.79189682007 0 -804729.79189682007 -114556470.80857468 0 0 0 0 -250359839.34373856 -28894420.460388184 0 -28894420.460388184 18914326.747598648 0 0 0 0 -215703949.48289871 -16258416.60184288 0 -16258416.60184288 23139841.539916992 0 0 0 0 -205278766.88361549 -396924415.96156025 0 -396924415.96156025 -172836115.41617584 0 0 0 0 1465369.4106679745 -6977415.2153512593 0 -6977415.2153512593 -16405315.231891932 0 0 0 0 -513114474.88684082 412599038.3353653 0 412599038.3353653 106186702.65298271 0 0 0 0 -13343277.260019302 19639108.302978516 0 19639108.302978516 59678042.448642731 0 0 0 0 -2228764.5620022444 9456180.6317045614 0 9456180.6317045614 -4943750.8543268293 0 0 0 0 8262396.9212334249 -1496488.7479868806 0 -1496488.7479868806 -9402241.2868442088 0 0 0 0 123255961.93710136 123040311.84579778 0 123040311.84579778 12281774.849845886 0 0 0 0 192432541.65245342 -175027132.85960174 0 -175027132.85960174 224337439.93321609 0 0 0 0 -283631936.7848053 -535485319.96186829 0 -535485319.96186829 -378712095.21690941 0 0 0 0 -779502217.35700989 -1138344565.48666 0 -1138344565.48666 -806505594.43770599 0 0 0 0 -163687.22494048625 -1117147.9907917827 0 -1117147.9907917827 -1877011.2399816103 0 0 0 0 -32204530.875691652 -149679521.78345573 0 -149679521.78345573 -900645324.18784332 0 0 0 0 -8876440.5864624977 117977236.39570105 0 117977236.39570105 -95931133.636825562 0 0 0 0 -4094844.5128961951 -1387624.9223503284 0 -1387624.9223503284 3782943.398228474 0 0 0 0 -47545183.112348557 -26993428.286907196 0 -26993428.286907196 5388121.7742996216 0 0 0 0 -1942421.2972273864 -260113.32943273615 0 -260113.32943273615 1781520.3342306148 0 0 0 0 -102165281.65244675 55021236.253986359 0 55021236.253986359 6750877.1600749493 0 0 0 0 -145850243.45073462 -101341041.71819687 0 -101341041.71819687 176612651.44929504 0 0 0 0 -360396754.10483932 -37945388.207992554 0 -37945388.207992554 -180588772.76141357 0 0 0 0 -617364834.02771378 -529803562.51074409 0 -529803562.51074409 -19954890.278106689 0 0 0 0 -875958543.20196915 -337711563.12409973 0 -337711563.12409973 146345480.98010015 0 0 0 0 413248699.74272442 -194346299.0670085 0 -194346299.0670085 -53824947.123859406 0 0 0 0 -695979596.10749054 -716304346.54257965 0 -716304346.54257965 44743870.151662827 0 0 0 0 -280270875.48833084 -688024665.49526405 0 -688024665.49526405 16451414.883796692 0 0 0 0 -986250403.50602722 -353178716.77770424 0 -353178716.77770424 293825243.34506226 0 0 0 0 -280857814.30741501 -725133186.16109467 0 -725133186.16109467 -465013540.16045761 0 0 0 0 -1902982062.9041939 -1554896534.7471733 0 -1554896534.7471733 1132788165.9690552 0 0 0 0 205049124.8867836 -1109104251.5109878 0 -1109104251.5109878 -242210305.7590332 0 0 0 0 -13723405.730320547 -1498746.9090531087 0 -1498746.9090531087 11539459.843145613 0 0 0 0 -262243884.44179535 -92635639.747784615 0 -92635639.747784615 24198503.247406006 0 0 0 0 189758638.42457581 1840133027.4898605 0 1840133027.4898605 -1769732997.4227982 0 0 0 0 -398580463.01177025 -1182877228.7958488 0 -1182877228.7958488 -456421160.34818268 0 0 0 0 7826628.6098632812 -486869557.55391693 0 -486869557.55391693 -1814150406.662735 0 0 0 0 75805657.159466267 -736668600.10433769 0 -736668600.10433769 -900786608.58639526 0 0 0 0 -341976199.06749535 -319858638.91077423 0 -319858638.91077423 -1432313109.3939133 0 0 0 0 -2555870477.6596451 16276779.99230957 0 16276779.99230957 523935348.02553558 0 0 0 0 2208532.0992066599 -1884544.6686009225 0 -1884544.6686009225 -7475596.2481275052 0 0 0 0 -1997113698.0676174 1000155028.1668034 0 1000155028.1668034 -535290190.42405701 0 0 0 0 6272554.5333207967 -959023.2943401495 0 -959023.2943401495 -6628469.1951078847 0 0 0 0 -68609057.163872719 -207170342.360466 0 -207170342.360466 -903416129.91024017 0 0 0 0 137736637.34542465 563227383.77293396 0 563227383.77293396 170090536.14091492 0 0 0 0 23711066.944802284 134889156.0956955 0 134889156.0956955 -133322845.05239868 0 0 0 0 -870856121.47061348 -753970181.03952789 0 -753970181.03952789 -484357457.6884613 0 0 0 0 550010.93116192194 6862221.7572009172 0 6862221.7572009172 -3113941.7989347875 0 0 0 0 1197166628.7766724 -713789559.03851891 0 -713789559.03851891 -1352070724.6625061 0 0 0 0 -327385741.24314213 -408394475.11384964 0 -408394475.11384964 -386653689.10437775 0 0 0 0 -225560956.09066582 -708093561.46300125 0 -708093561.46300125 -787144625.78044128 0 0 0 0 -31098250.450260162 -680892004.99471283 0 -680892004.99471283 -927969954.55700541 0 0 0 0 -111545804.69213676 -789096120.56813049 0 -789096120.56813049 -751080389.27301335 0 0 0 0 -109520508.85463333 -775510458.99279022 0 -775510458.99279022 -750720644.70819092 0 0 0 0 -118114396.05941582 -213021084.85557556 0 -213021084.85557556 -230809703.17297077 0 0 0 0 -162584552.09151459 -616105972.69444275 0 -616105972.69444275 -200413055.51954651 0 0 0 0 -100427618.07719803 -772702398.13600159 0 -772702398.13600159 -981870870.47068787 0 0 0 0 -52477914.592453003 -25322305.329917908 0 -25322305.329917908 -689445570.95890808 0 0 0 0 -93305670.647164822 -46185032.54590416 0 -46185032.54590416 186388052.18606567 0 0 0 0 -214135479.81999493 -281237165.55088043 0 -281237165.55088043 40400134.548278809 0 0 0 0 -411147356.86878681 -255758927.01394653 0 -255758927.01394653 369974191.40681458 0 0 0 0 -182988425.32734394 56664032.121009827 0 56664032.121009827 474083486.36799622 0 0 0 0 545236192.75159836 -139635396.35756493 0 -139635396.35756493 -620768355.14798737 0 0 0 0 431529958.22468567 -305319073.29112244 0 -305319073.29112244 -848458338.60956573 0 0 0 0 -299430876.41337585 -420817340.30137634 0 -420817340.30137634 -200883755.60710144 0 0 0 0 -406018308.10203171 -77103886.567573547 0 -77103886.567573547 17446694.333374023 0 0 0 0 -159355961.43585968 -269025465.70337677 0 -269025465.70337677 38566686.416870117 0 0 0 0 -228101986.37833405 -340278465.3061142 0 -340278465.3061142 523352871.16778564 0 0 0 0 -326504716.95397186 -153107347.55366516 0 -153107347.55366516 720022419.31176758 0 0 0 0 -102355398.39923096 -125068456.17829895 0 -125068456.17829895 65402762.627822876 0 0 0 0 47612497.820991516 209890850.83713531 0 209890850.83713531 408647836.02648926 0 0 0 0 -10036801.522234797 -4109576.8516905131 0 -4109576.8516905131 -4610279.8057482168 0 0 0 0 -138217880.8537941 -319636456.71253204 0 -319636456.71253204 326388004.69708824 0 0 0 0 -432766624.37956047 180323051.9383831 0 180323051.9383831 41896970.665344238 0 0 0 0 -19003965.698665619 33118033.474945068 0 33118033.474945068 22115222.097702026 0 0 0 0 -5487896.7120503318 2279014.0367737561 0 2279014.0367737561 5194413.3261405528 0 0 0 0 -181697637.62648773 -490165995.63870239 0 -490165995.63870239 755178742.57172203 0 0 0 0 -36101424.456087559 -1422178.9270118922 0 -1422178.9270118922 20126821.65676523 0 0 0 0 -45858172.879714966 -37860872.099975586 0 -37860872.099975586 3279977.8886947632 0 0 0 0 -2900477.4907245636 6210881.8178710938 0 6210881.8178710938 186213552.86014557 0 0 0 0 28586842.752220154 73859173.925033569 0 73859173.925033569 319220701.60332489 0 0 0 0 -20951335.817237329 -35459457.857426107 0 -35459457.857426107 -1314288.4873708412 0 0 0 0 82079472.944076538 -232108051.46783447 0 -232108051.46783447 310316423.49459839 0 0 0 0 -81580361.399604797 -499195746.5557251 0 -499195746.5557251 409659326.87166595 0 0 0 0 -242893274.08133602 -46279546.762397766 0 -46279546.762397766 482100539.8578186 0 0 0 0 93907915.399562836 -341059505.60417175 0 -341059505.60417175 503951165.45253754 0 0 0 0 171721047.89468002 17742440.462036133 0 17742440.462036133 921815681.87609863 0 0 0 0 -970980.01813586522 -411873.11496575736 0 -411873.11496575736 -36648.511232502759 0 0 0 0 -39790633.280696869 -26556257.50147438 0 -26556257.50147438 9558887.3183898926 0 0 0 0 -139688666.03501606 -3974825.2104511261 0 -3974825.2104511261 37590140.391452789 0 0 0 0 -26916984.996302683 -10143567.990959134 0 -10143567.990959134 22891271.418869525 0 0 0 0 52824650.564764023 264395992.699646 0 264395992.699646 514795031.86911011 0 0 0 0 -182840815.93567276 -50828776.075093269 0 -50828776.075093269 11221937.15908432 0 0 0 0 -451902873.94079971 -763229986.78727722 0 -763229986.78727722 591135199.31889343 0 0 0 0 -278870042.07430649 32328938.166412354 0 32328938.166412354 860477580.163517 0 0 0 0 -29491676.738113403 -213929953.44381332 0 -213929953.44381332 -109052209.58386993 0 0 0 0 54287453.573501587 266941649.28863907 0 266941649.28863907 243645397.68263245 0 0 0 0 400495293.62502289 -194050768.37277222 0 -194050768.37277222 -558798587.61630249 0 0 0 0 415658224.1606369 152238016.98236084 0 152238016.98236084 265433822.37388611 0 0 0 0 -4791616.0183815099 4629776.8117702454 0 4629776.8117702454 4067642.2300822213 0 0 0 0 -179002452.97695923 -366065361.61233902 0 -366065361.61233902 -249556252.03388214 0 0 0 0 -133322547.93317413 -427332364.22819901 0 -427332364.22819901 -73978576.090881348 0 0 0 0 26417004.850883484 -210348923.67525482 0 -210348923.67525482 -170771272.43119049 0 0 0 0 -332640719.59643173 182265830.86809921 0 182265830.86809921 164523149.3999176 0 0 0 0 -359225713.9877739 85891274.070835114 0 85891274.070835114 -68318120.794387817 0 0 0 0 -173911.55532749183 1545543.6030636267 0 1545543.6030636267 -4820702.9809553921 0 0 0 0 -49041809.442344666 -329730019.24229431 0 -329730019.24229431 -649381254.47755814 0 0 0 0 -1465582874.1867981 -51469173.512569427 0 -51469173.512569427 -110550744.14248657 0 0 0 0 -648633108.44225311 200980139.95883179 0 200980139.95883179 -112999054.50263977 0 0 0 0 -768232585.57130909 -477075736.79773045 0 -477075736.79773045 -254461533.6605072 0 0 0 0 -13646594.860001564 -286726510.89171457 0 -286726510.89171457 -369602299.76281738 0 0 0 0 -47319660.267364502 -252569090.00638199 0 -252569090.00638199 -285923441.84101105 0 0 0 0 203576993.00680542 -90679661.526081085 0 -90679661.526081085 -596200286.44747543 0 0 0 0 94066032.603481293 545296200.08151436 0 545296200.08151436 134618413.36710739 0 0 0 0 374493711.01843262 347741141.6548214 0 347741141.6548214 -1152454502.0375857 0 0 0 0 -899377836.86014557 -974437037.98519135 0 -974437037.98519135 -1080419384.4421158 0 0 0 0 -622580568.79343033 -294945632.35740089 0 -294945632.35740089 629671254.88709259 0 0 0 0 -150789620.07323456 -130434631.81460762 0 -130434631.81460762 636926940.70986938 0 0 0 0 -111714918.28707123 -39809961.356089592 0 -39809961.356089592 620020813.79680061 0 0 0 0 -490433749.39398193 -353400398.6323781 0 -353400398.6323781 104126162.33328247 0 0 0 0 -8467666.2507016603 8036715.1285090558 0 8036715.1285090558 7345965.9459227473 0 0 0 0 -207634837.78408051 -444367589.820858 0 -444367589.820858 -225523194.89700317 0 0 0 0 -37643370.285106659 -292628799.87527514 0 -292628799.87527514 -129415996.88414955 0 0 0 0 -222529288.93838501 -603638109.65587711 0 -603638109.65587711 -427461324.49542236 0 0 0 0 417886854.27841949 163274155.97518444 0 163274155.97518444 -290264641.88538361 0 0 0 0 -8731182.8004314527 8494529.1278013214 0 8494529.1278013214 7219652.1503876634 0 0 0 0 283329891.9464035 80705928.957410812 0 80705928.957410812 -327245450.61308861 0 0 0 0 208727928.5958252 -134987794.6645813 0 -134987794.6645813 -305479602.35269547 0 0 0 0 340717483.71496582 -161647888.70542812 0 -161647888.70542812 -1286023748.6930389 0 0 0 0 -784127858.09150696 -1268710461.7423859 0 -1268710461.7423859 -863958302.46592712 0 0 0 0 -132364003.93249512 -492393713.02349472 0 -492393713.02349472 60586205.184761047 0 0 0 0 -131139506.53608704 -529119230.7802372 0 -529119230.7802372 -137127179.04200745 0 0 0 0 67289884.430419922 -358204161.73576355 0 -358204161.73576355 -464972662.88350296 0 0 0 0 -169562008.99664307 -466314814.21796799 0 -466314814.21796799 -116830818.35279655 0 0 0 0 79137654.219665527 -250746980.49565887 0 -250746980.49565887 -165791791.48920441 0 0 0 0 266686245.5123291 72379309.758527756 0 72379309.758527756 -19134026.945775032 0 0 0 0 -88685071.68309021 167988699.88718176 0 167988699.88718176 388967090.2700634 0 0 0 0 99351191.314935684 84142342.898312092 0 84142342.898312092 334089786.53523064 0 0 0 0 -4738707.2829031944 -3469283.6771769598 0 -3469283.6771769598 3225216.6621008557 0 0 0 0 98869579.639099121 195119383.09328079 0 195119383.09328079 -101705207.46718597 0 0 0 0 -370572887.70591736 -1004269934.7862864 0 -1004269934.7862864 -654705547.45252252 0 0 0 0 10539806.274490356 -503704921.80303192 0 -503704921.80303192 -671968387.98694992 0 0 0 0 -547681517.89849854 348517951.26454163 0 348517951.26454163 339761052.44168091 0 0 0 0 -6043716.6368129924 -3224737.6157357283 0 -3224737.6157357283 4772578.3039731104 0 0 0 0 -1105776692.2369385 -903804959.48391914 0 -903804959.48391914 86984708.935547888 0 0 0 0 276530999.03007126 427730821.03991628 0 427730821.03991628 114946329.26248932 0 0 0 0 137910349.21916199 49224616.834879458 0 49224616.834879458 230988447.65013218 0 0 0 0 -647256347.48828125 564001018.76908112 0 564001018.76908112 -90525873.922278583 0 0 0 0 -1061972271.4063721 -59527865.565862656 0 -59527865.565862656 492995208.36764622 0 0 0 0 -1530043584.5292964 -334313146.2939049 0 -334313146.2939049 205176259.7083931 0 0 0 0 -1509827644.6040277 319852085.65139294 0 319852085.65139294 161595345.31332779 0 0 0 0 -305605603.28924561 503040748.66415596 0 503040748.66415596 -113161542.96673775 0 0 0 0 -464424342.69845581 68553224.335335732 0 68553224.335335732 217076901.46305084 0 0 0 0 -497651579.27633667 155591609.37790227 0 155591609.37790227 513503760.20788264 0 0 0 0 -561182896.89660645 -9072579.2738091946 0 -9072579.2738091946 837715468.35419929 0 0 0 0 124874387.71570587 422607780.10787535 0 422607780.10787535 543452267.22054005 0 0 0 0 -89016323.92124939 -102085102.27356601 0 -102085102.27356601 -79111460.967603922 0 0 0 0 -11663747.616598278 -9648759.6712064277 0 -9648759.6712064277 1963386.2536985271 0 0 0 0 117459248.02954102 103175160.38872099 0 103175160.38872099 319309559.5373888 0 0 0 0 -297206316.83839321 73767973.253318429 0 73767973.253318429 359990038.09230042 0 0 0 0 -3101328.4012164026 4416395.8985878788 0 4416395.8985878788 1138669.6001295093 0 0 0 0 74125708.249801636 9143552.2219963074 0 9143552.2219963074 -61110244.971376896 0 0 0 0 -472437824.07436752 -103737756.08424747 0 -103737756.08424747 -991476543.8615284 0 0 0 0 578635715.516922 -390810188.91384125 0 -390810188.91384125 419066529.71309781 0 0 0 0 -4267737.2597446106 3953970.33179681 0 3953970.33179681 3952576.9318737313 0 0 0 0 1236721190.7612276 -26890706.816868782 0 -26890706.816868782 -476442182.60109711 0 0 0 0 693142334.4365387 -256300433.20777178 0 -256300433.20777178 -739871933.21975327 0 0 0 0 -515539655.1677146 -668232380.24454689 0 -668232380.24454689 -43071208.552195549 0 0 0 0 -705359832.85137177 -639884253.25864506 0 -639884253.25864506 -29821492.399551868 0 0 0 0 -866576569.79064941 -369092192.28246689 0 -369092192.28246689 -315201464.69345951 0 0 0 0 -533138503.55328369 -89295783.789051056 0 -89295783.789051056 212933299.75259879 0 0 0 0 -701833684.51782227 -265820929.05014998 0 -265820929.05014998 444471211.95948535 0 0 0 0 81391241.872680664 47605436.153684616 0 47605436.153684616 528349673.72002411 0 0 0 0 226383405.30342102 -410601204.97541523 0 -410601204.97541523 -141593339.51196146 0 0 0 0 611535745.15567017 -8985572.9267420769 0 -8985572.9267420769 172928221.3114028 0 0 0 0 113850388.64584351 -178008701.76433945 0 -178008701.76433945 751757078.24637985 0 0 0 0 1510953.0421180725 -7686038.3039207458 0 -7686038.3039207458 -4625081.6190414429 0 0 0 0 -59083565.777824402 -69660125.439348221 0 -69660125.439348221 -37566084.29889369 0 0 0 0 -12543943.519210521 2416405.5932514202 0 2416405.5932514202 5378575.3325272426 0 0 0 0 -4952750.4402926955 -11667777.777092855 0 -11667777.777092855 -12224571.539532868 0 0 0 0 -1464784.270041585 -1749081.9396281242 0 -1749081.9396281242 -804267.9356842041 0 0 0 0 -17546647.371864833 -9638879.0287419297 0 -9638879.0287419297 -3109894.8765120823 0 0 0 0 -1588304.2880030582 -1653154.9014528503 0 -1653154.9014528503 -3867700.7974497396 0 0 0 0 -1497113.8373718262 -9465585.9700183868 0 -9465585.9700183868 -4203972.9114189148 0 0 0 0 -4061923.7616729736 -11416644.842603683 0 -11416644.842603683 -3083635.1061897278 0 0 0 0 -1406291.5894451141 -8845235.3099352121 0 -8845235.3099352121 -946382.98845672607 0 0 0 0 -10903333.206864357 -17758626.897895437 0 -17758626.897895437 -12043098.091555754 0 0 0 0 -27572343.769165333 -19142188.827094369 0 -19142188.827094369 -19832302.519661114 0 0 0 0 -35652696.958238602 3837687.790397644 0 3837687.790397644 -5036141.1966381073 0 0 0 0 -29179792.307195701 -17653456.710959651 0 -17653456.710959651 -7676606.7998179235 0 0 0 0 -3157911.0753450394 -7736391.5239505768 0 -7736391.5239505768 2347406.5991859436 0 0 0 0 -21756493.434635479 -6263850.9203348886 0 -6263850.9203348886 -847688.47117929347 0 0 0 0 236137496.46876526 -292765326.46332359 0 -292765326.46332359 787059420.01275969 0 0 0 0 -12949678.059072187 -12853223.212310428 0 -12853223.212310428 -6688900.8972384213 0 0 0 0 216228190.0010376 -94922676.458667755 0 -94922676.458667755 636956850.77102852 0 0 0 0 -40858859.841005176 -51336858.798290014 0 -51336858.798290014 25482464.664978027 0 0 0 0 -66858387.345418453 -39450347.59107399 0 -39450347.59107399 33904591.478218079 0 0 0 0 -21669380.968921594 1050132.8170589549 0 1050132.8170589549 7341162.517388233 0 0 0 0 -95474434.764549255 -16039344.48794651 0 -16039344.48794651 33877499.22543335 0 0 0 0 -3554482.7320767054 -1889944.651114231 0 -1889944.651114231 786709.96271509305 0 0 0 0 -58650189.798944473 5591569.3693828583 0 5591569.3693828583 34964589.218086243 0 0 0 0 -8482634.3386287689 -10071085.259041786 0 -10071085.259041786 3727018.4907493591 0 0 0 0 -48434259.069969177 -6780344.6521835327 0 -6780344.6521835327 47142517.891340256 0 0 0 0 -24122651.36164093 -26323464.761505127 0 -26323464.761505127 35195605.574378967 0 0 0 0 -11737157.199949536 -11157459.101499457 0 -11157459.101499457 -23391.850769044831 0 0 0 0 -27622814.378047943 -5174054.3348636627 0 -5174054.3348636627 -7450433.7142353058 0 0 0 0 -137098152.95910645 -6735557.8013539314 0 -6735557.8013539314 -32383569.552145958 0 0 0 0 -148912988.73439407 -64144850.962931246 0 -64144850.962931246 24001357.982993126 0 0 0 0 -44772854.977916718 -42877333.241051912 0 -42877333.241051912 -42649263.46701622 0 0 0 0 -376750834.88818359 231355971.54119587 0 231355971.54119587 902426433.92986798 0 0 0 0 9617197.6782226562 -49573645.612934113 0 -49573645.612934113 -18853432.684844971 0 0 0 0 -20082452.726367161 -18542855.301880404 0 -18542855.301880404 1423511.1744600236 0 0 0 0 -6464313.8648071289 -26701007.08429718 0 -26701007.08429718 -10558526.813259125 0 0 0 0 -21344921.383827209 -6169048.6956486702 0 -6169048.6956486702 -35111217.588705063 0 0 0 0 12736841.357879639 -35531534.779047012 0 -35531534.779047012 -45486031.674670696 0 0 0 0 3185342.593164444 9615014.6799583435 0 9615014.6799583435 12348763.340320587 0 0 0 0 -52979443.421157837 -19725411.164997101 0 -19725411.164997101 7652125.6801795959 0 0 0 0 -29936877.64677427 -23456032.863427401 0 -23456032.863427401 -24545706.203622252 0 0 0 0 -64035225.396774292 -61686963.466926575 0 -61686963.466926575 11011825.3804245 0 0 0 0 -78052045.071716309 -63025118.966674805 0 -63025118.966674805 -59724487.241794586 0 0 0 0 -5141150.9654720426 -954704.35083361715 0 -954704.35083361715 1736924.6846861504 0 0 0 0 -176469484.34846497 -18875352.02435112 0 -18875352.02435112 6679017.1957130432 0 0 0 0 -38642756.273612976 -11078159.739931107 0 -11078159.739931107 5276538.2937469482 0 0 0 0 -30800257.341370963 -2527520.2116128206 0 -2527520.2116128206 711112.33434769511 0 0 0 0 -53257898.14214325 -25173762.566672325 0 -25173762.566672325 -5085929.8848724365 0 0 0 0 -105873789.23575592 -43253888.937328219 0 -43253888.937328219 -42663529.420623779 0 0 0 0 -11239205.007660821 1391294.1222292483 0 1391294.1222292483 3749585.2921093069 0 0 0 0 16596473.495521545 -46262023.526815891 0 -46262023.526815891 828852.1802520752 0 0 0 0 -241459062.45605469 -37831619.168684125 0 -37831619.168684125 77656104.676675856 0 0 0 0 -52003853.671401978 -98056828.32036972 0 -98056828.32036972 68317807.072820187 0 0 0 0 -117802015.63763237 -43601842.586354494 0 -43601842.586354494 38574766.538825989 0 0 0 0 -67902235.551971436 74368869.724719524 0 74368869.724719524 29775444.174175918 0 0 0 0 -34628656.507184893 2388881.6489428431 0 2388881.6489428431 9075619.5205969252 0 0 0 0 -98204054.469400406 -182516815.9983874 0 -182516815.9983874 -61673421.370018959 0 0 0 0 -29916465.303640753 1388943.1879067309 0 1388943.1879067309 13217743.496312393 0 0 0 0 -96421872.530138016 43127246.630081952 0 43127246.630081952 35398915.807714462 0 0 0 0 -23481762.40284729 1600352.2208623886 0 1600352.2208623886 2585377.3690656424 0 0 0 0 -243943828.99308014 96605970.30487299 0 96605970.30487299 -30898633.004108429 0 0 0 0 -12221671.786197662 22580292.903316647 0 22580292.903316647 -1773599.4881212711 0 0 0 0 9184388.8161849976 -31982984.923076868 0 -31982984.923076868 -8056584.4503240585 0 0 0 0 26161790.031921387 -3670572.463136673 0 -3670572.463136673 107942428.39161158 0 0 0 0 -12442159.3595047 -49478878.849630356 0 -49478878.849630356 95044044.489089966 0 0 0 0 47557148.950592041 2990182.708136797 0 2990182.708136797 -175158190.08927536 0 0 0 0 -96339624.525894165 477526036.46285725 0 477526036.46285725 335233593.508564 0 0 0 0 -125516661.5460968 -289492412.28658104 0 -289492412.28658104 134805289.91191578 0 0 0 0 3056903.4661865234 368180759.38948917 0 368180759.38948917 178593698.22315788 0 0 0 0 256527054.72546387 -11540047.785261154 0 -11540047.785261154 144168226.62558937 0 0 0 0 -94593487.802703857 383838575.09631729 0 383838575.09631729 507199810.97919178 0 0 0 0 -9823954.0797712505 -5492883.6767151803 0 -5492883.6767151803 5566855.7825908558 0 0 0 0 101245097.17921829 93877498.437376976 0 93877498.437376976 354788839.78713226 0 0 0 0 63734115.86529541 151621227.31560135 0 151621227.31560135 468660276.22895098 0 0 0 0 -4646598.4015499279 -4012273.1800685208 0 -4012273.1800685208 1702252.4893649465 0 0 0 0 -112195328.07397461 -217349602.78808498 0 -217349602.78808498 -317963606.57480633 0 0 0 0 119681322.18351746 157954986.00827169 0 157954986.00827169 146935854.54534161 0 0 0 0 127780607.54620361 117609532.7487998 0 117609532.7487998 339319844.17312908 0 0 0 0 -72606632.246841431 -151326064.51394081 0 -151326064.51394081 32957271.087074339 0 0 0 0 64966766.43838501 -48249700.759312212 0 -48249700.759312212 -223922883.49541783 0 0 0 0 -322466348.62433243 -151629501.7842291 0 -151629501.7842291 -49178982.762949705 0 0 0 0 445094774.25952244 -938964534.23089218 0 -938964534.23089218 161779670.51889038 0 0 0 0 -301693387.93212128 104058002.48564243 0 104058002.48564243 99836483.145927548 0 0 0 0 43969175.565864563 177759797.98590374 0 177759797.98590374 23505835.695579529 0 0 0 0 -18657641.608147468 5966021.2995885713 0 5966021.2995885713 -2936716.5890272008 0 0 0 0 42284308.054904938 4846305.2545001507 0 4846305.2545001507 75641884.800927639 0 0 0 0 -156258163.55381012 174785258.11550879 0 174785258.11550879 -34859255.798914909 0 0 0 0 -416173155.85418844 224999593.63695472 0 224999593.63695472 -26532536.829755783 0 0 0 0 250888959.24854279 425455378.70906544 0 425455378.70906544 -13818506.260734558 0 0 0 0 101340810.45436478 -27860992.996341467 0 -27860992.996341467 -203581589.98733735 0 0 0 0 123748770.11609077 38843029.947014689 0 38843029.947014689 -847619967.53737736 0 0 0 0 410679918.56637859 76530665.614705563 0 76530665.614705563 -318550922.80717564 0 0 0 0 -253850659.46579981 -260021276.3600792 0 -260021276.3600792 -183309115.22296429 0 0 0 0 -1199955226.2326221 1178493854.0358162 0 1178493854.0358162 -854360272.02787876 0 0 0 0 -77067009.125975981 22287964.193971261 0 22287964.193971261 20141208.489264071 0 0 0 0 -100494769.3987813 -192189320.70851836 0 -192189320.70851836 -76926003.81043148 0 0 0 0 -266903454.34933472 -69760116.210031509 0 -69760116.210031509 -163056796.1925469 0 0 0 0 -6233400.1243219227 1590700.9917048938 0 1590700.9917048938 -342848.08422096353 0 0 0 0 -738501629.94435883 1176562570.8507872 0 1176562570.8507872 -846716653.45047474 0 0 0 0 -71176546.763629019 17935580.676800635 0 17935580.676800635 20739674.463382952 0 0 0 0 -2856986972.4601898 1977787975.0781765 0 1977787975.0781765 -1406187885.1427155 0 0 0 0 1437469357.4430847 -1677251826.3647175 0 -1677251826.3647175 529984491.83014965 0 0 0 0 -218132844.24639893 -297769836.69189978 0 -297769836.69189978 -197170157.88484669 0 0 0 0 -230638762.79943848 -62118865.087341309 0 -62118865.087341309 -171126282.28653586 0 0 0 0 -121849463.58763123 57171380.17110014 0 57171380.17110014 -25410771.775556564 0 0 0 0 -38625615.037384033 -12955323.810734749 0 -12955323.810734749 90321804.752737045 0 0 0 0 -38346076.676467896 -17505660.025801659 0 -17505660.025801659 131380788.28042603 0 0 0 0 -25885890.250258833 -991156.08857892081 0 -991156.08857892081 16371113.234966146 0 0 0 0 -194763112.04240417 -10858834.891492367 0 -10858834.891492367 -46308836.41896534 0 0 0 0 -172561627.093853 -114891564.60236949 0 -114891564.60236949 -164382355.28137302 0 0 0 0 -282172771.78877258 -139693721.02883482 0 -139693721.02883482 -65772913.072765648 0 0 0 0 -306276399.81213379 -257094764.24731827 0 -257094764.24731827 -58384476.832756758 0 0 0 0 -260215425.31235123 -192199288.02621126 0 -192199288.02621126 -58636534.853565216 0 0 0 0 -96068472.763092041 -139210536.28475189 0 -139210536.28475189 -43120824.457719803 0 0 0 0 -358567363.28558731 498004402.09323883 0 498004402.09323883 -234587699.92128086 0 0 0 0 -80186983.98721987 24856095.872537516 0 24856095.872537516 19303689.53630653 0 0 0 0 127905383.64238739 393386878.455163 0 393386878.455163 -77703951.964321136 0 0 0 0 -15710645.638703182 -7958316.9726484641 0 -7958316.9726484641 17416272.715476938 0 0 0 0 -303253259.31071472 -212261512.04358125 0 -212261512.04358125 168348628.67483521 0 0 0 0 152451043.65386963 -417817040.80786133 0 -417817040.80786133 -362290628.06913757 0 0 0 0 -21574365.613909557 -4149032.0378768072 0 -4149032.0378768072 18228699.113604665 0 0 0 0 -90140743.574081421 183796872.37405968 0 183796872.37405968 355955632.74018097 0 0 0 0 -340578258.43281555 -77385036.767263412 0 -77385036.767263412 237134041.74502468 0 0 0 0 85106572.98651123 75884072.948976517 0 75884072.948976517 -458717657.76294327 0 0 0 0 -4417497.4993125349 -3208454.9355603307 0 -3208454.9355603307 2803774.7268986898 0 0 0 0 -115386631.13276672 -200633003.83813286 0 -200633003.83813286 -74143223.061971664 0 0 0 0 -51489015.872375488 -2967665.6089401245 0 -2967665.6089401245 83450667.236942291 0 0 0 0 -45895118.693841934 -33046726.969794989 0 -33046726.969794989 119716548.56619835 0 0 0 0 -44904210.875291824 -27969833.617792606 0 -27969833.617792606 168614243.03554726 0 0 0 0 -9402384.6690319777 -5321528.3617991544 0 -5321528.3617991544 5151401.6938672578 0 0 0 0 167688064.95300293 -148566611.06371307 0 -148566611.06371307 -483161806.65913391 0 0 0 0 180564811.00440979 -91014951.600130081 0 -91014951.600130081 -325364500.62715149 0 0 0 0 81631784.958404541 -107993955.50522995 0 -107993955.50522995 -322663485.45622253 0 0 0 0 94379756.625938416 -245060816.86878967 0 -245060816.86878967 -867875.15182495117 0 0 0 0 217471287.3727951 19645544.49842453 0 19645544.49842453 -160133799.45445251 0 0 0 0 -4971267.6974367872 26556.089993603528 0 26556.089993603528 1829524.4911596663 0 0 0 0 361622558.98213196 -154950383.9453125 0 -154950383.9453125 -12945202.308670044 0 0 0 0 -51960981.884368896 24509149.892707825 0 24509149.892707825 20847847.164281845 0 0 0 0 -3260473.7540740967 40116121.806091309 0 40116121.806091309 24964903.487060547 0 0 0 0 -34268375.203063965 -40215755.844528198 0 -40215755.844528198 117743663.67185974 0 0 0 0 -40823629.331375122 -751077.33323478699 0 -751077.33323478699 -65653526.777877808 0 0 0 0 -98909843.846984863 39425632.447250366 0 39425632.447250366 7113306.7879333496 0 0 0 0 -93077211.445251465 11273332.619422913 0 11273332.619422913 41727062.553573608 0 0 0 0 -96717994.20463562 32298896.869264603 0 32298896.869264603 -33665288.978691101 0 0 0 0 174074247.38156319 -38251538.653327227 0 -38251538.653327227 -312328645.64926147 0 0 0 0 47216747.79473877 -60613792.468849182 0 -60613792.468849182 -32825589.926990509 0 0 0 0 -25811769.013900757 74161989.723287582 0 74161989.723287582 -281403427.00470734 0 0 0 0 -261328120.26126099 213127016.79688263 0 213127016.79688263 -223033115.24673462 0 0 0 0 -104494194.05099487 51976248.226211548 0 51976248.226211548 -27006471.340087891 0 0 0 0 -176482160.62576294 -123441484.52026176 0 -123441484.52026176 102755849.88592529 0 0 0 0 270682489.12129211 -162116549.00113106 0 -162116549.00113106 -234566918.76656342 0 0 0 0 -309544620.38071442 -19977002.662461281 0 -19977002.662461281 69784979.832504272 0 0 0 0 -55665996.731903076 882709763.24005222 0 882709763.24005222 443388281.54525757 0 0 0 0 -10085382.677734375 -239963697.42515945 0 -239963697.42515945 -86510413.943935394 0 0 0 0 -625868739.03251648 -954097997.96014404 0 -954097997.96014404 -1076775268.152235 0 0 0 0 683892699.60931396 435077561.44990349 0 435077561.44990349 -1419402165.5050011 0 0 0 0 -934395010.86966705 178053377.50854492 0 178053377.50854492 1020732243.3258514 0 0 0 0 -11572191.948598765 -4744530.9421460629 0 -4744530.9421460629 7975583.3305854872 0 0 0 0 -252653318.63920593 119659196.64974022 0 119659196.64974022 319654391.02929306 0 0 0 0 -1816714262.3026047 -556691153.31480312 0 -556691153.31480312 921654154.50505447 0 0 0 0 -10321641.249543041 -3624235.2412944064 0 -3624235.2412944064 6579710.9203617834 0 0 0 0 320709542.7122345 -134505914.24682999 0 -134505914.24682999 -35944554.164403915 0 0 0 0 -115059127.93034363 32078649.462313652 0 32078649.462313652 490161012.92077827 0 0 0 0 -296895718.88366699 156024681.80667114 0 156024681.80667114 362298401.87972069 0 0 0 0 -11155149.938982978 -5514176.8330027536 0 -5514176.8330027536 5740270.6713827457 0 0 0 0 -4774663.3135223389 -55559814.968195915 0 -55559814.968195915 126335923.93002129 0 0 0 0 235229294.82010651 -264951913.01325512 0 -264951913.01325512 -132875443.4017868 0 0 0 0 -313427804.58206177 376264619.44376373 0 376264619.44376373 92898863.167474747 0 0 0 0 189931876.92152405 239188289.19988632 0 239188289.19988632 -492996396.83665848 0 0 0 0 -4558329.3378327638 -1923959.7499156855 0 -1923959.7499156855 3161206.5249777324 0 0 0 0 356354245.47039032 15286532.880666733 0 15286532.880666733 -504313401.93182373 0 0 0 0 -103756881.42024231 -75505479.813392639 0 -75505479.813392639 -433212358.36487579 0 0 0 0 -299911355.38102722 -100682264.92613983 0 -100682264.92613983 -186059745.13735199 0 0 0 0 -105813641.269104 286865812.96556473 0 286865812.96556473 -351750751.60560608 0 0 0 0 15403069.467254639 88749824.256385803 0 88749824.256385803 -245199161.79999542 0 0 0 0 92874387.23059082 -196798459.99069214 0 -196798459.99069214 113503217.43828392 0 0 0 0 -39885444.530578613 -56680464.29209137 0 -56680464.29209137 119412144.14569092 0 0 0 0 -92050677.888877869 80710051.935302734 0 80710051.935302734 5043755.3632354736 0 0 0 0 70015110.313415527 -54759635.534675598 0 -54759635.534675598 -36986765.050613403 0 0 0 0 36287238.522087097 -68247990.091658592 0 -68247990.091658592 -2191819.9399719238 0 0 0 0 222828991.0617981 -116345897.6708374 0 -116345897.6708374 -65447681.353500366 0 0 0 0 192034951.96664429 -165450196.11475372 0 -165450196.11475372 -7836327.9951133728 0 0 0 0 3369756.1925201416 69748130.189626694 0 69748130.189626694 -136330845.38830566 0 0 0 0 -22350431.525558472 -13912398.485313416 0 -13912398.485313416 -386868844.40177917 0 0 0 0 -213599061.282547 -763921.21043014526 0 -763921.21043014526 -115068481.41633606 0 0 0 0 56898068.798271179 3626509.9980020523 0 3626509.9980020523 -191641018.80599976 0 0 0 0 -72687060.569915771 -117503317.01132202 0 -117503317.01132202 -45905051.747924805 0 0 0 0 -89106050.841278076 -60885693.661048889 0 -60885693.661048889 -165250550.75126266 0 0 0 0 -630077021.95449829 -68930213.33246994 0 -68930213.33246994 -88350054.985881805 0 0 0 0 -264705152.40436554 -159074450.27241993 0 -159074450.27241993 -364424266.30423737 0 0 0 0 -121210716.3621521 -69700894.192111969 0 -69700894.192111969 -346329755.63274002 0 0 0 0 -525879948.51448822 -492531036.0178566 0 -492531036.0178566 -541616774.23545837 0 0 0 0 -100256294.00234222 -21713128.355064392 0 -21713128.355064392 -545049708.97892761 0 0 0 0 -1955072.5482877456 4318940.4570180476 0 4318940.4570180476 -6040529.8034506924 0 0 0 0 230293735.75748444 176381825.64998627 0 176381825.64998627 -337450382.4291153 0 0 0 0 -2071276334.3808746 -520559762.82221794 0 -520559762.82221794 -107926622.99274445 0 0 0 0 -936326199.02897263 -10029464.043948174 0 -10029464.043948174 -189536324.68637085 0 0 0 0 -636346039.76984787 -95546028.040994644 0 -95546028.040994644 -200023301.10333252 0 0 0 0 -796230500.74508667 -139613640.36418915 0 -139613640.36418915 -50311474.236465454 0 0 0 0 -1017265748.326889 82305639.23396492 0 82305639.23396492 31695006.191352844 0 0 0 0 -8401442.969199948 4203112.1458359696 0 4203112.1458359696 -16469624.983387485 0 0 0 0 -588500291.25169373 65409446.441533089 0 65409446.441533089 -74056430.341667175 0 0 0 0 -749742099.6943512 -66692205.488002777 0 -66692205.488002777 113462122.23411942 0 0 0 0 -336667358.95056152 -201631023.83539581 0 -201631023.83539581 76166750.705393791 0 0 0 0 -310626131.21252441 -26509251.903495789 0 -26509251.903495789 41303530.971726418 0 0 0 0 -604900035.11920929 29924932.53701973 0 29924932.53701973 -32449772.09980011 0 0 0 0 -506076410.13000107 -127036827.27306747 0 -127036827.27306747 14197138.676048279 0 0 0 0 -322229203.51911926 -112934349.64849472 0 -112934349.64849472 -118362822.04624939 0 0 0 0 -323719649.33346748 -113181665.31434345 0 -113181665.31434345 13803540.54119873 0 0 0 0 -74799399.905303955 -64171868.383682251 0 -64171868.383682251 -18485719.170135498 0 0 0 0 3104598.1351242065 -229841865.34679413 0 -229841865.34679413 119345970.34417725 0 0 0 0 17423896.223937988 -130407604.06263733 0 -130407604.06263733 124472439.22131348 0 0 0 0 59285026.768554688 -19227822.032814026 0 -19227822.032814026 27217096.411346436 0 0 0 0 373088997.57876587 -141655438.29439545 0 -141655438.29439545 6666607.5424880981 0 0 0 0 -4786357.7582965661 -1959163.722156778 0 -1959163.722156778 -336850.30520899594 0 0 0 0 -2956666.177520752 -9126815.2551555634 0 -9126815.2551555634 1410753.3770523071 0 0 0 0 -21736618.376118205 -18174717.620601609 0 -18174717.620601609 -8547508.2524998225 0 0 0 0 87083769.019515991 -198324263.22356415 0 -198324263.22356415 24538881.027198792 0 0 0 0 1590304.1815795898 -219001.31017780304 0 -219001.31017780304 -750532.50132751465 0 0 0 0 -20556480.068093285 -10782080.439422734 0 -10782080.439422734 -86921.968901250511 0 0 0 0 73134704.861022949 -93609312.291175842 0 -93609312.291175842 41825900.079162598 0 0 0 0 -245826018.4422493 -192614000.56266975 0 -192614000.56266975 55767120.500427246 0 0 0 0 -260955249.24015808 -102383678.51615524 0 -102383678.51615524 204463826.48745728 0 0 0 0 -254541800.00170898 -66981237.000326157 0 -66981237.000326157 21515163.948680878 0 0 0 0 -44586552.87298286 -24469969.165738665 0 -24469969.165738665 -12233738.924068112 0 0 0 0 -21978169.232768029 -7118070.1093730778 0 -7118070.1093730778 6953447.9252247885 0 0 0 0 -37614698.003265381 -15725704.646425247 0 -15725704.646425247 8596349.9184169769 0 0 0 0 -12394454.454315875 -11199410.60647054 0 -11199410.60647054 -391097.54994739406 0 0 0 0 -51487823.663253784 -27259737.302453995 0 -27259737.302453995 10065450.699424744 0 0 0 0 -15695010.103481382 -12769204.575331502 0 -12769204.575331502 -8847737.184761636 0 0 0 0 -51093608.277893066 -7683277.043261528 0 -7683277.043261528 -2571133.6792764664 0 0 0 0 -24515085.906639099 -42828842.917624474 0 -42828842.917624474 9802304.6630001068 0 0 0 0 -53437999.171569824 -29023512.409701347 0 -29023512.409701347 31088646.681080818 0 0 0 0 -330740702.86459351 12005159.399421692 0 12005159.399421692 75384573.711879253 0 0 0 0 -351528626.81253052 -246050135.20657921 0 -246050135.20657921 15109531.629722595 0 0 0 0 -54796680.053086847 -28186166.883622933 0 -28186166.883622933 -11804381.029167045 0 0 0 0 -542284149.44969177 45701484.453532219 0 45701484.453532219 108742985.03245544 0 0 0 0 -542740395.67817688 -168596873.44057846 0 -168596873.44057846 76920993.404262543 0 0 0 0 -6961928.421020098 -16880291.977339275 0 -16880291.977339275 -21708979.050497092 0 0 0 0 -5190028.5134020299 -8272455.423884064 0 -8272455.423884064 -12474244.648996077 0 0 0 0 129187090.91648865 -129509766.54504013 0 -129509766.54504013 29563670.924762726 0 0 0 0 -93430946.857574463 -43601459.281246185 0 -43601459.281246185 23049338.7420578 0 0 0 0 -85800708.189239502 -15841050.913811684 0 -15841050.913811684 34725364.902862549 0 0 0 0 -6478774.4331665039 -70543059.501319885 0 -70543059.501319885 23878092.334189057 0 0 0 0 -46823393.792022705 -22571360.024520874 0 -22571360.024520874 4616892.5185470581 0 0 0 0 -20240257.87026491 431571.94752342254 0 431571.94752342254 7983556.6820843108 0 0 0 0 -74105995.54060173 -14415604.571760654 0 -14415604.571760654 23270168.791671753 0 0 0 0 -77839116.139831543 -36913449.25378418 0 -36913449.25378418 -14327063.959316254 0 0 0 0 -904167.34441033006 2881565.0657466613 0 2881565.0657466613 1870506.8157802895 0 0 0 0 -74873094.433837891 -21479390.735069275 0 -21479390.735069275 24657940.152389526 0 0 0 0 -75345499.69909668 -25537029.710083008 0 -25537029.710083008 32615153.664123535 0 0 0 0 -80102925.812194824 -21062664.458267212 0 -21062664.458267212 37215700.278335571 0 0 0 0 -82291947.379699707 -7221928.639465332 0 -7221928.639465332 46159483.501739502 0 0 0 0 -55800333.148468018 11938806.561267853 0 11938806.561267853 23267300.669273376 0 0 0 0 -82295836.442497477 -4145587.6273851544 0 -4145587.6273851544 13991303.880310059 0 0 0 0 -5561065.0275878906 271047.48731422424 0 271047.48731422424 737433.74699401855 0 0 0 0 -9894599.5356140137 -13693857.567611694 0 -13693857.567611694 -5791844.8338775635 0 0 0 0 -15991229.22895734 -13426386.23439781 0 -13426386.23439781 -6036614.5922683328 0 0 0 0 -15380237.73437503 5078993.3822350278 0 5078993.3822350278 4881454.856860362 0 0 0 0 -7837319.4507446289 -6441305.2622528076 0 -6441305.2622528076 -1667953.347530365 0 0 0 0 -11553795.393005371 -381973.12478637695 0 -381973.12478637695 3556452.6121101379 0 0 0 0 -12653786.504516602 -9485194.4541778564 0 -9485194.4541778564 -55501.394859313965 0 0 0 0 -16378323.369407445 -6470317.5710314438 0 -6470317.5710314438 1836148.682422312 0 0 0 0 -6371719.5033874512 -4068262.2159843445 0 -4068262.2159843445 -4484265.4391403198 0 0 0 0 -993337.36507330835 -721167.77764798701 0 -721167.77764798701 -127421.11875898764 0 0 0 0 -44803283.507038116 -9345511.9886021614 0 -9345511.9886021614 -6882009.5235176086 0 0 0 0 -26066780.589874268 -12558438.574264526 0 -12558438.574264526 -10947779.168168545 0 0 0 0 -15939471.696807861 -6047571.890001297 0 -6047571.890001297 -9109671.9092922211 0 0 0 0 -12498957.378601074 -31497570.000303268 0 -31497570.000303268 19043488.506681442 0 0 0 0 -25499629.55947876 -8302493.6375045776 0 -8302493.6375045776 -12769339.551376343 0 0 0 0 -7442958.3162650093 -9589442.5148125887 0 -9589442.5148125887 -4312024.9351542834 0 0 0 0 -30257716.267318726 -19473099.926319122 0 -19473099.926319122 -14294484.069423676 0 0 0 0 -20507601.251719356 -1560918.8234174475 0 -1560918.8234174475 13821700.258449851 0 0 0 0 -55550075.311233521 -8346996.6446771622 0 -8346996.6446771622 -14239873.901546478 0 0 0 0 -52059715.107391357 -21034109.109401703 0 -21034109.109401703 5781260.8997097015 0 0 0 0 -17644179.004516602 -26286986.329269409 0 -26286986.329269409 -16254468.354904175 0 0 0 0 -50069888.897514343 -34408660.715754032 0 -34408660.715754032 31886420.696640015 0 0 0 0 -120253752.79098511 -77500468.929073334 0 -77500468.929073334 16813569.006263733 0 0 0 0 -2431237.0143931881 -5656499.3489043713 0 -5656499.3489043713 -2707809.9764142744 0 0 0 0 -3281646.1698177308 -3164951.3156594113 0 -3164951.3156594113 -3128069.331585981 0 0 0 0 -23764097.973419189 -2221793.7313327789 0 -2221793.7313327789 27451850.579418182 0 0 0 0 -14490186.665527344 -7735381.146484375 0 -7735381.146484375 9061638.8849182129 0 0 0 0 -66940064.44593811 24496086.944257736 0 24496086.944257736 7339433.9653015137 0 0 0 0 -213243010.14320374 -76136559.19752121 0 -76136559.19752121 -31612640.591461182 0 0 0 0 -1836621.9012223929 -1366234.1007851362 0 -1366234.1007851362 1046757.2203771397 0 0 0 0 189799734.3079834 84405737.001022816 0 84405737.001022816 -8917867.2453746796 0 0 0 0 -170817630.63983154 -60449744.183950424 0 -60449744.183950424 521955745.64581293 0 0 0 0 -137429705.42425537 -143791373.57118225 0 -143791373.57118225 518441008.16247189 0 0 0 0 -6954541.3004455566 -18782356.91258812 0 -18782356.91258812 -46248533.554993629 0 0 0 0 -144796.03332795203 -2119877.060817264 0 -2119877.060817264 -1213539.9408813547 0 0 0 0 36527324.472412109 -87958735.352178574 0 -87958735.352178574 59167061.799667358 0 0 0 0 9346739.1860198975 -233185295.06790352 0 -233185295.06790352 142141826.29829788 0 0 0 0 20592098.202331543 180911186.6500082 0 180911186.6500082 408790247.62099075 0 0 0 0 -22399940.020141602 -34886242.237228394 0 -34886242.237228394 27176159.384950638 0 0 0 0 -15344180.500602722 69578976.500164032 0 69578976.500164032 132238387.4692955 0 0 0 0 -133502393.4921875 -60975141.486755371 0 -60975141.486755371 362226540.93732452 0 0 0 0 -100792186.52371216 -152808047.65862846 0 -152808047.65862846 376012681.62572002 0 0 0 0 -161851910.86588669 -83047657.102293253 0 -83047657.102293253 345045202.61573792 0 0 0 0 -174277077.14324951 -7155031.0416584015 0 -7155031.0416584015 552347379.29422855 0 0 0 0 -259112152.26971436 -140093743.65757751 0 -140093743.65757751 383996439.76986599 0 0 0 0 -293297833.9604187 -207052856.70348167 0 -207052856.70348167 342707390.27411127 0 0 0 0 -232965871.51245117 -125758925.39501047 0 -125758925.39501047 197118964.47637177 0 0 0 0 12762178.236480713 -252471399.1718502 0 -252471399.1718502 309752472.50501251 0 0 0 0 -129832433.38079643 -101505616.41314542 0 -101505616.41314542 165426079.65619659 0 0 0 0 -25292622.566925049 -4738020.1177768707 0 -4738020.1177768707 50771765.295688629 0 0 0 0 -12809502.624481201 -85736569.601064682 0 -85736569.601064682 151542772.59570122 0 0 0 0 -9611271.1529455185 -24896057.477573901 0 -24896057.477573901 29519193.828620911 0 0 0 0 -5879180.6784889027 -5430686.0177248269 0 -5430686.0177248269 356390.41167170927 0 0 0 0 -58442116.939727783 -41810974.308532715 0 -41810974.308532715 35092811.197568893 0 0 0 0 343686605.96136475 -304675759.67055988 0 -304675759.67055988 123261167.37600136 0 0 0 0 -1579125.5694438219 -2033318.3640893921 0 -2033318.3640893921 103106.86580491439 0 0 0 0 36130133.866952896 -120560486.99822164 0 -120560486.99822164 36425353.433551788 0 0 0 0 124614382.3116188 -79422872.312075853 0 -79422872.312075853 -228183101.84671402 0 0 0 0 79537113.668048859 -271245218.56657511 0 -271245218.56657511 225352651.6653595 0 0 0 0 -1120799.1970752478 1136179.0474679968 0 1136179.0474679968 159706.40615027372 0 0 0 0 -657097411.35235596 373378680.07618999 0 373378680.07618999 696911406.1799444 0 0 0 0 -18757490.143249512 -300774525.87891674 0 -300774525.87891674 -490283898.51357633 0 0 0 0 -306486064.91912079 61654814.749897599 0 61654814.749897599 -6670701.3772549629 0 0 0 0 -776506129.60018921 -34038788.206711769 0 -34038788.206711769 217591828.12809753 0 0 0 0 -83558662.686157227 -374435699.1249361 0 -374435699.1249361 367668695.17327499 0 0 0 0 -235037628.4855957 -109482973.16334438 0 -109482973.16334438 277837346.10059929 0 0 0 0 -465931936.6602478 -432139829.00074482 0 -432139829.00074482 -126999129.21808147 0 0 0 0 -420524542.75469971 -142739569.1850071 0 -142739569.1850071 200037738.6426692 0 0 0 0 -188161472.19683838 113533262.87035179 0 113533262.87035179 -42056312.708860397 0 0 0 0 -128514177.59313965 -60532817.096755981 0 -60532817.096755981 84623326.668357849 0 0 0 0 -304539948.68914795 288390542.02280426 0 288390542.02280426 103129188.42848206 0 0 0 0 176108710.74609375 153912147.46411991 0 153912147.46411991 -29563402.559799194 0 0 0 0 -228564386.69937134 71013618.742250443 0 71013618.742250443 21441037.11907196 0 0 0 0 -535294452.70550537 115261649.39715481 0 115261649.39715481 118533372.00468844 0 0 0 0 -324351146.5927124 165669103.86922264 0 165669103.86922264 121041774.08325195 0 0 0 0 -593369100.4680481 242439078.57669735 0 242439078.57669735 24369364.323722839 0 0 0 0 -359424217.60272217 -133739926.63333225 0 -133739926.63333225 -564871158.27998877 0 0 0 0 427014278.71391296 -433596510.76469767 0 -433596510.76469767 34519790.850918293 0 0 0 0 -387861789.4960022 -70196387.889912844 0 -70196387.889912844 -169851521.50243211 0 0 0 0 -5956312.6913889498 -2728190.5476678088 0 -2728190.5476678088 1060969.8931483533 0 0 0 0 369853512.23718262 -196637623.22384548 0 -196637623.22384548 -45896339.279585838 0 0 0 0 631787054.59060669 51795519.978495359 0 51795519.978495359 -25219007.29529953 0 0 0 0 -97382158.951904297 459637127.14016533 0 459637127.14016533 563439543.4978447 0 0 0 0 -59138663.012451172 4755372.0082435608 0 4755372.0082435608 325719728.91379452 0 0 0 0 39725724.257019043 -29395244.893923044 0 -29395244.893923044 206499699.42802739 0 0 0 0 220001062.45922852 99012904.536536217 0 99012904.536536217 289038316.15907264 0 0 0 0 246956321.32434082 457347683.10968971 0 457347683.10968971 384371577.78584862 0 0 0 0 53580219.299804688 52305941.498311937 0 52305941.498311937 -23952036.555982411 0 0 0 0 354560978.98382568 -9803027.9385325909 0 -9803027.9385325909 -87930953.450997829 0 0 0 0 -150543038.34552002 -111213533.65312007 0 -111213533.65312007 -43011091.667164125 0 0 0 0 27990630.894500732 28740663.855371296 0 28740663.855371296 62391983.507316589 0 0 0 0 -136129425.56585693 -289635494.87466431 0 -289635494.87466431 315991335.93613005 0 0 0 0 48659299.481811523 -8833964.3610115051 0 -8833964.3610115051 17910574.517349243 0 0 0 0 -444649013.95736694 -205674774.39749336 0 -205674774.39749336 328443855.5059309 0 0 0 0 -7937959.8982184529 -3098240.6689096317 0 -3098240.6689096317 2087333.886164058 0 0 0 0 -450140.37156745791 76710.16874268651 0 76710.16874268651 145399.17583781015 0 0 0 0 77653122.750686646 -2878680.6867036819 0 -2878680.6867036819 3450082.9276809692 0 0 0 0 88608977.864074707 -573720617.24754143 0 -573720617.24754143 348790568.58810139 0 0 0 0 -121514829.7713623 -102285409.30074072 0 -102285409.30074072 452175854.04922962 0 0 0 0 -2747573.8832635731 611179.34319124743 0 611179.34319124743 2297215.8179137046 0 0 0 0 72150924.920288086 12806534.210488319 0 12806534.210488319 31249487.667158127 0 0 0 0 -221017929.71202087 -437047795.11505699 0 -437047795.11505699 -427348268.59169674 0 0 0 0 -644589312.9152832 282059013.17395115 0 282059013.17395115 118224487.69573212 0 0 0 0 177005056.70550537 -127739116.9293375 0 -127739116.9293375 -674450854.17276955 0 0 0 0 -906201413.54875946 -348680462.51482368 0 -348680462.51482368 209556117.58626366 0 0 0 0 -5824523.5933846459 -1994294.5162508637 0 -1994294.5162508637 1083947.4266821314 0 0 0 0 -1072261383.0965881 205689717.66618156 0 205689717.66618156 47420939.391792655 0 0 0 0 -7427882.2417297363 -17610274.197878838 0 -17610274.197878838 -256450389.15122032 0 0 0 0 -27202388.67010498 44189354.450834274 0 44189354.450834274 -42271221.954586029 0 0 0 0 5953822.1397476196 -66994156.379456878 0 -66994156.379456878 -238005142.15149689 0 0 0 0 2159985.2472839355 -79362395.52708292 0 -79362395.52708292 -28364931.480338097 0 0 0 0 -88025417.100292206 -45419930.333303928 0 -45419930.333303928 -40828294.349285126 0 0 0 0 -178607888.60786057 -68970226.515087008 0 -68970226.515087008 69680935.394290924 0 0 0 0 -151889093.57632446 -219425780.38160181 0 -219425780.38160181 56921363.569176197 0 0 0 0 208403911.33164978 -182815134.882586 0 -182815134.882586 208801319.38020706 0 0 0 0 -132750111.83001709 -121921148.64412975 0 -121921148.64412975 202121595.10555458 0 0 0 0 43060419.349182129 -304218322.7272644 0 -304218322.7272644 199557924.05005932 0 0 0 0 -2168503.9791335613 1411165.0028834403 0 1411165.0028834403 308362.30014284153 0 0 0 0 -270272393.75204468 -375569327.93341959 0 -375569327.93341959 516452571.09399641 0 0 0 0 -25549110.894561768 -257831509.78751993 0 -257831509.78751993 284988140.83923578 0 0 0 0 -1071731.7318041176 812958.370469213 0 812958.370469213 163225.62937862205 0 0 0 0 -100222652.8770752 -531897597.85861254 0 -531897597.85861254 -513411063.52497643 0 0 0 0 -594766367.24029541 -390913424.10503006 0 -390913424.10503006 280652534.29226494 0 0 0 0 -554226441.6786499 -101555088.55306101 0 -101555088.55306101 899405868.38932133 0 0 0 0 -948270990.65892029 -128862110.39930677 0 -128862110.39930677 421979577.09991169 0 0 0 0 -86457283.17464447 157066064.43734682 0 157066064.43734682 85609303.370437622 0 0 0 0 -463342293.05310059 -214374258.90035248 0 -214374258.90035248 420757145.98515743 0 0 0 0 -318809681.68414307 -422794569.2140398 0 -422794569.2140398 -3293769.0557575226 0 0 0 0 -290650214.43847656 -454315081.96974754 0 -454315081.96974754 -146003648.3855772 0 0 0 0 -23723941.284606934 -10848204.685083389 0 -10848204.685083389 -2467120.8574714661 0 0 0 0 -30236337.378570557 -38807155.225924253 0 -38807155.225924253 -38886212.64034605 0 0 0 0 -10979615.002188664 -15682554.355226152 0 -15682554.355226152 -8699272.9382278435 0 0 0 0 -39349047.918640137 -16285051.64132309 0 -16285051.64132309 -3153812.7394218445 0 0 0 0 -29257824.357299805 -15523560.056346893 0 -15523560.056346893 -4122190.3230361938 0 0 0 0 -23612771.180450439 -7285997.395093441 0 -7285997.395093441 2958948.0533237457 0 0 0 0 -23701478.41059684 -13561944.011735365 0 -13561944.011735365 -1329772.4469943568 0 0 0 0 -22164094.096374512 -5377989.93126297 0 -5377989.93126297 4329764.9002914429 0 0 0 0 -15738262.086466849 -5495822.0401682183 0 -5495822.0401682183 4693939.3138160929 0 0 0 0 -25080666.61895752 -4347774.1368350983 0 -4347774.1368350983 -59297.337665557861 0 0 0 0 -20709489.435968384 -6759947.6754143313 0 -6759947.6754143313 -1321973.2525872048 0 0 0 0 -35546160.818389893 -2485233.3135070801 0 -2485233.3135070801 1689859.1622543335 0 0 0 0 -9028522.2606658936 -12965851.906913757 0 -12965851.906913757 -14109228.437419891 0 0 0 0 -53593951.246887207 -3615126.0391139984 0 -3615126.0391139984 1920230.8276824951 0 0 0 0 -764316.11782619357 -278723.02042048424 0 -278723.02042048424 539312.5348485671 0 0 0 0 -27847010.080877356 -13637206.604166009 0 -13637206.604166009 -4225782.6947608199 0 0 0 0 -34996244.251953125 -11976147.200624466 0 -11976147.200624466 1027287.9501571655 0 0 0 0 -15170371.07237203 -19803105.031281702 0 -19803105.031281702 -9732073.384255901 0 0 0 0 -27596450.573852539 -11725494.95589304 0 -11725494.95589304 -3314090.5716781616 0 0 0 0 -107038941.78131104 -49610251.490493298 0 -49610251.490493298 -6607801.1217703819 0 0 0 0 -17344260.366101749 -9671421.5542607605 0 -9671421.5542607605 -2907605.3972342508 0 0 0 0 -31639412.902587891 -6631299.1344051361 0 -6631299.1344051361 -8100562.1808176041 0 0 0 0 -33023573.214981079 -8883155.7091732025 0 -8883155.7091732025 -1222596.3283920288 0 0 0 0 -34123864.646358885 -15712239.98688364 0 -15712239.98688364 -7852798.0518560894 0 0 0 0 -15280964.053462418 -22389723.525045358 0 -22389723.525045358 -10279957.643120609 0 0 0 0 -30971278.563217163 -13528415.619966507 0 -13528415.619966507 -4271423.3843212128 0 0 0 0 -30895028.005157471 -14776568.011207581 0 -14776568.011207581 -1191073.8278751373 0 0 0 0 -52188836.221092224 -26832471.931562424 0 -26832471.931562424 -6277223.1455726624 0 0 0 0 -19380120.520484086 -17483033.919551328 0 -17483033.919551328 -2164888.120780386 0 0 0 0 -22074447.618858337 -26148235.814176559 0 -26148235.814176559 -2747709.0746307373 0 0 0 0 -36642616.333053589 -13168060.043434143 0 -13168060.043434143 -4722213.337012291 0 0 0 0 -33452135.502058707 -21677704.840757556 0 -21677704.840757556 -2957638.1252395697 0 0 0 0 -19329636.901123047 -19087674.469501495 0 -19087674.469501495 -18012632.723075867 0 0 0 0 -14499242.523986585 -13611143.67021754 0 -13611143.67021754 -3133696.9656685181 0 0 0 0 -45697817.98614502 -15001363.032531738 0 -15001363.032531738 3682427.4783649445 0 0 0 0 -43691119.304685593 -25145728.571500301 0 -25145728.571500301 -9614257.6708374023 0 0 0 0 -44092902.187835693 -17293754.299125671 0 -17293754.299125671 5654514.2565040588 0 0 0 0 -26232247.938272014 -11589236.911610778 0 -11589236.911610778 4425679.8747645766 0 0 0 0 -61072533.692077637 -20212664.153375626 0 -20212664.153375626 6680004.6139297485 0 0 0 0 -43669444.166419983 -16947612.531988621 0 -16947612.531988621 -7985884.8058662415 0 0 0 0 -26885296.356537893 -7785975.8111601472 0 -7785975.8111601472 2933497.9786266293 0 0 0 0 -21578267.398633815 -3408392.4464647099 0 -3408392.4464647099 6085520.540886322 0 0 0 0 -49436303.333877563 -24750651.437908173 0 -24750651.437908173 -6310039.9945602417 0 0 0 0 -24045619.908389494 -4143279.6077960804 0 -4143279.6077960804 5067313.2209780226 0 0 0 0 -30714969.980743408 -9655061.9100723267 0 -9655061.9100723267 -2737623.4765834808 0 0 0 0 -30734712.756718636 -9941859.4719604552 0 -9941859.4719604552 -3763482.6551876068 0 0 0 0 -21951382.379099742 7188345.9947854429 0 7188345.9947854429 8268279.0908931466 0 0 0 0 88611222.305984497 57084066.125859022 0 57084066.125859022 9560101.6913127899 0 0 0 0 711570.15172077715 -441263.42084033042 0 -441263.42084033042 3623473.7444810797 0 0 0 0 45638721.594703674 -122372813.83830348 0 -122372813.83830348 266692266.78741336 0 0 0 0 237948583.74023438 -225797221.94505787 0 -225797221.94505787 195461718.067976 0 0 0 0 -55337079.152053833 -22925199.975449085 0 -22925199.975449085 -3872995.9138813019 0 0 0 0 -371174645.76138306 -20465115.104766369 0 -20465115.104766369 80281175.763198853 0 0 0 0 -334194582.56459045 28287927.992805004 0 28287927.992805004 80283375.072489738 0 0 0 0 -157164674.24511719 17407255.435072422 0 17407255.435072422 9826519.5337517858 0 0 0 0 -304001400.62884521 3112260.264998436 0 3112260.264998436 38884013.467480659 0 0 0 0 -153907160.7303772 -17474755.301726818 0 -17474755.301726818 10517072.468331814 0 0 0 0 -74127102.313674927 -676010784.11710691 0 -676010784.11710691 -351027247.45488739 0 0 0 0 -166731.39824163914 -15521.317964218557 0 -15521.317964218557 1326304.327243627 0 0 0 0 -618199685.14520264 -200706833.48061705 0 -200706833.48061705 47621542.493554354 0 0 0 0 -401642095.05237961 22835927.557338715 0 22835927.557338715 68284758.878379822 0 0 0 0 -361931766.0687561 -107259308.80272484 0 -107259308.80272484 -28180383.817672253 0 0 0 0 248379701.00244141 -119998206.21640587 0 -119998206.21640587 303844255.88338846 0 0 0 0 -219082590.09375 -636704157.69259357 0 -636704157.69259357 -891379265.90790176 0 0 0 0 -7058759.7539929152 -3720238.6978712864 0 -3720238.6978712864 -143974.15525537636 0 0 0 0 -534226801.00618744 41575538.786413074 0 41575538.786413074 128848957.62362099 0 0 0 0 -900667669.09042358 1234697135.3580437 0 1234697135.3580437 297553213.39823627 0 0 0 0 -1412676109.8819351 -540249748.66333866 0 -540249748.66333866 205086485.54295731 0 0 0 0 867671516.95437622 -278063284.28941774 0 -278063284.28941774 -1210873699.8937221 0 0 0 0 -974067676.17095184 803122754.12638593 0 803122754.12638593 415602629.42834663 0 0 0 0 441510907.47476196 899846516.38664341 0 899846516.38664341 134969620.30228424 0 0 0 0 2753299.0317077637 -153714177.12357903 0 -153714177.12357903 199806996.79151863 0 0 0 0 122551575.28192139 96652182.690076828 0 96652182.690076828 -402687377.96186352 0 0 0 0 -528900423.70159912 -179410387.10087967 0 -179410387.10087967 647961914.91662788 0 0 0 0 -43398917.650512695 -6956598.1605715752 0 -6956598.1605715752 -4023194.7812356912 0 0 0 0 -26635955.911365464 5914673.5457550287 0 5914673.5457550287 8078167.1093370523 0 0 0 0 1072300080.5752869 173826612.07100821 0 173826612.07100821 -569329758.49888945 0 0 0 0 -71449093.576805115 -34461235.233263254 0 -34461235.233263254 553533.80689811707 0 0 0 0 -58636412.836765289 -17861163.653611898 0 -17861163.653611898 1487550.0392570496 0 0 0 0 -56396242.120803833 -1052901.2633047104 0 -1052901.2633047104 3327398.1109667271 0 0 0 0 -28035500.534876063 -6836497.7672841251 0 -6836497.7672841251 6287071.3040318508 0 0 0 0 -36028853.480625339 -689354.36071448028 0 -689354.36071448028 6575209.375818301 0 0 0 0 -33972390.025022507 -19186127.964165092 0 -19186127.964165092 9556260.3014907837 0 0 0 0 -32562340.753890991 -10665855.11575985 0 -10665855.11575985 6300692.7053165436 0 0 0 0 -42480398.178453401 -9334367.1578633823 0 -9334367.1578633823 15547570.113674255 0 0 0 0 -83567797.534934998 -74314573.299049377 0 -74314573.299049377 79538052.774128914 0 0 0 0 -40837473.882733718 18853929.27298139 0 18853929.27298139 23198643.876528546 0 0 0 0 -90667198.433238983 107474865.45226824 0 107474865.45226824 -1281062.8158569336 0 0 0 0 -23780401.452407837 -35332760.207969666 0 -35332760.207969666 -10319563.049156189 0 0 0 0 -24223735.190353394 -36768858.924332619 0 -36768858.924332619 14887245.02243042 0 0 0 0 -56788487.863708496 -16373087.842224121 0 -16373087.842224121 2331021.2025756836 0 0 0 0 -59890299.527297974 -52782675.318780899 0 -52782675.318780899 32439988.049755096 0 0 0 0 -57685352.172248229 -21267385.362008736 0 -21267385.362008736 5013364.9979770314 0 0 0 0 -68900746.372550964 -47451910.749077797 0 -47451910.749077797 59466412.135490417 0 0 0 0 -70105676.689178467 -48204615.998804092 0 -48204615.998804092 70783301.386241913 0 0 0 0 -50578534.511472329 -14262288.544315685 0 -14262288.544315685 15751307.078956539 0 0 0 0 -46619741.19858551 -62613366.558743477 0 -62613366.558743477 69557988.275344849 0 0 0 0 -6141913.5806297362 234647.73131940886 0 234647.73131940886 1289185.2412529215 0 0 0 0 -41764492.853851318 11081484.477310181 0 11081484.477310181 -12206642.90504837 0 0 0 0 -149607233.59228516 -103022321.38195801 0 -103022321.38195801 42966327.505441666 0 0 0 0 -85479113.674160004 4255903.8768599033 0 4255903.8768599033 53254507.369689941 0 0 0 0 -57409730.539718628 -19334613.121062279 0 -19334613.121062279 -25783078.663637161 0 0 0 0 -58296708.133705139 -16537309.4689641 0 -16537309.4689641 4486230.030708313 0 0 0 0 -56694148.725891113 -32329658.990046501 0 -32329658.990046501 -10413001.245639801 0 0 0 0 -45975112.49005127 -40842895.771213531 0 -40842895.771213531 37455031.363285065 0 0 0 0 -50494848.732686251 -15042531.431066154 0 -15042531.431066154 22856397.933780499 0 0 0 0 -70399973.456924438 -32891144.062806129 0 -32891144.062806129 -5122254.8516578674 0 0 0 0 -67570355.129589081 -22636722.942971945 0 -22636722.942971945 -5122874.92162323 0 0 0 0 -65465109.901748657 -39077842.840678751 0 -39077842.840678751 -12717796.62095353 0 0 0 0 4854371.3651428223 -5676455.2562026978 0 -5676455.2562026978 38536048.840576172 0 0 0 0 -1272178.4624567032 -50482789.921152115 0 -50482789.921152115 -34366517.546905518 0 0 0 0 -75248020.64995575 -74370082.700046539 0 -74370082.700046539 53111251.990982056 0 0 0 0 -52416025.558036804 -17009282.271665573 0 -17009282.271665573 116913712.98452759 0 0 0 0 -47973040.249153137 -23529874.321788788 0 -23529874.321788788 40917865.328090191 0 0 0 0 -254037077.41001892 -100358309.43315125 0 -100358309.43315125 -19145138.798217773 0 0 0 0 -56581204.579344057 -14724767.333640277 0 -14724767.333640277 22959683.456542045 0 0 0 0 -315577865.77207947 -13968803.57245636 0 -13968803.57245636 67787398.651859283 0 0 0 0 -6168609.5593848191 -419587.35036819801 0 -419587.35036819801 1066104.0720453523 0 0 0 0 -152429010.39888 -99257342.984926224 0 -99257342.984926224 -87753064.590576172 0 0 0 0 -12663406.094918028 15084209.726741945 0 15084209.726741945 12251931.576471992 0 0 0 0 67409588.720710754 68693248.580368042 0 68693248.580368042 2180814.2482757568 0 0 0 0 -76564527.881808847 5462348.0783920325 0 5462348.0783920325 24142883.1595635 0 0 0 0 -20332114.419021606 -13435868.478500366 0 -13435868.478500366 -9276875.284324646 0 0 0 0 -48292270.699588776 -35198858.131836891 0 -35198858.131836891 2117966.4743156433 0 0 0 0 -301006347.3904953 77084685.930942535 0 77084685.930942535 35362450.097747803 0 0 0 0 2241010.6027069092 -31783142.833827972 0 -31783142.833827972 -10153148.07134819 0 0 0 0 -2639600.1667732764 -228116.09107722528 0 -228116.09107722528 312698.65971678495 0 0 0 0 -49206340.083023071 31082068.475528717 0 31082068.475528717 -36699254.985004425 0 0 0 0 -150886580.05694199 20558653.435912132 0 20558653.435912132 45525320.181190491 0 0 0 0 -120211099.95939636 -46563585.176738739 0 -46563585.176738739 116668745.10757446 0 0 0 0 9568965.3056335449 -55087120.880268097 0 -55087120.880268097 8609319.2317657471 0 0 0 0 -228821272.308815 -247868175.00067139 0 -247868175.00067139 86240431.856338501 0 0 0 0 -12913998.330785908 -4954115.6679388806 0 -4954115.6679388806 5207329.4835213423 0 0 0 0 -34053609.398939505 -3452406.503223151 0 -3452406.503223151 23115734.237632111 0 0 0 0 -340194671.62155914 40718615.576499939 0 40718615.576499939 -106762244.49194336 0 0 0 0 -209555910.9187355 -325771313.17225647 0 -325771313.17225647 206659920.47195053 0 0 0 0 -326709292.13732481 -90040652.69908762 0 -90040652.69908762 432731062.51731873 0 0 0 0 34381589.338848114 -4729837.6034183502 0 -4729837.6034183502 -69926590.844802856 0 0 0 0 -163732713.21585083 -125950552.52733612 0 -125950552.52733612 174484851.42150879 0 0 0 0 -136839963.87466812 -25375318.281511307 0 -25375318.281511307 1336924.2060852051 0 0 0 0 -10018641.697822008 -1635225.8182195425 0 -1635225.8182195425 1973133.7442106605 0 0 0 0 -158928963.06517029 -49196082.935508728 0 -49196082.935508728 106392979.34605408 0 0 0 0 -44906557.103103638 -125978046.89506531 0 -125978046.89506531 -359785446.17580795 0 0 0 0 -135910227.08835983 -108724584.04227638 0 -108724584.04227638 64746340.140563965 0 0 0 0 10509242.718490601 97168896.124732971 0 97168896.124732971 83186883.571548462 0 0 0 0 62584990.994422913 -138998322.3638916 0 -138998322.3638916 4348248.9135894775 0 0 0 0 -23206253.78544157 -12377217.131153066 0 -12377217.131153066 -23798243.57130181 0 0 0 0 -40880831.585708618 -135322178.45800781 0 -135322178.45800781 101635360.45195103 0 0 0 0 -114102648.40907288 -42306981.223052979 0 -42306981.223052979 -25534894.024230957 0 0 0 0 -123621330.78144073 -62843637.271614075 0 -62843637.271614075 52545666.171234131 0 0 0 0 -72145634.923969269 -62715181.568746567 0 -62715181.568746567 -19409507.830978394 0 0 0 0 -26634817.098363981 -36692910.776089631 0 -36692910.776089631 -17860456.152649254 0 0 0 0 -94522299.787612915 -92114411.068107605 0 -92114411.068107605 12409560.517692566 0 0 0 0 20367832.080299377 -97161065.161117554 0 -97161065.161117554 -9098932.6817932129 0 0 0 0 -14433541.942811303 -11362766.514266834 0 -11362766.514266834 -1819660.9850219972 0 0 0 0 -5831326.2386474609 -20627338.640331268 0 -20627338.640331268 -7127853.3649578094 0 0 0 0 -31759917.283392027 -30130765.978477865 0 -30130765.978477865 -10874350.895372856 0 0 0 0 -36895766.805973053 -8252148.1415205002 0 -8252148.1415205002 6981503.8767242432 0 0 0 0 -26770317.70703125 -19048477.832122803 0 -19048477.832122803 -666145.50183105469 0 0 0 0 -39312676.71496582 -22540976.226186752 0 -22540976.226186752 5123725.6292266846 0 0 0 0 -34462163.055859253 -23324177.827414386 0 -23324177.827414386 -2513520.2733589783 0 0 0 0 -59571362.922317505 -32441585.262506485 0 -32441585.262506485 6303773.5424499512 0 0 0 0 -40589603.532389969 -34883186.214113638 0 -34883186.214113638 10549013.521435902 0 0 0 0 -38249649.704986572 -26590941.270698547 0 -26590941.270698547 -1919788.3572540283 0 0 0 0 -41356674.190551758 -5965873.4997062683 0 -5965873.4997062683 -23533745.612030029 0 0 0 0 -39351274.471447423 11586263.042490769 0 11586263.042490769 32187660.889244404 0 0 0 0 -2484569.013574563 -842674.52725911885 0 -842674.52725911885 -46562.03171126917 0 0 0 0 -38114084.046735272 -15859443.666404521 0 -15859443.666404521 12287255.662505625 0 0 0 0 -43888954.936660767 -12988877.328896523 0 -12988877.328896523 24939012.655065536 0 0 0 0 -44457218.867996216 -41989149.38885498 0 -41989149.38885498 39451802.618898392 0 0 0 0 -54402661.783477783 -14120395.60546875 0 -14120395.60546875 -33709638.022861481 0 0 0 0 -62305747.584434509 -42485116.706851959 0 -42485116.706851959 22419682.821273804 0 0 0 0 -20775804.034858704 -37070083.40063858 0 -37070083.40063858 17359754.662948608 0 0 0 0 -57059743.912414551 -47453126.239189148 0 -47453126.239189148 12083347.281555176 0 0 0 0 -2926638.0557279363 -491022.26587195694 0 -491022.26587195694 82053.157923210412 0 0 0 0 -37092177.856761657 -14729887.544324577 0 -14729887.544324577 22095780.874741927 0 0 0 0 -22374318.435214009 -16696389.61369371 0 -16696389.61369371 -6594607.4010174945 0 0 0 0 -65405246.017032623 -46840842.983909607 0 -46840842.983909607 -57685536.908630371 0 0 0 0 -89187905.15776825 -146151236.69140625 0 -146151236.69140625 -87614775.922009468 0 0 0 0 -2871064783.9897938 -2202230445.6778107 0 -2202230445.6778107 -866899005.32048225 0 0 0 0 -6599632971.2554359 -5600838646.009798 0 -5600838646.009798 -3906177279.1173868 0 0 0 0 -15871079.654387396 -1373751.6529761739 0 -1373751.6529761739 -5936355.5790290684 0 0 0 0 -2890129710.3736162 -2085354847.6450274 0 -2085354847.6450274 -971082638.25385094 0 0 0 0 -5626555.5659779571 446919.35862746881 0 446919.35862746881 -7693825.3800281454 0 0 0 0 -10005374.045593262 3759873.4226703644 0 3759873.4226703644 -6265257.5840263367 0 0 0 0 -19139193.418777458 5903438.2155454839 0 5903438.2155454839 -8495729.7241962869 0 0 0 0 -7230880.3543815613 9369433.423666954 0 9369433.423666954 763901.5992193222 0 0 0 0 -1644013807.8559737 -41651631.909660935 0 -41651631.909660935 205424052.8711915 0 0 0 0 -1119447050.8461723 -1000008721.1281798 0 -1000008721.1281798 -714857627.63205349 0 0 0 0 -4028448145.3319912 -1753493845.9611468 0 -1753493845.9611468 -701874804.09642148 0 0 0 0 -2629703652.4156227 -2178245512.096344 0 -2178245512.096344 -898261857.24690282 0 0 0 0 -2286812455.9529648 104600578.57390547 0 104600578.57390547 90879234.888275385 0 0 0 0 -2850237.394859693 105756.35664931219 0 105756.35664931219 -2916720.7730157059 0 0 0 0 -2573681921.025239 -1312059487.4846594 0 -1312059487.4846594 -321987747.60916775 0 0 0 0 -3378233874.6414833 -1142527241.5562477 0 -1142527241.5562477 -248090720.15664005 0 0 0 0 -4016929063.1511912 -1865835274.5643461 0 -1865835274.5643461 161278022.47023347 0 0 0 0 -6617283598.0667191 -3414092620.1999307 0 -3414092620.1999307 -451317615.21138221 0 0 0 0 -6613350646.2541304 -1261334592.1848176 0 -1261334592.1848176 1001723431.6652749 0 0 0 0 -4800747615.4642277 -1746232706.097832 0 -1746232706.097832 151380818.5464212 0 0 0 0 -6614511860.9438353 -109249257.43315776 0 -109249257.43315776 1443357787.8606348 0 0 0 0 -5114373777.7419786 -961825132.97780871 0 -961825132.97780871 1061444057.9311502 0 0 0 0 -5054062426.1412067 -617781380.47162938 0 -617781380.47162938 732775021.21256137 0 0 0 0 -2817341976.6576405 -352270853.1140399 0 -352270853.1140399 104940359.43717885 0 0 0 0 -2983382018.5982866 -62344447.293654442 0 -62344447.293654442 252644104.45936155 0 0 0 0 -4313631671.3174334 -221410812.46520221 0 -221410812.46520221 454936397.45550942 0 0 0 0 -3884262590.8776622 -261865976.33075118 0 -261865976.33075118 458520506.29726827 0 0 0 0 -2768582100.9589834 -505082153.05065322 0 -505082153.05065322 202848144.41286397 0 0 0 0 -3750661333.9074068 -615630044.75076485 0 -615630044.75076485 354774059.51515055 0 0 0 0 -3715905049.6929235 -687660050.67067266 0 -687660050.67067266 372551998.53767097 0 0 0 0 -3720610337.6534233 -867955956.20664668 0 -867955956.20664668 383708578.42540658 0 0 0 0 -4469202899.4786358 -928267458.5370003 0 -928267458.5370003 454158441.04614353 0 0 0 0 -2564973953.3671551 -930271639.29816413 0 -930271639.29816413 -4874183.6512054205 0 0 0 0 -3249231397.7153368 -777993011.40062594 0 -777993011.40062594 113791833.35629916 0 0 0 0 -999243250.70969105 -859729043.41032827 0 -859729043.41032827 -412508160.46690434 0 0 0 0 -486625149.73454952 -253553264.1931574 0 -253553264.1931574 -398978133.79378694 0 0 0 0 -563516574.6564126 -64055664.436955094 0 -64055664.436955094 -297286306.95927095 0 0 0 0 -981268573.23577023 -141348225.32972887 0 -141348225.32972887 -140089915.29101348 0 0 0 0 -136407140.3786087 81226565.890785038 0 81226565.890785038 -300926157.01200974 0 0 0 0 -468448019.13255453 -171120982.60918754 0 -171120982.60918754 -214516088.80963683 0 0 0 0 -894981432.56559515 -371631827.6905247 0 -371631827.6905247 -234351623.13342428 0 0 0 0 -1512936915.0219746 -93318308.838925362 0 -93318308.838925362 -128120909.6730957 0 0 0 0 -2505480751.1052151 -545742441.04847252 0 -545742441.04847252 32518216.042771339 0 0 0 0 -1657644561.6845226 -596363791.85843372 0 -596363791.85843372 -80778432.861602902 0 0 0 0 -2784202160.0413022 -357900544.9202022 0 -357900544.9202022 181151277.15320063 0 0 0 0 -2325575020.8711762 -487614257.19001842 0 -487614257.19001842 22423436.579822779 0 0 0 0 -2050661654.7620955 112907714.01786172 0 112907714.01786172 67505942.421357632 0 0 0 0 -987935536.81622505 -300753778.10351658 0 -300753778.10351658 -208195188.40147924 0 0 0 0 -833403394.0216682 -101942408.53734887 0 -101942408.53734887 -246764753.70098829 0 0 0 0 -458603886.08898306 -285651530.00907964 0 -285651530.00907964 -329353544.94870424 0 0 0 0 -896065335.19392276 323035384.27483648 0 323035384.27483648 -90218969.173140526 0 0 0 0 -2593030659.6809835 364158433.85147524 0 364158433.85147524 92622941.796650171 0 0 0 0 -259687143.40765619 -671316097.96009612 0 -671316097.96009612 -395134760.0585978 0 0 0 0 164928444.73484659 283957613.27247459 0 283957613.27247459 -702617645.5625962 0 0 0 0 256373659.8925553 -112103934.45570621 0 -112103934.45570621 -170542617.28357804 0 0 0 0 -277052935.82331991 262189418.3347497 0 262189418.3347497 -442809619.02943254 0 0 0 0 -256751929.3506279 -158055803.12389207 0 -158055803.12389207 -596474262.1115768 0 0 0 0 57193613.852173328 -465250476.41088051 0 -465250476.41088051 -403804859.28386259 0 0 0 0 -384593067.50382423 -334994463.13592672 0 -334994463.13592672 -235524197.72233009 0 0 0 0 -261356780.62428284 -149913372.94390059 0 -149913372.94390059 -16399740.551006079 0 0 0 0 71261078.491532445 -367711620.33653152 0 -367711620.33653152 -65537011.040266991 0 0 0 0 -161571238.31514847 158068715.23734558 0 158068715.23734558 -269053103.57465816 0 0 0 0 -328947592.53823996 460839921.02307582 0 460839921.02307582 -328631079.32296777 0 0 0 0 224878.88629910466 915601.83412710216 0 915601.83412710216 -2959232.8800322325 0 0 0 0 961668240.34340286 106723326.55382156 0 106723326.55382156 174424030.41851425 0 0 0 0 -82503787.830434799 -186814982.57853699 0 -186814982.57853699 395072225.74268627 0 0 0 0 471022540.81117892 -77698750.103604019 0 -77698750.103604019 -128695003.33177835 0 0 0 0 -1756523.7730887244 2242157.9925025967 0 2242157.9925025967 -6274330.2674787138 0 0 0 0 105858.17770662624 73506.702591150068 0 73506.702591150068 -206823.59511888918 0 0 0 0 311557038.87321758 289876199.39051485 0 289876199.39051485 397665544.1788578 0 0 0 0 835944347.75700474 -452563615.03539324 0 -452563615.03539324 212561198.54558551 0 0 0 0 -492013686.62248993 11855011.153718948 0 11855011.153718948 -79640123.239251018 0 0 0 0 172654167.58476257 23308313.518938541 0 23308313.518938541 -54716174.152621269 0 0 0 0 -133543688.20471001 -328358643.5741148 0 -328358643.5741148 228878236.67180252 0 0 0 0 -112619199.61124325 -7964435.6525576115 0 -7964435.6525576115 18302850.200033903 0 0 0 0 259677904.70407677 116948675.68272543 0 116948675.68272543 -175413368.44811153 0 0 0 0 -279439898.05049133 103155241.52886558 0 103155241.52886558 -123155925.20235628 0 0 0 0 -119761425.015266 -80600480.582689837 0 -80600480.582689837 -203862834.89182281 0 0 0 0 -126772041.19942379 40172353.636901468 0 40172353.636901468 -130405077.81310821 0 0 0 0 -55140664.439990997 -45565023.534376681 0 -45565023.534376681 -174149400.55896759 0 0 0 0 132797199.72358608 126775973.64241594 0 126775973.64241594 -207073201.59155923 0 0 0 0 114674555.13841362 44488754.305098966 0 44488754.305098966 -1704217.4345963001 0 0 0 0 331076570.25877929 -129078546.37553126 0 -129078546.37553126 -90661067.016630769 0 0 0 0 149484746.883183 71958617.284137011 0 71958617.284137011 -61310136.831472874 0 0 0 0 70146648.837657213 118527471.25491834 0 118527471.25491834 -6653734.4286482334 0 0 0 0 56647621.491044521 108681753.48653913 0 108681753.48653913 94189241.518619537 0 0 0 0 -13497473.04693222 38512075.466087341 0 38512075.466087341 -43491629.635091782 0 0 0 0 -78665331.695289612 -12443495.743427277 0 -12443495.743427277 10174508.821922302 0 0 0 0 -26725062.970453985 3620355.9545499911 0 3620355.9545499911 -2935381.8475144091 0 0 0 0 -2484145.7361135483 220283719.40661335 0 220283719.40661335 212345407.5245316 0 0 0 0 80702191.535214901 94901297.867164552 0 94901297.867164552 122670738.18323278 0 0 0 0 26322719.446276188 209980278.95472372 0 209980278.95472372 -127401350.54874164 0 0 0 0 -216521993.33325005 119724969.0946213 0 119724969.0946213 123785453.00867128 0 0 0 0 -124734287.77394152 113206564.32959554 0 113206564.32959554 -393578740.74414819 0 0 0 0 -478060078.50779819 286935372.20328665 0 286935372.20328665 228573953.90778208 0 0 0 0 -217858406.68869019 -1016769932.1503546 0 -1016769932.1503546 -1073216128.7283226 0 0 0 0 -10118454.870030958 6304451.4620048944 0 6304451.4620048944 -6458823.2314550551 0 0 0 0 -303478148.57691431 -95438631.732210636 0 -95438631.732210636 557226601.01692915 0 0 0 0 12539265.752540588 39718309.055134773 0 39718309.055134773 -46767795.20468235 0 0 0 0 -18778496.779535059 12925419.787474994 0 12925419.787474994 -14603473.109889563 0 0 0 0 -23354091.993152618 11212787.259683609 0 11212787.259683609 13815900.005638123 0 0 0 0 -16189050.395179749 15271744.298695564 0 15271744.298695564 4067994.2117509842 0 0 0 0 -35548022.461372897 -951391.66270819306 0 -951391.66270819306 -3370593.0936775524 0 0 0 0 25607507.541017532 98383217.866033554 0 98383217.866033554 32125823.658751726 0 0 0 0 144030617.06053162 -57229825.139257193 0 -57229825.139257193 -366305122.00547433 0 0 0 0 -1491157.7552953511 4507201.7667123424 0 4507201.7667123424 -12600406.432151981 0 0 0 0 -6668895.6105957031 12539319.479950905 0 12539319.479950905 -5887562.1684951782 0 0 0 0 -32080160.705011845 22364301.365341369 0 22364301.365341369 -11289421.340044565 0 0 0 0 -33434106.382659912 84325004.657062531 0 84325004.657062531 288270689.02086258 0 0 0 0 -11167759.958587646 170181513.81201935 0 170181513.81201935 183679023.31873035 0 0 0 0 -38049136.669754267 12149782.632630087 0 12149782.632630087 -5761814.0504734702 0 0 0 0 -101036371.58050537 186423483.94231415 0 186423483.94231415 432818490.85307789 0 0 0 0 12491335.340438843 -5962738.6655883789 0 -5962738.6655883789 -25944179.102600098 0 0 0 0 -27482333.10307312 1742526.9340248108 0 1742526.9340248108 37226420.477273941 0 0 0 0 604918.34271101281 -205253.01729762368 0 -205253.01729762368 -5895161.5553492224 0 0 0 0 -16231909.423984528 5287422.620300293 0 5287422.620300293 -9690844.6753520966 0 0 0 0 -21170019.858867131 909543.72585976496 0 909543.72585976496 -10062540.947273441 0 0 0 0 -19434782.762680054 13780008.519507408 0 13780008.519507408 13908814.444789886 0 0 0 0 -40856866.126063585 -13505428.543836333 0 -13505428.543836333 4959905.4309149478 0 0 0 0 -46042565.27943828 -5894961.0874750512 0 -5894961.0874750512 4693121.7254389366 0 0 0 0 -64351936.363733292 -8833195.7083911896 0 -8833195.7083911896 -26019821.341178894 0 0 0 0 -10710409.86618042 3633708.4884567261 0 3633708.4884567261 63942724.532369614 0 0 0 0 -84521607.690917015 -5843318.9420223236 0 -5843318.9420223236 11916654.583717346 0 0 0 0 -47439326.118469231 15288617.59712461 0 15288617.59712461 -3501853.6462628813 0 0 0 0 -6782617.5312571526 -4931930.4687229842 0 -4931930.4687229842 5629519.565083649 0 0 0 0 -94804191.781738281 -176940581.48170471 0 -176940581.48170471 253485076.35174561 0 0 0 0 -72615674.241542816 -33230775.783638 0 -33230775.783638 -40560129.60471344 0 0 0 0 -45059463.786633275 -2472731.2157698944 0 -2472731.2157698944 -179032.07404865231 0 0 0 0 -22728539.387443542 8341658.8505954742 0 8341658.8505954742 46359041.373828888 0 0 0 0 -56506180.336135864 -32626826.319293976 0 -32626826.319293976 -56349494.487037659 0 0 0 0 -38204757.656886667 7456144.8353740275 0 7456144.8353740275 -4980122.2159924265 0 0 0 0 -120517407.08178711 20622228.17401123 0 20622228.17401123 -25124775.619155884 0 0 0 0 -48136357.790008545 -42609229.393287659 0 -42609229.393287659 -48953763.194343567 0 0 0 0 -178666288.09451294 215088221.08342361 0 215088221.08342361 328517104.20328903 0 0 0 0 -173840967.30651855 100988379.25921631 0 100988379.25921631 555517230.90839005 0 0 0 0 -8854335.8852310181 32974944.904238701 0 32974944.904238701 424354373.57695007 0 0 0 0 -136057376.22714233 73461742.390686035 0 73461742.390686035 438870761.18286514 0 0 0 0 -66846158.589630127 6670002.2573547363 0 6670002.2573547363 593003817.38850403 0 0 0 0 -137097757.76797485 115410495.07367325 0 115410495.07367325 483769562.7610054 0 0 0 0 -33883471.717071533 101524764.61212921 0 101524764.61212921 789867765.32628632 0 0 0 0 -121629145.24308395 -11584407.535089016 0 -11584407.535089016 651610839.51419067 0 0 0 0 -86528178.734008789 76065028.755249023 0 76065028.755249023 464880537.45222473 0 0 0 0 -175049329.05664062 -31943104.51234436 0 -31943104.51234436 833074818.21404266 0 0 0 0 -51659567.196542025 13348199.116680484 0 13348199.116680484 3508763.6895617088 0 0 0 0 -202117324.77935791 50263325.297576904 0 50263325.297576904 716084123.26536512 0 0 0 0 -140988081.11956787 -40463086.480670929 0 -40463086.480670929 640269069.763237 0 0 0 0 -44357144.567718506 43930240.747673035 0 43930240.747673035 708144371.61610413 0 0 0 0 -93644681.282714844 -62305370.055683136 0 -62305370.055683136 702661021.77877808 0 0 0 0 -51138388.400913835 -2684879.385659921 0 -2684879.385659921 3236236.4630747302 0 0 0 0 -355253143.28060913 -15256181.392547607 0 -15256181.392547607 95137545.710393906 0 0 0 0 -142231415.33587646 -91069835.696247101 0 -91069835.696247101 1098635513.6954956 0 0 0 0 -116771347.68280029 80974889.731277466 0 80974889.731277466 774641495.92244339 0 0 0 0 -54135589.327819824 -204004519.00886154 0 -204004519.00886154 877858836.19833946 0 0 0 0 -56827858.639458217 2053276.0051271468 0 2053276.0051271468 4204345.3951347005 0 0 0 0 -8864380.451675415 61243187.962879181 0 61243187.962879181 83366761.587179184 0 0 0 0 -111262410.14363098 137026463.61968231 0 137026463.61968231 27319391.43354249 0 0 0 0 -284663312.09573364 31137081.321567535 0 31137081.321567535 73733014.042495728 0 0 0 0 -147031537.46615601 -112127823.63519096 0 -112127823.63519096 -46184376.225830078 0 0 0 0 -164837869.33151245 218994920.20372009 0 218994920.20372009 -32367910.059452057 0 0 0 0 101203842.69569397 20056730.000782013 0 20056730.000782013 21533584.85785675 0 0 0 0 -5959347.1539611816 62560164.860641479 0 62560164.860641479 -19473562.178421021 0 0 0 0 -92672450.413884163 -26069944.218914032 0 -26069944.218914032 -15867409.253250122 0 0 0 0 -14056233.808502197 -11801790.959083557 0 -11801790.959083557 76179115.884449005 0 0 0 0 -27559205.030686587 -21825517.88711451 0 -21825517.88711451 10892354.682710979 0 0 0 0 79778840.422393799 -23873465.189476013 0 -23873465.189476013 23639489.289482117 0 0 0 0 657178.18541453779 2044481.3106088545 0 2044481.3106088545 -1082742.8306909581 0 0 0 0 -89854945.912366509 -5554633.8822647333 0 -5554633.8822647333 60456515.072605133 0 0 0 0 -120284280.1233902 -92708885.001850128 0 -92708885.001850128 34739106.24710083 0 0 0 0 -96013092.166767597 -64874232.092668772 0 -64874232.092668772 -99298224.24684906 0 0 0 0 -93585950.965485573 -114176732.87621117 0 -114176732.87621117 -56487804.981678009 0 0 0 0 -6183520.0979945119 -1016046.3979747337 0 -1016046.3979747337 372176.85739355441 0 0 0 0 -52364058.813776016 -55723404.13041687 0 -55723404.13041687 -73149463.622911453 0 0 0 0 -82296349.631288171 -114029881.84952164 0 -114029881.84952164 -108383410.1964674 0 0 0 0 -69087105.639657974 -33490831.162810326 0 -33490831.162810326 -37085972.60748291 0 0 0 0 -10079051.044293782 1869621.7973603038 0 1869621.7973603038 -2444983.295466545 0 0 0 0 -5143162.405749321 -613715.63768482208 0 -613715.63768482208 -4568402.4869027138 0 0 0 0 -50899107.685959816 -49056211.908240318 0 -49056211.908240318 -43110502.769874573 0 0 0 0 -97492007.649297714 -31577767.002952576 0 -31577767.002952576 -31278424.378009796 0 0 0 0 -72319747.075299263 -38273357.28765583 0 -38273357.28765583 -57658149.652008057 0 0 0 0 -71944738.047761917 -34505261.12399292 0 -34505261.12399292 -28725164.68755722 0 0 0 0 -44483927.530082703 24764299.349674225 0 24764299.349674225 33921635.439638138 0 0 0 0 -20411062.681569133 3697307.479198915 0 3697307.479198915 -2917709.1386522371 0 0 0 0 -64212373.331066132 -44707046.075695038 0 -44707046.075695038 -25735943.577301025 0 0 0 0 4559784.751083374 -19158760.060646057 0 -19158760.060646057 -22640150.5176301 0 0 0 0 201210.02760529052 3245565.4827986169 0 3245565.4827986169 -2872788.3992263954 0 0 0 0 -7412966.2080113888 1872286.3779323101 0 1872286.3779323101 -2243506.247882843 0 0 0 0 93975090.007762313 79672363.823035121 0 79672363.823035121 38437996.889855385 0 0 0 0 163930636.55217648 36259428.079277158 0 36259428.079277158 -17558665.749699712 0 0 0 0 -2837749.1663789377 4564012.0439114999 0 4564012.0439114999 -8032519.4246327542 0 0 0 0 -2451955.7675795555 1161240.251502037 0 1161240.251502037 -2850419.8030860424 0 0 0 0 -5523214.7607522011 588956.34836864471 0 588956.34836864471 -2712175.8715753555 0 0 0 0 -2108407.6657309532 -3636662.166741848 0 -3636662.166741848 1251882.6128668785 0 0 0 0 -53584197.988757133 118318714.64333105 0 118318714.64333105 -304931071.97710729 0 0 0 0 -6946749.7691066563 -4531197.8993654251 0 -4531197.8993654251 5309442.7006397247 0 0 0 0 -91144217.989042282 83864643.177284241 0 83864643.177284241 -335820312.69705248 0 0 0 0 -3821051.7942124605 30634.466521382332 0 30634.466521382332 497806.18936872482 0 0 0 0 -1593185.1598990001 -2125233.7007684987 0 -2125233.7007684987 -1634028.4043811641 0 0 0 0 -17970569.188458443 151060448.50554323 0 151060448.50554323 -349737533.41547 0 0 0 0 61032856.632207096 224329005.90119982 0 224329005.90119982 -332478100.94330907 0 0 0 0 104967944.50116986 -12522556.745103419 0 -12522556.745103419 -131198361.66186446 0 0 0 0 -35405194.601525903 -16560210.600947734 0 -16560210.600947734 -58074226.670763612 0 0 0 0 -57977141.196486712 161726801.66827387 0 161726801.66827387 -276608716.68954158 0 0 0 0 -950532.70524139353 -1595286.5129850807 0 -1595286.5129850807 726491.05606460897 0 0 0 0 -60527820.497509003 -36565452.469790697 0 -36565452.469790697 4550064.9898114204 0 0 0 0 -57079408.867305756 -94407493.117845893 0 -94407493.117845893 -62705527.006629795 0 0 0 0 -225585601.88833743 -242202422.17338178 0 -242202422.17338178 108887312.10263681 0 0 0 0 -234533075.31623912 -162919500.15724415 0 -162919500.15724415 -135460608.37684488 0 0 0 0 -199299215.19670963 8521369.0597639084 0 8521369.0597639084 -16403471.971645355 0 0 0 0 -57646741.467884064 -73971862.524074793 0 -73971862.524074793 21430288.113125324 0 0 0 0 -182895629.15439415 -142770826.84254193 0 -142770826.84254193 -15299644.00116396 0 0 0 0 341732327.28781027 -737604704.07945883 0 -737604704.07945883 15370618.607741356 0 0 0 0 75051334.447942078 -92762775.387489438 0 -92762775.387489438 247088783.29935253 0 0 0 0 175059540.00535789 29496788.388692942 0 29496788.388692942 -106126812.00684059 0 0 0 0 180233113.53476477 -234552623.267416 0 -234552623.267416 -15563857.313856602 0 0 0 0 2473148.0172243118 -6730555.8629169166 0 -6730555.8629169166 -5865469.8879526258 0 0 0 0 -4697370.8928232193 -39654074.625728071 0 -39654074.625728071 -45080229.571075916 0 0 0 0 8796909.7952804565 21357983.531691313 0 21357983.531691313 -37891652.52642937 0 0 0 0 -72870144.244470596 -53462207.184919119 0 -53462207.184919119 -6105858.4161999226 0 0 0 0 -1674320.6792235151 -3487449.8341474086 0 -3487449.8341474086 1733775.9395209488 0 0 0 0 -127163383.68771744 102987503.20468765 0 102987503.20468765 107739963.35699868 0 0 0 0 1879276.59009552 8676168.5264299512 0 8676168.5264299512 12861823.444246769 0 0 0 0 85285796.555486679 211572967.76169014 0 211572967.76169014 -619842650.00868893 0 0 0 0 -108449793.87881088 -110627920.36914396 0 -110627920.36914396 -98898688.80303669 0 0 0 0 56389517.546771049 195694331.76217222 0 195694331.76217222 -442142058.4548502 0 0 0 0 -2756909.9745519925 -2450127.2545869187 0 -2450127.2545869187 -1677087.511660882 0 0 0 0 -6563200.9861596823 -5723098.6825781167 0 -5723098.6825781167 -2360750.5443868637 0 0 0 0 -428279.95055174828 -566163.70225954056 0 -566163.70225954056 581384.14694309235 0 0 0 0 -4415927.6336788516 -2821594.8582478813 0 -2821594.8582478813 -1855042.7096188823 0 0 0 0 -6470543.4561847448 -6991595.3105095625 0 -6991595.3105095625 3420514.5780382156 0 0 0 0 -1578390.5183694512 -3219698.3894010866 0 -3219698.3894010866 1869003.5855286391 0 0 0 0 -19720905.554674149 -206287060.52254677 0 -206287060.52254677 -251678559.26109314 0 0 0 0 -54939540.02203083 -158723893.44769192 0 -158723893.44769192 -195444408.48780823 0 0 0 0 -466942934.07128906 234843168.97831345 0 234843168.97831345 -135194827.44641495 0 0 0 0 34136891.326797485 -140139946.02689981 0 -140139946.02689981 -837663278.51330185 0 0 0 0 405670.63922204729 -1595089.3002708862 0 -1595089.3002708862 -823199.32886364032 0 0 0 0 -1196446.0605388116 -668513.55802250071 0 -668513.55802250071 418445.21321195597 0 0 0 0 423088305.43323517 411592595.32902718 0 411592595.32902718 -973988045.52556229 0 0 0 0 -1158146433.2918253 -581797678.37500024 0 -581797678.37500024 461710470.89743996 0 0 0 0 -1703701.5801250879 1723396.2001085952 0 1723396.2001085952 483919.88674377091 0 0 0 0 -663837782.15686226 -819490650.12549543 0 -819490650.12549543 370001255.44381905 0 0 0 0 58606141.585155487 -449403999.86905861 0 -449403999.86905861 -214376845.78067398 0 0 0 0 -405675488.06375837 -16671526.885055244 0 -16671526.885055244 386755548.84119701 0 0 0 0 40111323.795042038 546381249.76783061 0 546381249.76783061 -672591661.5577631 0 0 0 0 -243857728.64992142 -263710230.26661015 0 -263710230.26661015 355883899.17460036 0 0 0 0 -74394399.635543823 217995750.79623413 0 217995750.79623413 -304498146.51874733 0 0 0 0 -73183541.684524536 114261121.85316277 0 114261121.85316277 -1410919366.6387482 0 0 0 0 -509373431.88988686 369600387.31153357 0 369600387.31153357 -156908705.51852036 0 0 0 0 -80862395.360401154 -127695963.88072681 0 -127695963.88072681 192778986.36089277 0 0 0 0 40484961.521778107 333325256.6221962 0 333325256.6221962 -227633930.98937035 0 0 0 0 71130310.927284241 -115254138.95406878 0 -115254138.95406878 305825397.63160408 0 0 0 0 -114450.83113780222 433701.02610802371 0 433701.02610802371 210941.0397323845 0 0 0 0 -59271993.809272766 -89739734.871847034 0 -89739734.871847034 17062656.829490662 0 0 0 0 -2242208.1940258592 -2168710.1630708631 0 -2168710.1630708631 1080620.9524289353 0 0 0 0 -225128967.89915085 -71248066.893338203 0 -71248066.893338203 366220805.15219164 0 0 0 0 -64016367.808760405 103041324.0283325 0 103041324.0283325 327237171.75714731 0 0 0 0 222644079.82312775 -67545372.853710771 0 -67545372.853710771 -84857217.91234827 0 0 0 0 29457574.184139252 -239557206.92658144 0 -239557206.92658144 258429971.28388214 0 0 0 0 -62406703.325378418 122065499.98220301 0 122065499.98220301 -137784612.84304333 0 0 0 0 -876982.95435837284 -1120974.7623065612 0 -1120974.7623065612 516656.59259172366 0 0 0 0 -26948173.818069458 10413899.620842457 0 10413899.620842457 21872587.950927734 0 0 0 0 -22297401.134824753 4882570.9879479408 0 4882570.9879479408 16186668.169096947 0 0 0 0 -13459950.497459412 10152323.998031616 0 10152323.998031616 -6117632.4380444288 0 0 0 0 -2838904.5872596921 480431.52003474347 0 480431.52003474347 788260.3565172269 0 0 0 0 -4705877.3193793297 -605439.49012038112 0 -605439.49012038112 4927769.1102609634 0 0 0 0 -468320351.63653135 -50152739.589794993 0 -50152739.589794993 63675276.161736012 0 0 0 0 41919190.25806427 877332312.0230937 0 877332312.0230937 -111925576.05486584 0 0 0 0 -4334599.9577395041 -1086924.131121614 0 -1086924.131121614 1599402.5726248082 0 0 0 0 -602384900.87251282 -296041537.50719166 0 -296041537.50719166 215455482.64014244 0 0 0 0 -2379113059.3684998 1637399424.0455456 0 1637399424.0455456 84559818.74392128 0 0 0 0 -724489013.72779465 -628586526.87417459 0 -628586526.87417459 -652888795.05369568 0 0 0 0 -79290086.629196167 317827146.31976223 0 317827146.31976223 -2163608910.9613705 0 0 0 0 -162718618.82005882 211354759.11486554 0 211354759.11486554 -372713692.64186478 0 0 0 0 -5887612.0624217987 -129711544.48096538 0 -129711544.48096538 164960732.97049236 0 0 0 0 -60763639.04095459 737774.35674381256 0 737774.35674381256 28603168.842969894 0 0 0 0 -318075349.06211853 66607519.341654301 0 66607519.341654301 463030469.77684402 0 0 0 0 -352298279.40724945 -503976639.56303883 0 -503976639.56303883 255172110.14962196 0 0 0 0 -490568145.04545593 -440434907.73214912 0 -440434907.73214912 329861249.58237076 0 0 0 0 -455429907.88350296 -665558335.5313139 0 -665558335.5313139 269551388.42079735 0 0 0 0 -386511815.14321136 -433054981.05479717 0 -433054981.05479717 255153343.00942421 0 0 0 0 79516998.506744385 184245240.47439623 0 184245240.47439623 -196862363.82601547 0 0 0 0 -2494614.096079167 2544474.0365719823 0 2544474.0365719823 -1534170.6112896805 0 0 0 0 -311372995.68533325 -468640359.36258316 0 -468640359.36258316 -322508448.28261185 0 0 0 0 -344189208.65068817 -530179605.16554737 0 -530179605.16554737 657440675.69630623 0 0 0 0 -359190069.73378849 -87342009.34517318 0 -87342009.34517318 30093680.045168877 0 0 0 0 142670875.63598633 -54168549.9025774 0 -54168549.9025774 -142731997.92496586 0 0 0 0 -100699787.24754333 -675792222.31149769 0 -675792222.31149769 414183056.91396904 0 0 0 0 62304540.604736328 -25736094.252180099 0 -25736094.252180099 -145091114.88824794 0 0 0 0 -162623598.48962402 -6362736.9562142491 0 -6362736.9562142491 118576919.9221735 0 0 0 0 -32761377.294829678 10995299.733222932 0 10995299.733222932 -7830426.6891055014 0 0 0 0 26444022.84828949 188633858.6294117 0 188633858.6294117 -352388939.33748817 0 0 0 0 -20744493.796037346 -1174205.185874315 0 -1174205.185874315 10509764.40069221 0 0 0 0 -119928427.69723511 72671568.179649353 0 72671568.179649353 -808966212.7373333 0 0 0 0 -152814257.95005035 6625643.1228160858 0 6625643.1228160858 137597761.65195274 0 0 0 0 48704442.420578003 -279567522.01506901 0 -279567522.01506901 -53713008.700878143 0 0 0 0 -524162827.63009644 340110977.4909687 0 340110977.4909687 -624816946.14762497 0 0 0 0 -116060071.25539398 96163694.819267273 0 96163694.819267273 -4347760.0194754601 0 0 0 0 269054762.01776123 200349907.7976799 0 200349907.7976799 79560891.962989807 0 0 0 0 115219280.73973083 216158674.64521408 0 216158674.64521408 747174496.17674255 0 0 0 0 2562042.963678075 1041444.2558199367 0 1041444.2558199367 -1699785.9187781988 0 0 0 0 -77715165.625463858 26820768.857621104 0 26820768.857621104 14326879.485005584 0 0 0 0 -73251043.259235382 -270206360.63237 0 -270206360.63237 33291928.257469177 0 0 0 0 -414970696.6237793 283705894.11309433 0 283705894.11309433 -55319370.931594849 0 0 0 0 -164804306.8624115 -139258496.76287651 0 -139258496.76287651 659692827.11955261 0 0 0 0 -238561899.7606678 824194279.73402977 0 824194279.73402977 -879089741.21560669 0 0 0 0 92445630.331329346 -214531209.92437744 0 -214531209.92437744 -638324247.59928894 0 0 0 0 1070346663.5098877 -1248115146.2225876 0 -1248115146.2225876 445759171.1134882 0 0 0 0 2084453025.3053436 344464821.87160683 0 344464821.87160683 -1955843667.9301605 0 0 0 0 -146322413.8099823 -106901052.34828949 0 -106901052.34828949 -442042285.28809738 0 0 0 0 -59471734.375640869 -207699213.26625061 0 -207699213.26625061 -423220226.65722466 0 0 0 0 118646.64309681207 -2690590.1313969493 0 -2690590.1313969493 -5209802.3026833385 0 0 0 0 -2524650645.0302124 158125769.28918648 0 158125769.28918648 534382330.75661469 0 0 0 0 -183285931.22091997 1254166574.9056661 0 1254166574.9056661 335837480.62510681 0 0 0 0 -1424818876.555603 857924106.71348572 0 857924106.71348572 -241691819.11024475 0 0 0 0 -2048512837.1909485 -1100150524.338356 0 -1100150524.338356 -374256882.45580101 0 0 0 0 -176602749.13879395 -2938479733.1541519 0 -2938479733.1541519 1655330002.5967865 0 0 0 0 -117440089.63148302 23691938.866255999 0 23691938.866255999 -11776251.64630127 0 0 0 0 -72132777.462442622 14308852.892918568 0 14308852.892918568 -9931097.3466763608 0 0 0 0 7774326.3057986647 27002224.379357241 0 27002224.379357241 -14597756.458514363 0 0 0 0 18785695.279825479 12523955.132793542 0 12523955.132793542 -10266802.486339368 0 0 0 0 -5984677334.916626 3580545861.787323 0 3580545861.787323 -2287459342.8477173 0 0 0 0 -33100058.64141427 25454971.924595304 0 25454971.924595304 -5395118.9154873658 0 0 0 0 48996866.192840576 70478025.535606384 0 70478025.535606384 53382379.473670959 0 0 0 0 -436880637.10105991 -296883698.92161322 0 -296883698.92161322 79359639.694316864 0 0 0 0 405629535.74734497 311728839.37870407 0 311728839.37870407 -1086999525.0845585 0 0 0 0 -163298950.80136871 74615074.184231758 0 74615074.184231758 347611190.49791431 0 0 0 0 -187890999.06896782 -226523857.48620605 0 -226523857.48620605 38241979.272172928 0 0 0 0 -12820693.344818115 39330914.653129578 0 39330914.653129578 42567139.831581116 0 0 0 0 -45166071.095318541 20656365.493167128 0 20656365.493167128 -6647824.4421377089 0 0 0 0 -58241773.392120361 -12526109.026126862 0 -12526109.026126862 69233650.023212433 0 0 0 0 2242547.0280681625 841748.94103672355 0 841748.94103672355 -4052514.7681969088 0 0 0 0 -117596103.82684326 -139479805.43419647 0 -139479805.43419647 390529757.1815753 0 0 0 0 -63826169.535774514 -3576850.6621128842 0 -3576850.6621128842 15012394.185293324 0 0 0 0 1261336577.3757172 701501702.97154427 0 701501702.97154427 -380496279.60778046 0 0 0 0 -53423343.558272749 18819288.602819297 0 18819288.602819297 -4687730.0623822771 0 0 0 0 158161264.19534111 50987126.065701723 0 50987126.065701723 83887705.802879333 0 0 0 0 702145050.51751709 53121655.941108704 0 53121655.941108704 -87601762.340393066 0 0 0 0 35174969.011138916 -58083098.226459503 0 -58083098.226459503 -89270853.152656555 0 0 0 0 60050901.968170166 2228300.0543670654 0 2228300.0543670654 -33924476.694694519 0 0 0 0 -72145478.026290894 63490624.922180176 0 63490624.922180176 64415071.349693298 0 0 0 0 750222206.88577271 181603127.53197098 0 181603127.53197098 16451956.905258179 0 0 0 0 -35949706.217107132 15867425.666312288 0 15867425.666312288 -11134992.477250602 0 0 0 0 26405080.323883057 -77090282.146003723 0 -77090282.146003723 -30116095.744018555 0 0 0 0 121227656.28846741 61024215.993919373 0 61024215.993919373 -17350998.946174622 0 0 0 0 339841.09521003067 201007.68201091141 0 201007.68201091141 -875632.13159446418 0 0 0 0 117858497.87446594 -47435736.308319092 0 -47435736.308319092 -63867195.602565765 0 0 0 0 -12149455.284912109 -80643260.9427948 0 -80643260.9427948 2122341157.0292664 0 0 0 0 820496752.49438477 195880329.1398468 0 195880329.1398468 -23061961.974822998 0 0 0 0 555696826.26651001 232445733.14084244 0 232445733.14084244 635793558.6390686 0 0 0 0 -2727075.192503199 8447234.3415893801 0 8447234.3415893801 1492513.9602120146 0 0 0 0 317463828.09359741 -374333196.82218933 0 -374333196.82218933 620813682.83621216 0 0 0 0 547595415.20056152 -193329954.40405273 0 -193329954.40405273 592518483.3223114 0 0 0 0 851764584.59051514 205424857.80458832 0 205424857.80458832 818723117.74053955 0 0 0 0 393932355.61132812 403368974.32608032 0 403368974.32608032 1707015636.5605469 0 0 0 0 270579205.83587646 17511950.390830994 0 17511950.390830994 1045230885.9273529 0 0 0 0 14263884.271179199 -203746676.92727661 0 -203746676.92727661 1477147483.9282532 0 0 0 0 136619419.66430664 126337545.89950562 0 126337545.89950562 1183368215.2111816 0 0 0 0 228780790.92150879 -10495488.315933228 0 -10495488.315933228 711705143.51519775 0 0 0 0 312752389.85418701 165526416.94870377 0 165526416.94870377 987784731.81103516 0 0 0 0 19961446.827697754 48288570.282684326 0 48288570.282684326 846383308.45523834 0 0 0 0 90081000.810791016 123920921.57545471 0 123920921.57545471 908793481.12857127 0 0 0 0 33675665.052490234 -145502826.69474792 0 -145502826.69474792 1055701492.5211487 0 0 0 0 115570982.65527344 19463863.729064941 0 19463863.729064941 910907517.38148785 0 0 0 0 -364581864.18591309 -186723252.90609169 0 -186723252.90609169 466213416.34609222 0 0 0 0 120531443.28814697 -293269680.86538696 0 -293269680.86538696 7248815.1710186005 0 0 0 0 -51614296.482971191 -212134664.84958649 0 -212134664.84958649 643940388.26680756 0 0 0 0 -119108485.34771729 -383680754.28826904 0 -383680754.28826904 276522085.20791626 0 0 0 0 -396287575.30763245 -291387425.74032402 0 -291387425.74032402 135256283.17882538 0 0 0 0 -1084645166.7083435 -272936221.61358643 0 -272936221.61358643 394822046.83732986 0 0 0 0 -1310002034.0226746 324656684.89437103 0 324656684.89437103 145939090.90475082 0 0 0 0 -731380935.77642822 172093916.56900787 0 172093916.56900787 123309601.90490198 0 0 0 0 -6531081.0579528697 -3101270.4155360013 0 -3101270.4155360013 -189486.71158760414 0 0 0 0 -309923842.55647278 358254491.81637955 0 358254491.81637955 -440752288.55262756 0 0 0 0 -4944711.3225987405 290670.88078068197 0 290670.88078068197 1767425.6161496751 0 0 0 0 200825695.88362503 -199813658.55610371 0 -199813658.55610371 -1039968020.848877 0 0 0 0 -1443154190.4776917 -611513571.05399323 0 -611513571.05399323 60458214.33555603 0 0 0 0 -372937751.04949951 -309261367.33374405 0 -309261367.33374405 125335852.75017166 0 0 0 0 -261096643.42297363 -356757347.58831024 0 -356757347.58831024 86693130.623191833 0 0 0 0 -242849944.39324951 -306832941.5584259 0 -306832941.5584259 12583232.588611603 0 0 0 0 -212119489.03561401 -102781341.7947979 0 -102781341.7947979 48489609.542551041 0 0 0 0 -488354547.00799561 63545501.331599236 0 63545501.331599236 138885316.9757576 0 0 0 0 -503911948.89337158 -25314452.902809143 0 -25314452.902809143 31620123.123638153 0 0 0 0 -448915966.50008392 -291400518.16476059 0 -291400518.16476059 278932319.97888184 0 0 0 0 -477660271.83599854 -268156863.43515015 0 -268156863.43515015 264564599.11067581 0 0 0 0 -206598587.90368652 -422691216.60461426 0 -422691216.60461426 291749073.72301483 0 0 0 0 -523890079.33868408 -423461413.39164209 0 -423461413.39164209 433244253.0039444 0 0 0 0 89865962.462646484 -474379895.55499268 0 -474379895.55499268 400628204.67316437 0 0 0 0 -207534761.69378662 -413538809.42134476 0 -413538809.42134476 416491525.95921326 0 0 0 0 -164178407.83355713 -433864776.97905731 0 -433864776.97905731 267719482.16782665 0 0 0 0 19577548.907165527 -399817139.2657547 0 -399817139.2657547 259441415.4571228 0 0 0 0 -342238327.51677704 -415192033.83091831 0 -415192033.83091831 291987090.48993683 0 0 0 0 67104992.687255859 -94694737.769981384 0 -94694737.769981384 714016379.81016874 0 0 0 0 344786338.08648682 -84001149.349555969 0 -84001149.349555969 439258110.33850098 0 0 0 0 29608934.89239502 -153424453.94833374 0 -153424453.94833374 438101948.90597999 0 0 0 0 140095322.63580322 -195870553.57633209 0 -195870553.57633209 639157067.29241943 0 0 0 0 253218206.97122192 -241631516.72153091 0 -241631516.72153091 390257932.75245667 0 0 0 0 -19592352.811157227 -370068153.21842957 0 -370068153.21842957 382926274.73890638 0 0 0 0 -25958307.465881348 -318940466.96078491 0 -318940466.96078491 156043881.99489594 0 0 0 0 -80082366.353942871 -327214926.86671448 0 -327214926.86671448 257192985.05002975 0 0 0 0 159521018.46630859 -239237684.83852386 0 -239237684.83852386 284794825.71162415 0 0 0 0 -43874639.141098022 -207593308.92210579 0 -207593308.92210579 186272228.06594086 0 0 0 0 57852863.718933105 -196376014.55476379 0 -196376014.55476379 324310506.38723755 0 0 0 0 -29641523.284545898 -141434771.12774277 0 -141434771.12774277 295452461.88877487 0 0 0 0 -140392952.64967346 -70721783.691286087 0 -70721783.691286087 362324081.4151001 0 0 0 0 50241630.704107285 -12549035.258240461 0 -12549035.258240461 373619467.46737671 0 0 0 0 -210987508.98801994 -231889483.07010794 0 -231889483.07010794 184225997.63487244 0 0 0 0 -201243421.16174316 -185112385.38687515 0 -185112385.38687515 93506903.88218689 0 0 0 0 -175818976.43447876 -371107363.74108124 0 -371107363.74108124 54292628.239692688 0 0 0 0 -198821266.03125 -339576200.92921448 0 -339576200.92921448 156370152.63048553 0 0 0 0 -282680373.45236206 -328592291.05502319 0 -328592291.05502319 -72605175.675758362 0 0 0 0 -319737752.21264648 -313802787.56586456 0 -313802787.56586456 33096411.478233337 0 0 0 0 -410947454.77801514 -275934738.8495636 0 -275934738.8495636 54184918.111701965 0 0 0 0 -332112230.29988098 -85671495.394768715 0 -85671495.394768715 3041966.2755279541 0 0 0 0 -266472070.23019028 -389099208.60583401 0 -389099208.60583401 77874771.305130005 0 0 0 0 -200748254.40634155 -454840752.50575638 0 -454840752.50575638 131584387.81340027 0 0 0 0 -152154635.68395996 -443288702.99638367 0 -443288702.99638367 46786719.610202789 0 0 0 0 -185401309.88750458 -383167428.42067528 0 -383167428.42067528 171090286.0791626 0 0 0 0 -209409882.99050903 -421397949.39381409 0 -421397949.39381409 -63324217.22795105 0 0 0 0 -226020386.11715698 -400652114.2283287 0 -400652114.2283287 30755982.370941162 0 0 0 0 -202608202.59436035 -443987247.27729797 0 -443987247.27729797 -32562958.726894379 0 0 0 0 -156600316.40490723 -362639320.36751938 0 -362639320.36751938 -91494558.979488373 0 0 0 0 -153265609.16893768 -386347840.0861764 0 -386347840.0861764 -127753100.3556366 0 0 0 0 -174076589.1208725 -469712432.32939386 0 -469712432.32939386 -278822644.96966553 0 0 0 0 -103207478.05822754 -341460793.10237122 0 -341460793.10237122 -230021391.30927944 0 0 0 0 -63853599.651306152 -319009594.83589554 0 -319009594.83589554 -198893482.77507401 0 0 0 0 -415953874.70166016 -437916869.55967712 0 -437916869.55967712 -64530156.387097359 0 0 0 0 -397906237.83175659 -263569860.92755508 0 -263569860.92755508 -93708221.498662949 0 0 0 0 -602342637.94564819 -236793953.65551615 0 -236793953.65551615 -203394367.47880554 0 0 0 0 -582371121.99597168 -366408823.53092766 0 -366408823.53092766 -128442123.71946716 0 0 0 0 -1676726794.2485657 -387842699.27721405 0 -387842699.27721405 -58950695.966205597 0 0 0 0 -425544075.46027374 -673078952.97219419 0 -673078952.97219419 -491918349.28922272 0 0 0 0 -175531058.56439209 -876570636.59892082 0 -876570636.59892082 -837665931.21917725 0 0 0 0 -2824667.3905325234 126813.27148954198 0 126813.27148954198 1498850.1014987696 0 0 0 0 108532878.24816895 -104927109.01296425 0 -104927109.01296425 -277802557.20275688 0 0 0 0 -18904381.104095459 -282586894.38942909 0 -282586894.38942909 -220355687.245924 0 0 0 0 -115222861.10070801 -326224732.52593994 0 -326224732.52593994 -168558587.95145798 0 0 0 0 -71593071.417785645 -99442366.687772751 0 -99442366.687772751 179353087.57740021 0 0 0 0 -21184367.192779541 -106629386.77868652 0 -106629386.77868652 -19050268.99622345 0 0 0 0 -7066851.618347168 -221102773.95246506 0 -221102773.95246506 5840446.4521408081 0 0 0 0 12368923.098937988 -73408100.690382004 0 -73408100.690382004 7665219.9872779846 0 0 0 0 20520802.894836426 -174213780.57528114 0 -174213780.57528114 -116530954.42137909 0 0 0 0 -102496636.42355347 -278425947.81093216 0 -278425947.81093216 -113664420.7268486 0 0 0 0 -90065667.259643555 -275407792.31383896 0 -275407792.31383896 -121701921.90242791 0 0 0 0 -111906867.58834362 -166365620.04364419 0 -166365620.04364419 -27518769.757141113 0 0 0 0 -164871673.5879097 -321079125.98339272 0 -321079125.98339272 -63625809.536506653 0 0 0 0 -287045927.67177582 -184000775.41417837 0 -184000775.41417837 -28872831.462623596 0 0 0 0 -127991958.5544281 -104074704.68413067 0 -104074704.68413067 -52809033.961832047 0 0 0 0 -118359235.24450684 -155999119.24695301 0 -155999119.24695301 -40178211.950124741 0 0 0 0 -65581831.92086792 -37270213.668200493 0 -37270213.668200493 251087902.96335411 0 0 0 0 -61443817.863586426 -203022754.17859173 0 -203022754.17859173 140392717.49185562 0 0 0 0 -142996510.01145172 -112674253.5253849 0 -112674253.5253849 435372023.28149033 0 0 0 0 165856377.89160156 -222928982.53048229 0 -222928982.53048229 72873237.640411377 0 0 0 0 -15299443.129882812 -170190691.90455627 0 -170190691.90455627 66218664.196865082 0 0 0 0 7218262.9698638916 -64353486.207291126 0 -64353486.207291126 373872058.31008148 0 0 0 0 -331737863.32684326 180524226.65167427 0 180524226.65167427 476102219.34846401 0 0 0 0 364728.08184814453 -5225572.5412788391 0 -5225572.5412788391 14941157.211277008 0 0 0 0 -4896843.323186636 1572411.5054972805 0 1572411.5054972805 4494960.9657703051 0 0 0 0 -308547530.86578369 -211680771.13518906 0 -211680771.13518906 408441533.82389951 0 0 0 0 -2487634.3460693359 -63683373.479728699 0 -63683373.479728699 374345306.71053743 0 0 0 0 -19468038.787994385 -10763548.46382618 0 -10763548.46382618 23645339.388465881 0 0 0 0 -7267037.8795084208 -633013.55974616483 0 -633013.55974616483 1999440.0952662057 0 0 0 0 -176409341.43914795 -29706056.612644196 0 -29706056.612644196 441764174.29459679 0 0 0 0 -1633209.1601654738 -93799.534198604524 0 -93799.534198604524 1580236.4143030001 0 0 0 0 -476978643.00579834 -77894115.715044975 0 -77894115.715044975 31247566.07431078 0 0 0 0 279719789.51208496 -147212654.07120514 0 -147212654.07120514 -14864136.408621788 0 0 0 0 294304142.79721069 215140999.22307444 0 215140999.22307444 208199379.95165443 0 0 0 0 521333295.23760986 -79255976.194574356 0 -79255976.194574356 -68808913.140193939 0 0 0 0 -331507830.13635254 229052811.79187489 0 229052811.79187489 70550341.602843285 0 0 0 0 -398485102.9263916 43595372.939167023 0 43595372.939167023 182289477.13092804 0 0 0 0 -621578892.20980835 334011774.71161246 0 334011774.71161246 42100131.488382339 0 0 0 0 -549097648.22543335 -27370310.915934563 0 -27370310.915934563 279076933.85857487 0 0 0 0 -774284786.05637741 448711961.58336514 0 448711961.58336514 -121420760.5667429 0 0 0 0 -777483083.0692749 140871208.50797606 0 140871208.50797606 68866159.212291479 0 0 0 0 -1002805759.9058456 106076501.30785042 0 106076501.30785042 -176409076.45235252 0 0 0 0 -246193583.12432861 170585771.13840175 0 170585771.13840175 -213719644.62154698 0 0 0 0 -594618274.53713989 304807579.06208378 0 304807579.06208378 -550634529.74533629 0 0 0 0 -213118223.62698364 160802186.08751446 0 160802186.08751446 -238144642.14176524 0 0 0 0 10769617.460449219 -233598307.93146336 0 -233598307.93146336 -179477290.60304213 0 0 0 0 -982509256.33938599 951917472.24926233 0 951917472.24926233 -515362062.21355712 0 0 0 0 -1187977131.632019 1037602507.9352155 0 1037602507.9352155 -407586132.52395868 0 0 0 0 -1587892698.3630295 768958580.58489692 0 768958580.58489692 -43290555.085726738 0 0 0 0 -867762080.40761948 460159097.82077283 0 460159097.82077283 -519237516.97789371 0 0 0 0 -1232571627.9477539 280789139.26616859 0 280789139.26616859 -173651791.2904048 0 0 0 0 -1031683887.4642639 302656040.93778896 0 302656040.93778896 104604386.9596405 0 0 0 0 -912821971.20187378 674990321.32195175 0 674990321.32195175 -100261142.79027367 0 0 0 0 -1011641132.1785583 803448416.10447598 0 803448416.10447598 -273716963.78870296 0 0 0 0 -1079374643.1705627 665162038.53578568 0 665162038.53578568 -11526073.599676132 0 0 0 0 -1053078916.3078918 901488368.97052479 0 901488368.97052479 -270245350.0227356 0 0 0 0 -1085079893.9975281 812322609.5395956 0 812322609.5395956 -182968468.10340881 0 0 0 0 -1064943564.3374939 630110707.11647415 0 630110707.11647415 -119830686.16457796 0 0 0 0 -1060695143.800705 650706175.820014 0 650706175.820014 -43125476.480278015 0 0 0 0 -731272730.28607178 600919364.18725586 0 600919364.18725586 -145401556.80744934 0 0 0 0 -521228511.64752197 161535662.43536758 0 161535662.43536758 144395695.32009983 0 0 0 0 -759560116.55969238 577803271.55722332 0 577803271.55722332 -10437456.056201935 0 0 0 0 -745549032.62231445 571834190.26018143 0 571834190.26018143 -80627048.318306923 0 0 0 0 -686493768.8991394 395879887.34883761 0 395879887.34883761 36286753.354644775 0 0 0 0 -193764401.68295288 521785332.41909599 0 521785332.41909599 -162534645.67192459 0 0 0 0 66073074.972991943 46036171.499376297 0 46036171.499376297 -124358451.06859589 0 0 0 0 840660.4375 -5783665.9477081299 0 -5783665.9477081299 14711974.490249634 0 0 0 0 -102894184.14266968 -217220237.23108864 0 -217220237.23108864 246522248.16942596 0 0 0 0 -636154002.65698242 278789752.466259 0 278789752.466259 -225870147.35931206 0 0 0 0 -588852685.20263672 564552533.58115768 0 564552533.58115768 -130452744.06839752 0 0 0 0 -5718423.4857543558 -1107172.1294498593 0 -1107172.1294498593 879309.74043760262 0 0 0 0 -20692866.682037354 -314244388.8847847 0 -314244388.8847847 225172435.30555725 0 0 0 0 -3685943.140188098 2413078.8433077224 0 2413078.8433077224 4667555.6789046414 0 0 0 0 -3092862.5861206055 -283178978.1300354 0 -283178978.1300354 78400096.896570206 0 0 0 0 -1363892492.3788834 206811049.72074127 0 206811049.72074127 -470809905.72859573 0 0 0 0 -1138215390.3093262 754327656.17336845 0 754327656.17336845 -261475632.56760025 0 0 0 0 -815676658.83032227 468219709.45544243 0 468219709.45544243 -99992045.99450779 0 0 0 0 -820593069.83709717 1157526261.0626545 0 1157526261.0626545 -935914891.24134064 0 0 0 0 -1771261572.5749207 118554219.02836549 0 118554219.02836549 -412605959.73106003 0 0 0 0 -1812681952.8300476 461412319.89670944 0 461412319.89670944 -388134750.74758148 0 0 0 0 -797681426.18838501 265344942.71767902 0 265344942.71767902 -760845767.59234476 0 0 0 0 -730947123.79522705 268619225.92032433 0 268619225.92032433 -762392167.04837418 0 0 0 0 -441391214.62463379 367031471.06459999 0 367031471.06459999 -906442171.19584656 0 0 0 0 -615176223.02719116 443753626.95058632 0 443753626.95058632 -805728142.30215454 0 0 0 0 -622501718.81782532 711410059.36189795 0 711410059.36189795 -723642292.77596378 0 0 0 0 -1009655273.5699005 452127057.80759525 0 452127057.80759525 -303548764.18224335 0 0 0 0 -987629513.91448975 620404316.75350714 0 620404316.75350714 -398800074.72800446 0 0 0 0 -851979232.62956238 738603057.15535915 0 738603057.15535915 -460447759.94030762 0 0 0 0 -861031737.02661133 737387790.68741608 0 737387790.68741608 -308348627.81718683 0 0 0 0 -551933365.95645142 726320742.08515251 0 726320742.08515251 -461798456.11167133 0 0 0 0 -603272007.49567413 680834585.95442438 0 680834585.95442438 -417739611.96250558 0 0 0 0 -768830022.42092896 937280066.69420922 0 937280066.69420922 -494519216.02931744 0 0 0 0 -986591028.00268555 1029090743.8203888 0 1029090743.8203888 -533038985.57632506 0 0 0 0 -627763383.44754028 289090862.84089279 0 289090862.84089279 -83692659.434675634 0 0 0 0 -405215263.60942078 551103626.20873117 0 551103626.20873117 -450892089.39656019 0 0 0 0 -668487672.1714325 702643840.47989464 0 702643840.47989464 -430184706.03731275 0 0 0 0 -1207195722.6141129 448306509.05193722 0 448306509.05193722 -101747074.56794262 0 0 0 0 -224851906.08731842 -92200944.823327184 0 -92200944.823327184 9006045.2662343979 0 0 0 0 997973.12227537483 -451529.50763881207 0 -451529.50763881207 -3978331.8081207876 0 0 0 0 -748838493.31963348 965120797.70271492 0 965120797.70271492 -1027121899.966342 0 0 0 0 -317499706.2377243 462211303.08887219 0 462211303.08887219 -1387564477.7501965 0 0 0 0 -485372668.28903198 303494491.5979681 0 303494491.5979681 -840724741.48162651 0 0 0 0 -302711408.95120239 502588543.74958992 0 502588543.74958992 -689136082.10848618 0 0 0 0 -207208435.12838745 413797310.73247147 0 413797310.73247147 -373143545.36613464 0 0 0 0 -99499425.787857056 298071506.7887249 0 298071506.7887249 -566371289.45137024 0 0 0 0 -387288844.44232178 406295255.3548069 0 406295255.3548069 -486567019.62677574 0 0 0 0 -313411454.33679962 265091925.36695385 0 265091925.36695385 -133991510.00234985 0 0 0 0 -252316815.31939697 235937844.59841919 0 235937844.59841919 -352051689.00927734 0 0 0 0 -407518255.27768326 202928031.33589768 0 202928031.33589768 -673268813.2710762 0 0 0 0 -511448122.15100861 173682076.64526272 0 173682076.64526272 -817104404.93670654 0 0 0 0 -390918585.73764038 352831891.68153763 0 352831891.68153763 -919545543.02238846 0 0 0 0 -544238081.59512329 383238463.77192497 0 383238463.77192497 -682697196.8693409 0 0 0 0 -681426820.96000671 73526429.222400665 0 73526429.222400665 -387550568.8014946 0 0 0 0 -917034394.82794189 -99911234.874187469 0 -99911234.874187469 -1069006566.4336929 0 0 0 0 -937166038.7331543 461731708.9828434 0 461731708.9828434 -928975732.19691658 0 0 0 0 -552121031.85339355 170247477.0138588 0 170247477.0138588 -333366046.75608826 0 0 0 0 -447714128.26731873 26025451.850061417 0 26025451.850061417 -201696274.58174896 0 0 0 0 -520001225.60565186 118193648.09465218 0 118193648.09465218 -62729296.215400696 0 0 0 0 -796583152.93634033 -6831261.3205032349 0 -6831261.3205032349 -71497643.854187012 0 0 0 0 -457775110.7722168 -145504515.88075638 0 -145504515.88075638 -20680509.334815979 0 0 0 0 -500187457.1361084 94189992.187412262 0 94189992.187412262 -54391839.128753662 0 0 0 0 -460481434.48287964 166070489.76972771 0 166070489.76972771 -353974759.83278275 0 0 0 0 -347939747.10614014 275816690.73485947 0 275816690.73485947 -304035474.50382805 0 0 0 0 -308625858.40405273 320171405.3972615 0 320171405.3972615 -149788580.06533051 0 0 0 0 -319761997.38223267 132393141.57836533 0 132393141.57836533 -66918089.040679932 0 0 0 0 -319337285.56946754 56639712.86665988 0 56639712.86665988 94878309.276390076 0 0 0 0 -311530331.44298553 235548881.90713298 0 235548881.90713298 96611350.054283142 0 0 0 0 -214038228.4152832 103509762.9136734 0 103509762.9136734 161236366.36064148 0 0 0 0 -321782522.51135254 -145163392.68356323 0 -145163392.68356323 94253487.567611694 0 0 0 0 -325466807.38116455 45183836.283123016 0 45183836.283123016 96307869.762435913 0 0 0 0 -351308682.98455811 171799982.1315155 0 171799982.1315155 -45952039.863239288 0 0 0 0 -382740902.58563232 -20765011.286827087 0 -20765011.286827087 32218742.224369049 0 0 0 0 -289061904.20465088 148521365.61790466 0 148521365.61790466 214039790.46669006 0 0 0 0 -239659625.71148682 -46897957.441902161 0 -46897957.441902161 168437613.69160461 0 0 0 0 -193341146.81629944 -53203612.534592628 0 -53203612.534592628 158454211.12934875 0 0 0 0 -145434565.22143555 -121209522.53242874 0 -121209522.53242874 227159211.60135651 0 0 0 0 -188542283.42451477 41055584.361750603 0 41055584.361750603 275307328.97325134 0 0 0 0 -193107885.34020996 -47039513.586601257 0 -47039513.586601257 399848782.07162857 0 0 0 0 -203035931.18339157 117852434.65088391 0 117852434.65088391 442439745.14881897 0 0 0 0 -86911939.025024414 -1273782.5631141663 0 -1273782.5631141663 442964864.09104919 0 0 0 0 -172309753.8883667 -30644628.536426544 0 -30644628.536426544 683458932.35395813 0 0 0 0 -57431271.887878418 38330519.710830688 0 38330519.710830688 440584445.63266754 0 0 0 0 20743925.667053223 -30412807.408679962 0 -30412807.408679962 591622986.4262085 0 0 0 0 -105072965.91381836 -32350292.509723663 0 -32350292.509723663 592647415.36869812 0 0 0 0 -276841291.47315216 222800447.84998417 0 222800447.84998417 263686908.63965607 0 0 0 0 -155216957.9624939 158253910.24615145 0 158253910.24615145 267353000.37934875 0 0 0 0 -228004902.75830078 184762389.13266373 0 184762389.13266373 305575155.49388123 0 0 0 0 -205560586.25881958 24902020.101680756 0 24902020.101680756 278822348.25991058 0 0 0 0 -200816025.23944092 114098849.86935234 0 114098849.86935234 586711976.50808716 0 0 0 0 -183547859.20611572 21555311.513145447 0 21555311.513145447 435293326.91845703 0 0 0 0 -145676497.00588989 222671382.36135864 0 222671382.36135864 223738724.96544647 0 0 0 0 -209465981.44244385 93567004.067695618 0 93567004.067695618 479250277.93988228 0 0 0 0 -203451846.90307617 180086988.23009491 0 180086988.23009491 205252960.37445068 0 0 0 0 -171505451.26919556 288226016.27827072 0 288226016.27827072 83322384.580848694 0 0 0 0 -121560462.89935303 295187047.14732552 0 295187047.14732552 -96222637.693862915 0 0 0 0 -163675529.94497681 267951598.66841507 0 267951598.66841507 -105628118.60014343 0 0 0 0 -229261211.67294312 163548848.58967018 0 163548848.58967018 99055054.50245285 0 0 0 0 -217932713.80413818 321009054.72275925 0 321009054.72275925 -105946027.13032532 0 0 0 0 76336912.574737549 120149228.33250618 0 120149228.33250618 -302638186.58184433 0 0 0 0 -15880859.762908936 188705187.59339333 0 188705187.59339333 -18746638.334880829 0 0 0 0 -4701477.3406219482 296191521.80472755 0 296191521.80472755 -299185409.41565895 0 0 0 0 -19036084.645950317 195255456.23683929 0 195255456.23683929 -142305917.94784164 0 0 0 0 -82646343.248504639 359257160.54487705 0 359257160.54487705 -371692438.24094772 0 0 0 0 -39651033.893630981 126801956.98759842 0 126801956.98759842 164479587.71427917 0 0 0 0 -110498159.91599274 234555617.81775188 0 234555617.81775188 214638178.22877502 0 0 0 0 25805781.185409546 194941600.44524765 0 194941600.44524765 -20161249.419025421 0 0 0 0 3776401.2021484375 140331641.58965874 0 140331641.58965874 151607373.49386978 0 0 0 0 112588233.00527954 205708663.55327988 0 205708663.55327988 -7073404.8428001404 0 0 0 0 -23239099.08667234 15772487.729729172 0 15772487.729729172 -25359908.6735305 0 0 0 0 -22220310.684074402 6013922.0474677384 0 6013922.0474677384 42438241.805017993 0 0 0 0 265857788.6461792 -58429752.710786432 0 -58429752.710786432 -331452195.71668082 0 0 0 0 73820355.467489958 194791930.04232442 0 194791930.04232442 -319579903.93146133 0 0 0 0 88476689.528518677 24592738.780977249 0 24592738.780977249 45923655.959849834 0 0 0 0 263248118.67907715 65142477.232858658 0 65142477.232858658 -987369018.31522179 0 0 0 0 141471905.1337738 -231545894.89788246 0 -231545894.89788246 -484982457.87242937 0 0 0 0 86830593.357065201 -117527512.07557917 0 -117527512.07557917 93887835.097278595 0 0 0 0 -16594236.268671587 12570567.541870575 0 12570567.541870575 -19521615.117932547 0 0 0 0 237920380.42353821 77879284.910119534 0 77879284.910119534 -216664735.49676514 0 0 0 0 -357292778.85772705 -437914571.37600708 0 -437914571.37600708 -1381451917.0989532 0 0 0 0 -2978966.1470633596 8187991.4412133992 0 8187991.4412133992 13020.885656523518 0 0 0 0 355164004.96934509 -187538511.29668665 0 -187538511.29668665 -1609383874.9572964 0 0 0 0 56339896.866485596 450139621.05040169 0 450139621.05040169 -2594433207.5676508 0 0 0 0 320209383.60180664 42369691.262482643 0 42369691.262482643 -992517112.19317412 0 0 0 0 405350710.67132568 244992192.73065472 0 244992192.73065472 -1043125289.6954041 0 0 0 0 399466705.59963989 68474514.991770744 0 68474514.991770744 -1365767998.2023926 0 0 0 0 143494213.9786377 220738649.19902802 0 220738649.19902802 -367442438.93444347 0 0 0 0 145098656.6491394 211556876.14883804 0 211556876.14883804 -521491767.20931244 0 0 0 0 262128923.12315464 36336110.851740628 0 36336110.851740628 -783916818.32555771 0 0 0 0 -141496611.79943848 334777457.0017662 0 334777457.0017662 -380291978.3738327 0 0 0 0 34055959.094841003 439328216.97084713 0 439328216.97084713 -776615282.06627655 0 0 0 0 392744077.28329468 385254295.09434414 0 385254295.09434414 -863787497.9984808 0 0 0 0 786212509.39846802 775865742.83970547 0 775865742.83970547 -1278403984.7162466 0 0 0 0 -105753299.63482285 740125269.18627524 0 740125269.18627524 -1112730864.4704609 0 0 0 0 573771006.62236786 212960849.04117239 0 212960849.04117239 -1096206631.7928667 0 0 0 0 479803574.68074036 390064265.45501232 0 390064265.45501232 -1403174110.8297729 0 0 0 0 505215198.77801514 699712470.80720377 0 699712470.80720377 -777875617.64682198 0 0 0 0 1252824091.5856171 396976920.12737548 0 396976920.12737548 -1079586262.8972874 0 0 0 0 565722372.67687988 232638879.11356154 0 232638879.11356154 129906003.06788433 0 0 0 0 285139261.57625198 836774627.70425391 0 836774627.70425391 1342617518.1587992 0 0 0 0 518279268.42906189 883413517.35895205 0 883413517.35895205 289079248.51489997 0 0 0 0 -2498990.9628230631 1434267.7001186684 0 1434267.7001186684 -4637848.0906082755 0 0 0 0 83674454.744590759 45890097.148685098 0 45890097.148685098 -106179068.95760703 0 0 0 0 -778663322.96614075 -156899150.92040169 0 -156899150.92040169 909365553.74516296 0 0 0 0 643315132.41343689 776929718.27385879 0 776929718.27385879 -410469503.75287318 0 0 0 0 -544328214.89085388 712037573.39137697 0 712037573.39137697 -305683078.01538253 0 0 0 0 -597178163.00281143 417702147.51353741 0 417702147.51353741 -579216113.59513688 0 0 0 0 -2208971257.9045868 887854419.12105799 0 887854419.12105799 299590195.10707569 0 0 0 0 471962566.07408142 489169906.4284277 0 489169906.4284277 -1280850718.5301957 0 0 0 0 259809533.80892944 190076359.8258791 0 190076359.8258791 -1189868583.4068625 0 0 0 0 -221376919.98924255 821121258.17691779 0 821121258.17691779 -2185933517.5909796 0 0 0 0 -265766450.35011292 734725843.63611889 0 734725843.63611889 -1695909412.0615635 0 0 0 0 -504962707.61387634 456549356.38933706 0 456549356.38933706 -1939327219.6884584 0 0 0 0 -2021909258.4264526 1028730339.7926817 0 1028730339.7926817 -1987829814.7384202 0 0 0 0 -2085598102.6180573 1530530951.0457239 0 1530530951.0457239 -1973062312.1217391 0 0 0 0 -2523503419.2007599 1225816277.9650004 0 1225816277.9650004 -1414629818.8795056 0 0 0 0 -3010569740.0270386 1737149602.1352019 0 1737149602.1352019 -1864963496.3699579 0 0 0 0 -2053584227.3112335 1346669238.350812 0 1346669238.350812 -2778009270.6187906 0 0 0 0 -3317059162.8217926 1912469128.7824292 0 1912469128.7824292 -1137832428.1597066 0 0 0 0 -1622533944.3843079 834845552.72333622 0 834845552.72333622 -1196017966.3785689 0 0 0 0 -1609713726.5915222 1282277736.4273155 0 1282277736.4273155 -1203724002.7916625 0 0 0 0 -2198487685.0957794 1025985102.2769852 0 1025985102.2769852 -151929588.07474911 0 0 0 0 -2668499339.3332977 888277700.41963625 0 888277700.41963625 -25241337.492403626 0 0 0 0 -3880593411.1566162 879833982.27129543 0 879833982.27129543 907809079.03912973 0 0 0 0 -3834690736.888073 1039264576.9797308 0 1039264576.9797308 1124302951.8503413 0 0 0 0 -5281716218.960289 1532491888.0096288 0 1532491888.0096288 1301017883.634819 0 0 0 0 -4957390600.0618591 1910663774.4939852 0 1910663774.4939852 355008124.50732756 0 0 0 0 -4314468204.0773239 1487461114.2315428 0 1487461114.2315428 284847181.21953553 0 0 0 0 -6613137006.053421 2496028850.9161854 0 2496028850.9161854 669516143.91243291 0 0 0 0 -3335409076.1269226 2652401305.6360059 0 2652401305.6360059 -2761575093.6116576 0 0 0 0 -6618860470.981987 3424801150.256237 0 3424801150.256237 -955194254.31891978 0 0 0 0 -4626081831.0825272 2057903221.2729914 0 2057903221.2729914 -90591529.943029106 0 0 0 0 -2411046673.2046051 2276316987.2781258 0 2276316987.2781258 -2701339938.5071878 0 0 0 0 -6597136679.5520172 5962371865.8251772 0 5962371865.8251772 -5927292461.8148336 0 0 0 0 -11333969.63971556 7085494.7652289281 0 7085494.7652289281 -4075889.7291501891 0 0 0 0 -917245518.44801331 -885122143.0012219 0 -885122143.0012219 -296431636.51114953 0 0 0 0 -2527878720.9114113 1826846137.0431089 0 1826846137.0431089 -2926520804.6951437 0 0 0 0 -1551220366.2580414 2135427825.5061121 0 2135427825.5061121 -2981966386.4039526 0 0 0 0 -1315704489.2099152 1671141818.4233394 0 1671141818.4233394 -3512215149.0913258 0 0 0 0 -4220187.7563469559 1717939.0068321042 0 1717939.0068321042 500486.57680800743 0 0 0 0 26517732.342437744 -549974274.37169266 0 -549974274.37169266 -3349918150.9998183 0 0 0 0 -24872071.925420187 7101215.7090354804 0 7101215.7090354804 -3232802.4752635355 0 0 0 0 12166167.515678406 117871802.36696933 0 117871802.36696933 249792628.54631072 0 0 0 0 130650537.67592621 372638763.49740499 0 372638763.49740499 -193398577.91510785 0 0 0 0 263255724.6084137 -37925529.048845209 0 -37925529.048845209 -248212037.56195429 0 0 0 0 -365305328.67028809 -133717997.97717822 0 -133717997.97717822 196221899.6977455 0 0 0 0 42722379.903964996 101739834.91557577 0 101739834.91557577 -10646069.938089073 0 0 0 0 184098972.66131592 -68139538.123726428 0 -68139538.123726428 -187293419.46205017 0 0 0 0 -1009981.6015806869 449566.59478007723 0 449566.59478007723 118903.56150436455 0 0 0 0 20534073.642280579 20080966.976625517 0 20080966.976625517 -23876264.613279104 0 0 0 0 -20259724.540817261 11234069.45924288 0 11234069.45924288 27437838.664547026 0 0 0 0 -2838663.7228703648 2252891.4168195096 0 2252891.4168195096 601302.22907055309 0 0 0 0 4028308.0229568481 7910522.4503298998 0 7910522.4503298998 2921928.9656839371 0 0 0 0 -440953979.97149658 -367442490.96940577 0 -367442490.96940577 343710320.08524936 0 0 0 0 -5807583.8657810725 -5406449.6485073082 0 -5406449.6485073082 -6267653.5125138406 0 0 0 0 -7472641.3744259477 -3247712.2491045929 0 -3247712.2491045929 -5294621.3577674748 0 0 0 0 -19690521.187210083 10082791.050569888 0 10082791.050569888 -53976936.405217871 0 0 0 0 -579429.96011215448 1820394.7213327922 0 1820394.7213327922 -3400057.3183317115 0 0 0 0 -6546432350.4459534 2040174.2471963495 0 2040174.2471963495 2516311.7483610557 0 0 0 0 -6374335420.357666 -333623823.29401672 0 -333623823.29401672 304825104.2212593 0 0 0 0 -1242503259.2228241 3183942905.1407413 0 3183942905.1407413 -710251545.7154454 0 0 0 0 -3478045.1056048162 -1923740.7680667453 0 -1923740.7680667453 -3032474.784696138 0 0 0 0 -6584223834.4609423 1631955099.913805 0 1631955099.913805 895903014.01298118 0 0 0 0 -4229422226.4989014 -231546105.09794724 0 -231546105.09794724 86065781.517459095 0 0 0 0 -772065995.31483555 -901456412.83363628 0 -901456412.83363628 -489463073.81175375 0 0 0 0 120397706.34218597 440445871.17500043 0 440445871.17500043 -501903508.96672672 0 0 0 0 252692115.85300827 32667741.180729918 0 32667741.180729918 -669525076.7731427 0 0 0 0 -5686843081.7082214 509512472.92426997 0 509512472.92426997 -847932460.78631043 0 0 0 0 -5071584642.8407593 35849387.039105296 0 35849387.039105296 -1122736802.6219103 0 0 0 0 -5857654501.2026672 -484198564.29326856 0 -484198564.29326856 -447803267.35471064 0 0 0 0 -6617371135.329422 -33714118.446233481 0 -33714118.446233481 -572363647.50930774 0 0 0 0 -4467038583.7487488 -760544707.31217742 0 -760544707.31217742 -508578973.3702333 0 0 0 0 -5030565717.9542847 -37469800.394775391 0 -37469800.394775391 -376243988.06155896 0 0 0 0 -4476272029.5534058 200595089.68739071 0 200595089.68739071 -799377830.73770511 0 0 0 0 -5622074196.4701691 1181915622.8833816 0 1181915622.8833816 -92281808.824926153 0 0 0 0 -5773613516.1687164 800984851.32978272 0 800984851.32978272 -768741850.73493207 0 0 0 0 -6068607019.3434601 1641000465.337929 0 1641000465.337929 588711562.84161055 0 0 0 0 -1473520.5810385719 2068929.8433864564 0 2068929.8433864564 -2106346.4279197594 0 0 0 0 -7542406455.1242981 1753350692.193718 0 1753350692.193718 -420962876.82916307 0 0 0 0 -6242311233.6966248 1589127725.8925681 0 1589127725.8925681 -1340442550.8721764 0 0 0 0 -7484371344.9368896 1827904198.837697 0 1827904198.837697 -838785345.93027997 0 0 0 0 -5503164432.993042 559385481.55093658 0 559385481.55093658 -1069383193.0202835 0 0 0 0 -6938400232.2537231 798112403.1728704 0 798112403.1728704 -1048401659.9363517 0 0 0 0 -6983236880.586319 -132692053.04351217 0 -132692053.04351217 -1544783412.1232746 0 0 0 0 -5782629962.8558197 433362264.48611301 0 433362264.48611301 -1431282728.2423649 0 0 0 0 -7953627098.4955292 2136778205.8184211 0 2136778205.8184211 -534492020.70981026 0 0 0 0 -8140980.1222343296 341900.2718728967 0 341900.2718728967 1660171.9795386391 0 0 0 0 -40287993.768432617 -33577550.994055748 0 -33577550.994055748 -54327232.687971115 0 0 0 0 -6744031224.0135651 1210965985.7339435 0 1210965985.7339435 -377482258.86203718 0 0 0 0 -8700581615.2578125 729826054.32027435 0 729826054.32027435 -470857998.48810387 0 0 0 0 -3281928124.6612625 -1956768414.7579265 0 -1956768414.7579265 -1180313089.0282679 0 0 0 0 -6787100193.6471939 343045996.32154435 0 343045996.32154435 724628262.84475636 0 0 0 0 -5855818391.4186554 1477564791.6592264 0 1477564791.6592264 -1723066176.9329112 0 0 0 0 -6037367777.9834423 1143815944.810832 0 1143815944.810832 24049014.435022801 0 0 0 0 -5804156759.3470459 357567774.90204674 0 357567774.90204674 -1114577951.2278864 0 0 0 0 -5917292427.295372 303110867.40242463 0 303110867.40242463 -707774634.75198579 0 0 0 0 -6051708084.1293335 769906251.1543864 0 769906251.1543864 -923311973.44184494 0 0 0 0 -6613443387.5832596 742040831.58573377 0 742040831.58573377 80382362.351012915 0 0 0 0 -6198852497.6476746 1200262475.0710013 0 1200262475.0710013 399405129.26769304 0 0 0 0 -6284343408.0849915 875559341.8200171 0 875559341.8200171 638878716.57734764 0 0 0 0 -5624726153.1665802 1163592284.9523945 0 1163592284.9523945 746427237.79424858 0 0 0 0 -6614850053.064621 1024629153.1549271 0 1024629153.1549271 1083904964.7304461 0 0 0 0 -6017156925.8465729 1250295030.9469504 0 1250295030.9469504 1490166345.0762041 0 0 0 0 -6357431852.3669128 1352272501.9740496 0 1352272501.9740496 1493623479.6984763 0 0 0 0 -5323948013.1135998 1512548351.3374634 0 1512548351.3374634 1232312300.4684589 0 0 0 0 -6030197931.1086426 1686848292.5423241 0 1686848292.5423241 1363829505.9712474 0 0 0 0 -6614968776.1143112 1472453618.4332261 0 1472453618.4332261 1654309993.8545532 0 0 0 0 -3577585192.9477997 1308124415.0481827 0 1308124415.0481827 1017727195.4423962 0 0 0 0 -2524357444.9632721 314794445.56853354 0 314794445.56853354 825643543.74881792 0 0 0 0 -3639810878.0056915 1147632207.5681419 0 1147632207.5681419 816118015.39158595 0 0 0 0 -5202117352.0028658 861519317.58235216 0 861519317.58235216 1329228992.4757366 0 0 0 0 -4084666331.2380829 1098887357.1171193 0 1098887357.1171193 1041971052.2263752 0 0 0 0 -3929380156.6662159 -59753752.466938525 0 -59753752.466938525 747865206.29847431 0 0 0 0 -2674829653.1136627 326330776.42805815 0 326330776.42805815 560197888.63412905 0 0 0 0 -5787815936.2852688 698627215.63583076 0 698627215.63583076 1196480540.8646376 0 0 0 0 -5971340656.4502659 658271351.7320075 0 658271351.7320075 21007916.568384051 0 0 0 0 -5371177972.2814636 1214198477.5452855 0 1214198477.5452855 448065014.74404061 0 0 0 0 -4805329991.750309 -741320544.73836684 0 -741320544.73836684 1051357624.6189886 0 0 0 0 -1837975957.1281586 -974868228.73600411 0 -974868228.73600411 -80453663.911458671 0 0 0 0 -141162726.22650146 4949956.5701217651 0 4949956.5701217651 136518366.55622566 0 0 0 0 -90617627.962158203 -40328075.334304333 0 -40328075.334304333 -93686657.257968903 0 0 0 0 -139851580.86703491 -133594645.78017378 0 -133594645.78017378 163490445.87037849 0 0 0 0 -81227881.881408691 91146077.001297474 0 91146077.001297474 46931453.181763649 0 0 0 0 -14652159.741541952 11973644.563110299 0 11973644.563110299 484493.6879319658 0 0 0 0 -15809341.62890625 72886559.735773802 0 72886559.735773802 22324374.41357708 0 0 0 0 -349079760.68766022 308399210.44252133 0 308399210.44252133 -82386758.250710964 0 0 0 0 475631020.8938446 451887140.03210258 0 451887140.03210258 28114692.30298996 0 0 0 0 -1860280230.4417419 964202268.74601483 0 964202268.74601483 717348528.24071741 0 0 0 0 -1411600824.8516445 -163351040.78063089 0 -163351040.78063089 90007725.909384251 0 0 0 0 -1706635107.4022217 1262178754.4718871 0 1262178754.4718871 1390337512.5162659 0 0 0 0 209421710.73983002 -27834875.553142071 0 -27834875.553142071 2627357.8653856516 0 0 0 0 -17257297.097467527 6259858.7286334382 0 6259858.7286334382 3584280.0916481181 0 0 0 0 -15893256.950881958 9312615.93291682 0 9312615.93291682 -27298310.247570753 0 0 0 0 -23277549.147216797 -105152968.24841833 0 -105152968.24841833 62602541.995064259 0 0 0 0 -342692.58805418015 7453019.1511496175 0 7453019.1511496175 1070098.6633498387 0 0 0 0 -13699242.453735352 -7108976.268907547 0 -7108976.268907547 7155790.1343719959 0 0 0 0 -13201638.933954775 11787967.735487312 0 11787967.735487312 -2424844.5265078554 0 0 0 0 -35631078.350975037 -7142379.4763931036 0 -7142379.4763931036 10218014.915352106 0 0 0 0 -4432405.0680847168 5946892.8001079559 0 5946892.8001079559 4658993.0379390717 0 0 0 0 -27378809.533966064 1416199.5571994781 0 1416199.5571994781 23960998.751563072 0 0 0 0 -16203172.827728271 1842929.0795183182 0 1842929.0795183182 19821291.202369213 0 0 0 0 10767989.546615601 7858326.847468853 0 7858326.847468853 19122519.009931564 0 0 0 0 -14982889.225830078 2173186.923178196 0 2173186.923178196 14875481.795533657 0 0 0 0 -12836764.304870605 -192369.5244269371 0 -192369.5244269371 16979632.547423363 0 0 0 0 -13681904.557556152 4555410.8578178883 0 4555410.8578178883 19045484.828642845 0 0 0 0 -28673662.280029297 4501189.0334472656 0 4501189.0334472656 23593023.804210663 0 0 0 0 -120927705.14674377 -47440754.778802514 0 -47440754.778802514 2789766.4155673981 0 0 0 0 -25998035.100036621 -35493483.984472394 0 -35493483.984472394 4577732.5902481079 0 0 0 0 -6757.7745219916105 91464.528850985691 0 91464.528850985691 11766.43931676411 0 0 0 0 137262.53752684593 274432.96238483116 0 274432.96238483116 -112469.12963642529 0 0 0 0 -47228049.532470703 59185897.035690308 0 59185897.035690308 -10694681.545148849 0 0 0 0 -13984036.1875 -20101966.887153625 0 -20101966.887153625 -45006079.013763428 0 0 0 0 1425232.7691473961 1417809.4041744131 0 1417809.4041744131 -226501.60362403601 0 0 0 0 6479097.1358337402 -17184895.797491789 0 -17184895.797491789 4914208.4272232056 0 0 0 0 4140077.5331420898 4436501.8666481972 0 4436501.8666481972 3940178.5267992318 0 0 0 0 740427.83461047709 1154674.0756022111 0 1154674.0756022111 -869522.68171721662 0 0 0 0 1151528.9223588109 657872.97396983951 0 657872.97396983951 -763634.57343994547 0 0 0 0 -44324884.252609253 9458909.4659554958 0 9458909.4659554958 -5967839.5725603104 0 0 0 0 4366120.2565917969 4599770.8500738144 0 4599770.8500738144 3215938.6020612717 0 0 0 0 -139403347.67297363 41253368.676359177 0 41253368.676359177 -8020530.2381782532 0 0 0 0 -61518781.76574707 39873026.295677185 0 39873026.295677185 -23049779.985402107 0 0 0 0 -1281327.0140898079 627572.86446677335 0 627572.86446677335 67320.971863154322 0 0 0 0 92207.727416992188 1238078.4738044739 0 1238078.4738044739 2150181.2828102112 0 0 0 0 1308714.3852495849 8057546.0051169237 0 8057546.0051169237 130688.83121834067 0 0 0 0 8065490.1976406574 17538538.714880958 0 17538538.714880958 9309749.7638883591 0 0 0 0 -517593.57464599609 6649110.7679195404 0 6649110.7679195404 8137477.7787480354 0 0 0 0 -3377183.7333079278 -111167.1457061097 0 -111167.1457061097 360688.20477367169 0 0 0 0 937113.67431640625 2418341.4703083038 0 2418341.4703083038 3620505.1418571472 0 0 0 0 -605399.88192252815 -52029.31951193139 0 -52029.31951193139 151001.41939797485 0 0 0 0 634283.7519351691 4001232.0749075324 0 4001232.0749075324 -216527.20407241266 0 0 0 0 8419352.3920588493 2135557.4304222353 0 2135557.4304222353 24248248.966221809 0 0 0 0 -5556165.4760369062 3387757.8729982525 0 3387757.8729982525 715626.43116339203 0 0 0 0 -1716067.0903320312 9137423.7775583267 0 9137423.7775583267 5015869.9303827286 0 0 0 0 -1512262.9474145472 4458048.4401330352 0 4458048.4401330352 1908479.4415584654 0 0 0 0 9908550.1358947754 8531487.8964693546 0 8531487.8964693546 2141692.3049783707 0 0 0 0 1543806.7279663086 16997658.342924595 0 16997658.342924595 -8490865.6682577133 0 0 0 0 -12320757.949035645 18520750.186274052 0 18520750.186274052 -7957513.9696893692 0 0 0 0 6061441.7794494629 24742156.795859337 0 24742156.795859337 14410855.774586439 0 0 0 0 -75637009.716461182 67003135.104451656 0 67003135.104451656 6703004.4619808197 0 0 0 0 35532146.287414551 53826781.878242135 0 53826781.878242135 -101480843.53421307 0 0 0 0 14118334.06741333 5587806.0746984482 0 5587806.0746984482 -17369589.787805557 0 0 0 0 1833829.1155920774 1135566.3842614032 0 1135566.3842614032 -1085804.6900209163 0 0 0 0 -19069493.064697266 49945233.905532837 0 49945233.905532837 8053004.0851421356 0 0 0 0 544423.96714256704 212182.18171212822 0 212182.18171212822 -423008.42684197915 0 0 0 0 2548592.3466186523 5391831.7436788082 0 5391831.7436788082 4805597.0235834122 0 0 0 0 57757782.840454102 -44372024.24632597 0 -44372024.24632597 -3763621.9529457092 0 0 0 0 -44036805.529174805 71158119.104361534 0 71158119.104361534 -82595738.68135643 0 0 0 0 -87564482.048950195 -212623179.23719835 0 -212623179.23719835 -44914437.024560452 0 0 0 0 45622697.152145386 19611530.313215256 0 19611530.313215256 -301700735.11662483 0 0 0 0 283668.6921621114 382018.15986008197 0 382018.15986008197 -338984.60356871178 0 0 0 0 -123731911.86260986 -226607557.50700045 0 -226607557.50700045 96700797.736773491 0 0 0 0 -62070972.191589355 85790977.546681881 0 85790977.546681881 -45803126.398586273 0 0 0 0 -39449398.443969727 5609481.9380397797 0 5609481.9380397797 461386.33116912842 0 0 0 0 -17596822.20305416 11058413.562582344 0 11058413.562582344 5615075.1456919229 0 0 0 0 -58991863.53855896 -19253318.490373611 0 -19253318.490373611 145463079.71453488 0 0 0 0 35131803.451904297 93838229.975264549 0 93838229.975264549 -43321615.561347961 0 0 0 0 -7352028.3177135885 198756.69491570443 0 198756.69491570443 881239.0372907361 0 0 0 0 -9861125.2761230469 2198164.1241550446 0 2198164.1241550446 3219847.84416008 0 0 0 0 -24957952.593504667 -278780.76028658077 0 -278780.76028658077 8351837.7078458546 0 0 0 0 -57322278.038406372 -6417714.6138110161 0 -6417714.6138110161 -33041499.923006058 0 0 0 0 -7767866.8462344185 12394655.953727491 0 12394655.953727491 -3616342.7843820509 0 0 0 0 -12483021.812870128 2960522.5793416426 0 2960522.5793416426 2196811.3553735279 0 0 0 0 -33065115.188140869 -45757911.041944027 0 -45757911.041944027 78688308.44503653 0 0 0 0 -80595522.917938232 2406363.2252383232 0 2406363.2252383232 84122435.22711134 0 0 0 0 -17599576.581847236 10399531.32316725 0 10399531.32316725 8813295.0335311443 0 0 0 0 -59511962.007598877 -10026700.449695587 0 -10026700.449695587 47036025.649949074 0 0 0 0 -2100112.6819458008 55908182.2713871 0 55908182.2713871 19508034.725694656 0 0 0 0 -82331097.664215088 -30063467.276484489 0 -30063467.276484489 253198310.64958763 0 0 0 0 -49785051.923675537 14331070.779112816 0 14331070.779112816 20196224.158064052 0 0 0 0 -1504283734.0175934 1818577799.4041471 0 1818577799.4041471 -2186423852.7133379 0 0 0 0 5858016.7493896484 61168149.292300224 0 61168149.292300224 35760430.390891075 0 0 0 0 -8797087.3497065324 4323612.2440040112 0 4323612.2440040112 -2215574.3783737784 0 0 0 0 -15122209.343414307 75446812.140717506 0 75446812.140717506 122768168.92092133 0 0 0 0 -92627597.682891846 152618127.29952312 0 152618127.29952312 85806326.17141819 0 0 0 0 -95627489.673034668 162333766.82781529 0 162333766.82781529 305628138.4011609 0 0 0 0 -112732391.91727448 101384215.44100028 0 101384215.44100028 422959091.79074454 0 0 0 0 13530079.811950684 -43614593.130326748 0 -43614593.130326748 57304661.327296257 0 0 0 0 -50492964.75352478 -268517595.33607405 0 -268517595.33607405 310025265.73316908 0 0 0 0 46883837.342803955 -180870591.97244716 0 -180870591.97244716 345518099.19446373 0 0 0 0 -296086726.35073853 -72785694.462703943 0 -72785694.462703943 719627403.20580125 0 0 0 0 -14514970.861630991 7604654.2959227301 0 7604654.2959227301 6926652.1709279409 0 0 0 0 216320.70215664804 -2100061.2828143458 0 -2100061.2828143458 1275183.9187188325 0 0 0 0 -22208439.229705811 14444619.143474102 0 14444619.143474102 9320772.5444841385 0 0 0 0 -16053570.468673706 9119079.6905659437 0 9119079.6905659437 -2212713.9131984711 0 0 0 0 -9801652.4245452881 31958857.741271734 0 31958857.741271734 24811867.527634621 0 0 0 0 -15702459.968649358 5123294.4218961298 0 5123294.4218961298 6494813.5250306446 0 0 0 0 -18627714.376495361 7725261.8467769623 0 7725261.8467769623 27456278.786928177 0 0 0 0 -4097404.9379882812 -10098567.031262636 0 -10098567.031262636 36380793.071799278 0 0 0 0 -4502121.9052124023 -25323100.295661926 0 -25323100.295661926 -16169075.113513947 0 0 0 0 15813872.899993896 -10915984.634138107 0 -10915984.634138107 -11642231.121180534 0 0 0 0 -2795887.0609970316 5242890.8971104324 0 5242890.8971104324 993538.81574806571 0 0 0 0 -6830242.9864153415 2972608.099029013 0 2972608.099029013 2243139.925705784 0 0 0 0 -44674504.519165039 -8724567.3303470612 0 -8724567.3303470612 -4761.1275911331177 0 0 0 0 -4409078.0264518857 551556.95028867386 0 551556.95028867386 992242.27331122791 0 0 0 0 -33915476.744995117 24286879.477560043 0 24286879.477560043 49666889.387735218 0 0 0 0 -44187823.113128662 -92566204.095765591 0 -92566204.095765591 -82830008.576389253 0 0 0 0 -240806666.15002441 -354095102.02928686 0 -354095102.02928686 -498502779.18497592 0 0 0 0 -1590395.488239333 50677.313514932059 0 50677.313514932059 248558.0188479698 0 0 0 0 -71960217.023231506 126336211.07505801 0 126336211.07505801 -90245973.454275131 0 0 0 0 -86769428.095001221 -28444968.118633747 0 -28444968.118633747 -2910636.1172943115 0 0 0 0 -19808017.328779221 22872961.299854636 0 22872961.299854636 -48413208.961090088 0 0 0 0 -204369144.74964905 -11580641.913269281 0 -11580641.913269281 -13103107.847067833 0 0 0 0 -476864906.28707886 90996689.800656319 0 90996689.800656319 42059805.672109604 0 0 0 0 -217381078.6636734 29887336.976133108 0 29887336.976133108 51070856.792486191 0 0 0 0 -16537734.536437988 45271519.439415455 0 45271519.439415455 -866316.71806526184 0 0 0 0 -16410205.819488525 -15612635.179475784 0 -15612635.179475784 -49334499.1388731 0 0 0 0 -33939932.541397095 17098533.438028216 0 17098533.438028216 14746020.009074211 0 0 0 0 -6206799.9762573242 33894840.02033186 0 33894840.02033186 -14019976.790782928 0 0 0 0 3123153.0911254883 18013695.233119488 0 18013695.233119488 6645881.4470911026 0 0 0 0 -23420145.688018799 4920318.41497612 0 4920318.41497612 -11311091.323158503 0 0 0 0 5582656.4250030518 -1557196.5422585011 0 -1557196.5422585011 -40371029.838885307 0 0 0 0 6079349.7308654785 4428118.69354105 0 4428118.69354105 4164334.0897402763 0 0 0 0 8805694.6715087891 12344106.358852863 0 12344106.358852863 -10845710.215122223 0 0 0 0 3682396.3176269531 22388061.931527138 0 22388061.931527138 5265999.6324119568 0 0 0 0 270937.29206039011 5364189.1946474584 0 5364189.1946474584 1208490.2946570606 0 0 0 0 -1592499.1008911133 13717213.634559155 0 13717213.634559155 16905251.90507412 0 0 0 0 -5047294.1306762695 20808326.62781477 0 20808326.62781477 34064613.338543415 0 0 0 0 8309604.7197570801 31096539.913664341 0 31096539.913664341 223266.03798180819 0 0 0 0 6955865.4218444824 5021140.8796157837 0 5021140.8796157837 17140862.844100356 0 0 0 0 4764345.4089050293 28725583.590698719 0 28725583.590698719 15307002.451477528 0 0 0 0 348335.19139099121 9290158.7600588799 0 9290158.7600588799 17694865.858261347 0 0 0 0 -2746854.2887337059 3193655.3044518232 0 3193655.3044518232 -82818.178691315465 0 0 0 0 -36789093.283935547 12239052.406223774 0 12239052.406223774 32134491.347341061 0 0 0 0 -8777261.0977171063 97670.344156354666 0 97670.344156354666 1285686.5115997451 0 0 0 0 -12489442.006378174 -6422774.5789849758 0 -6422774.5789849758 22192066.125451088 0 0 0 0 21308614.343048096 -23445070.898640394 0 -23445070.898640394 -10379193.967926741 0 0 0 0 -15379901.652160645 4282805.026720047 0 4282805.026720047 11841684.204491138 0 0 0 0 -3102587.8089968413 2174123.7165777907 0 2174123.7165777907 143662.1379980467 0 0 0 0 -6289503.528795287 2041592.079227753 0 2041592.079227753 -103451.11997223669 0 0 0 0 -1255932.8559875488 7554244.2141215801 0 7554244.2141215801 10923883.095029831 0 0 0 0 294653.47283935547 6703123.4141597748 0 6703123.4141597748 11100988.458357811 0 0 0 0 -969690.9503121376 -679674.61288236454 0 -679674.61288236454 296502.8497574369 0 0 0 0 2699726.7930908203 5338371.1756420135 0 5338371.1756420135 45846371.861403465 0 0 0 0 -1138104.8131424338 -504021.20222143829 0 -504021.20222143829 223056.58794901404 0 0 0 0 -2811122.3070373535 27886781.766671658 0 27886781.766671658 34962524.646288872 0 0 0 0 -20861173.820800781 -12513144.946616173 0 -12513144.946616173 9077297.9679288864 0 0 0 0 -8484534.8125 12260365.854314327 0 12260365.854314327 43454816.871761322 0 0 0 0 29308081.644897461 15673130.105139256 0 15673130.105139256 15537732.287461758 0 0 0 0 -9991016.4992675781 -15636416.371456861 0 -15636416.371456861 5837168.5284019858 0 0 0 0 27110889.731811523 1857901.2080612183 0 1857901.2080612183 36915044.34733963 0 0 0 0 3667273.9645996094 18626731.439216614 0 18626731.439216614 26110888.82521534 0 0 0 0 -47126376.959197998 18065171.635964632 0 18065171.635964632 18478272.667713761 0 0 0 0 -7292671.6338195801 55672066.39235878 0 55672066.39235878 16380511.980471849 0 0 0 0 13422532.294692993 59648280.770303965 0 59648280.770303965 13605452.288169861 0 0 0 0 41037654.923675537 8733644.4143428802 0 8733644.4143428802 18003732.782291412 0 0 0 0 8338199.4962158203 10119652.738152981 0 10119652.738152981 -17923674.988558292 0 0 0 0 -236724.18935699761 -144056.83503050357 0 -144056.83503050357 -46314.876278281212 0 0 0 0 -191852.18688116968 -154192.7336961329 0 -154192.7336961329 -16266.856143246405 0 0 0 0 7714499.4351196289 17102313.739177704 0 17102313.739177704 -22809400.48675251 0 0 0 0 -41142911.508483887 -17766870.744820118 0 -17766870.744820118 12012650.500063419 0 0 0 0 -33705379.238922119 19597932.228674173 0 19597932.228674173 19437941.646379471 0 0 0 0 -26683272.260498047 -4543031.6578874588 0 -4543031.6578874588 13231561.675287247 0 0 0 0 -19722081.72668457 10147166.465274215 0 10147166.465274215 -21983215.064460754 0 0 0 0 -10572178.781043023 5123270.4449650776 0 5123270.4449650776 1859811.0983488844 0 0 0 0 -231871680.9521637 45823375.677654743 0 45823375.677654743 105800147.95869255 0 0 0 0 -39800170.08732605 82486968.332050323 0 82486968.332050323 -149441850.0387274 0 0 0 0 -176772454.45642853 706014796.57295513 0 706014796.57295513 -850695256.55416489 0 0 0 0 -691830024.20449829 995277377.63428402 0 995277377.63428402 -993026351.5027113 0 0 0 0 -310495706.65575409 587220192.85840988 0 587220192.85840988 -521489538.91262817 0 0 0 0 -18000930.574569702 291206301.84330225 0 291206301.84330225 -406210181.02182221 0 0 0 0 -166132903.18701172 -112940225.40103149 0 -112940225.40103149 43646816.344110489 0 0 0 0 -5496480.4396485984 8277765.7471451275 0 8277765.7471451275 1591633.396505184 0 0 0 0 594750.75115966797 13896314.719156265 0 13896314.719156265 2257538.0243983269 0 0 0 0 -23136486.69512558 13441023.358430147 0 13441023.358430147 16156701.761394501 0 0 0 0 38518051.420898438 19528347.362166405 0 19528347.362166405 16705370.768182755 0 0 0 0 -701586.1386885345 -462095.64030611888 0 -462095.64030611888 446016.10052754392 0 0 0 0 -14325248.391723633 2497063.2050209045 0 2497063.2050209045 8070343.0194559097 0 0 0 0 -12121010.110506624 1064417.3622888904 0 1064417.3622888904 2072991.7072724719 0 0 0 0 237974331.63792419 107165847.0891459 0 107165847.0891459 -1462680197.9228344 0 0 0 0 478660084.94464111 466530169.29949379 0 466530169.29949379 508588958.3519907 0 0 0 0 -338447.84262785316 888310.21012211218 0 888310.21012211218 379541.74892814562 0 0 0 0 53498685.01385498 177514851.484025 0 177514851.484025 195649275.45152164 0 0 0 0 242346101.30729675 56314082.447393894 0 56314082.447393894 -203169154.86496067 0 0 0 0 -210303002.80780029 -34986236.607030869 0 -34986236.607030869 -36796988.511759281 0 0 0 0 71522497.702331543 -8462143.5420899391 0 -8462143.5420899391 -116443384.48035097 0 0 0 0 43380281.405517578 56739731.466560364 0 56739731.466560364 44553917.849636078 0 0 0 0 66566585.012084961 34682359.237522125 0 34682359.237522125 -41610589.442191124 0 0 0 0 53291041.42199707 6758130.1380271912 0 6758130.1380271912 -21814713.294643164 0 0 0 0 54287495.902099609 197314.58624601364 0 197314.58624601364 -35419950.044644356 0 0 0 0 -40014413.88961792 15791591.362640142 0 15791591.362640142 90681849.856777668 0 0 0 0 90174.298285126686 1825061.3825994711 0 1825061.3825994711 519118.08442008664 0 0 0 0 -248863290.65744019 9477112.5306253433 0 9477112.5306253433 17325426.919830799 0 0 0 0 -187094328.73280334 -169099221.09763312 0 -169099221.09763312 -24130768.835662842 0 0 0 0 -48788.151100233197 507761.0774373319 0 507761.0774373319 152166.14492726087 0 0 0 0 -824557494.90917969 -96948274.23935461 0 -96948274.23935461 90081038.464969873 0 0 0 0 -802825760.67279053 62519337.965334892 0 62519337.965334892 -53884914.816195488 0 0 0 0 -802734878.66833496 299543291.57955837 0 299543291.57955837 -3295220.20933038 0 0 0 0 -1775893322.1812439 626788571.76359224 0 626788571.76359224 -34207680.895595551 0 0 0 0 -1340612328.8995819 -63502158.789043546 0 -63502158.789043546 136271663.26052952 0 0 0 0 -634753590.78311157 -252133495.58373427 0 -252133495.58373427 -2594455.6984853745 0 0 0 0 -149075826.03757477 -155545607.08649552 0 -155545607.08649552 -114519432.60658836 0 0 0 0 -1186207097.6557007 -4380045.5850739479 0 -4380045.5850739479 5251298.6346225739 0 0 0 0 -1124956125.2182922 -457862431.83746433 0 -457862431.83746433 -43007935.111241341 0 0 0 0 30367116.790328979 -467551967.75359309 0 -467551967.75359309 -237071451.20564938 0 0 0 0 -1445686251.4841309 -465718257.19253874 0 -465718257.19253874 -80259388.48394084 0 0 0 0 -3973028.4095533788 4480179.7141273785 0 4480179.7141273785 -1093089.8593979985 0 0 0 0 -201406995.86120605 734376245.42542648 0 734376245.42542648 -2312910355.3336172 0 0 0 0 -89484637.634124756 -188547912.28785038 0 -188547912.28785038 -498006782.88069201 0 0 0 0 -1871946954.7143326 1898107894.3848557 0 1898107894.3848557 -2732622538.9499421 0 0 0 0 -2880268140.1225891 314991185.18404341 0 314991185.18404341 86757022.28838861 0 0 0 0 -2338447213.5159373 -244053233.50106558 0 -244053233.50106558 -1057155660.145371 0 0 0 0 -1465905974.4265442 513343827.64704061 0 513343827.64704061 -487035811.42776906 0 0 0 0 -688318856.00964355 1441581336.6598225 0 1441581336.6598225 -2034249596.5555544 0 0 0 0 -2289148656.1513057 1551960224.7680566 0 1551960224.7680566 -759528823.94018173 0 0 0 0 -500235643.68569946 522182273.6642766 0 522182273.6642766 -716134915.88377738 0 0 0 0 -390578110.20254517 -98474461.034929007 0 -98474461.034929007 -607039065.93478 0 0 0 0 -492349304.52001953 487070274.00279212 0 487070274.00279212 -1669225634.12164 0 0 0 0 -1117744293.9549561 -104066993.39535809 0 -104066993.39535809 -869881703.17499661 0 0 0 0 -1359257659.7891998 901985804.30495381 0 901985804.30495381 -797370488.03990698 0 0 0 0 -173914910.95936584 335956381.34777403 0 335956381.34777403 -831324939.31696439 0 0 0 0 -704229558.42088318 823261613.02943182 0 823261613.02943182 -704455654.28235912 0 0 0 0 -860300021.8629303 645986277.80397987 0 645986277.80397987 -415454128.47805452 0 0 0 0 -1039433708.630127 941500281.74098325 0 941500281.74098325 -886449432.00893211 0 0 0 0 -846806130.1566925 656227187.96454 0 656227187.96454 -416482599.54493904 0 0 0 0 -815098667.95542145 608329115.68523443 0 608329115.68523443 -348121553.26477051 0 0 0 0 -1071201251.8102722 271304348.77873778 0 271304348.77873778 -236576543.39450836 0 0 0 0 -1887725539.1079445 760929394.01809824 0 760929394.01809824 -315249037.76085091 0 0 0 0 549755851.47506714 -154768568.07443976 0 -154768568.07443976 -79771072.514378548 0 0 0 0 -393366.37415761314 371110.88584900647 0 371110.88584900647 -212962.62131147832 0 0 0 0 -1045266239.4649048 466448160.45320666 0 466448160.45320666 -4046088.2285313606 0 0 0 0 -543951032.25820923 22955612.721452236 0 22955612.721452236 19669755.020814896 0 0 0 0 -372063710.07330322 -72127023.809882641 0 -72127023.809882641 29241427.809998751 0 0 0 0 -456884233.5605011 -74394340.778044224 0 -74394340.778044224 136432287.75265217 0 0 0 0 -343350871.34925842 320490285.94191885 0 320490285.94191885 -43033836.650505781 0 0 0 0 -800458499.5177002 88219418.757758617 0 88219418.757758617 168745441.76037121 0 0 0 0 -458601185.78182983 -12474873.781848431 0 -12474873.781848431 198403015.76146841 0 0 0 0 -392114233.39077759 335807529.59996271 0 335807529.59996271 -176319438.4782486 0 0 0 0 -601882440.85812378 359034562.77015877 0 359034562.77015877 -60163624.64226532 0 0 0 0 -209882582.22137451 -210180182.52331638 0 -210180182.52331638 -515033443.7440834 0 0 0 0 516108536.94088745 -132607837.83410168 0 -132607837.83410168 -161443762.41553599 0 0 0 0 -732626.18698624149 1799305.41093418 0 1799305.41093418 -464064.58858525008 0 0 0 0 -1590862486.4786377 375246038.40496016 0 375246038.40496016 -214637112.51292419 0 0 0 0 -33252738.641120911 191381755.74094224 0 191381755.74094224 6205589.0489177704 0 0 0 0 31311904.515106201 46335699.576797485 0 46335699.576797485 91163547.786276221 0 0 0 0 -9640691.7688026428 191088794.86175609 0 191088794.86175609 35513844.52135849 0 0 0 0 -924772.70185406134 3675072.9696895927 0 3675072.9696895927 -391267.91606091708 0 0 0 0 401788020.09980774 95968748.470006466 0 95968748.470006466 -73898553.807870865 0 0 0 0 -1869100071.383606 17889967.171432734 0 17889967.171432734 201026862.47298813 0 0 0 0 69406813.862426758 273455054.89577007 0 273455054.89577007 -83346476.681099176 0 0 0 0 -109090171.95352173 148775264.57665896 0 148775264.57665896 74128902.425447464 0 0 0 0 -116220399.30807495 175505689.72945833 0 175505689.72945833 -25576443.167132378 0 0 0 0 -224889869.47569275 -71115589.309652805 0 -71115589.309652805 73934549.504469872 0 0 0 0 -807113665.8635025 -162341515.0890311 0 -162341515.0890311 66641591.992656708 0 0 0 0 -415254445.75740051 139245579.19908428 0 139245579.19908428 155169288.78561592 0 0 0 0 -140737045.05374146 58266202.975923061 0 58266202.975923061 165288639.14443493 0 0 0 0 -181596905.23828125 167203138.66766167 0 167203138.66766167 120746141.17470837 0 0 0 0 -80320699.980178833 116226972.94425273 0 116226972.94425273 144265813.46516228 0 0 0 0 -559116.19046759605 -575795.42376577668 0 -575795.42376577668 93275.616631997575 0 0 0 0 -41545897.886291504 -69094566.59986639 0 -69094566.59986639 154669880.15858269 0 0 0 0 -152692867.40621948 -57174275.391767502 0 -57174275.391767502 170149559.09034538 0 0 0 0 30648461.48828125 29716778.890032768 0 29716778.890032768 126549733.58553076 0 0 0 0 -77615707.666564941 34408348.902604103 0 34408348.902604103 134737339.45767975 0 0 0 0 -39555576.831436157 -60965825.152376413 0 -60965825.152376413 162919484.27948189 0 0 0 0 -1563484.7944780886 -1136368.2240190869 0 -1136368.2240190869 89521.179058773443 0 0 0 0 34167618.233947754 -120648033.82749629 0 -120648033.82749629 58688948.378414154 0 0 0 0 -2788763.3801225871 196942.97929947078 0 196942.97929947078 1799629.7106255428 0 0 0 0 -5861537.7064819336 15644203.483501911 0 15644203.483501911 22177930.041449547 0 0 0 0 -20513627.392059326 -37436617.46029377 0 -37436617.46029377 -135689147.79475307 0 0 0 0 -58583016.343719482 -70029541.235831499 0 -70029541.235831499 40113492.626820147 0 0 0 0 -41957823.646217346 96485446.101006627 0 96485446.101006627 3588769.3523635864 0 0 0 0 -89628153.738136292 73703110.701028466 0 73703110.701028466 22692707.937950134 0 0 0 0 -16291643.959289551 18479916.915252686 0 18479916.915252686 27989025.809247971 0 0 0 0 -152522813.22311401 -55127677.284141541 0 -55127677.284141541 -10153196.380631447 0 0 0 0 -85835407.110687256 116176482.91237259 0 116176482.91237259 145960455.77594757 0 0 0 0 -102607055.3298645 67362616.059813976 0 67362616.059813976 88718263.595325053 0 0 0 0 -1361650.1079713665 5324634.4000800326 0 5324634.4000800326 -901860.58956062049 0 0 0 0 143594260.89753723 10477449.878256321 0 10477449.878256321 -98061864.424535275 0 0 0 0 -2224714449.30439 320080799.54658794 0 320080799.54658794 484374148.42803001 0 0 0 0 -2659067.5310507491 5617641.1516053379 0 5617641.1516053379 -1340903.3368656775 0 0 0 0 -1064549864.7148743 693036658.74642265 0 693036658.74642265 -1386105038.1550159 0 0 0 0 36274584.663635254 44867225.991979361 0 44867225.991979361 16506640.843386889 0 0 0 0 -12802542.842890993 339547.89449809119 0 339547.89449809119 1522288.8220325026 0 0 0 0 -46179987.994064331 21867352.218192816 0 21867352.218192816 60042942.466497183 0 0 0 0 -29391036.752929688 -2998216.3809656054 0 -2998216.3809656054 50462394.085469693 0 0 0 0 -3670603.4438476562 -6406223.8524782956 0 -6406223.8524782956 16776876.983033158 0 0 0 0 37636894.074050903 -49744725.997251309 0 -49744725.997251309 39911094.070963919 0 0 0 0 -2227738.6140787657 1196456.0557137206 0 1196456.0557137206 258547.00587177562 0 0 0 0 -39274020.542808533 -64186855.424230009 0 -64186855.424230009 99316388.093896866 0 0 0 0 -57895425.948108673 11349882.185176659 0 11349882.185176659 43327078.839782953 0 0 0 0 -43985192.788146973 25803839.941057153 0 25803839.941057153 55141017.088389866 0 0 0 0 -50898381.628265381 62542323.912707746 0 62542323.912707746 -4707.274175112776 0 0 0 0 -168798780.73482513 -16176122.950468205 0 -16176122.950468205 95422438.553679883 0 0 0 0 -119018056.98571777 66540930.417577796 0 66540930.417577796 33278054.284639571 0 0 0 0 48850386.359985352 29745351.181209885 0 29745351.181209885 46726.271516002482 0 0 0 0 40432937.972129822 34893152.747720376 0 34893152.747720376 -3221356.8967433572 0 0 0 0 24250811.343490601 5341211.7215381823 0 5341211.7215381823 -10148183.509720609 0 0 0 0 -13843616.668670654 38014818.585995108 0 38014818.585995108 13688246.177300543 0 0 0 0 -3569161.2756347656 49486234.356984288 0 49486234.356984288 8594477.3965389859 0 0 0 0 -43829495.528692365 46205524.502409361 0 46205524.502409361 17229979.864745349 0 0 0 0 -12748785.31060791 26888232.01712814 0 26888232.01712814 29170557.378810689 0 0 0 0 -10793969.769287109 22860966.177477933 0 22860966.177477933 7013067.0999948084 0 0 0 0 3285926.0931396484 26226256.467116356 0 26226256.467116356 -3950898.9451131728 0 0 0 0 12912692.440475464 9295022.8448258489 0 9295022.8448258489 -2869825.2647295892 0 0 0 0 -3758775.9525985718 8659708.636542663 0 8659708.636542663 1580246.5923793614 0 0 0 0 -10531910.317550659 3157488.6720894277 0 3157488.6720894277 3351049.0916701257 0 0 0 0 -6973022.5827941895 13158963.438074738 0 13158963.438074738 12130084.348632216 0 0 0 0 -14093585.758331299 8361445.9671302736 0 8361445.9671302736 9186369.1180330664 0 0 0 0 -21339790.404830933 13603878.436458942 0 13603878.436458942 18744877.959744036 0 0 0 0 -10986798.195929691 -473212.35037793033 0 -473212.35037793033 590081.87613340584 0 0 0 0 12437604.780792236 -36062541.882036448 0 -36062541.882036448 42901123.757968426 0 0 0 0 -9411821.8569030762 6037747.0652042925 0 6037747.0652042925 10337102.574210852 0 0 0 0 -6246403.5069505572 1473701.9904249832 0 1473701.9904249832 215263.24675411754 0 0 0 0 -3432423.5187988281 -229634.48964476585 0 -229634.48964476585 2133241.6608139873 0 0 0 0 -5955489.1229614615 481741.74150496908 0 481741.74150496908 543265.33479418419 0 0 0 0 -13877807.802185059 -13186.288074970245 0 -13186.288074970245 13134026.899002552 0 0 0 0 -3644723.893081665 263632.79583603144 0 263632.79583603144 1529155.3127367496 0 0 0 0 -3078380.955947876 97275.70188832283 0 97275.70188832283 9307.586193561554 0 0 0 0 -3667819.3437347412 879236.9986115396 0 879236.9986115396 -312053.55891704559 0 0 0 0 -3445781.9658508301 114284.73462972045 0 114284.73462972045 250609.9187078476 0 0 0 0 -3632171.0699462891 6682747.3744444922 0 6682747.3744444922 -2446205.6357343383 0 0 0 0 -4847776.4849777222 3682425.7912919372 0 3682425.7912919372 -772094.06185376644 0 0 0 0 -2797438.9394836426 7482767.3859956264 0 7482767.3859956264 -158114.13967898488 0 0 0 0 -2088604.4175415039 1828224.5788244903 0 1828224.5788244903 -4661221.1876949221 0 0 0 0 -4044556.8047525883 1111329.4879548028 0 1111329.4879548028 -1017044.0926664673 0 0 0 0 -3720533.8983154297 677264.45719334483 0 677264.45719334483 -632908.68488788605 0 0 0 0 -3704295.2212524414 780216.49748790264 0 780216.49748790264 -18022.388986825943 0 0 0 0 -3379598.2600765526 1464747.574680943 0 1464747.574680943 -1352516.3591164742 0 0 0 0 -1043203.6696292013 1180156.4913063198 0 1180156.4913063198 -114781.23276100989 0 0 0 0 -4021587.4559337199 774160.3223926127 0 774160.3223926127 397030.49868868105 0 0 0 0 -3550223.6007614136 279585.55502666597 0 279585.55502666597 -7982.6625545498682 0 0 0 0 -4062924.8449707031 440403.8348767563 0 440403.8348767563 9470.9724809108047 0 0 0 0 -4176940.1374206543 1216582.9355441234 0 1216582.9355441234 -592540.97338334983 0 0 0 0 -251373.87621995807 323383.17085665837 0 323383.17085665837 -97370.425954352744 0 0 0 0 -197307.66577148438 8421522.8022644483 0 8421522.8022644483 14202843.662811574 0 0 0 0 -13488786.290512085 4899372.7643447882 0 4899372.7643447882 1264.3676975700846 0 0 0 0 -11950162.486053467 4155371.9279775694 0 4155371.9279775694 -204188.26785479207 0 0 0 0 -4051970.6406860352 1309628.9749795198 0 1309628.9749795198 733393.46830821037 0 0 0 0 -14990715.560241699 4015501.7767394688 0 4015501.7767394688 831008.36726361141 0 0 0 0 -20496708.567871094 2205963.6959032048 0 2205963.6959032048 2518955.005768015 0 0 0 0 -5432783.8473564051 616716.83174917847 0 616716.83174917847 950943.4674851431 0 0 0 0 -8181498.6851898544 1450905.0207922533 0 1450905.0207922533 -46572.30532313283 0 0 0 0 -12698715.81300354 3080759.8128915667 0 3080759.8128915667 220141.28466565534 0 0 0 0 -8080100.2447401732 984144.3342140764 0 984144.3342140764 -1147486.9259409837 0 0 0 0 -11568049.961975098 5321674.369317499 0 5321674.369317499 -2119975.1668037614 0 0 0 0 -12101286.187202454 4590359.4936319152 0 4590359.4936319152 49583.589243814349 0 0 0 0 -7851006.4744543433 2247054.335273806 0 2247054.335273806 -1509073.9708551404 0 0 0 0 -4667558.541267395 -62955.227247267962 0 -62955.227247267962 155048.05166721344 0 0 0 0 -4495245.956817627 678154.75292563438 0 678154.75292563438 53455.453991413116 0 0 0 0 -2955687.5093175545 2192680.5102735087 0 2192680.5102735087 21134.936021959642 0 0 0 0 -15898451.154968262 -1614273.7665929794 0 -1614273.7665929794 1382924.177074194 0 0 0 0 -3876052.8021392822 -2936010.4301406443 0 -2936010.4301406443 -3491604.3247833252 0 0 0 0 -3613708.216796875 -222487.04425442219 0 -222487.04425442219 231809.86208301783 0 0 0 0 -31986436.774475098 2192095.5080673695 0 2192095.5080673695 12242729.488464355 0 0 0 0 -1752696.8621660005 2031631.3120708913 0 2031631.3120708913 -1037976.30172663 0 0 0 0 -20787790.77734375 6264649.3880400658 0 6264649.3880400658 -2891650.8592215478 0 0 0 0 -27422897.640441895 -620266.63221549988 0 -620266.63221549988 12675087.215057135 0 0 0 0 -33765011.267578125 12618796.896118164 0 12618796.896118164 -14453414.076190948 0 0 0 0 4764321.2722396851 3335811.7651796639 0 3335811.7651796639 -1822893.6617841721 0 0 0 0 -6871508.54415223 3160308.6710380614 0 3160308.6710380614 -1836784.472861588 0 0 0 0 -2496286.4050292969 -10706119.330903292 0 -10706119.330903292 8504650.4543514252 0 0 0 0 -80641283.478820801 -3009145.6306724548 0 -3009145.6306724548 -357033328.93045521 0 0 0 0 158764643.88973045 -91730969.351644039 0 -91730969.351644039 -324925120.47429466 0 0 0 0 144582994.42439842 13785269.343674362 0 13785269.343674362 -3290994.592962265 0 0 0 0 150278895.93728638 35223492.018915415 0 35223492.018915415 -392074573.25971222 0 0 0 0 27619039.69921875 -130610060.75789928 0 -130610060.75789928 -255747100.7177887 0 0 0 0 262616610.49920654 -2484031.8750567436 0 -2484031.8750567436 -185894663.22974682 0 0 0 0 513468028.25537109 -840721278.84403503 0 -840721278.84403503 -620682197.90608025 0 0 0 0 139758675.76629639 -83173789.25340414 0 -83173789.25340414 906273033.00252628 0 0 0 0 814537874.2796936 43338511.410485268 0 43338511.410485268 -449670747.60347176 0 0 0 0 -265287791.19882202 -148375859.46066189 0 -148375859.46066189 -418108151.42368448 0 0 0 0 -539129.73103712499 -428148.7466109097 0 -428148.7466109097 1852.8395124790259 0 0 0 0 -167700039.92465782 -980223317.34728169 0 -980223317.34728169 -532449002.16861248 0 0 0 0 289108705.90827942 -65144978.935071945 0 -65144978.935071945 -976477966.78177261 0 0 0 0 22186.016174167395 362884.55970257055 0 362884.55970257055 -369693.03892732295 0 0 0 0 8407317.4732055664 31560627.609919548 0 31560627.609919548 -35573383.719707489 0 0 0 0 -4029288.0731638223 1393266.9908380434 0 1393266.9908380434 -1799033.1153518297 0 0 0 0 -221283.57013331167 289296.16814941168 0 289296.16814941168 -31400.023918103427 0 0 0 0 16102435.229736328 -45884653.971041679 0 -45884653.971041679 -160075686.52931213 0 0 0 0 -54209912.330543518 -24619999.20440191 0 -24619999.20440191 -18548015.330863953 0 0 0 0 -80600.119253605604 208244.67443660274 0 208244.67443660274 -16383.751934095635 0 0 0 0 -2505691.8610563129 -897612.47333058994 0 -897612.47333058994 -257610.07068773918 0 0 0 0 -4169509.399986878 -732626.99282835983 0 -732626.99282835983 582889.16392304096 0 0 0 0 -5537267.0222167969 -1188672.6731739044 0 -1188672.6731739044 4700306.5851535797 0 0 0 0 -23617008.118301392 -45979014.663692832 0 -45979014.663692832 16525401.312952995 0 0 0 0 -6334730.513671875 -12563425.326191902 0 -12563425.326191902 -4310361.5398797989 0 0 0 0 -19587868.139892578 9209334.1740832329 0 9209334.1740832329 5756659.7291378975 0 0 0 0 26113798.794891357 -36871737.189865112 0 -36871737.189865112 -63914226.325201988 0 0 0 0 -87086583.918869019 -123601163.69229341 0 -123601163.69229341 122081197.32403183 0 0 0 0 65359924.831756592 -92156975.979533195 0 -92156975.979533195 128224810.35626316 0 0 0 0 -5790602.0360412598 1782598.7132778168 0 1782598.7132778168 -5372501.0687737465 0 0 0 0 39217405.556861877 23003848.578450322 0 23003848.578450322 -1816370.3414335251 0 0 0 0 133594301.19137573 -50790907.31379509 0 -50790907.31379509 16838566.441433668 0 0 0 0 -166222.38313427567 -320264.74105258286 0 -320264.74105258286 315979.63221826218 0 0 0 0 -423128625.07473755 99812947.336719036 0 99812947.336719036 566670317.39784336 0 0 0 0 -562550888.78689575 -368645205.87106514 0 -368645205.87106514 121952341.66610718 0 0 0 0 91466286.485717773 -212416536.56499004 0 -212416536.56499004 165355335.97673321 0 0 0 0 -284887449.02444458 -130009816.2170949 0 -130009816.2170949 192966197.25968039 0 0 0 0 -56403307.027603149 -72989322.983990669 0 -72989322.983990669 -78039573.616373062 0 0 0 0 -66294439.544296265 -202927472.88165283 0 -202927472.88165283 -98644943.260572433 0 0 0 0 -77884879.449707031 -211771886.30571079 0 -211771886.30571079 155316425.51950645 0 0 0 0 -72950450.374485016 -83444659.706750154 0 -83444659.706750154 -38629398.775911331 0 0 0 0 -52121456.649753571 -5705612.6366279721 0 -5705612.6366279721 6992154.0465192795 0 0 0 0 -5725659.8808568642 2696669.3012281582 0 2696669.3012281582 6620593.8206800018 0 0 0 0 19332018.517242432 -313111566.50284815 0 -313111566.50284815 284195492.56568098 0 0 0 0 243849972.41969299 -287561520.75639188 0 -287561520.75639188 253325327.13682318 0 0 0 0 -93027458.028663635 -323086426.10081327 0 -323086426.10081327 467127069.42575359 0 0 0 0 543404049.15182495 -242402276.88422251 0 -242402276.88422251 119485699.90224934 0 0 0 0 -100681760.4932251 32868463.904938698 0 32868463.904938698 35577631.217289925 0 0 0 0 -1729641.6425486803 644717.03234373033 0 644717.03234373033 2264028.0694423495 0 0 0 0 834471103.03923035 -780708901.82915735 0 -780708901.82915735 313028584.92432404 0 0 0 0 -1338462543.4690552 -215427737.75680304 0 -215427737.75680304 92095265.257925034 0 0 0 0 -57899561.819494247 -76308029.979636148 0 -76308029.979636148 -71394501.5857687 0 0 0 0 -397808954.70346069 -373024742.1873371 0 -373024742.1873371 270404601.08691448 0 0 0 0 30314836.626178741 -201555442.41567519 0 -201555442.41567519 281738140.26776755 0 0 0 0 -362426276.99633789 48838232.939126432 0 48838232.939126432 125160549.2686519 0 0 0 0 -882635815.49685669 77730496.929563999 0 77730496.929563999 429689655.2552042 0 0 0 0 -35330664.186714172 835410352.98861206 0 835410352.98861206 48268487.941726446 0 0 0 0 -6583962814.0354195 1993816450.5541039 0 1993816450.5541039 349994792.04939055 0 0 0 0 741050129.31317139 365490114.63621223 0 365490114.63621223 -36774816.785923362 0 0 0 0 -3321538.2856907062 266822.31726763397 0 266822.31726763397 -880235.76150039025 0 0 0 0 -3638218092.9209509 1279387005.0650451 0 1279387005.0650451 434910763.05946159 0 0 0 0 -5051494263.1205139 2238062407.0175238 0 2238062407.0175238 -147689832.33000869 0 0 0 0 -3577259490.0055237 411863570.9967289 0 411863570.9967289 327479845.74424553 0 0 0 0 -1738062876.1339417 1146227463.6120329 0 1146227463.6120329 12766998.748663068 0 0 0 0 -3710702673.6858826 700139082.03727341 0 700139082.03727341 326910639.81578869 0 0 0 0 -3881370011.9194489 409953513.77354717 0 409953513.77354717 334981098.05079269 0 0 0 0 -5134123143.0873413 978677289.37840867 0 978677289.37840867 630624103.60233545 0 0 0 0 -4184635347.5804749 630496115.17746162 0 630496115.17746162 -818109188.89272976 0 0 0 0 -5612845944.098175 197766988.93406308 0 197766988.93406308 380428523.48667717 0 0 0 0 -5404320416.8457336 927376592.02948451 0 927376592.02948451 -46438252.723342896 0 0 0 0 -1853422311.776535 -145047319.933249 0 -145047319.933249 -427532951.28853989 0 0 0 0 -3947271804.4358826 -103810867.00048351 0 -103810867.00048351 170429619.73353577 0 0 0 0 -559805413.01690674 -286738965.88664722 0 -286738965.88664722 -580547880.072896 0 0 0 0 -1817092580.2674675 17929328.713504434 0 17929328.713504434 -153062297.16611862 0 0 0 0 -559208246.39723206 5966464.8541789055 0 5966464.8541789055 -464796339.84583473 0 0 0 0 -595273149.35235596 -170817896.14290047 0 -170817896.14290047 9451372.6947746277 0 0 0 0 8525585.3050842285 -43813649.420536041 0 -43813649.420536041 -526265565.11312008 0 0 0 0 -189584092.53283691 155355167.42075729 0 155355167.42075729 -449561784.41966987 0 0 0 0 -104572098.99127197 254215988.34008217 0 254215988.34008217 17790768.837062836 0 0 0 0 -163255428.45274353 -164375168.55003309 0 -164375168.55003309 97735040.165472031 0 0 0 0 -770659255.85516357 448110579.18110943 0 448110579.18110943 -499466349.3076154 0 0 0 0 -2535394603.5666809 -800720985.06866002 0 -800720985.06866002 631090911.12286663 0 0 0 0 -1075540714.1636696 350357688.17187631 0 350357688.17187631 -805181838.64586639 0 0 0 0 -1032037495.9418335 -41874227.243915796 0 -41874227.243915796 -8678239.8892288208 0 0 0 0 -11045805.103147924 5457294.5731219649 0 5457294.5731219649 -2926502.2724523623 0 0 0 0 -1057868.3093678504 2788757.7121909373 0 2788757.7121909373 171146.98342847824 0 0 0 0 -11621902.977906227 4841668.7210759539 0 4841668.7210759539 73704.028761439025 0 0 0 0 -8100744.526058197 5181220.3865948478 0 5181220.3865948478 10173.643646399632 0 0 0 0 -8636148.5 3667298.259375067 0 3667298.259375067 -277960.23028777528 0 0 0 0 -11363808.583587646 5035709.7565544099 0 5035709.7565544099 -2462.9184490507641 0 0 0 0 -6313460206.1971436 1566327897.1452985 0 1566327897.1452985 520000299.38575792 0 0 0 0 -5083214195.7733154 1658000084.1763222 0 1658000084.1763222 -3143846.6346414685 0 0 0 0 -7210642529.1995831 747171422.75638807 0 747171422.75638807 620283082.99108505 0 0 0 0 -7227714936.5935364 -1205718667.1614933 0 -1205718667.1614933 271981973.93829346 0 0 0 0 -9365294.3173389137 1551312.9372800514 0 1551312.9372800514 1397027.7002355729 0 0 0 0 -4247571013.9890137 -1174385364.153739 0 -1174385364.153739 219984330.2743206 0 0 0 0 -6164837139.4328613 876954449.55262804 0 876954449.55262804 465895495.76228523 0 0 0 0 -5170101891.3367615 -32523420.462475061 0 -32523420.462475061 64637973.648192406 0 0 0 0 -6213758685.0816631 148392893.86028498 0 148392893.86028498 96328216.841151237 0 0 0 0 -6355501004.0603485 1358934600.4138947 0 1358934600.4138947 271341989.66652298 0 0 0 0 -7911770659.006897 411938517.96712017 0 411938517.96712017 834429146.1776619 0 0 0 0 -4739529069.6896057 870495021.07810068 0 870495021.07810068 -71593414.973090172 0 0 0 0 -3829501186.3395538 923391611.25577116 0 923391611.25577116 -731736972.64324188 0 0 0 0 -4873614797.7889099 214460362.11952686 0 214460362.11952686 164763625.06386054 0 0 0 0 -6901246950.7127075 1802613823.9119768 0 1802613823.9119768 -922724903.69202042 0 0 0 0 -5785382905.1703186 226367586.87611389 0 226367586.87611389 -451301381.26648331 0 0 0 0 -14596730780.659668 604747302.33003235 0 604747302.33003235 -334898619.60372543 0 0 0 0 -6210497361.6380768 1263790485.2083702 0 1263790485.2083702 -2816220281.0663452 0 0 0 0 -3820789875.0277557 2214007266.7422552 0 2214007266.7422552 -1304522434.2826767 0 0 0 0 -867332937.15722656 5537855377.4863892 0 5537855377.4863892 -2367531267.9455757 0 0 0 0 -3776421250.0165405 1872362305.0266266 0 1872362305.0266266 740276305.6520462 0 0 0 0 -3781060.8366357386 670035.88784779608 0 670035.88784779608 669039.69915875047 0 0 0 0 2146767048.1911011 -3060752047.2185659 0 -3060752047.2185659 3251293466.9929047 0 0 0 0 -139920341.78479004 5521866599.7313461 0 5521866599.7313461 -2367666904.5408163 0 0 0 0 -6817959048.1754484 -12644005.497697204 0 -12644005.497697204 -452642682.04660225 0 0 0 0 111690463.00576782 -607697835.96285439 0 -607697835.96285439 1593343957.5288367 0 0 0 0 -13186917.976151705 11547854.439622011 0 11547854.439622011 -4838020.883785597 0 0 0 0 1118426712.7319031 -1654121966.4947205 0 -1654121966.4947205 1244873020.4443994 0 0 0 0 -964489612.28295898 547114554.24887085 0 547114554.24887085 439535185.45391464 0 0 0 0 -35104495.781677246 13776411.123782255 0 13776411.123782255 16152298.423635863 0 0 0 0 -6068374.1773963608 -1438667.5500742868 0 -1438667.5500742868 6263824.2174434299 0 0 0 0 -2633543.4049066324 1899651.9733216912 0 1899651.9733216912 346568.43198934756 0 0 0 0 -6559807380.3629303 649159669.68244696 0 649159669.68244696 755091336.82688999 0 0 0 0 -4542906861.2063141 -46957988.662949994 0 -46957988.662949994 -432832932.72306347 0 0 0 0 -4631052595.881134 -25598522.226225138 0 -25598522.226225138 -369996692.78534508 0 0 0 0 -82031724.762771606 7423458.8182249013 0 7423458.8182249013 14800420.338665476 0 0 0 0 -10735160.202713013 12049596.323933452 0 12049596.323933452 -6733482.0337137356 0 0 0 0 -26193096.107208252 35615762.920744024 0 35615762.920744024 -70307.596002811333 0 0 0 0 -5189402.0952068251 3467747.5086711571 0 3467747.5086711571 724064.91139340634 0 0 0 0 -6730429064.2253113 1811407178.9919245 0 1811407178.9919245 9093798.2659979649 0 0 0 0 -5656340.6818975694 -340157.26922063529 0 -340157.26922063529 2252169.0040305872 0 0 0 0 -3399934846.0695801 1019035978.4052902 0 1019035978.4052902 -496345498.71732128 0 0 0 0 -1595179897.5118866 1487244052.2806294 0 1487244052.2806294 -1924737139.5409997 0 0 0 0 -6594018374.5340271 1868435345.451036 0 1868435345.451036 -113551567.11354008 0 0 0 0 -12586426.153014883 1817075.1743930876 0 1817075.1743930876 969073.55730079231 0 0 0 0 -4135093760.858551 -39911052.298732102 0 -39911052.298732102 2645543.9130328251 0 0 0 0 25938859.448684692 23175092.863031071 0 23175092.863031071 -15646878.45802699 0 0 0 0 -24101713.460788727 16999632.392701555 0 16999632.392701555 2468799.3870386034 0 0 0 0 -67065.02734375 34839327.593251482 0 34839327.593251482 56722.674783721552 0 0 0 0 -11931334.486089706 23067952.327641778 0 23067952.327641778 16369513.05010289 0 0 0 0 11793923.220306396 9226160.3702614307 0 9226160.3702614307 -8357043.5347766131 0 0 0 0 -6606801607.0023499 -2376193927.3117933 0 -2376193927.3117933 -748427008.37834346 0 0 0 0 -2735779177.0289917 2540012078.6738362 0 2540012078.6738362 -1271541279.3787413 0 0 0 0 -7801411.5862185359 274355.26541930437 0 274355.26541930437 3677229.4027599497 0 0 0 0 -4423855516.8824921 -1252714213.6730485 0 -1252714213.6730485 -241688011.51521137 0 0 0 0 -19026292.704242229 11520776.875505365 0 11520776.875505365 -2012118.6735371593 0 0 0 0 -10477765.121469602 -2820169.6196476966 0 -2820169.6196476966 10508196.70003044 0 0 0 0 -96530493.627868652 42825450.101847649 0 42825450.101847649 8607239.8197498322 0 0 0 0 1186673295.8854065 -754148595.1820817 0 -754148595.1820817 173760108.52099079 0 0 0 0 221370472.18395615 331785363.77095324 0 331785363.77095324 271184202.16838646 0 0 0 0 -6614192718.3596497 -536946476.72008288 0 -536946476.72008288 483715223.47549659 0 0 0 0 -4794075650.6016235 381533870.89431691 0 381533870.89431691 676166850.23476434 0 0 0 0 -5556425399.7680664 67730047.646773815 0 67730047.646773815 917123297.46336937 0 0 0 0 -5087698102.1520081 32720362.099604547 0 32720362.099604547 695133252.5248735 0 0 0 0 -6616288587.4208889 965395197.82701552 0 965395197.82701552 1557832675.6482723 0 0 0 0 -4327784302.5852051 581109882.57576239 0 581109882.57576239 456393463.75229454 0 0 0 0 -5274602330.4852676 713402677.29721546 0 713402677.29721546 1118224421.9601111 0 0 0 0 -1461651237.8222656 -2287882893.6221809 0 -2287882893.6221809 3024486904.3177271 0 0 0 0 -1723622715.7427979 -117073400.20229721 0 -117073400.20229721 1394097329.8007991 0 0 0 0 -9487110.0471733361 -3278003.3607939705 0 -3278003.3607939705 4104551.1843639626 0 0 0 0 114056711.29521179 -417022230.68537903 0 -417022230.68537903 2728535646.5235271 0 0 0 0 -1202892203.9400635 1275077899.8561583 0 1275077899.8561583 1330172622.6059189 0 0 0 0 -3173805.1994135249 -2465216.9686571881 0 -2465216.9686571881 3817105.3143234644 0 0 0 0 1198801244.9230919 -1021652938.2588601 0 -1021652938.2588601 694768304.68252277 0 0 0 0 -5030041.9331436902 -1441013.5503139198 0 -1441013.5503139198 2769770.6964709172 0 0 0 0 -3877011594.5177956 2089505791.8962851 0 2089505791.8962851 -823847064.48518372 0 0 0 0 -3070609361.3149719 2178687911.7347279 0 2178687911.7347279 -831279178.45497847 0 0 0 0 -9098159691.9681168 4133236459.6386514 0 4133236459.6386514 -492387660.46519089 0 0 0 0 -8161312408.6735229 -154661737.19228745 0 -154661737.19228745 -457363180.32493591 0 0 0 0 -4833932480.9570312 1963074836.848011 0 1963074836.848011 -173050803.33408844 0 0 0 0 -4739928365.5896606 2038124309.2310948 0 2038124309.2310948 -172857699.70664567 0 0 0 0 -5950997815.9570312 986648431.53536844 0 986648431.53536844 788447827.79776859 0 0 0 0 -4761467741.733078 1137264407.9227901 0 1137264407.9227901 937121171.71025324 0 0 0 0 -4970762943.7536316 1337609178.1791296 0 1337609178.1791296 914073702.22084475 0 0 0 0 -1421246020.7701187 727676413.1316092 0 727676413.1316092 -151086735.89873695 0 0 0 0 -4322042381.4095612 1239360116.4924533 0 1239360116.4924533 616812295.43032265 0 0 0 0 -3966907195.3175964 1633629725.8612375 0 1633629725.8612375 584737047.74799216 0 0 0 0 -3692392221.7782288 697715991.43604493 0 697715991.43604493 1385350837.9963279 0 0 0 0 -2720728033.9588318 1145127755.0784945 0 1145127755.0784945 722345727.92369676 0 0 0 0 -4233941552.6041374 787347279.87410879 0 787347279.87410879 814655720.18546891 0 0 0 0 -4512044960.1005249 1709293886.7231579 0 1709293886.7231579 801688326.97828591 0 0 0 0 -5481568846.0761948 1296375504.6175342 0 1296375504.6175342 726590999.1267457 0 0 0 0 -4346471916.4732666 1070407019.6358235 0 1070407019.6358235 -89021366.683652163 0 0 0 0 -4243058236.8444672 1398703341.5787954 0 1398703341.5787954 451776091.42762411 0 0 0 0 -3048080455.3467712 -207805876.86842752 0 -207805876.86842752 -373600779.18227088 0 0 0 0 -2667156125.3924255 259085745.52654552 0 259085745.52654552 197132408.0377636 0 0 0 0 -6600405013.3324738 -1677633547.946274 0 -1677633547.946274 480965118.16077954 0 0 0 0 -2936837702.9311218 -2985130261.9287381 0 -2985130261.9287381 700079628.52423227 0 0 0 0 -7287604.3891309798 -1865697.3472650051 0 -1865697.3472650051 3595523.5150664276 0 0 0 0 822229532.89205933 -3101410752.2328172 0 -3101410752.2328172 297010256.49829471 0 0 0 0 -6606280091.740387 1911641006.2151296 0 1911641006.2151296 -117207773.43947881 0 0 0 0 853917413.07333374 621873019.70902085 0 621873019.70902085 229360227.67193174 0 0 0 0 -2901079695.2940674 723928320.87080324 0 723928320.87080324 1603586320.3366463 0 0 0 0 -1057881986.8089294 -451415392.16781968 0 -451415392.16781968 335841731.11908722 0 0 0 0 -4427347.6828054041 1009130.5905252919 0 1009130.5905252919 -1409946.456189886 0 0 0 0 -15001650.117076874 8188320.8785797358 0 8188320.8785797358 -56660687.038518906 0 0 0 0 -17040993.338256836 -660364.29297542572 0 -660364.29297542572 -10966099.0847435 0 0 0 0 -241801.36743164062 17283165.470409393 0 17283165.470409393 -3797577.8739045858 0 0 0 0 12643.973315954208 -12962538.853319526 0 -12962538.853319526 -31431288.406069279 0 0 0 0 -22936279.119842529 -5919430.8774104118 0 -5919430.8774104118 25061285.503797054 0 0 0 0 57456096.888763428 12201513.441453934 0 12201513.441453934 -34300502.757982731 0 0 0 0 12291082.293167114 35001887.861498475 0 35001887.861498475 21252561.234287739 0 0 0 0 -16222832.942810059 -1929283.0653705597 0 -1929283.0653705597 -9196266.1127338409 0 0 0 0 -18657292.516479492 -10037212.028739929 0 -10037212.028739929 -876353.58050107956 0 0 0 0 -17467727.276092529 -11551204.694916248 0 -11551204.694916248 -16479038.607066631 0 0 0 0 -1169644.1713929623 -1911591.4777070209 0 -1911591.4777070209 136639.03680349211 0 0 0 0 -40318040.969615936 -42174128.56013608 0 -42174128.56013608 -14190098.846701145 0 0 0 0 -35415561.939041138 -23858668.189096451 0 -23858668.189096451 2606263.6022381783 0 0 0 0 108696449.80482483 -38215385.073642254 0 -38215385.073642254 -43090695.861531973 0 0 0 0 -211057.45448638499 -598715.56457855552 0 -598715.56457855552 64334.643004303798 0 0 0 0 -10404325.193389893 -1068303.1126403809 0 -1068303.1126403809 -8976259.2019138336 0 0 0 0 -15189306.155151367 3287179.0602648258 0 3287179.0602648258 -13879350.474506378 0 0 0 0 -14239363.359466553 -2030887.3882689476 0 -2030887.3882689476 -15015995.962402344 0 0 0 0 -10893882.047973633 690336.0744304657 0 690336.0744304657 -18127472.757667542 0 0 0 0 -8891390.9215087891 -6311039.4750328064 0 -6311039.4750328064 -22902648.340787888 0 0 0 0 -2384157.7719726562 -2468577.2683525085 0 -2468577.2683525085 -22105882.957256198 0 0 0 0 -5598078.6859436035 4183106.9901156425 0 4183106.9901156425 -16147729.223945618 0 0 0 0 -9784051.4484863281 5354696.9053535461 0 5354696.9053535461 -13089572.307664871 0 0 0 0 1701373.1044311523 -23699513.320060492 0 -23699513.320060492 22302993.389752865 0 0 0 0 3680345.1215515137 -7441237.2200257778 0 -7441237.2200257778 -4895621.4122242928 0 0 0 0 -19137841.108047485 -16768620.848577261 0 -16768620.848577261 36993591.511421204 0 0 0 0 -880140.9675604254 610317.7041368112 0 610317.7041368112 506368.89046246232 0 0 0 0 -3024574.5175882876 1425209.1118226275 0 1425209.1118226275 -1670270.3732972438 0 0 0 0 -9944761.9259524345 -38295681.994083524 0 -38295681.994083524 30270501.264831543 0 0 0 0 57857114.826805115 -86438364.497210145 0 -86438364.497210145 38752529.269786835 0 0 0 0 23116358.970596313 -28668662.814219356 0 -28668662.814219356 -18440390.503926277 0 0 0 0 72570099.618255615 13770645.720993519 0 13770645.720993519 -114881204.62407684 0 0 0 0 101385567.23898315 -9980738.2717208862 0 -9980738.2717208862 -25004119.301572204 0 0 0 0 -4313050.9415145218 2808662.3241079599 0 2808662.3241079599 -916227.12569844187 0 0 0 0 11044743.978851318 5198008.6840569973 0 5198008.6840569973 -5111518.8735327721 0 0 0 0 1388839.0625305176 -5184084.8942832649 0 -5184084.8942832649 -9062005.3774673939 0 0 0 0 -2828163.4276733398 3612238.2920328379 0 3612238.2920328379 5217708.7144479752 0 0 0 0 -1556216.1447814852 1206028.0130865276 0 1206028.0130865276 -717041.60478619114 0 0 0 0 9615503.7967071533 3426689.7522549331 0 3426689.7522549331 -10461508.764579535 0 0 0 0 12990749.974533081 10684598.877896667 0 10684598.877896667 -5713540.2551398277 0 0 0 0 -553734.44311523438 8324119.5488402843 0 8324119.5488402843 1767130.5907258987 0 0 0 0 -304775.9987487793 9323077.61863482 0 9323077.61863482 6537740.2405623794 0 0 0 0 279884.84893798828 -1508467.0395817459 0 -1508467.0395817459 -6419994.1523901522 0 0 0 0 23413992.160186768 4018466.227306366 0 4018466.227306366 -10539913.788422823 0 0 0 0 -555453676.04998779 -258112062.35991526 0 -258112062.35991526 198513601.36177087 0 0 0 0 -1318883698.0715485 465318068.51434255 0 465318068.51434255 168904766.2974472 0 0 0 0 -96622977.262786865 -313021197.18789959 0 -313021197.18789959 -94052641.508486748 0 0 0 0 413864809.04125977 -17144124.394760132 0 -17144124.394760132 -381155911.53517914 0 0 0 0 -629244.36337237805 -730181.45212636143 0 -730181.45212636143 -1269988.1579410506 0 0 0 0 -959376830.43592834 -18208111.9537673 0 -18208111.9537673 61034174.042179108 0 0 0 0 -1115139047.9153137 260469339.90574384 0 260469339.90574384 -39609543.186267853 0 0 0 0 -1537769840.5231323 -137154802.45100379 0 -137154802.45100379 407358942.60595369 0 0 0 0 -360558300.48388672 -390642102.48091233 0 -390642102.48091233 -115735897.32037759 0 0 0 0 -715368892.85697937 -227872500.0177052 0 -227872500.0177052 174779797.75877905 0 0 0 0 -172110.16430664062 13791839.576220036 0 13791839.576220036 -17122597.30513382 0 0 0 0 16095772.42893219 2950245.8352396488 0 2950245.8352396488 -16551310.098624468 0 0 0 0 176447.92868639901 30823.702916666865 0 30823.702916666865 -15329.095714342955 0 0 0 0 -2373461.7632506788 1538240.7722738087 0 1538240.7722738087 -1051211.4481985082 0 0 0 0 -21704009.21484375 2652895.0236887038 0 2652895.0236887038 13098401.283330619 0 0 0 0 -861293.13586585224 243358.42910577357 0 243358.42910577357 -793379.54789358447 0 0 0 0 -123912634.81854248 -35203545.170945942 0 -35203545.170945942 -295484747.96514964 0 0 0 0 -352146493.16775513 295712730.26328635 0 295712730.26328635 -723996062.03173089 0 0 0 0 15609387.107269287 -662093.05246213078 0 -662093.05246213078 14997335.765850067 0 0 0 0 78049831.272956848 71693082.575542212 0 71693082.575542212 78750514.655212402 0 0 0 0 -1681199.8958191276 363175.6843527481 0 363175.6843527481 81237.573070522863 0 0 0 0 -111106459.559021 -202968295.49970007 0 -202968295.49970007 -106144618.94345498 0 0 0 0 60018856.609233856 132528560.25066119 0 132528560.25066119 112321165.29006672 0 0 0 0 -241889174.01504517 -166967243.30894411 0 -166967243.30894411 -116047257.15970325 0 0 0 0 -257366487.62458801 -184450588.95814544 0 -184450588.95814544 2974109.048014164 0 0 0 0 -199725527.844841 -80837938.747958496 0 -80837938.747958496 33311808.433326602 0 0 0 0 -4283137.9441954046 699373.94478360564 0 699373.94478360564 -872061.27444110718 0 0 0 0 -296059512.52883911 -133779438.20249295 0 -133779438.20249295 67361990.222156614 0 0 0 0 -335720821.41094971 -204326351.29082358 0 -204326351.29082358 1420018.9310829639 0 0 0 0 -395569254.8913269 -177002767.28907329 0 -177002767.28907329 58234364.981893778 0 0 0 0 -282013113.87631226 -154597014.13564181 0 -154597014.13564181 -9709106.5784907341 0 0 0 0 -295875752.37393188 -180296692.35281038 0 -180296692.35281038 -1280872.2270941734 0 0 0 0 -315590860.3621521 -131677314.55067182 0 -131677314.55067182 35949037.639176011 0 0 0 0 -349896833.09587097 -175403057.53022078 0 -175403057.53022078 42980091.063099951 0 0 0 0 19428435.191497803 12343700.483212471 0 12343700.483212471 -23303025.671630859 0 0 0 0 -281035411.3538208 -10526614.548766851 0 -10526614.548766851 -2493391.6066823006 0 0 0 0 -445641889.77307129 152542050.68224692 0 152542050.68224692 501596829.98727417 0 0 0 0 -15187.967977434397 -36888.877833142877 0 -36888.877833142877 -70215.543720767251 0 0 0 0 -485661574.31997681 -189034153.35865003 0 -189034153.35865003 121622342.31069279 0 0 0 0 -590986905.05938721 -67677194.028980374 0 -67677194.028980374 218676740.73756719 0 0 0 0 -386014758.9956665 -149835646.35125482 0 -149835646.35125482 135452317.14211631 0 0 0 0 -399709839.20336914 -22769813.336281866 0 -22769813.336281866 215867452.79904938 0 0 0 0 -323933052.22753906 -6005853.2677254677 0 -6005853.2677254677 122680695.02809 0 0 0 0 -435495419.77189636 -105173979.82301718 0 -105173979.82301718 121795004.17184782 0 0 0 0 -278744609.22894287 -39324311.450595856 0 -39324311.450595856 44639975.137136459 0 0 0 0 -332921773.24298096 -64112417.810522892 0 -64112417.810522892 73700823.721922636 0 0 0 0 -316601453.91491699 -83630442.351000071 0 -83630442.351000071 39440098.664196968 0 0 0 0 -293741304.65383911 -71190088.940170288 0 -71190088.940170288 -21185067.350282669 0 0 0 0 -1421885.0085501783 1670889.4408732131 0 1670889.4408732131 -1432671.7604367207 0 0 0 0 -91081632.563476562 -31623854.218863726 0 -31623854.218863726 36808215.898644447 0 0 0 0 16794497.714416504 -106591982.52149868 0 -106591982.52149868 54455198.449053764 0 0 0 0 76403301.668212891 88647036.406835556 0 88647036.406835556 -38464375.755822182 0 0 0 0 160506949.20378113 -65973437.316119194 0 -65973437.316119194 2639170.1395683289 0 0 0 0 -111197446.8303833 1903655.8101034164 0 1903655.8101034164 22298031.391420364 0 0 0 0 26918411.615146637 860379.72347033024 0 860379.72347033024 -7849740.973487854 0 0 0 0 -253391545.33813477 -21609791.237772942 0 -21609791.237772942 -57174564.138843536 0 0 0 0 -545965.72643547133 872039.13250605017 0 872039.13250605017 -324365.05400440376 0 0 0 0 -47354146.44291687 -86298311.110272169 0 -86298311.110272169 -130347383.55723381 0 0 0 0 -219991236.52163696 -56875207.657085419 0 -56875207.657085419 -20287964.970562369 0 0 0 0 -232488281.40827179 -111259668.72844195 0 -111259668.72844195 -129153838.84959126 0 0 0 0 -135209692.10314941 -199767336.35976601 0 -199767336.35976601 205878777.04751492 0 0 0 0 -131837462.89855957 52132710.694811344 0 52132710.694811344 -135775423.34715843 0 0 0 0 135538387.99554443 -118549862.97816181 0 -118549862.97816181 -11607443.071302414 0 0 0 0 -86451957.381347656 -156271847.75870514 0 -156271847.75870514 -15670719.78139782 0 0 0 0 -66559018.853393555 150029444.49817181 0 150029444.49817181 120788391.78497505 0 0 0 0 -252499501.20133972 128258173.82296681 0 128258173.82296681 119567464.50237656 0 0 0 0 19969017.2940979 111768089.72944117 0 111768089.72944117 -148937122.69771862 0 0 0 0 32759307.718444824 65575418.355532646 0 65575418.355532646 14832987.777215004 0 0 0 0 42286585.05291748 45314780.91853714 0 45314780.91853714 34521512.094413757 0 0 0 0 66894187.166412354 53877263.204151154 0 53877263.204151154 -74155287.985219955 0 0 0 0 25331502.705078125 -15213444.380263805 0 -15213444.380263805 -100688569.19568825 0 0 0 0 -601833096.667099 -533098241.4239018 0 -533098241.4239018 -214738305.60328007 0 0 0 0 -293196182.68099976 -239126901.43052912 0 -239126901.43052912 -28855271.686206818 0 0 0 0 110765855.49359131 72529415.833100319 0 72529415.833100319 10822812.073364258 0 0 0 0 -128844107.24853516 -214999533.16312289 0 -214999533.16312289 -229188855.51576996 0 0 0 0 -138286875.51934052 -346260893.74047017 0 -346260893.74047017 -483955451.99529076 0 0 0 0 -545070748.30999756 341621464.49113226 0 341621464.49113226 -206401495.1557765 0 0 0 0 -1550455.2501900941 -629815.56581544131 0 -629815.56581544131 86609.561748892767 0 0 0 0 -927149724.58413696 93465368.281395912 0 93465368.281395912 101032144.75790405 0 0 0 0 -515154460.62857425 -26916309.583788689 0 -26916309.583788689 83186855.019865036 0 0 0 0 -515172789.47213745 171095421.75989389 0 171095421.75989389 44152484.493843079 0 0 0 0 -4726398.3342564553 -812119.5930216983 0 -812119.5930216983 1155022.7942484692 0 0 0 0 -87189981.762054443 147112814.38992691 0 147112814.38992691 -141480336.23104095 0 0 0 0 -63997411.446025848 -24504465.207502067 0 -24504465.207502067 31333301.145195007 0 0 0 0 -37762073.681884766 77511957.546014786 0 77511957.546014786 -30034244.146437168 0 0 0 0 -110493227.82043457 100179640.18682671 0 100179640.18682671 -9699631.8706126213 0 0 0 0 -84618968.619354248 28331950.833307266 0 28331950.833307266 -5104598.1525115967 0 0 0 0 -138539477.691082 39220651.808288276 0 39220651.808288276 20093219.97122097 0 0 0 0 -134056134.48680878 19115222.654255271 0 19115222.654255271 14771885.112529755 0 0 0 0 -230445155.84643555 43525525.065378666 0 43525525.065378666 36548286.637331963 0 0 0 0 -263577233.28782654 109211466.56209469 0 109211466.56209469 46796541.380565643 0 0 0 0 -417493797.230896 20832962.494729996 0 20832962.494729996 82359528.798576355 0 0 0 0 -396351839.5194397 -959206.937977314 0 -959206.937977314 88341807.844163895 0 0 0 0 -69098904.848220825 18634929.689288616 0 18634929.689288616 214952882.83669472 0 0 0 0 2983529.98046875 -2504380.9063153267 0 -2504380.9063153267 22959360.144546509 0 0 0 0 -8794911.3884996325 1829112.5083251819 0 1829112.5083251819 4412665.8866757518 0 0 0 0 -773417.06628417969 8328778.3023262024 0 8328778.3023262024 4939371.1956505775 0 0 0 0 1978467.5170611441 11641798.507461831 0 11641798.507461831 6925938.368566676 0 0 0 0 -14928211.651340865 -3235969.1106396765 0 -3235969.1106396765 1413662.4412590554 0 0 0 0 -1938604.3629150391 5511498.2536256313 0 5511498.2536256313 5440602.2595100403 0 0 0 0 -4860373.0975433886 8855156.3701256514 0 8855156.3701256514 7458573.9666324016 0 0 0 0 -3622959.1694792658 338355.39909821749 0 338355.39909821749 1397429.9371846085 0 0 0 0 30558673.99656105 40302474.182495862 0 40302474.182495862 42898143.994922638 0 0 0 0 30189289.747802734 49131723.528352737 0 49131723.528352737 39607606.575637817 0 0 0 0 34050443.618591309 1458081.4383144379 0 1458081.4383144379 9338389.4086089134 0 0 0 0 -22463011.781616211 -1179237.5885009766 0 -1179237.5885009766 32677729.103906631 0 0 0 0 16267212.73425293 -15331952.316492081 0 -15331952.316492081 28988636.605715275 0 0 0 0 -563958.84432527423 1469101.3889334276 0 1469101.3889334276 1901806.7371693514 0 0 0 0 39825867.881652832 24747699.850032806 0 24747699.850032806 -33988322.948293686 0 0 0 0 32741505.764282227 -25835545.36043644 0 -25835545.36043644 -6758221.3982543945 0 0 0 0 -10498422.013366699 5924111.0872364044 0 5924111.0872364044 -8380397.8976345062 0 0 0 0 -10645308.38470459 6340987.8921022415 0 6340987.8921022415 -683026.55924105644 0 0 0 0 -39492614.352294922 -25967559.667696953 0 -25967559.667696953 15441751.418185115 0 0 0 0 32680826.777359009 6803435.948756218 0 6803435.948756218 -27191251.086744308 0 0 0 0 29803002.077087402 12071308.862512589 0 12071308.862512589 8482966.1083507538 0 0 0 0 4266954.4424959868 -1099334.2907416597 0 -1099334.2907416597 4627971.1390644256 0 0 0 0 39592416.843200684 -11141583.474003792 0 -11141583.474003792 -23194366.447969198 0 0 0 0 -41297372.65802002 -16168405.981759071 0 -16168405.981759071 -1969854.866584301 0 0 0 0 -20343832.182281666 4765715.4224073812 0 4765715.4224073812 6207696.219218445 0 0 0 0 25514168.3671875 18561962.528246641 0 18561962.528246641 2153478.6212215424 0 0 0 0 -34197620.488464355 -8315527.0708146095 0 -8315527.0708146095 3384602.4799785614 0 0 0 0 -16515604.518963143 -1561186.3132813144 0 -1561186.3132813144 6406152.0127313118 0 0 0 0 -4143658.9401855469 3224285.1894493103 0 3224285.1894493103 10970030.042269707 0 0 0 0 -21906144.972106934 -11679839.171003342 0 -11679839.171003342 -3087051.2565171719 0 0 0 0 -22583038.846554987 -5365436.099324055 0 -5365436.099324055 721863.30793840252 0 0 0 0 -12157970.467208862 -8458634.3536658287 0 -8458634.3536658287 4881791.3232116699 0 0 0 0 -13127150.554519653 -6436845.0285739899 0 -6436845.0285739899 7077931.4229774475 0 0 0 0 -25420196.857637629 -13669880.43686831 0 -13669880.43686831 -4088554.3996706624 0 0 0 0 -24018774.327900082 -2422820.5368724391 0 -2422820.5368724391 10362412.474421965 0 0 0 0 -4330395.7400728762 -4228522.8766022809 0 -4228522.8766022809 2065655.8892754877 0 0 0 0 -2808210.253713429 -2918003.7976547852 0 -2918003.7976547852 3323597.6768647679 0 0 0 0 123433.76782226562 -6760842.378162384 0 -6760842.378162384 14781426.126818299 0 0 0 0 -164660.84115600586 -7117743.5299777985 0 -7117743.5299777985 14773466.089063644 0 0 0 0 -19536884.070954531 -1574981.5460885614 0 -1574981.5460885614 11938975.104629723 0 0 0 0 -13007321.961492144 -1436820.7298455313 0 -1436820.7298455313 4413094.2923377855 0 0 0 0 -7552930.686050415 -3744135.2158322632 0 -3744135.2158322632 4585037.158842802 0 0 0 0 -30370616.237060547 -12662974.850830793 0 -12662974.850830793 2197228.0257091522 0 0 0 0 -17976352.85187982 -7826374.9315175116 0 -7826374.9315175116 1387983.162009005 0 0 0 0 -7222540.9706420898 -6425837.8504798412 0 -6425837.8504798412 5850849.7175161839 0 0 0 0 -29366925.775512695 -9023020.7939896584 0 -9023020.7939896584 2222970.2260408401 0 0 0 0 -5768349.9178611934 3234492.6668811254 0 3234492.6668811254 6877083.2439091513 0 0 0 0 -4008614.1424560547 3452542.7446136475 0 3452542.7446136475 11021729.307474136 0 0 0 0 -7112097.2989501953 1664489.0379393101 0 1664489.0379393101 6203724.2608193755 0 0 0 0 -9863225.0659790039 -667458.07415342331 0 -667458.07415342331 4258933.445099473 0 0 0 0 666059.68212890625 1626872.7138190269 0 1626872.7138190269 1000569.8755079508 0 0 0 0 -8717336.4181916863 -3484217.7733857632 0 -3484217.7733857632 -286522.47306195996 0 0 0 0 -6592455.3716004491 2047337.7413883805 0 2047337.7413883805 1984589.4432705338 0 0 0 0 -3630869.9919773638 -1280296.9538220987 0 -1280296.9538220987 -219954.01022396563 0 0 0 0 -8051198.2238655537 699999.21110025048 0 699999.21110025048 1570542.470887345 0 0 0 0 46170530.762969971 36694642.403438091 0 36694642.403438091 37787393.679805756 0 0 0 0 60436589.617233276 49635113.028440952 0 49635113.028440952 -1878890.702624321 0 0 0 0 74548329.94708252 25703472.871623039 0 25703472.871623039 22787364.932271004 0 0 0 0 -8400196.18518015 -2404116.0035199299 0 -2404116.0035199299 54250.303782561328 0 0 0 0 -7003775.7581176758 -1445670.4210095406 0 -1445670.4210095406 2319771.9830989838 0 0 0 0 -7891373.5058078021 -1507969.0169162303 0 -1507969.0169162303 1628737.757018188 0 0 0 0 -6971368.9632568359 -1396363.8249731064 0 -1396363.8249731064 2374240.1047449112 0 0 0 0 -8625790.7946445048 -3976789.5612002239 0 -3976789.5612002239 314554.5534859607 0 0 0 0 -5144434.643737793 -3037852.5897333622 0 -3037852.5897333622 -1199339.9410018921 0 0 0 0 -8719166.5569983721 -2865948.2023484856 0 -2865948.2023484856 -415535.20137064089 0 0 0 0 -12160870.875628531 -5389472.824134402 0 -5389472.824134402 634583.09430958517 0 0 0 0 -7474491.7493286133 -3938477.253210783 0 -3938477.253210783 4019168.8410072327 0 0 0 0 -18714939.491363525 -17798154.484022379 0 -17798154.484022379 -5447847.6531457901 0 0 0 0 -20986255.335510254 -11334683.274735451 0 -11334683.274735451 -1328905.6277618408 0 0 0 0 -29713356.104125977 -14380272.781234741 0 -14380272.781234741 -2262830.9329252243 0 0 0 0 -29834576.028015137 -15588706.546084881 0 -15588706.546084881 -1291982.8412237167 0 0 0 0 -25224191.600219727 -19788319.746786594 0 -19788319.746786594 -5862009.83639431 0 0 0 0 -18337329.096107483 -9290563.5799837112 0 -9290563.5799837112 -4312469.0109395981 0 0 0 0 -4460059.378552407 -3747993.9564926028 0 -3747993.9564926028 717896.67513131816 0 0 0 0 -30557326.886505127 -19523906.227646351 0 -19523906.227646351 -4750540.4848632812 0 0 0 0 -15040757.426864624 -11011244.501326323 0 -11011244.501326323 -3565418.9908332825 0 0 0 0 -7454742.820779264 105313.62918850034 0 105313.62918850034 -1231703.0137722753 0 0 0 0 -19070741.875732422 2960262.6744925976 0 2960262.6744925976 5631364.0172433853 0 0 0 0 -2382630.3425344676 -28533.220700092614 0 -28533.220700092614 1022715.5003788574 0 0 0 0 122614893.19229126 -16335085.228950977 0 -16335085.228950977 -32835637.456880569 0 0 0 0 87916507.975646973 24169277.770162582 0 24169277.770162582 -16348379.123864889 0 0 0 0 -1742017.2459553629 3008895.2172442004 0 3008895.2172442004 2281170.0578891076 0 0 0 0 -6420616.1074036211 -4173373.7807141095 0 -4173373.7807141095 1165793.5398438196 0 0 0 0 -5332766.3717498779 -232570.48031425476 0 -232570.48031425476 1114286.2063932419 0 0 0 0 -31685801.436950684 -22321675.664279461 0 -22321675.664279461 -3453697.2072691917 0 0 0 0 -17305706.039962769 -26596813.696344614 0 -26596813.696344614 -5672683.8449940681 0 0 0 0 -31707825.289279938 -21121072.400315017 0 -21121072.400315017 20879970.950813293 0 0 0 0 -27692307.421569824 -19510629.378819466 0 -19510629.378819466 -15054912.153303027 0 0 0 0 -31216049.850814819 -14657434.988290787 0 -14657434.988290787 -7019702.2662477493 0 0 0 0 -31541459.055725098 -17635993.238113403 0 -17635993.238113403 -3433288.9914588928 0 0 0 0 -32669606.422149658 -16023333.485296965 0 -16023333.485296965 -4811422.2628974915 0 0 0 0 -32604254.433776855 -19201450.463953018 0 -19201450.463953018 -5794198.5027731657 0 0 0 0 -32090084.241455078 -13574283.463583946 0 -13574283.463583946 1512163.8426205516 0 0 0 0 -32687866.88470459 -16160817.638174057 0 -16160817.638174057 1591305.0266046524 0 0 0 0 -31049900.850372314 -12838388.23976469 0 -12838388.23976469 1724743.0891647339 0 0 0 0 -32193303.131652832 -12778168.930400848 0 -12778168.930400848 1774242.4448890686 0 0 0 0 -33422478.339324951 -11815027.466971517 0 -11815027.466971517 6972428.3508892059 0 0 0 0 -33606056.843261719 -13253574.885449409 0 -13253574.885449409 2531126.7788696289 0 0 0 0 -32225162.424743652 -12401270.153847694 0 -12401270.153847694 3055747.4325819016 0 0 0 0 -29872998.627563477 -9118712.2069740295 0 -9118712.2069740295 2608597.2194824219 0 0 0 0 -3510351.2574908733 -4404819.5358780548 0 -4404819.5358780548 -1391100.2971138114 0 0 0 0 -27121003.403930664 -8137922.7139043808 0 -8137922.7139043808 3743850.1954436302 0 0 0 0 -29614413.70803833 -141616487.31289554 0 -141616487.31289554 -122974871.13121289 0 0 0 0 -27858719.178115845 -6310823.48482728 0 -6310823.48482728 8791281.499871254 0 0 0 0 -28555288.189758301 -10966885.447954893 0 -10966885.447954893 -1610489.9497680664 0 0 0 0 -33450944.084716797 -18060263.19863534 0 -18060263.19863534 8156746.9853000641 0 0 0 0 -32625907.623718262 -9931991.0960893631 0 -9931991.0960893631 9952844.1674842834 0 0 0 0 -101065026.18243408 -57623482.157357574 0 -57623482.157357574 -13802373.384003162 0 0 0 0 15561186.407577515 152931704.38689086 0 152931704.38689086 -174255127.52582094 0 0 0 0 -85735552.363891602 -120482189.89136225 0 -120482189.89136225 41895904.718200967 0 0 0 0 -29073722.674377441 -12792325.518986225 0 -12792325.518986225 -3917691.1588134766 0 0 0 0 -242695869.46484375 -113522444.28818554 0 -113522444.28818554 364323638.52097774 0 0 0 0 12136138.959472656 -67916722.026812315 0 -67916722.026812315 7068476.0292892456 0 0 0 0 -45072090.838867188 -98499580.91159904 0 -98499580.91159904 47511452.188954949 0 0 0 0 -40469530.973083496 -46064588.229357958 0 -46064588.229357958 6372962.1653442383 0 0 0 0 -118925289.46270752 -84590718.398497105 0 -84590718.398497105 49857135.693720818 0 0 0 0 -29073116.805664062 -71056682.616178334 0 -71056682.616178334 33195814.767442703 0 0 0 0 -168979625.58996582 -128973411.5221495 0 -128973411.5221495 8753862.4431567192 0 0 0 0 -11410244.76746729 -8346901.0195591599 0 -8346901.0195591599 -1182282.8239817079 0 0 0 0 -34712721.043151855 -15925942.966038227 0 -15925942.966038227 -1436815.7436118126 0 0 0 0 -29542445.60175705 -12014777.633222044 0 -12014777.633222044 1623985.9297142029 0 0 0 0 -32059093.002746582 -11323071.286848545 0 -11323071.286848545 2245175.4189548492 0 0 0 0 -30993997.142944336 -15353879.195056915 0 -15353879.195056915 -3363594.6570584774 0 0 0 0 -33690302.514282227 -13737204.204627037 0 -13737204.204627037 705313.59321069717 0 0 0 0 -31707649.68359375 -11319332.128261566 0 -11319332.128261566 2100618.1422491074 0 0 0 0 -32283028.940391541 -13194339.470658928 0 -13194339.470658928 124571.38446903229 0 0 0 0 -31866123.36114502 -12057156.803582191 0 -12057156.803582191 3860.1493835449219 0 0 0 0 -30507955.737747192 -11850696.082009912 0 -11850696.082009912 -2179916.6641597748 0 0 0 0 -36840041.855102539 -13156104.878286839 0 -13156104.878286839 -417432.09378767014 0 0 0 0 -32793699.096557617 -14104684.294680595 0 -14104684.294680595 -488887.47361469269 0 0 0 0 -33515311.921264648 -13409712.207401276 0 -13409712.207401276 1428874.9101855755 0 0 0 0 -35398072.68371582 -8223494.2695486546 0 -8223494.2695486546 -4372862.1709346771 0 0 0 0 748881.60791015625 -7283660.2682447433 0 -7283660.2682447433 19494343.046421051 0 0 0 0 -14299522.6570822 -7310573.5861581862 0 -7310573.5861581862 4758720.1768253818 0 0 0 0 -2479798.4481199086 -3015935.9726602416 0 -3015935.9726602416 3900428.8470996516 0 0 0 0 -6768200.7438964844 -5074640.5258560181 0 -5074640.5258560181 6740363.5182552338 0 0 0 0 -102916909.50683594 -66758000.113617897 0 -66758000.113617897 -113026711.21307611 0 0 0 0 -95461665.58972168 -81969915.921471357 0 -81969915.921471357 -82778671.125359058 0 0 0 0 -132879291.87011719 -20810542.544257164 0 -20810542.544257164 -133849218.00043404 0 0 0 0 851637.58067046106 -3358655.1043621618 0 -3358655.1043621618 -1164131.0361736426 0 0 0 0 -105318954.40148926 -75976361.540036678 0 -75976361.540036678 -36163243.327969074 0 0 0 0 -21040132.934147313 -3950207.2355742548 0 -3950207.2355742548 7841295.3491032766 0 0 0 0 -10259343.382446289 -976573.04091644287 0 -976573.04091644287 2897101.5316429138 0 0 0 0 -12499415.673812866 -4284441.4917669296 0 -4284441.4917669296 3930958.0604667664 0 0 0 0 -114073025.90332031 -17901827.548196793 0 -17901827.548196793 5071206.3268313408 0 0 0 0 -23762359.549181074 -15281879.246909838 0 -15281879.246909838 -4958073.1026212517 0 0 0 0 -17535078.044102296 -2992961.3218711019 0 -2992961.3218711019 5833323.3752264595 0 0 0 0 1433630.2833251953 -32212398.802780151 0 -32212398.802780151 -9672969.8606796265 0 0 0 0 -5392619.0150663406 -2398552.5252343416 0 -2398552.5252343416 -572690.69249594922 0 0 0 0 -48887090.29675293 -13958785.131807327 0 -13958785.131807327 -2947060.6869344711 0 0 0 0 -24295012.753295898 -28556698.764218807 0 -28556698.764218807 -11919654.36019516 0 0 0 0 -21732649.770507812 -26871723.991175652 0 -26871723.991175652 -12837663.197166443 0 0 0 0 -134030234.12127686 -15637993.529531717 0 -15637993.529531717 23935734.749700069 0 0 0 0 -59092220.440322876 -48926815.257160664 0 -48926815.257160664 30337957.770702839 0 0 0 0 -44957372.794494629 -23250577.891008377 0 -23250577.891008377 -1700652.8121032715 0 0 0 0 -6876884.1353359222 -25169261.107337609 0 -25169261.107337609 -15646706.983640671 0 0 0 0 -9750278.3901367188 -22092074.21663475 0 -22092074.21663475 -15067013.313896179 0 0 0 0 -26626219.612304688 -35926744.810632706 0 -35926744.810632706 4661423.0060063601 0 0 0 0 -6647773.6585731506 -34005201.966679722 0 -34005201.966679722 -10879493.89065361 0 0 0 0 -21357042.001953125 -28579387.787331581 0 -28579387.787331581 -11900839.137256622 0 0 0 0 -10716905.030029297 -25906775.505512238 0 -25906775.505512238 -13577272.488758087 0 0 0 0 -11369289.389160156 -23003192.510240555 0 -23003192.510240555 -14994548.498249054 0 0 0 0 -14902307.669189453 -23200217.048628807 0 -23200217.048628807 -13953420.591345787 0 0 0 0 -14916334.252685547 -23298741.925118446 0 -23298741.925118446 -12962618.219083786 0 0 0 0 -21399714.425048828 -25495497.402753353 0 -25495497.402753353 -13038968.585783005 0 0 0 0 -26319587.919174194 -8353780.0036559105 0 -8353780.0036559105 -2419686.2577590942 0 0 0 0 -15059429.166748047 -22779166.684233665 0 -22779166.684233665 -13135114.622757912 0 0 0 0 -15015737.427246094 -22736717.496017456 0 -22736717.496017456 -13494077.195277214 0 0 0 0 -24503872.931851551 -12175937.027147638 0 -12175937.027147638 5329504.6149941459 0 0 0 0 -12962072.470458984 -21612368.560149193 0 -21612368.560149193 -13710107.832692146 0 0 0 0 2916985.6032866091 -6339852.4069323177 0 -6339852.4069323177 -3800209.6478932635 0 0 0 0 -131044077.31469727 -86955383.941137314 0 -86955383.941137314 -51688387.789083481 0 0 0 0 -103523378.2043457 8756281.8030734062 0 8756281.8030734062 -10131488.625560999 0 0 0 0 -32152293.651489258 -13927276.867132187 0 -13927276.867132187 -2949374.8400392532 0 0 0 0 -192689518.31459045 -66526519.87645784 0 -66526519.87645784 69083228.068338275 0 0 0 0 -4343392.1496128067 -3095060.0763683915 0 -3095060.0763683915 -1357580.0680776816 0 0 0 0 -404254402.14321899 30941204.331305087 0 30941204.331305087 -30735965.32360898 0 0 0 0 -124736363.70954895 -64996843.034485146 0 -64996843.034485146 -47802977.379169703 0 0 0 0 -137237001.75944138 -92192902.878397062 0 -92192902.878397062 78563517.738892555 0 0 0 0 -85469792.337219238 -125651272.22844024 0 -125651272.22844024 75177410.507859051 0 0 0 0 -101185126.24327087 -114162902.47196698 0 -114162902.47196698 84968063.718623638 0 0 0 0 -53829987.354110718 -181016860.34966004 0 -181016860.34966004 -73355536.667993426 0 0 0 0 -67944475.671600342 -175623004.12826329 0 -175623004.12826329 -37844869.005089283 0 0 0 0 -260780360.83276367 -432052543.83085066 0 -432052543.83085066 -87435098.598484159 0 0 0 0 -361394011.32038116 -558561968.37785923 0 -558561968.37785923 -244324306.49381924 0 0 0 0 4280895.2860717773 -409531529.9995665 0 -409531529.9995665 -376690223.67384231 0 0 0 0 39614580.269927979 -204802955.50833893 0 -204802955.50833893 -151197127.98426151 0 0 0 0 -189632499.91758347 -343428897.41672015 0 -343428897.41672015 -210747899.62157381 0 0 0 0 -158120475.83724976 -181524994.99605471 0 -181524994.99605471 -437752801.72988105 0 0 0 0 -137704681.21742249 -263872396.90164483 0 -263872396.90164483 -149026132.38718104 0 0 0 0 -330256393.17190552 -140010551.20782626 0 -140010551.20782626 -186604851.86664176 0 0 0 0 -291462249.01821899 -12177359.708801508 0 -12177359.708801508 -259710907.00457489 0 0 0 0 -545697487.79081726 -27438327.97904253 0 -27438327.97904253 -65398192.009139538 0 0 0 0 -297232796.95083618 -91148713.540773392 0 -91148713.540773392 -59477763.65332818 0 0 0 0 -26656340.36341095 -240404092.47374785 0 -240404092.47374785 145503.57167053223 0 0 0 0 198772129.75411987 -22507413.566257715 0 -22507413.566257715 -136166282.38703132 0 0 0 0 -658629.3375608325 -1382971.893900387 0 -1382971.893900387 -644086.40189277986 0 0 0 0 -17686986.461012125 -52523444.022004925 0 -52523444.022004925 153798102.92553043 0 0 0 0 -30273004.101161957 -112174868.76191299 0 -112174868.76191299 -112348677.19835472 0 0 0 0 -2707568.2453918457 -100183526.25797296 0 -100183526.25797296 -108517285.18788478 0 0 0 0 22185879.733184814 -142184462.53266364 0 -142184462.53266364 -231058461.97416127 0 0 0 0 -28366398.149726868 61997760.536042839 0 61997760.536042839 -319333450.69599009 0 0 0 0 -218292507.44088745 370632786.96534705 0 370632786.96534705 -433677795.30525607 0 0 0 0 117131328.91497803 9672508.2121617496 0 9672508.2121617496 -457905786.67449486 0 0 0 0 133576365.8079834 -127438241.85732448 0 -127438241.85732448 14358934.463344097 0 0 0 0 126410233.63711548 98572457.150377035 0 98572457.150377035 -352719342.79859722 0 0 0 0 -95193197.475753784 -85817592.769069016 0 -85817592.769069016 343891787.42881 0 0 0 0 39899410.88293457 334155533.12863541 0 334155533.12863541 -610045927.05981338 0 0 0 0 -169640093.31171036 -189466255.36073425 0 -189466255.36073425 -422224516.7789613 0 0 0 0 271685526.19953918 -32660356.442317247 0 -32660356.442317247 -366510484.35605747 0 0 0 0 -853234491.79876709 668537014.22753882 0 668537014.22753882 89177384.343717158 0 0 0 0 -2522492.3812711537 -1027127.3407086954 0 -1027127.3407086954 647849.34248317848 0 0 0 0 228763481.41867065 16700014.201265335 0 16700014.201265335 -31875581.650268078 0 0 0 0 -1057834615.3459473 -275537509.89168721 0 -275537509.89168721 -89244735.557142884 0 0 0 0 -143360363.61769104 -234122897.13984257 0 -234122897.13984257 -731627075.51902938 0 0 0 0 -725203168.90873718 7493015.4327843189 0 7493015.4327843189 -238497937.37135649 0 0 0 0 -460280206.33811951 128137856.0415823 0 128137856.0415823 -558865725.51415205 0 0 0 0 -607184289.9822998 110184663.26094961 0 110184663.26094961 -270647078.96530408 0 0 0 0 -642366328.54688263 103812301.98075044 0 103812301.98075044 -228902078.7208724 0 0 0 0 -638800020.7147522 -89084616.992415667 0 -89084616.992415667 -433061255.16504419 0 0 0 0 -295131142.51123047 126259684.39378214 0 126259684.39378214 -420561805.04409838 0 0 0 0 -508286408.3968811 325042554.57135415 0 325042554.57135415 -552664017.53290045 0 0 0 0 -727023255.04202271 242793298.58304405 0 242793298.58304405 -408115547.72353292 0 0 0 0 -853281052.57202148 536517019.61111927 0 536517019.61111927 -471734044.0454334 0 0 0 0 -397564230.13381195 458834826.1542815 0 458834826.1542815 -470130714.04259205 0 0 0 0 -1063771649.8311157 438863108.37349677 0 438863108.37349677 -374041574.96440554 0 0 0 0 -869616575.85723877 453301616.44403911 0 453301616.44403911 -461205785.83141661 0 0 0 0 -659601213.49504089 291546109.51168573 0 291546109.51168573 -406274992.96165609 0 0 0 0 -741100428.79523468 313908814.39472818 0 313908814.39472818 -366792574.3069849 0 0 0 0 -812253458.22537231 300371526.64017248 0 300371526.64017248 -258070177.61335438 0 0 0 0 -678149728.67093658 108875212.4636308 0 108875212.4636308 -135826347.8533864 0 0 0 0 -774692732.28945923 297131616.11081696 0 297131616.11081696 -234850000.73703766 0 0 0 0 -1113718272.5617504 183104986.72935802 0 183104986.72935802 -219263892.30953598 0 0 0 0 -830174045.53114319 599661609.97481775 0 599661609.97481775 -511152877.87845421 0 0 0 0 -1070331447.5507927 589584534.0235914 0 589584534.0235914 -360962364.46829605 0 0 0 0 -856643786.04388428 478880477.79733086 0 478880477.79733086 -323901375.86828959 0 0 0 0 -882369344.71642303 419223352.08522367 0 419223352.08522367 -460111292.7856493 0 0 0 0 -521421781.04838562 396719654.12261629 0 396719654.12261629 -474591718.60151815 0 0 0 0 -1100232651.9771729 37264942.293399811 0 37264942.293399811 -155151774.19144714 0 0 0 0 109345954.28253174 -67916523.152247429 0 -67916523.152247429 -167044662.64906311 0 0 0 0 -134625989.72257233 143524450.92089087 0 143524450.92089087 68805509.460594654 0 0 0 0 106921880.50204468 -181617545.9005239 0 -181617545.9005239 -52744149.386327505 0 0 0 0 -326777957.92945862 -53204042.237128019 0 -53204042.237128019 -96054045.072929382 0 0 0 0 -533519829.98965454 178858283.12691903 0 178858283.12691903 -142646883.45635748 0 0 0 0 -449645312.5199585 154673197.80664968 0 154673197.80664968 -67216121.753591478 0 0 0 0 -661788686.05194092 315326047.95482087 0 315326047.95482087 -302564978.71513844 0 0 0 0 -594726468.4997406 21369688.408983231 0 21369688.408983231 -162965570.83224392 0 0 0 0 -721279131.88441467 185383380.95644093 0 185383380.95644093 -581929198.47841644 0 0 0 0 -468263946.07635498 326190517.47708321 0 326190517.47708321 -318066958.7237165 0 0 0 0 -500699549.46846771 54457430.970872045 0 54457430.970872045 -83234550.635439396 0 0 0 0 -239327699.2328186 145710782.82749701 0 145710782.82749701 -74134165.935812473 0 0 0 0 -180385469.63414383 -57177353.702757016 0 -57177353.702757016 53204985.703904152 0 0 0 0 -160915211.31509399 103666156.60317183 0 103666156.60317183 -283694424.43720436 0 0 0 0 135787977.45498657 -97379234.181795597 0 -97379234.181795597 -74303554.416841507 0 0 0 0 73432129.64440918 99259738.29313755 0 99259738.29313755 -151151967.66376829 0 0 0 0 -52631535.699935913 116641168.63225794 0 116641168.63225794 -102822967.24698019 0 0 0 0 -1585600.9186096191 -24749478.554498911 0 -24749478.554498911 -88064722.532945156 0 0 0 0 -9475564.9066848755 197214589.47113734 0 197214589.47113734 39127322.107039928 0 0 0 0 12598172.99609375 27073488.596498966 0 27073488.596498966 -98810271.87544477 0 0 0 0 -324014224.34899902 -26194884.770134449 0 -26194884.770134449 -9579574.1345117092 0 0 0 0 -310834324.2804718 72198478.739686608 0 72198478.739686608 -52601416.679530144 0 0 0 0 -612110232.36560059 287717792.19043458 0 287717792.19043458 -99652422.498168945 0 0 0 0 -887166475.22605896 376778585.69029963 0 376778585.69029963 5284438.6320233345 0 0 0 0 -895183592.40724754 421175050.05136895 0 421175050.05136895 -104081425.9829917 0 0 0 0 -1100467509.9549866 435615079.92063975 0 435615079.92063975 81261976.552147627 0 0 0 0 -673661779.70615387 258510279.5273627 0 258510279.5273627 53743270.618757725 0 0 0 0 -1130794207.1810608 531108904.49556386 0 531108904.49556386 -64944839.750932217 0 0 0 0 -959017765.2769928 439461843.20190251 0 439461843.20190251 -146812732.79352117 0 0 0 0 -813510294.25653076 50400326.636829078 0 50400326.636829078 -399779069.67956656 0 0 0 0 -992697890.02835083 540689251.18530679 0 540689251.18530679 -277787600.25954366 0 0 0 0 -687981596.94094849 626014880.85974789 0 626014880.85974789 -363566438.71273196 0 0 0 0 29775306.244628906 32154159.598663211 0 32154159.598663211 -398686400.08695912 0 0 0 0 -84177071.255279541 -661625.67252168059 0 -661625.67252168059 6977537.7958887815 0 0 0 0 -1020576502.5849915 -90693077.405631214 0 -90693077.405631214 158121960.09075975 0 0 0 0 -1143397.2837616801 982801.43818958849 0 982801.43818958849 -819592.1922412765 0 0 0 0 -1306886927.4665222 457829992.68637657 0 457829992.68637657 -267082786.18636274 0 0 0 0 -949711893.82397461 177699418.79858494 0 177699418.79858494 -205308377.99709821 0 0 0 0 -709784388.14368439 -201876873.40397787 0 -201876873.40397787 190109071.37125301 0 0 0 0 -2950414.6471490264 2837614.8407098576 0 2837614.8407098576 -1604012.163470678 0 0 0 0 -134376642.77523804 622860502.2061758 0 622860502.2061758 193304914.1479294 0 0 0 0 -746910529.13587952 -177876785.37569511 0 -177876785.37569511 168217407.31084174 0 0 0 0 -1413301.5262438655 1344378.8991908655 0 1344378.8991908655 -883297.24652494118 0 0 0 0 -1925822095.725647 35978403.198812246 0 35978403.198812246 129706191.49289513 0 0 0 0 505893214.35752869 529708790.60214806 0 529708790.60214806 -509927418.41325665 0 0 0 0 -1507082837.568634 850433682.99532056 0 850433682.99532056 -400082867.3339178 0 0 0 0 -1231864092.040863 492660717.58355474 0 492660717.58355474 51389478.367289066 0 0 0 0 -912834404.02363586 286948903.08089173 0 286948903.08089173 181520303.20749235 0 0 0 0 -750034279.45184326 109303984.63869226 0 109303984.63869226 -94631108.760596871 0 0 0 0 -592248211.05458069 65986330.984673619 0 65986330.984673619 -106535767.96010453 0 0 0 0 -590036767.48768616 154833374.68369681 0 154833374.68369681 -55033470.424690247 0 0 0 0 -202633520.40505981 336535539.38963896 0 336535539.38963896 156739263.80118239 0 0 0 0 -178338019.55459595 -202781907.33941662 0 -202781907.33941662 246453968.48168892 0 0 0 0 -2267292366.8482361 37371557.001638293 0 37371557.001638293 392785282.24691939 0 0 0 0 -1698243.305351451 1485935.3382953703 0 1485935.3382953703 -659386.08557290328 0 0 0 0 329319101.28158569 787639559.98602033 0 787639559.98602033 -339796553.63915563 0 0 0 0 -793662561.53335571 -316661761.33400393 0 -316661761.33400393 96553857.658888817 0 0 0 0 -1824155973.8701782 -11815639.323710442 0 -11815639.323710442 356548455.62632751 0 0 0 0 -552784444.2848053 -216316277.01272738 0 -216316277.01272738 -92064448.717741981 0 0 0 0 -1501816.6878837943 1517016.8823555782 0 1517016.8823555782 40056.947488274513 0 0 0 0 -1169732511.4711914 825898697.14489484 0 825898697.14489484 -311536569.67949307 0 0 0 0 -1559352843.5051422 1149992108.6666546 0 1149992108.6666546 26810683.151852131 0 0 0 0 -1376302136.5772705 877952520.87740695 0 877952520.87740695 245262160.68909431 0 0 0 0 -1225718664.8848038 270592546.15539646 0 270592546.15539646 -329133022.97186661 0 0 0 0 -52028340.575256348 444492166.15053356 0 444492166.15053356 -455913231.51174736 0 0 0 0 -763203509.34558105 477281387.16071498 0 477281387.16071498 -354838280.78061599 0 0 0 0 -678993012.23590088 209648820.99242654 0 209648820.99242654 -157424354.18613744 0 0 0 0 -589883796.6436615 117400044.76571023 0 117400044.76571023 -200971643.36744547 0 0 0 0 -515583627.42158508 26085975.954160213 0 26085975.954160213 -96348508.772714853 0 0 0 0 -676870059.34690857 77592592.520279706 0 77592592.520279706 -109257298.7575376 0 0 0 0 -726777352.84277344 185772191.80618289 0 185772191.80618289 -54291900.665395379 0 0 0 0 -772087853.98945618 185915213.22633463 0 185915213.22633463 -53400384.389259756 0 0 0 0 -744832811.37982178 226004163.56964424 0 226004163.56964424 126690.17455469801 0 0 0 0 -727309932.49320984 244332514.80739886 0 244332514.80739886 -65169431.398404285 0 0 0 0 -637743931.01060486 279487550.82322782 0 279487550.82322782 -54391243.201620102 0 0 0 0 -282180657.67987061 120556323.4272805 0 120556323.4272805 67601.164255615979 0 0 0 0 -754172555.94399643 58594689.917924784 0 58594689.917924784 252384123.1823104 0 0 0 0 -1016067357.4892502 310248966.06173724 0 310248966.06173724 92961667.477802426 0 0 0 0 -830519413.83143616 251149996.24515885 0 251149996.24515885 -49221154.788065076 0 0 0 0 -652623607.32373047 286063347.91648102 0 286063347.91648102 -51773015.949529976 0 0 0 0 -790442530.69845581 229492974.55306059 0 229492974.55306059 -56130154.039748929 0 0 0 0 -342017364.80839539 335268972.40782666 0 335268972.40782666 -153620788.34113288 0 0 0 0 -632313534.29034424 414329305.3929916 0 414329305.3929916 -153550764.77010548 0 0 0 0 -119158894.25254822 312273031.4597311 0 312273031.4597311 -290508926.3521809 0 0 0 0 -1197986594.1967926 168416761.43768284 0 168416761.43768284 -37800338.140057445 0 0 0 0 -777729948.16574097 160528743.49826217 0 160528743.49826217 -108845803.61835051 0 0 0 0 -712701305.12582397 134469973.2296958 0 134469973.2296958 -132745335.25788772 0 0 0 0 -677703959.34410095 84297730.478421688 0 84297730.478421688 -95572317.903925449 0 0 0 0 -1017942936.5809937 207261296.74910846 0 207261296.74910846 24720230.251057565 0 0 0 0 -382955.91921912599 199447.51246673614 0 199447.51246673614 -4926.9984456044622 0 0 0 0 -808355411.55825806 131361689.34339482 0 131361689.34339482 -19684786.669059038 0 0 0 0 -749001756.82100296 128403107.69226605 0 128403107.69226605 -14947791.900461495 0 0 0 0 -924279670.12187195 138298723.06152672 0 138298723.06152672 -5078910.0735594081 0 0 0 0 -798057574.8624649 198408541.06739444 0 198408541.06739444 -130951.7473380367 0 0 0 0 -776519.64997235965 396192.74135466665 0 396192.74135466665 -13087.548439834238 0 0 0 0 -578445394.10651016 176585789.83075824 0 176585789.83075824 -10832617.979309261 0 0 0 0 -615003737.60952759 190041110.78254417 0 190041110.78254417 111894.56827989072 0 0 0 0 -608129406.88995361 235892516.70114481 0 235892516.70114481 -9462932.6674598455 0 0 0 0 -452114479.85183716 183911581.75447184 0 183911581.75447184 -63361.021107649169 0 0 0 0 -585754530.21395111 273159143.33857381 0 273159143.33857381 -13534252.817246318 0 0 0 0 -408838665.05018616 251700861.5228864 0 251700861.5228864 -45388566.733999252 0 0 0 0 -228965658.55091858 178076668.02044815 0 178076668.02044815 -65111864.696498275 0 0 0 0 -296634125.84341431 160153039.94055232 0 160153039.94055232 -30492.925176510529 0 0 0 0 -238804708.75549316 136116516.07011551 0 136116516.07011551 -37559665.34341076 0 0 0 0 -238957032.44610596 195714019.64160177 0 195714019.64160177 -106080222.50530168 0 0 0 0 -462258.72325130925 -123236.95277164876 0 -123236.95277164876 -183892.39521469618 0 0 0 0 -206255553.64224243 126012784.65852101 0 126012784.65852101 -32161.078365152665 0 0 0 0 -205046160.05702209 111416539.45634341 0 111416539.45634341 -35259885.419297367 0 0 0 0 -367691.15138234198 -333626.48919896036 0 -333626.48919896036 -515751.40896053368 0 0 0 0 -16281270.962051392 52758272.729017898 0 52758272.729017898 -43425167.511944294 0 0 0 0 -116694508.45701599 23250502.844612882 0 23250502.844612882 6939221.1476516426 0 0 0 0 -25383683.449523926 -26791539.701998934 0 -26791539.701998934 -12329622.333124831 0 0 0 0 -136073503.06539917 177652919.85733625 0 177652919.85733625 -213277475.49531126 0 0 0 0 -322970498.55678368 222975043.86211181 0 222975043.86211181 -102901719.60513306 0 0 0 0 -147922574.06634521 96919595.309419781 0 96919595.309419781 -55497954.373466849 0 0 0 0 -121867487.35169601 126527108.32481191 0 126527108.32481191 -121296286.77428079 0 0 0 0 -40451693.162811279 25719580.877501339 0 25719580.877501339 -84093342.369290978 0 0 0 0 -128074143.8108201 84038929.657807037 0 84038929.657807037 -99630430.870750308 0 0 0 0 -115203587.23872375 103830624.62459846 0 103830624.62459846 -72456200.605545968 0 0 0 0 12845929.859466553 56560434.697104633 0 56560434.697104633 -70279092.503697425 0 0 0 0 66094901.808822632 9556921.8077872768 0 9556921.8077872768 -29093918.841733456 0 0 0 0 -231462.57823905349 -150436.3935835734 0 -150436.3935835734 278227.72751580185 0 0 0 0 -8487740.469909668 43963125.016087204 0 43963125.016087204 24920088.560173903 0 0 0 0 4867864.9522705078 57860624.146521568 0 57860624.146521568 1875551.4687643051 0 0 0 0 -52053013.038131714 3191320.1554256063 0 3191320.1554256063 17863349.127891906 0 0 0 0 -10581796.149414062 4357224.8542754129 0 4357224.8542754129 10476862.729820248 0 0 0 0 -20496382.187789917 16592530.300738428 0 16592530.300738428 20092992.706306547 0 0 0 0 -63595916.845596313 24058816.675106868 0 24058816.675106868 -25018419.529081225 0 0 0 0 -24334996.950012207 -17222290.965143241 0 -17222290.965143241 -14484032.975727919 0 0 0 0 23701523.979385376 -2290429.8813348338 0 -2290429.8813348338 -21240612.398567185 0 0 0 0 -256096.22220834345 -607344.00246954709 0 -607344.00246954709 -793258.9040786355 0 0 0 0 -15310746.648017883 -16835637.109268934 0 -16835637.109268934 1390348.6298110783 0 0 0 0 -21847888.313919067 -7947670.1885017743 0 -7947670.1885017743 7005937.5271044895 0 0 0 0 -14074712.654296875 -4951052.6762147769 0 -4951052.6762147769 8316705.2867318988 0 0 0 0 -9799952.2856445312 -7139782.9502438009 0 -7139782.9502438009 6493418.4144992754 0 0 0 0 -4146956.1545410156 -12198271.351829775 0 -12198271.351829775 1770109.5154802948 0 0 0 0 -10559411.434661865 -9013853.7836000025 0 -9013853.7836000025 2138557.0610621125 0 0 0 0 -7390043.9234619141 585968.67755965516 0 585968.67755965516 34989.266314327717 0 0 0 0 3450479.0653686523 6086004.4718024209 0 6086004.4718024209 9855951.4757162035 0 0 0 0 -5539269.3045654297 -2545763.5503306985 0 -2545763.5503306985 4687964.6369826198 0 0 0 0 933709.62414550781 12257937.989603594 0 12257937.989603594 13775597.362091362 0 0 0 0 -249307.35097140074 957442.37940310687 0 957442.37940310687 -800186.250834184 0 0 0 0 3483420.9846191406 391624.37149721384 0 391624.37149721384 -937937.14090657234 0 0 0 0 -2751537.6988496557 1384407.7280826718 0 1384407.7280826718 687113.57475813141 0 0 0 0 184013801.08071899 62666820.320086956 0 62666820.320086956 -44318846.006908894 0 0 0 0 84961339.419036865 -19704393.764377356 0 -19704393.764377356 -24725882.551599026 0 0 0 0 41007287.791290283 230663.31926298141 0 230663.31926298141 37997581.022305012 0 0 0 0 -2617749.1928233132 2143170.2128000706 0 2143170.2128000706 -915825.62106020958 0 0 0 0 2509956.0147705078 2709346.6361017227 0 2709346.6361017227 1563355.8930988312 0 0 0 0 28897156.491027832 42171729.100846097 0 42171729.100846097 10990532.919377819 0 0 0 0 -35131758.371337891 -11242914.939635277 0 -11242914.939635277 1891641.4900016785 0 0 0 0 -1303838.3837676495 160775.51985542476 0 160775.51985542476 1350156.7715615556 0 0 0 0 -3641917.216796875 16504324.138326168 0 16504324.138326168 22766964.951222777 0 0 0 0 -2417990.9162707627 2617668.6390825361 0 2617668.6390825361 -2351966.720500126 0 0 0 0 -51905817.173873901 13519571.013774633 0 13519571.013774633 55205084.205863953 0 0 0 0 6765.1174034029245 1680072.7368051112 0 1680072.7368051112 -2092233.7250654909 0 0 0 0 -917746.57875911891 577543.75842902064 0 577543.75842902064 681400.16026651394 0 0 0 0 3250564.8589019775 4801096.8599602059 0 4801096.8599602059 14149717.925520182 0 0 0 0 25380957.595901489 21169156.064199515 0 21169156.064199515 13626247.260143697 0 0 0 0 -10023988.935241699 12286330.922501042 0 12286330.922501042 19517246.376821607 0 0 0 0 -337125982.69683838 349543.82294082642 0 349543.82294082642 -43255797.956624985 0 0 0 0 -391198584.42092896 42627476.811712623 0 42627476.811712623 42122498.086282492 0 0 0 0 -1936193.6621050537 -2240120.8467339873 0 -2240120.8467339873 -2575526.1923095291 0 0 0 0 77619820.034210205 23619007.506472111 0 23619007.506472111 91035038.379348755 0 0 0 0 -62972142.753326416 54577725.36487484 0 54577725.36487484 133239601.64879417 0 0 0 0 -50293647.145027161 38349540.119238377 0 38349540.119238377 133607731.69412136 0 0 0 0 -47656089.658172607 49090263.505387783 0 49090263.505387783 110623121.25134325 0 0 0 0 30072420.827362061 63083655.710784435 0 63083655.710784435 101209805.77118397 0 0 0 0 -143785766.30780029 4321525.9919672012 0 4321525.9919672012 364032162.64903641 0 0 0 0 78232823.382398605 -65212991.323227927 0 -65212991.323227927 178872618.66724682 0 0 0 0 -19728021.936096191 121032891.56628609 0 121032891.56628609 118696635.61165619 0 0 0 0 23243860.770874023 67698076.835961342 0 67698076.835961342 166245220.97879696 0 0 0 0 -346881747.63891602 116978627.57264343 0 116978627.57264343 -193545733.66783142 0 0 0 0 -805226681.57641602 308048947.2780571 0 308048947.2780571 405640343.17923164 0 0 0 0 -911043323.39221191 463952241.85696793 0 463952241.85696793 -218894477.30181122 0 0 0 0 -624853065.77954102 373777496.4094038 0 373777496.4094038 -343366313.93062544 0 0 0 0 -517422023.99487305 276258253.96099377 0 276258253.96099377 -331226898.72138739 0 0 0 0 -577645911.71630859 108159102.90962982 0 108159102.90962982 -115070384.64528084 0 0 0 0 -838107827.43164062 276317998.54214573 0 276317998.54214573 -190840539.62627745 0 0 0 0 -747478391.94256592 83576381.313938379 0 83576381.313938379 -7847932.000005722 0 0 0 0 -570589918.31161499 -163819013.47121334 0 -163819013.47121334 -3133740.0408992767 0 0 0 0 -758403194.25250244 53712857.791698933 0 53712857.791698933 -56263890.25195694 0 0 0 0 -605911753.80761719 -46934176.168364048 0 -46934176.168364048 -7993296.060759306 0 0 0 0 -521907400.1161499 -20823899.28514576 0 -20823899.28514576 -17196322.439166069 0 0 0 0 -458171856.86053467 -2948158.6951956749 0 -2948158.6951956749 -18956693.315177917 0 0 0 0 -579542299.50808716 107455323.34172088 0 107455323.34172088 -114911717.685709 0 0 0 0 588865.12391552608 346905.49583889544 0 346905.49583889544 -49753.128457427258 0 0 0 0 -306283004.80513 -108258036.46420395 0 -108258036.46420395 -78545097.830890179 0 0 0 0 -20545110.810974121 -4755616.1453375369 0 -4755616.1453375369 3759918.8654206842 0 0 0 0 -501332.70789762214 -892906.42809728533 0 -892906.42809728533 -1711408.1434375779 0 0 0 0 -422837972.76480103 -37120768.814889312 0 -37120768.814889312 -34326429.42463541 0 0 0 0 -532223576.38970947 -67481713.238358974 0 -67481713.238358974 29219281.332240105 0 0 0 0 -492476029.96990967 -91805997.170202971 0 -91805997.170202971 15403912.904362202 0 0 0 0 373172.05105067603 53117.843426696956 0 53117.843426696956 -342233.44597306126 0 0 0 0 -123204303.85211182 -37285270.217482328 0 -37285270.217482328 -13235335.727470398 0 0 0 0 -210173.65008618683 -818535.26996748149 0 -818535.26996748149 -1013508.3456498384 0 0 0 0 -494244425.92623901 -86054146.973853111 0 -86054146.973853111 27622382.141867161 0 0 0 0 -479259304.74705505 -83370639.583083808 0 -83370639.583083808 -10306033.275784969 0 0 0 0 -500765538.40209961 -2899013.6364226341 0 -2899013.6364226341 7259275.6510419846 0 0 0 0 -514733994.15917969 -69836634.052731514 0 -69836634.052731514 25080968.373121738 0 0 0 0 -479710708.05764771 -53010783.936118245 0 -53010783.936118245 577385.40470790863 0 0 0 0 -463472389.29547119 -59026540.151641369 0 -59026540.151641369 21257708.126223981 0 0 0 0 -368368856.078125 -13652561.45488596 0 -13652561.45488596 -2545703.6416305304 0 0 0 0 -456853737.44580078 -65420744.52613306 0 -65420744.52613306 23396473.020331383 0 0 0 0 -388939049.01135254 -12005998.680400014 0 -12005998.680400014 15499533.213367149 0 0 0 0 -439384064.4125061 -86257407.434879005 0 -86257407.434879005 -18847727.144922256 0 0 0 0 -345880539.45388794 -43770893.048297167 0 -43770893.048297167 12767628.204741716 0 0 0 0 -661336210.98980713 -92745179.23449254 0 -92745179.23449254 28080738.336233735 0 0 0 0 83104.262393860146 -103687.03992187977 0 -103687.03992187977 -104733.45210328547 0 0 0 0 -213120109.66485596 123345816.25109643 0 123345816.25109643 759032.97278356552 0 0 0 0 -518688673.85870361 -29269966.578009844 0 -29269966.578009844 -11886276.457554281 0 0 0 0 -479238342.55432129 -28327579.560810566 0 -28327579.560810566 8474381.9107845426 0 0 0 0 -435878076.37414551 -54221234.267645001 0 -54221234.267645001 4862927.0557379723 0 0 0 0 -355293442.25790405 -193709469.57213163 0 -193709469.57213163 -40028118.228754997 0 0 0 0 -421023961.28796387 -61866095.19822669 0 -61866095.19822669 -52911236.162866443 0 0 0 0 -481793229.47937012 -132694109.57959306 0 -132694109.57959306 -61806049.816095591 0 0 0 0 -436744568.45407104 -41393022.829023987 0 -41393022.829023987 18521336.804986238 0 0 0 0 -293704003.53805542 28705880.560384214 0 28705880.560384214 5213349.5349056721 0 0 0 0 -376869448.21846008 -25257419.641798109 0 -25257419.641798109 27569239.173068047 0 0 0 0 -370809727.15249634 -29572926.640026569 0 -29572926.640026569 -36433863.715260625 0 0 0 0 -272215818.5229187 353889.85872608423 0 353889.85872608423 -9700975.601303488 0 0 0 0 -270524605.27893066 31219436.735163748 0 31219436.735163748 25767232.371278554 0 0 0 0 -124171538.06237793 -16226955.735209286 0 -16226955.735209286 -8119533.2758069038 0 0 0 0 -186332943.93310547 35192897.995779455 0 35192897.995779455 1417620.9794824123 0 0 0 0 -229196211.12283325 -20832415.290550709 0 -20832415.290550709 7683295.2032391429 0 0 0 0 -66237261.09246254 1762116.900456436 0 1762116.900456436 -38581041.74786973 0 0 0 0 -207454514.05184937 93646177.90357101 0 93646177.90357101 12644397.220363021 0 0 0 0 -330098371.83572388 -81950398.313734055 0 -81950398.313734055 135020983.63173485 0 0 0 0 -2684199.1631232053 -2987182.1890162975 0 -2987182.1890162975 -2829469.9442704408 0 0 0 0 -488755802.85025024 -324118323.34241915 0 -324118323.34241915 -80089058.659095764 0 0 0 0 -67905737.484977722 -43015892.272319101 0 -43015892.272319101 -2904524.0200822353 0 0 0 0 -266269739.31420898 -437203307.48861694 0 -437203307.48861694 -945804396.56980133 0 0 0 0 -73346416.0831604 56962781.41727218 0 56962781.41727218 13363466.824949831 0 0 0 0 -109769359.30133057 16064286.164325237 0 16064286.164325237 55175918.78136313 0 0 0 0 -76040421.974578857 41984556.855350167 0 41984556.855350167 -7674627.8165634666 0 0 0 0 11849915.42098999 -44738579.442795955 0 -44738579.442795955 -9822253.5907227397 0 0 0 0 -162858391.26257324 -22155417.986841202 0 -22155417.986841202 5990186.2518680096 0 0 0 0 -205112281.05447388 39392527.111725695 0 39392527.111725695 18553734.675556898 0 0 0 0 -92595801.04750061 -30821491.475302663 0 -30821491.475302663 -12285464.165484786 0 0 0 0 -59939612.596160889 26321923.716046356 0 26321923.716046356 24874468.967761695 0 0 0 0 -349447884.01815796 -22276413.170498431 0 -22276413.170498431 -2766789.1216712333 0 0 0 0 -410124711.42459106 -58211534.355852127 0 -58211534.355852127 -5092096.104331255 0 0 0 0 -360883350.77319336 -11291288.762225628 0 -11291288.762225628 4443791.9987196028 0 0 0 0 -351112914.95684814 12623082.731886119 0 12623082.731886119 27117873.044468962 0 0 0 0 -355886948.16586304 -23242286.503455192 0 -23242286.503455192 30035814.490571141 0 0 0 0 -243462050.3666687 -31009496.279661119 0 -31009496.279661119 -3538849.4289550036 0 0 0 0 -444914631.70333862 -50091919.794163927 0 -50091919.794163927 29657468.842949718 0 0 0 0 -325411560.7956543 -46537814.111223109 0 -46537814.111223109 -9435619.706027247 0 0 0 0 -306617847.0602417 1336865.5341766085 0 1336865.5341766085 25508243.408023328 0 0 0 0 -287313135.41380119 -35757789.694910407 0 -35757789.694910407 106551.94003491079 0 0 0 0 -385405826.57765579 -14492824.51271208 0 -14492824.51271208 17096676.078762151 0 0 0 0 -287311609.03161621 -35758831.409205005 0 -35758831.409205005 -94325.530997395152 0 0 0 0 -175061715.79855347 -6704965.1867298791 0 -6704965.1867298791 -22393038.565138452 0 0 0 0 -159130300.27024841 31664659.153556913 0 31664659.153556913 19235818.377888732 0 0 0 0 -65166232.101074219 -39397669.400596082 0 -39397669.400596082 -61819.737100224971 0 0 0 0 -20923638.707923889 15416979.808409436 0 15416979.808409436 7959533.3905464113 0 0 0 0 -1620449.8351141065 -677674.91187147796 0 -677674.91187147796 312079.36685240711 0 0 0 0 40863762.400695801 -35448691.23295819 0 -35448691.23295819 8707.3149034697781 0 0 0 0 -1031774840.5211182 226225962.97794202 0 226225962.97794202 63267498.184767127 0 0 0 0 -464127529.57897949 -342810590.98848152 0 -342810590.98848152 -766731.69010204659 0 0 0 0 203175019.45953369 -364064875.59068638 0 -364064875.59068638 476575.80662866577 0 0 0 0 -108247943.58259583 -46421965.117127925 0 -46421965.117127925 -38285691.367398024 0 0 0 0 -90623706.823257446 -291496851.89685333 0 -291496851.89685333 -49135675.133870721 0 0 0 0 155360678.8084259 -138207810.37075305 0 -138207810.37075305 -98472683.716719866 0 0 0 0 -254366017.27035522 57992822.263002157 0 57992822.263002157 -156561492.56675363 0 0 0 0 -391138643.25286865 -79663358.008003533 0 -79663358.008003533 41228381.851912022 0 0 0 0 -83789512.329345703 -164043212.57443237 0 -164043212.57443237 136301.68849563599 0 0 0 0 -76686037.05090332 -78317563.495504141 0 -78317563.495504141 -50625211.415115595 0 0 0 0 63833205.587158203 -145051797.60703087 0 -145051797.60703087 -3279136.7040777206 0 0 0 0 -80953111.830436707 -170313198.51466209 0 -170313198.51466209 667017.56359910965 0 0 0 0 -77058841.008636475 -124389964.54344416 0 -124389964.54344416 87230914.205800533 0 0 0 0 58713130.809173584 -77801681.604444027 0 -77801681.604444027 89091010.224946275 0 0 0 0 -232938368.05671692 -12481690.769675732 0 -12481690.769675732 108387491.42452908 0 0 0 0 -8704778.235534668 -73257271.929699898 0 -73257271.929699898 86931770.36558485 0 0 0 0 -91033992.583297729 77249775.186030626 0 77249775.186030626 -142234428.4463501 0 0 0 0 -2848076.526481837 -2721723.6369718388 0 -2721723.6369718388 -1729347.5857212585 0 0 0 0 -294832184.13311768 -71820238.769438744 0 -71820238.769438744 99454801.017705917 0 0 0 0 -380910070.88098145 132194736.96499944 0 132194736.96499944 298233340.4051466 0 0 0 0 28096687.005279541 -46883165.826244846 0 -46883165.826244846 -2164143.548611369 0 0 0 0 -2231831.6941139251 -1621935.874687247 0 -1621935.874687247 -451389.07644419558 0 0 0 0 -511961398.41662598 158626114.26272941 0 158626114.26272941 -22646303.586942911 0 0 0 0 -22120301.404998779 -14673067.356139809 0 -14673067.356139809 -6753174.0791200399 0 0 0 0 -30901637.053161621 -3668713.6068095155 0 -3668713.6068095155 -7969120.8869134039 0 0 0 0 -4041236.4066242203 -1718263.4958088845 0 -1718263.4958088845 -589054.89755024621 0 0 0 0 -2646853.227515223 -221857.18277585506 0 -221857.18277585506 8506.6053505516029 0 0 0 0 32708411.183633804 -9115575.3963705432 0 -9115575.3963705432 -15284558.33895804 0 0 0 0 -77902221.037475586 -38438510.460394859 0 -38438510.460394859 108299.70917860774 0 0 0 0 -17124629.682098389 6240242.0388903916 0 6240242.0388903916 -1569422.0888476372 0 0 0 0 -19118717.085693359 -28303517.533193052 0 -28303517.533193052 -4651472.7962738536 0 0 0 0 -18929736.060913086 -23979944.923491962 0 -23979944.923491962 -2194.3917156494008 0 0 0 0 -1304759.5449444652 -1380980.0447089747 0 -1380980.0447089747 -125007.05641145119 0 0 0 0 -62502009.415588379 -18070196.821163289 0 -18070196.821163289 14462113.074999556 0 0 0 0 684634580.99815369 -3071097.7854100466 0 -3071097.7854100466 -172997684.10326743 0 0 0 0 118380514.11172485 -78421573.966251493 0 -78421573.966251493 53092079.941100717 0 0 0 0 163675496.581604 -100026333.83367717 0 -100026333.83367717 -46100871.516978979 0 0 0 0 78552668.0570755 -107377037.62743193 0 -107377037.62743193 -1262414.9886746407 0 0 0 0 -41014932.472839355 -30367774.167541504 0 -30367774.167541504 40964384.871771812 0 0 0 0 -14235143.706329346 -18165573.060196579 0 -18165573.060196579 -5592565.2034946382 0 0 0 0 -5601495.6019658446 -3315356.4083650485 0 -3315356.4083650485 1650759.9732512711 0 0 0 0 -2437729.2444803119 -2204234.5204191059 0 -2204234.5204191059 765605.91061850777 0 0 0 0 -51071445.241424561 -23185269.733968757 0 -23185269.733968757 9722233.8557520509 0 0 0 0 -26578461.872817993 8328563.0795278251 0 8328563.0795278251 2035629.0432547331 0 0 0 0 -47460495.481375694 -6523908.418953253 0 -6523908.418953253 2541793.0670076609 0 0 0 0 -3947496.8555389368 -670930.13259576261 0 -670930.13259576261 49501.617361146229 0 0 0 0 13214228.315612793 -12855035.827695996 0 -12855035.827695996 -14138695.370207369 0 0 0 0 -7237221.9751221742 -2611161.7548136413 0 -2611161.7548136413 235750.54542465517 0 0 0 0 -24205993.879272461 -8756569.752841115 0 -8756569.752841115 9577213.7973543108 0 0 0 0 -17777099.957458496 -4241755.3329511732 0 -4241755.3329511732 1052852.9339368641 0 0 0 0 -34847976.970623255 -5393040.9214894101 0 -5393040.9214894101 3258279.193646431 0 0 0 0 -34761920.045471191 -14691681.966665745 0 -14691681.966665745 2249186.4468331337 0 0 0 0 -27541022.895931244 -4835597.0891282558 0 -4835597.0891282558 1942214.2356500626 0 0 0 0 -29642178.074363708 -12613978.579626918 0 -12613978.579626918 2572548.248003006 0 0 0 0 -18265660.764697909 -9366551.3542290255 0 -9366551.3542290255 396308.8615905263 0 0 0 0 -4103210.2121732384 -6396086.542403169 0 -6396086.542403169 -534949.60588164884 0 0 0 0 -6374947.3861446381 -750492.96869716048 0 -750492.96869716048 187009.5477809906 0 0 0 0 -26669346.809295654 -12174890.849539518 0 -12174890.849539518 1716457.001991272 0 0 0 0 -7155929.0503802914 -7444030.6386915743 0 -7444030.6386915743 28701.284779174719 0 0 0 0 -6906092.2495476604 -6175180.8782036379 0 -6175180.8782036379 591738.49849267583 0 0 0 0 -77997628.729553223 -17700846.310670853 0 -17700846.310670853 -1542791.2468166351 0 0 0 0 -79654001.946594238 -19173385.887898445 0 -19173385.887898445 4571625.1633009911 0 0 0 0 -52459066.898803711 -492238.14522171021 0 -492238.14522171021 -165535.25534820557 0 0 0 0 -34431678.715576172 6714094.0969104767 0 6714094.0969104767 -1453262.3421854973 0 0 0 0 -53751909.615447998 2805150.106502533 0 2805150.106502533 -8564066.996099472 0 0 0 0 -77724463.083374023 5249312.0784301758 0 5249312.0784301758 -8407136.0001688004 0 0 0 0 -89314687.65637207 17644223.421374321 0 17644223.421374321 -20793423.009120941 0 0 0 0 -144107845.05914307 9318915.4976735115 0 9318915.4976735115 -19110534.285953522 0 0 0 0 -63962234.216064453 -72483306.82049787 0 -72483306.82049787 32910419.469597816 0 0 0 0 -27604906.358978271 -9476266.1796073914 0 -9476266.1796073914 1322128.3972568512 0 0 0 0 506213.60587628186 -458677.13824072108 0 -458677.13824072108 -363913.11679159408 0 0 0 0 -142376327.53601074 -75639439.692956924 0 -75639439.692956924 6526875.9691390991 0 0 0 0 -48368348.718383789 -8173367.2471283674 0 -8173367.2471283674 -29780343.747512817 0 0 0 0 -57960819.813842773 2137660.104642868 0 2137660.104642868 -39555215.291759491 0 0 0 0 -39035066.110412598 6142218.3478717804 0 6142218.3478717804 -6804411.1326618195 0 0 0 0 -17573850.278839111 11292787.397018433 0 11292787.397018433 -10557605.520803452 0 0 0 0 -6004410.5709686279 -117903501.90280366 0 -117903501.90280366 166478655.90031958 0 0 0 0 -160598.10765591264 828872.22530878149 0 828872.22530878149 298296.50569354178 0 0 0 0 -48854007.915328979 -6005683.5917077065 0 -6005683.5917077065 -15428965.494392395 0 0 0 0 -18008378.668029785 15454590.399629593 0 15454590.399629593 -11871198.144237518 0 0 0 0 -32583115.168457031 7202521.3122723103 0 7202521.3122723103 -2187677.6814994812 0 0 0 0 -34068767.874267578 12570051.281738281 0 12570051.281738281 -10059273.930419922 0 0 0 0 -18560671.682006836 10302917.34210968 0 10302917.34210968 -4969871.9800782204 0 0 0 0 -12793759.746673584 8163214.981136322 0 8163214.981136322 -5570284.1465568542 0 0 0 0 -19432048.304954529 13906990.939417958 0 13906990.939417958 10414239.405788422 0 0 0 0 742014.29030609131 24907669.450479865 0 24907669.450479865 6929429.2310848236 0 0 0 0 -24006390.323148251 9868.9403902813792 0 9868.9403902813792 -622668.06101226807 0 0 0 0 5491600.6089172363 6191550.5789651871 0 6191550.5789651871 -1383799.7885341644 0 0 0 0 -24115407.43572998 12999374.31137085 0 12999374.31137085 9384533.324672699 0 0 0 0 -6767955.123046875 -11697245.898474693 0 -11697245.898474693 11096069.815067291 0 0 0 0 -20476631.288208008 -11878081.30134201 0 -11878081.30134201 21278281.015569687 0 0 0 0 -56691163.871917725 -46845975.014132738 0 -46845975.014132738 -31155171.986402512 0 0 0 0 -47797360.218431473 -42938528.685597003 0 -42938528.685597003 -30978911.657278061 0 0 0 0 -35746251.68536377 -39515223.257866859 0 -39515223.257866859 -29134013.5566082 0 0 0 0 -48392697.964740753 -52876582.056717217 0 -52876582.056717217 -37771625.690811157 0 0 0 0 -857009.3403390795 -520112.10313852876 0 -520112.10313852876 435581.90533345845 0 0 0 0 -52475194.668106079 -55698099.732827306 0 -55698099.732827306 -37117621.189720154 0 0 0 0 -41252419.854614258 30799446.739104271 0 30799446.739104271 -75868370.033200264 0 0 0 0 -38772348.478942871 5111603.9780921936 0 5111603.9780921936 12722449.382293701 0 0 0 0 -35541827.209594727 -1608368.3592987061 0 -1608368.3592987061 25556287.573059082 0 0 0 0 -13363497.999663144 -355382.2070190534 0 -355382.2070190534 1134390.4477012074 0 0 0 0 -36504900.407226562 8529742.6873064041 0 8529742.6873064041 18362300.108825684 0 0 0 0 -10442477.405029297 -19171065.319149017 0 -19171065.319149017 -10842295.182659149 0 0 0 0 -2791384.518089503 -1688451.4020962939 0 -1688451.4020962939 1458759.437958865 0 0 0 0 -32842225.820007324 10326690.120864868 0 10326690.120864868 6636905.1611690521 0 0 0 0 -37178604.540618896 -1358604.2216553688 0 -1358604.2216553688 -4654066.2275085449 0 0 0 0 -41618481.264465332 3565282.4117527008 0 3565282.4117527008 15913788.851630211 0 0 0 0 -44454520.094299316 -10751043.752794266 0 -10751043.752794266 11712214.036930084 0 0 0 0 -38820620.880981445 -653538.15008640289 0 -653538.15008640289 18530544.707794189 0 0 0 0 -39323449.909057617 -3113994.4551353455 0 -3113994.4551353455 9916873.7380256653 0 0 0 0 -19741322.110900879 -384223.36017560959 0 -384223.36017560959 9240868.174911499 0 0 0 0 -49730687.579711914 4170452.9750375748 0 4170452.9750375748 8722363.1469593048 0 0 0 0 -52130065.912689209 -5228968.7233285904 0 -5228968.7233285904 9410535.9092788696 0 0 0 0 -51734744.288452148 -14972854.998282433 0 -14972854.998282433 437511.45602989197 0 0 0 0 -26773917.117706299 -3347489.7711598873 0 -3347489.7711598873 1896183.9050235748 0 0 0 0 -8230546.4034024887 -5230311.5596235245 0 -5230311.5596235245 850680.92624089867 0 0 0 0 -62873519.293426514 -13851255.491705418 0 -13851255.491705418 11190512.613605499 0 0 0 0 -3312541.3183199288 -7741190.2784855813 0 -7741190.2784855813 1177307.7208292512 0 0 0 0 -28816281.628631592 -16708960.253935575 0 -16708960.253935575 -1401367.1793813705 0 0 0 0 -6722405.2380480319 -7068467.7210733518 0 -7068467.7210733518 2283978.8143491824 0 0 0 0 -16870669.680847168 -4668915.6591904163 0 -4668915.6591904163 -611047.7423658371 0 0 0 0 -39612641.988616943 1057416.7238383293 0 1057416.7238383293 9032555.6584434509 0 0 0 0 -18470771.659423828 -22047649.654352188 0 -22047649.654352188 -6977321.1045532227 0 0 0 0 -59914922.768211365 -7819659.6278377771 0 -7819659.6278377771 4377966.1651248932 0 0 0 0 -31482966.283843994 -10586011.220220089 0 -10586011.220220089 -15026536.339672327 0 0 0 0 -46921115.631896973 -24090420.069033146 0 -24090420.069033146 -1167295.6705541611 0 0 0 0 -41337429.269714355 -14181044.009565353 0 -14181044.009565353 2225072.6652107239 0 0 0 0 -39095307.822257996 -9739440.8245027065 0 -9739440.8245027065 4550128.278128624 0 0 0 0 -36966850.357666016 -64249646.047756195 0 -64249646.047756195 -167674627.62744331 0 0 0 0 -22754907.58026123 -57912164.564539909 0 -57912164.564539909 -169521492.75932026 0 0 0 0 -39958535.99786377 -87314693.924946785 0 -87314693.924946785 -114622663.58953619 0 0 0 0 -37988223.40246582 -101326058.56418705 0 -101326058.56418705 -125032917.31739807 0 0 0 0 -36685732.144805908 -107773758.26809335 0 -107773758.26809335 -237244974.59291077 0 0 0 0 -100588471.28488159 -175492027.18216038 0 -175492027.18216038 -99575199.487161636 0 0 0 0 -11601731.868591309 -212534965.05618715 0 -212534965.05618715 -686317677.16776657 0 0 0 0 -146057579.38519287 -280594502.37692928 0 -280594502.37692928 -326160197.02589113 0 0 0 0 -33856714.696472168 -50123931.510289192 0 -50123931.510289192 -310042456.6179198 0 0 0 0 -38311475.204345703 -48298051.886880875 0 -48298051.886880875 -187821041.02128983 0 0 0 0 -277861666.51047516 78774580.536295652 0 78774580.536295652 407310347.83829308 0 0 0 0 -1085421.683488071 241089.31636364199 0 241089.31636364199 142279.9505269184 0 0 0 0 258660279.39641571 845120261.49185205 0 845120261.49185205 -294413457.46028996 0 0 0 0 -262249769.57821655 132433279.16787004 0 132433279.16787004 271725723.11531544 0 0 0 0 -3312570.1027335525 630038.17638137564 0 630038.17638137564 536020.39694373868 0 0 0 0 31848766.435791016 -87551185.485671997 0 -87551185.485671997 217719425.19153404 0 0 0 0 2331838.4197692871 105757293.76966143 0 105757293.76966143 205101751.08266068 0 0 0 0 71430398.046295166 103803909.28694344 0 103803909.28694344 536052586.44189167 0 0 0 0 -141027.31883944571 -132778.10423814505 0 -132778.10423814505 167060.36324849539 0 0 0 0 -81144312.085403442 -119482127.15519202 0 -119482127.15519202 294257549.59263611 0 0 0 0 -104929838.68951416 -101345002.11739516 0 -101345002.11739516 366265445.90747738 0 0 0 0 -265993.84266404808 2505733.8690296886 0 2505733.8690296886 865899.31801131763 0 0 0 0 -112169764.50314331 -30998811.290275335 0 -30998811.290275335 320245364.41712427 0 0 0 0 6871653.0185546875 3105242.7175197601 0 3105242.7175197601 -8894205.1752386093 0 0 0 0 -12081594.91015625 12371642.061909676 0 12371642.061909676 18228450.032476425 0 0 0 0 8059441.2250061035 7334432.4280772209 0 7334432.4280772209 2385834.83710289 0 0 0 0 -5079475.7820140123 321497.16482952237 0 321497.16482952237 -246412.98089761939 0 0 0 0 -28032636.355697632 -56792183.115470886 0 -56792183.115470886 -105440821.12156963 0 0 0 0 -44386879.541442871 -81728008.295755386 0 -81728008.295755386 -92863869.452824593 0 0 0 0 -59298041.771697998 -55760337.687613964 0 -55760337.687613964 -64408568.296651363 0 0 0 0 -71364347.626281738 -80338284.609973431 0 -80338284.609973431 -29833336.825397491 0 0 0 0 -6265815.2630004883 28413183.915081978 0 28413183.915081978 14368341.530128479 0 0 0 0 -43522570.316070557 -83777238.799715042 0 -83777238.799715042 -32810616.500118732 0 0 0 0 -61622937.796081543 -68183125.24151659 0 -68183125.24151659 -46217609.237366676 0 0 0 0 -7220520.7351839393 857528.02992616594 0 857528.02992616594 -785228.01220178697 0 0 0 0 -68382200.986206055 -61243785.064241409 0 -61243785.064241409 -23570625.755036354 0 0 0 0 -50039501.842102051 -51260218.694042206 0 -51260218.694042206 -45313187.913509429 0 0 0 0 -62441677.030853271 -43462073.513153076 0 -43462073.513153076 -1483213.0487775803 0 0 0 0 -61591277.797210693 -50165280.276193142 0 -50165280.276193142 -17488485.994071007 0 0 0 0 -65927320.149505615 -48718937.908386707 0 -48718937.908386707 -6478703.9780225754 0 0 0 0 -81331909.816864014 -54837623.491745472 0 -54837623.491745472 11796124.958817959 0 0 0 0 -74398613.329772949 -27249410.881679058 0 -27249410.881679058 54560376.728767872 0 0 0 0 -105586461.39776611 -80666222.70671463 0 -80666222.70671463 18944407.606273651 0 0 0 0 -70116998.877939224 -68682430.358182639 0 -68682430.358182639 -22880055.28879261 0 0 0 0 -90632259.627044678 -117148758.13786268 0 -117148758.13786268 -55300839.665597916 0 0 0 0 -90630902.143317819 -117394880.38203488 0 -117394880.38203488 -59425093.482442856 0 0 0 0 -194811874.59924316 -142902891.96412086 0 -142902891.96412086 8649846.2142553329 0 0 0 0 -224200664.17614746 -25688835.131272793 0 -25688835.131272793 129731369.29837608 0 0 0 0 -142177224.31445312 -22344817.228120804 0 -22344817.228120804 94434740.867508173 0 0 0 0 -29545938.475402832 20396285.669549942 0 20396285.669549942 76739446.415762663 0 0 0 0 -90939141.094787598 -47803688.814543962 0 -47803688.814543962 55081983.688646317 0 0 0 0 -46330954.751525879 34445337.30665493 0 34445337.30665493 100733463.22855949 0 0 0 0 -7328307.6732330322 18541950.113850832 0 18541950.113850832 61767753.120389938 0 0 0 0 -52036728.764678955 29163070.229767084 0 29163070.229767084 99196555.804583549 0 0 0 0 -62047660.052307129 -5926036.089363575 0 -5926036.089363575 61964407.044193745 0 0 0 0 -64027141.39743042 -21989081.681403637 0 -21989081.681403637 41130893.487661362 0 0 0 0 -23670481.369628906 18325273.153737068 0 18325273.153737068 46085977.835042 0 0 0 0 -9097882.6160812378 7889074.9170459509 0 7889074.9170459509 29529980.386796951 0 0 0 0 14328578.97946167 53069729.776865721 0 53069729.776865721 62995132.828035645 0 0 0 0 -15028740.338409424 18461816.727453709 0 18461816.727453709 33681359.461623192 0 0 0 0 -14125700.138999939 11785888.379113585 0 11785888.379113585 20105363.679825783 0 0 0 0 -45967226.216827393 -1737427.4328904152 0 -1737427.4328904152 34889868.51444602 0 0 0 0 -116223793.62490845 52987440.683271527 0 52987440.683271527 75320676.556583881 0 0 0 0 -141945205.34359741 179114410.27860594 0 179114410.27860594 180262855.0537076 0 0 0 0 -7082055.6660175472 111969.23196484894 0 111969.23196484894 -2830026.0142581612 0 0 0 0 -41964798.246490479 -4529325.5037996769 0 -4529325.5037996769 5381651.9915836938 0 0 0 0 -42149823.698791504 -4407657.5069758892 0 -4407657.5069758892 11032937.535082579 0 0 0 0 -29586721.424560547 -2331563.4460192919 0 -2331563.4460192919 12538763.632927418 0 0 0 0 -30692543.876953125 245823.64689350128 0 245823.64689350128 11428607.797613144 0 0 0 0 -53650911.5440979 -13602065.394620419 0 -13602065.394620419 22876727.021010041 0 0 0 0 -48050600.468322754 -3690857.3110833168 0 -3690857.3110833168 26531901.646859646 0 0 0 0 -45986168.933204651 -10211453.642232835 0 -10211453.642232835 13440315.994803429 0 0 0 0 -56331536.920349121 -19035959.953025341 0 -19035959.953025341 16891166.442566395 0 0 0 0 -52373007.975357056 -17357716.547844887 0 -17357716.547844887 16766411.475680351 0 0 0 0 -63453297.37713623 -32669645.931661606 0 -32669645.931661606 13155511.871767998 0 0 0 0 -59791079.609588623 -23587222.456811905 0 -23587222.456811905 23270720.681418419 0 0 0 0 -61362657.79473877 -26243343.71665144 0 -26243343.71665144 20897181.523145676 0 0 0 0 -63673673.730957031 -23711910.553086758 0 -23711910.553086758 33888952.685843766 0 0 0 0 -44542388.05581665 -4180014.5855016708 0 -4180014.5855016708 31280086.249481201 0 0 0 0 -66805726.750732422 -27774253.566728115 0 -27774253.566728115 31134044.617407799 0 0 0 0 -58077766.295074463 -25069812.698842108 0 -25069812.698842108 25629863.808389664 0 0 0 0 -72900570.847702026 -39102359.449976921 0 -39102359.449976921 18810246.773511887 0 0 0 0 -61363746.508728027 -33917514.728060246 0 -33917514.728060246 13894101.781078815 0 0 0 0 -63917673.130706787 -42679428.331109285 0 -42679428.331109285 -1775685.8306865692 0 0 0 0 -57121911.935852051 -38104122.250619411 0 -38104122.250619411 -3135595.5244703293 0 0 0 0 -60045806.475780487 -39809610.869885564 0 -39809610.869885564 -1518347.4460315704 0 0 0 0 -55047180.001068115 -32807611.689478874 0 -32807611.689478874 7289740.7420873642 0 0 0 0 -53790200.870300293 -34388632.572437286 0 -34388632.572437286 -3362430.9652068615 0 0 0 0 -43585166.062286377 -32739098.175796986 0 -32739098.175796986 -4677463.4095335007 0 0 0 0 -55110069.008087158 -43857741.752462149 0 -43857741.752462149 -15402802.852012634 0 0 0 0 -30709234.863311768 -32546222.047116041 0 -32546222.047116041 -20816647.738610268 0 0 0 0 -45198522.169143677 -22511223.054143667 0 -22511223.054143667 -5705433.4080817699 0 0 0 0 -34827100.357902527 -20484133.866449952 0 -20484133.866449952 -4801569.4368181229 0 0 0 0 -13075014.929321289 -8670124.7985782623 0 -8670124.7985782623 -330173.35944747925 0 0 0 0 -47828937.126602173 -22158279.346965194 0 -22158279.346965194 2094620.5394020081 0 0 0 0 -52174228.864944458 -29172170.554289341 0 -29172170.554289341 2258324.5102882385 0 0 0 0 -55222054.658294678 -26471338.620033264 0 -26471338.620033264 10101302.794319153 0 0 0 0 -57894629.135253906 -29458972.201147079 0 -29458972.201147079 6855051.2186431885 0 0 0 0 -102828836.08074951 -64969008.391637325 0 -64969008.391637325 -53478098.833723545 0 0 0 0 -44562212.834091187 -28647895.590307236 0 -28647895.590307236 -39737237.390394211 0 0 0 0 49707171.698623657 -75083385.253488064 0 -75083385.253488064 55658450.068750143 0 0 0 0 -19017912.39730835 -5395956.663869381 0 -5395956.663869381 3413328.3818492889 0 0 0 0 -4812446.5498588383 -4392631.867660068 0 -4392631.867660068 383654.69930570666 0 0 0 0 -21535759.5658966 -544843.69541336596 0 -544843.69541336596 5550142.3411975 0 0 0 0 -25149595.363906085 -4663298.2803931683 0 -4663298.2803931683 7558621.2076393925 0 0 0 0 -663233244.3026123 -615371562.867836 0 -615371562.867836 6180679.477853775 0 0 0 0 -6249749.3134078979 247059279.28546464 0 247059279.28546464 -69425910.573085785 0 0 0 0 -10831773.475944644 -9591247.833705619 0 -9591247.833705619 1126246.9069584655 0 0 0 0 101090949.776474 11800274.738048553 0 11800274.738048553 -419000796.1511879 0 0 0 0 -13696639.584533691 61646277.188518524 0 61646277.188518524 124165000.07887459 0 0 0 0 -241539865.85009766 -130061111.11630344 0 -130061111.11630344 6523900.2738676071 0 0 0 0 -4565462.8715037107 -929398.99628568068 0 -929398.99628568068 -127548.07271010685 0 0 0 0 -45704999.787628174 312682594.54204369 0 312682594.54204369 273398662.79790401 0 0 0 0 -3184836.2910667509 -1313671.1604969874 0 -1313671.1604969874 1693226.9979465334 0 0 0 0 16015849.924957275 -23895124.09765625 0 -23895124.09765625 -8377772.6852149963 0 0 0 0 109081958.30528259 151650575.72973514 0 151650575.72973514 -71294405.066474915 0 0 0 0 -151225085.43085861 -20321517.086045802 0 -20321517.086045802 -2679497.1472187042 0 0 0 0 -387132859.55639648 -390158041.56790495 0 -390158041.56790495 -317986507.12255764 0 0 0 0 -60948447.856776237 9933061.1215750538 0 9933061.1215750538 7137128.355304718 0 0 0 0 -1826977.2877542526 -358407.33072308078 0 -358407.33072308078 188786.85386827798 0 0 0 0 -211432051.67004395 -165514120.49339199 0 -165514120.49339199 -33183038.880170822 0 0 0 0 -62952344.952600956 -109026202.43345517 0 -109026202.43345517 -82906309.330896378 0 0 0 0 -267497415.90307617 -33853593.535625458 0 -33853593.535625458 124013274.91592789 0 0 0 0 -150457752.95608521 -20308637.781438828 0 -20308637.781438828 66678931.274672508 0 0 0 0 -1120575425.1923218 -55502601.73978138 0 -55502601.73978138 265215456.04544067 0 0 0 0 -989997228.99526978 966655417.64173007 0 966655417.64173007 427697901.49988174 0 0 0 0 6328591.7420654297 753760795.47164536 0 753760795.47164536 18497814.451928139 0 0 0 0 -11343146.607177755 -9198033.3555157557 0 -9198033.3555157557 -1009598.7745385394 0 0 0 0 457978405.83078003 158695202.6097064 0 158695202.6097064 -144463208.49787235 0 0 0 0 98359797.73097229 -198901059.50513768 0 -198901059.50513768 121644330.06215286 0 0 0 0 -91306399.466003418 895487.98332643509 0 895487.98332643509 97186617.867326736 0 0 0 0 -145845426.40499878 -73428907.88892746 0 -73428907.88892746 72715891.348560333 0 0 0 0 -189245039.19966125 -77945409.487535954 0 -77945409.487535954 107249546.8643465 0 0 0 0 -269010571.05627441 50614121.06264925 0 50614121.06264925 136016030.64371598 0 0 0 0 -57384502.582977295 -16729806.422393322 0 -16729806.422393322 13221611.079607487 0 0 0 0 -56224774.343475342 -19635459.99969101 0 -19635459.99969101 6962853.0408771038 0 0 0 0 -56150546.457107544 -13907566.955238104 0 -13907566.955238104 -1907.2314445376396 0 0 0 0 -75175960.754821777 -19032998.558431983 0 -19032998.558431983 7985548.8928897381 0 0 0 0 -53125731.387786865 -17654988.685268879 0 -17654988.685268879 5687685.7833337784 0 0 0 0 -48708343.159519196 -10453396.51306513 0 -10453396.51306513 -3059296.0255775452 0 0 0 0 -46788041.186935425 -4081400.6715764105 0 -4081400.6715764105 9560992.7679853439 0 0 0 0 -66342930.708648682 -13058257.208972573 0 -13058257.208972573 6296749.8843663931 0 0 0 0 -39500093.382060602 -9291598.2573801316 0 -9291598.2573801316 6129925.5769492462 0 0 0 0 -121187442.31134033 39812514.846438408 0 39812514.846438408 51201062.566146374 0 0 0 0 -34482205.523086548 -89670663.519434094 0 -89670663.519434094 -87580633.94483304 0 0 0 0 -135202405.53605652 58634187.83179605 0 58634187.83179605 -37959393.070612431 0 0 0 0 -1946627.436249733 -8053216.2606670568 0 -8053216.2606670568 1024283.2821921918 0 0 0 0 -98264713.134338379 194938272.81697536 0 194938272.81697536 -157790958.39677095 0 0 0 0 -20844653.706189081 -8584847.355964832 0 -8584847.355964832 -349017.46550592198 0 0 0 0 -218334871.67185974 -129653556.14871824 0 -129653556.14871824 233159789.60125446 0 0 0 0 77222023.497847557 6761562.3395728171 0 6761562.3395728171 -36767537.05219841 0 0 0 0 -119068775.79049683 43117931.105604336 0 43117931.105604336 105234183.81356387 0 0 0 0 -142661577.22933006 -93623466.986503422 0 -93623466.986503422 31808193.34181118 0 0 0 0 -31244228.51373291 -9028247.9712619483 0 -9028247.9712619483 39924627.805030376 0 0 0 0 -38351824.947183609 -10548112.439847529 0 -10548112.439847529 10537318.602386951 0 0 0 0 -62011627.222473145 -41745078.337293312 0 -41745078.337293312 60582617.651871204 0 0 0 0 -56672553.968315125 -13146552.152346134 0 -13146552.152346134 9790552.3856662512 0 0 0 0 -39657923.210582897 -7503178.5889525851 0 -7503178.5889525851 4602604.0887654144 0 0 0 0 -39522971.434738159 -14591171.324446201 0 -14591171.324446201 769788.41795492172 0 0 0 0 -38807323.446241379 -8533167.4026359022 0 -8533167.4026359022 1943581.2400245667 0 0 0 0 28740489.823783875 -32272533.047665834 0 -32272533.047665834 -22078207.636584282 0 0 0 0 -9767946.8913488388 -8390108.4845650643 0 -8390108.4845650643 -28722545.307645798 0 0 0 0 -29122083.129577637 -19052433.868608236 0 -19052433.868608236 -12021550.309063911 0 0 0 0 -87426371.154144287 16049467.133669615 0 16049467.133669615 -4290926.4755699635 0 0 0 0 -146384745.21218872 31087251.758190155 0 31087251.758190155 7987673.2466783524 0 0 0 0 -735262.59104589373 479812.19242881238 0 479812.19242881238 -31879.085571826436 0 0 0 0 1912605.2813110352 20758337.013739586 0 20758337.013739586 -55249480.606895447 0 0 0 0 -999926.79090310633 515330.36721148342 0 515330.36721148342 -377386.44424243784 0 0 0 0 -40492467.053527832 24779264.785896301 0 24779264.785896301 -25705605.466377258 0 0 0 0 -28034453.392954063 -5474782.4813350514 0 -5474782.4813350514 3503796.0740746926 0 0 0 0 18980092.486968994 -26505711.883998275 0 -26505711.883998275 -25405931.718552351 0 0 0 0 -51299095.396636963 -52868646.775702953 0 -52868646.775702953 9483570.0593776703 0 0 0 0 -65499675.207244873 -31322386.656495929 0 -31322386.656495929 9526904.8469050527 0 0 0 0 -135736910.51757812 -5880233.6470248699 0 -5880233.6470248699 8299581.6964511871 0 0 0 0 -59211941.866271973 -14779706.584006786 0 -14779706.584006786 19707129.983769417 0 0 0 0 -33887874.998306274 2039526.6968704462 0 2039526.6968704462 4721509.9605622292 0 0 0 0 -12342021.817047119 -1961249.5705592632 0 -1961249.5705592632 -5225303.3157598972 0 0 0 0 -59043181.905227661 -14264607.36370945 0 -14264607.36370945 -2911824.319747448 0 0 0 0 -28475364.008665591 2053617.6683183759 0 2053617.6683183759 4064434.809363829 0 0 0 0 -66647161.197937012 -1060142.2428991795 0 -1060142.2428991795 9725340.771173954 0 0 0 0 -10498064.827636719 1731509.8674302101 0 1731509.8674302101 920194.10292816162 0 0 0 0 -11245897.252019908 6414505.080158785 0 6414505.080158785 605155.63359906734 0 0 0 0 4385429.0191559866 -5751329.3737813458 0 -5751329.3737813458 -355212.68615559698 0 0 0 0 -31990439.862868287 -8338230.3397149071 0 -8338230.3397149071 -978325.17829831829 0 0 0 0 65378166.834747314 -61071690.908520222 0 -61071690.908520222 -18583690.879615188 0 0 0 0 -8146311.7269274816 -18312138.523259975 0 -18312138.523259975 -5086681.7539892625 0 0 0 0 82939995.288116455 -10426892.295426369 0 -10426892.295426369 -10160409.365702927 0 0 0 0 -11377427.159166545 -17812268.928761393 0 -17812268.928761393 679146.68934488669 0 0 0 0 67153154.168746948 -46681804.716310859 0 -46681804.716310859 -67374222.451942444 0 0 0 0 109783236.65240479 39054755.600572109 0 39054755.600572109 -9155033.7644195557 0 0 0 0 -2004380.5867919922 -59783450.357666492 0 -59783450.357666492 -19949099.422526836 0 0 0 0 54570745.232086182 -45113560.705111504 0 -45113560.705111504 -26180627.58859539 0 0 0 0 -192079341.94490051 -83492745.122269154 0 -83492745.122269154 13595738.592456818 0 0 0 0 1072153.4636583328 -120108440.37834308 0 -120108440.37834308 -72701989.506046295 0 0 0 0 -417556314.69192505 -22409639.820561409 0 -22409639.820561409 91063292.954013824 0 0 0 0 -276453622.88485718 -180915225.48922062 0 -180915225.48922062 -14473668.771368504 0 0 0 0 -182570509.71414185 -136373124.19480515 0 -136373124.19480515 -49271664.465808392 0 0 0 0 -663294314.51174164 -444023816.35838056 0 -444023816.35838056 -186877648.94253731 0 0 0 0 -178406184.34573364 -163631397.33024836 0 -163631397.33024836 -68561430.360399246 0 0 0 0 112872772.59484863 -167980224.89747953 0 -167980224.89747953 -241179798.49869347 0 0 0 0 306411036.86517334 27481542.167833805 0 27481542.167833805 -191621653.68163681 0 0 0 0 -101993616.71231079 -82556608.742827892 0 -82556608.742827892 55227981.041872978 0 0 0 0 -110080700.08267212 38827738.23771739 0 38827738.23771739 -615677364.14643574 0 0 0 0 -927676853.11048126 62227275.878565729 0 62227275.878565729 46495215.758307934 0 0 0 0 -229619681.8296814 -68219576.53517437 0 -68219576.53517437 9837531.354827404 0 0 0 0 -303701422.3614502 62040567.30025816 0 62040567.30025816 188475000.91418931 0 0 0 0 230825976.6472168 230456888.16317463 0 230456888.16317463 -150013515.17792559 0 0 0 0 -27645620.494537354 3413150.8829946518 0 3413150.8829946518 10555274.767664254 0 0 0 0 303509495.31658936 101290386.56031585 0 101290386.56031585 24824438.242241859 0 0 0 0 -12670575.773122251 -2324513.9515901506 0 -2324513.9515901506 -4853580.8815571303 0 0 0 0 -27784446.149139404 -1369764.5978620052 0 -1369764.5978620052 6065426.0904803276 0 0 0 0 -41551526.625106812 -26040221.916900158 0 -26040221.916900158 29971046.65784359 0 0 0 0 -30516409.609051168 -5196184.1313282754 0 -5196184.1313282754 3767523.707539456 0 0 0 0 -5177920.923360914 -12849076.519009389 0 -12849076.519009389 -4900228.2785460167 0 0 0 0 -39805238.872192383 -7599778.3569166064 0 -7599778.3569166064 3991026.3909332752 0 0 0 0 137079113.3291626 79561656.227202892 0 79561656.227202892 -38273114.199318647 0 0 0 0 200418380.39627075 214074126.53641725 0 214074126.53641725 206133436.38184452 0 0 0 0 -972314.93707308173 -2879856.7786123175 0 -2879856.7786123175 -688498.10676287417 0 0 0 0 78868397.437957764 -178485987.7695961 0 -178485987.7695961 -161852237.42616379 0 0 0 0 -263399454.7709198 -69012632.395530224 0 -69012632.395530224 323284600.22718799 0 0 0 0 63147461.693008423 106558107.88695502 0 106558107.88695502 -600929569.9872036 0 0 0 0 113973872.14584351 35564871.787250996 0 35564871.787250996 -303047326.09744501 0 0 0 0 -112296752.94136047 168025782.82690108 0 168025782.82690108 299431504.31389856 0 0 0 0 108185088.16882324 250003994.0586735 0 250003994.0586735 -37481021.309896708 0 0 0 0 -123939532.67591858 -108904104.43440199 0 -108904104.43440199 -9893663.4995641708 0 0 0 0 -8347125.7473469675 438880.59063912416 0 438880.59063912416 930431.04264941323 0 0 0 0 -312735155.82180786 -49899471.005464077 0 -49899471.005464077 60938168.827888072 0 0 0 0 -2492901.6959387958 122286.7107977008 0 122286.7107977008 181014.23090118781 0 0 0 0 91575137.577804565 -217648055.87589133 0 -217648055.87589133 331292721.44367146 0 0 0 0 613018674.95010376 -431707645.92745399 0 -431707645.92745399 -617921942.62609673 0 0 0 0 -147677213.82979584 176111054.65561056 0 176111054.65561056 30855751.556718826 0 0 0 0 11095240.94317627 173690939.30491921 0 173690939.30491921 -189808.94561305642 0 0 0 0 -7000681.8162300512 1020442.4383393824 0 1020442.4383393824 4094022.7561784363 0 0 0 0 -443006195.97871399 608675593.3972199 0 608675593.3972199 238207627.16812158 0 0 0 0 -627508337.44000244 -520065355.71857548 0 -520065355.71857548 298167129.40290689 0 0 0 0 -37375848.897232383 9316944.5575181544 0 9316944.5575181544 3216908.1547580599 0 0 0 0 163054996.36161423 -69969290.191287994 0 -69969290.191287994 -490450306.41502428 0 0 0 0 -591074548.00216675 -247790988.09705448 0 -247790988.09705448 -73456001.021067142 0 0 0 0 189905375.78591919 -89912598.835114479 0 -89912598.835114479 -42339315.542948961 0 0 0 0 -386214771.5317688 402879497.1390295 0 402879497.1390295 -87898567.884724617 0 0 0 0 -433109489.5534668 275233396.7759794 0 275233396.7759794 531565009.16964102 0 0 0 0 -8347922.5192337036 70174684.574555874 0 70174684.574555874 37519397.054046631 0 0 0 0 -38343238.556922913 -127339689.67756939 0 -127339689.67756939 233301505.77972841 0 0 0 0 -49607162.239063278 16368041.499344297 0 16368041.499344297 422235.58416528301 0 0 0 0 -34348188.217327118 80493677.50593853 0 80493677.50593853 55712538.47618103 0 0 0 0 -36545005.99005127 69451957.458063602 0 69451957.458063602 104319114.822402 0 0 0 0 -52505542.876294695 12852261.93681412 0 12852261.93681412 282962.59381339164 0 0 0 0 8556192.7939338684 139458486.84319496 0 139458486.84319496 184600625.24090958 0 0 0 0 -140825090.36120605 -223249277.56003094 0 -223249277.56003094 78833728.339162827 0 0 0 0 145558124.13531113 -7454778.418735981 0 -7454778.418735981 25474437.919557571 0 0 0 0 -52344567.27066765 11590847.773350045 0 11590847.773350045 1040287.7283904455 0 0 0 0 -153188439.09812164 -65466785.162843704 0 -65466785.162843704 56301319.971209049 0 0 0 0 -153512267.21403885 -69864742.274195671 0 -69864742.274195671 90404900.397895813 0 0 0 0 -454058486.2728653 19236378.146945953 0 19236378.146945953 132602881.01199341 0 0 0 0 -282724433.70391083 -130309174.44246864 0 -130309174.44246864 126455214.23314285 0 0 0 0 -304261099.24333 5686697.2227900028 0 5686697.2227900028 62807685.600093842 0 0 0 0 -348136392.94146729 130420646.20859814 0 130420646.20859814 23067162.535494566 0 0 0 0 -446425760.85660553 -83362695.491668701 0 -83362695.491668701 146765604.55913305 0 0 0 0 -21619875.155258179 -34267584.558803558 0 -34267584.558803558 -4909794.1649398804 0 0 0 0 -20075707.796916962 -53711511.321448684 0 -53711511.321448684 -1483077.8953704834 0 0 0 0 550376.23480403423 -2422394.6457901895 0 -2422394.6457901895 659247.0087354891 0 0 0 0 133332338.36540222 -263490530.00968552 0 -263490530.00968552 169375209.67588234 0 0 0 0 139520688.41677856 119885041.95875549 0 119885041.95875549 -265292542.76441956 0 0 0 0 7687492.2755966187 -41464134.718204498 0 -41464134.718204498 -16339543.572526932 0 0 0 0 439494995.58518982 -175492214.56583023 0 -175492214.56583023 -312913873.69172454 0 0 0 0 -722045060.82189941 425407604.66338539 0 425407604.66338539 427927457.79179192 0 0 0 0 -30000035.605148315 -11405468.287761927 0 -11405468.287761927 3677407.5045466423 0 0 0 0 -29831891.500267409 -6417424.4442005455 0 -6417424.4442005455 6856813.2548847301 0 0 0 0 -45725343.126564026 -11561102.80774498 0 -11561102.80774498 -404177.72115135193 0 0 0 0 37904157.802215576 -59289197.056907654 0 -59289197.056907654 -19889746.087158203 0 0 0 0 -29681411.105211973 -12306478.194591999 0 -12306478.194591999 1614918.371035032 0 0 0 0 8446308.2887573242 -70605075.774074554 0 -70605075.774074554 -11838665.381506443 0 0 0 0 35054446.396240234 -62397165.490298271 0 -62397165.490298271 -18877870.475914001 0 0 0 0 -54863722.668464661 -15335920.165916443 0 -15335920.165916443 118037254.38032722 0 0 0 0 -48614747.091655731 -7403978.6582422256 0 -7403978.6582422256 4718000.7160110474 0 0 0 0 -5066844.2313133692 -13567990.111244794 0 -13567990.111244794 7318486.7015962303 0 0 0 0 -37654989.062911987 -216193.51498937607 0 -216193.51498937607 -2231016.9663807154 0 0 0 0 23204145.628578186 -56722445.426269531 0 -56722445.426269531 -11253820.367272377 0 0 0 0 29304427.729751587 -53907264.214044571 0 -53907264.214044571 -7545694.4699783325 0 0 0 0 8002497.1572570801 -47333249.594394684 0 -47333249.594394684 -14112098.271099091 0 0 0 0 13276696.672073364 -64288464.879478455 0 -64288464.879478455 -13286338.736318588 0 0 0 0 20388372.712022781 -63681659.616167545 0 -63681659.616167545 -4055542.3947868347 0 0 0 0 -40417201.872545198 -10626997.820545295 0 -10626997.820545295 6444865.7010794329 0 0 0 0 -32435682.327711262 -25516710.214692727 0 -25516710.214692727 9475748.8232486118 0 0 0 0 -32645940.926741309 -9661883.2046502382 0 -9661883.2046502382 2791273.252170261 0 0 0 0 -30592117.283874512 -32908058.861103892 0 -32908058.861103892 -8183282.241961956 0 0 0 0 -53901726.080207825 -19176869.176990032 0 -19176869.176990032 7169924.4922924042 0 0 0 0 -31312871.190673828 -20794163.419270635 0 -20794163.419270635 -2776730.3637886047 0 0 0 0 -4232156.3118035924 -1620842.4535050541 0 -1620842.4535050541 616127.01802033 0 0 0 0 -39053827.450592041 -11835129.166069984 0 -11835129.166069984 -171127.10969424248 0 0 0 0 -1135887.0199602544 -3114598.0346339177 0 -3114598.0346339177 637588.96405397449 0 0 0 0 52514968.367980957 19023279.759001672 0 19023279.759001672 47146870.088465691 0 0 0 0 -22790033.838390574 -2348693.4625380803 0 -2348693.4625380803 5287223.9329894641 0 0 0 0 31820865.142150879 -1090053.6483898163 0 -1090053.6483898163 16287817.41492939 0 0 0 0 -12426235.055786133 12023494.691877127 0 12023494.691877127 29321334.217714518 0 0 0 0 -97645870.29977417 70618242.129383087 0 70618242.129383087 37775435.736076355 0 0 0 0 2028077.7143278122 14771943.160625108 0 14771943.160625108 8979159.3029558659 0 0 0 0 -59502869.54699707 -17850611.577982426 0 -17850611.577982426 28886220.000701904 0 0 0 0 -14050991.395230532 1733663.9258625805 0 1733663.9258625805 14069158.158210278 0 0 0 0 -16915702.614854179 -2140825.1524039432 0 -2140825.1524039432 3687074.9292744887 0 0 0 0 -92542642.10949707 -65440308.479402542 0 -65440308.479402542 107146696.04651594 0 0 0 0 50897359.662506104 94074175.346506119 0 94074175.346506119 -65846209.561122894 0 0 0 0 -55071172.408740997 -69002093.928201199 0 -69002093.928201199 262302361.24929619 0 0 0 0 -50642452.751312219 6192609.3175867638 0 6192609.3175867638 5215626.9310266301 0 0 0 0 -66992784.956787109 70613788.294804573 0 70613788.294804573 108270658.31904888 0 0 0 0 -63555262.477172852 -24218266.982481003 0 -24218266.982481003 -7521845.9927949905 0 0 0 0 13100733.089447021 108133320.09910107 0 108133320.09910107 24245757.418732643 0 0 0 0 -15254736.362274483 418271.07165957219 0 418271.07165957219 2359256.8325135522 0 0 0 0 -45692946.125289917 16763274.415417194 0 16763274.415417194 88190813.671399117 0 0 0 0 47693905.54196167 33209736.453121662 0 33209736.453121662 -114443633.52735138 0 0 0 0 1269173.408996582 -2475581.2902257442 0 -2475581.2902257442 36160376.768023849 0 0 0 0 -9797228.4742507935 23763879.199182883 0 23763879.199182883 6591022.3536520004 0 0 0 0 -39624144.185913086 33865461.172569275 0 33865461.172569275 64777853.19889462 0 0 0 0 -52578469.598175049 -77366011.394783616 0 -77366011.394783616 -2138814.1730093956 0 0 0 0 -23779894.340362549 25245634.601011872 0 25245634.601011872 -58941154.959243059 0 0 0 0 -143178846.18309402 943848.2056401521 0 943848.2056401521 9523773.7508398294 0 0 0 0 -5026229.5237121582 -3485517.3685135841 0 -3485517.3685135841 -15769007.482610144 0 0 0 0 -10692777.554763794 33287257.666004896 0 33287257.666004896 -15251572.243271947 0 0 0 0 -124730978.89295959 449426.38887739182 0 449426.38887739182 22881162.813721657 0 0 0 0 -71914557.447265625 -52621315.544168472 0 -52621315.544168472 -27722096.287666082 0 0 0 0 -1065083.0428272039 -1906917.9012234546 0 -1906917.9012234546 796198.22595164005 0 0 0 0 -1852758.3318786621 -17835157.926164627 0 -17835157.926164627 -6702566.1245512962 0 0 0 0 -11115377.905639648 1745908.5294859409 0 1745908.5294859409 -1107303.0323263407 0 0 0 0 6238703.9371032715 -4297885.6309781075 0 -4297885.6309781075 -4605252.7231122851 0 0 0 0 1140134.6804786175 -195142.87240364403 0 -195142.87240364403 -539399.78450080473 0 0 0 0 -3471088.2980308533 7794719.2924646661 0 7794719.2924646661 -3497175.8072025776 0 0 0 0 -5384222.5913085938 8411409.7674926519 0 8411409.7674926519 2263949.4484895468 0 0 0 0 -5438089.7870788574 3466559.7013442516 0 3466559.7013442516 3444725.4397912025 0 0 0 0 -160777.65710449219 -6898510.067691803 0 -6898510.067691803 -2313270.5702562332 0 0 0 0 -2975808.389175415 1891171.85313797 0 1891171.85313797 -11970011.546010256 0 0 0 0 -2745738.7835895866 -4706203.8449493004 0 -4706203.8449493004 2010519.3521213504 0 0 0 0 -13842933.229233798 -1234447.8646613061 0 -1234447.8646613061 2083208.0773201869 0 0 0 0 5500248.3115196228 -2144387.3089020699 0 -2144387.3089020699 2686539.0485839844 0 0 0 0 -25969541.249755859 94709313.715780258 0 94709313.715780258 -94214810.811369896 0 0 0 0 -5982685.0717394352 -2345918.158782851 0 -2345918.158782851 1173458.781200896 0 0 0 0 238881.80526256561 -1567978.2448623776 0 -1567978.2448623776 211968.52111816406 0 0 0 0 -3503586.9760736451 -3112844.1957698464 0 -3112844.1957698464 -1412241.6280431962 0 0 0 0 -11378029.105442235 617054.96886020154 0 617054.96886020154 1281131.0194528685 0 0 0 0 -1348929.0033797473 -8955646.1928528305 0 -8955646.1928528305 1313593.643919941 0 0 0 0 -43081176.847045898 -2732795.3935360909 0 -2732795.3935360909 193306794.14345551 0 0 0 0 -10817192.043075562 -9737726.4127426147 0 -9737726.4127426147 887896.43275046349 0 0 0 0 -15890285.667510986 211031029.57151031 0 211031029.57151031 -9026552.3516521454 0 0 0 0 -1446504.6557903846 -11593.941416554153 0 -11593.941416554153 568125.58831388038 0 0 0 0 -745314595.13946533 391917484.94950485 0 391917484.94950485 616940814.95980453 0 0 0 0 385734527.66894531 -770908797.43398952 0 -770908797.43398952 -906845116.50069427 0 0 0 0 -184660102.31646729 188030271.51253796 0 188030271.51253796 45026039.947188377 0 0 0 0 -11504044.505126953 81226291.330539227 0 81226291.330539227 23261552.374565125 0 0 0 0 -30458981.04510498 8824750.0040459633 0 8824750.0040459633 -4187645.5056056976 0 0 0 0 -12182799.220820919 -2864223.1235044748 0 -2864223.1235044748 -3127778.7342726979 0 0 0 0 -25127303.92617023 4093262.6130517554 0 4093262.6130517554 -14810414.275244713 0 0 0 0 -54442213.549682617 17652589.115207672 0 17652589.115207672 -4345842.781097047 0 0 0 0 -99304685.969863892 -6307361.9052155018 0 -6307361.9052155018 2492394.0807991028 0 0 0 0 -55158195.968505859 4696177.0946741104 0 4696177.0946741104 -7474744.2246866226 0 0 0 0 -150020146.44274902 5941303.1905536652 0 5941303.1905536652 4904906.478969574 0 0 0 0 -8066039.3414840698 -17029643.137859762 0 -17029643.137859762 -12721196.710008621 0 0 0 0 -53428867.405075073 6065397.2979698181 0 6065397.2979698181 17871450.31452322 0 0 0 0 -61389907.233352661 -5301996.4393715858 0 -5301996.4393715858 4219787.5843849182 0 0 0 0 -45578453.120040894 -15249928.999184608 0 -15249928.999184608 3808687.9687570035 0 0 0 0 160214367.07907104 -31671366.932839155 0 -31671366.932839155 -360522970.13244438 0 0 0 0 -245440355.9576416 134817335.72349191 0 134817335.72349191 149202721.12783384 0 0 0 0 -137334532.37319946 -73840870.320010424 0 -73840870.320010424 212393372.6306777 0 0 0 0 -734515.3606236279 468873.22518330067 0 468873.22518330067 -130965.92167597427 0 0 0 0 172396874.91986084 95145419.106177688 0 95145419.106177688 -149611997.6361928 0 0 0 0 133009173.45483398 141463297.55906224 0 141463297.55906224 -135613785.13273382 0 0 0 0 -16347775.484619141 -237395809.76854908 0 -237395809.76854908 -111463336.91137862 0 0 0 0 -134091660.6036377 -130009247.73114514 0 -130009247.73114514 220801169.4788537 0 0 0 0 -209088024.38964844 -228297269.43753934 0 -228297269.43753934 118098413.24607086 0 0 0 0 123184385.98269653 82056185.491824269 0 82056185.491824269 106025277.37806284 0 0 0 0 -24425865.346627533 16280976.186660096 0 16280976.186660096 4265947.2819956355 0 0 0 0 57404756.446014404 -138240496.70768869 0 -138240496.70768869 1364565.5761179924 0 0 0 0 -13805707.799041748 12202548.424184084 0 12202548.424184084 -74589209.675628066 0 0 0 0 -28685956.428483069 16851695.662206814 0 16851695.662206814 2889116.8647715012 0 0 0 0 -29423214.497314453 266407722.78716826 0 266407722.78716826 -116496350.87044691 0 0 0 0 -182046689.77713013 -145458470.40194973 0 -145458470.40194973 8135185.5364795923 0 0 0 0 3457495.8861345649 4241194.0460075699 0 4241194.0460075699 -2668295.2004755451 0 0 0 0 -66307007.161277771 -43840361.501261279 0 -43840361.501261279 73636908.522094727 0 0 0 0 -97971137.986877441 -13806985.498857677 0 -13806985.498857677 58205415.979902491 0 0 0 0 -17164681.372787476 46782237.686247051 0 46782237.686247051 -6527130.4567286968 0 0 0 0 -125397454.28373718 -60782391.911499381 0 -60782391.911499381 11035268.7107265 0 0 0 0 -136892646.57084656 -80021292.452014118 0 -80021292.452014118 -7079571.6677385569 0 0 0 0 -21766313.152080715 -3642658.6325984448 0 -3642658.6325984448 4963564.4101010337 0 0 0 0 3646677.7895355225 186710524.22073957 0 186710524.22073957 -23384615.594618797 0 0 0 0 -123989797.48681641 -71829176.795909166 0 -71829176.795909166 53128379.607833743 0 0 0 0 -36929321.477761239 12183913.893350422 0 12183913.893350422 3309293.9495003247 0 0 0 0 -65301367.631072998 95733682.482705593 0 95733682.482705593 107083994.73163253 0 0 0 0 -5164170.9736620039 -1085766.8995339051 0 -1085766.8995339051 285408.63042173802 0 0 0 0 31605886.477050781 -46939388.165708184 0 -46939388.165708184 72217260.391418934 0 0 0 0 -740703.52054144442 436691.37351603806 0 436691.37351603806 -69224.344071920612 0 0 0 0 156855404.34661102 106192933.01835391 0 106192933.01835391 -18739662.376288056 0 0 0 0 -286702552.44641113 -32026865.296954632 0 -32026865.296954632 245966520.45839667 0 0 0 0 -373702311.13812256 -5988590.6020591259 0 -5988590.6020591259 241197672.17116404 0 0 0 0 168576393.26937866 81155554.682462692 0 81155554.682462692 46747073.465127945 0 0 0 0 -304020241.60754395 235470293.31713247 0 235470293.31713247 -3200257.2188227177 0 0 0 0 -215130982.15342712 96560068.252538323 0 96560068.252538323 1420064.8013782501 0 0 0 0 -1381940.9159657657 933315.0705768466 0 933315.0705768466 -270550.71824923949 0 0 0 0 7371457.0196228027 376076650.41034079 0 376076650.41034079 80039203.309335709 0 0 0 0 -6733323.4213523865 383817902.95115942 0 383817902.95115942 -17659113.678480625 0 0 0 0 97930461.530334473 -27141118.459345818 0 -27141118.459345818 -503676903.45621777 0 0 0 0 -4317367.2825012207 -87024398.292963028 0 -87024398.292963028 134416839.04971737 0 0 0 0 282561.68207459152 649104.10335802659 0 649104.10335802659 6036.7338384215254 0 0 0 0 -81102217.21862793 245885002.97777891 0 245885002.97777891 308055518.32149124 0 0 0 0 -29569075.99407959 278999437.27654076 0 278999437.27654076 -261429158.63765812 0 0 0 0 -279788160.9133606 72866773.815351248 0 72866773.815351248 -35312271.95838356 0 0 0 0 -356514753.60467529 -273952083.80900598 0 -273952083.80900598 -45543580.524155378 0 0 0 0 -211697912.67585754 -373542281.2055583 0 -373542281.2055583 -611831497.1687212 0 0 0 0 88730005.520950317 20554193.803091288 0 20554193.803091288 -369256175.20610952 0 0 0 0 -805645.90200805664 -7545836.5833144188 0 -7545836.5833144188 -50353031.269049644 0 0 0 0 122711565.91677856 -9721534.5949662924 0 -9721534.5949662924 -56473037.890340805 0 0 0 0 102000721.71542358 -58022062.870552778 0 -58022062.870552778 -110438895.44249725 0 0 0 0 231239706.44216919 -27737761.669318676 0 -27737761.669318676 -152425440.18834591 0 0 0 0 1954570.9552273601 2573778.0167186111 0 2573778.0167186111 -600575.72573579149 0 0 0 0 107710398.17602539 105921348.7709713 0 105921348.7709713 -148786980.99264544 0 0 0 0 -240624337.36651611 207649384.35660458 0 207649384.35660458 251352454.8206358 0 0 0 0 242168486.97678947 121355238.51121891 0 121355238.51121891 -74027502.170401573 0 0 0 0 172688284.89697266 -231400053.89302063 0 -231400053.89302063 -87976695.270485401 0 0 0 0 -34267648.155334473 41147450.638148785 0 41147450.638148785 147107330.61893108 0 0 0 0 8410588.7876875103 7079049.5721087083 0 7079049.5721087083 -4062553.1785307187 0 0 0 0 27888971.591430664 -7166598.9179086685 0 -7166598.9179086685 24382414.341723442 0 0 0 0 -213697494.74963379 -40461738.414205074 0 -40461738.414205074 142208386.26989841 0 0 0 0 -192352426.80441284 -141151660.59358686 0 -141151660.59358686 -2340426.4418535233 0 0 0 0 42533765.112792969 149672960.4472537 0 149672960.4472537 -134819260.54294083 0 0 0 0 -214998089.95336151 -67907263.503716707 0 -67907263.503716707 108666979.19357109 0 0 0 0 50847408.026306152 97616462.0062356 0 97616462.0062356 80714528.46576786 0 0 0 0 28096693.331298828 20633648.350621223 0 20633648.350621223 4913880.4540092833 0 0 0 0 132720129.84075928 94949295.540461063 0 94949295.540461063 4822267.0166454315 0 0 0 0 236362044.36605835 -36527292.320571899 0 -36527292.320571899 -87835602.903469086 0 0 0 0 -31304835.589172363 -10905643.610847473 0 -10905643.610847473 3797972.9659175873 0 0 0 0 31018295.268493652 5918648.6225972176 0 5918648.6225972176 -35947412.475187302 0 0 0 0 -4488397.0989379883 27983366.22436285 0 27983366.22436285 -40859238.479250908 0 0 0 0 23436939.615386963 25829804.16415 0 25829804.16415 -496639.81008148193 0 0 0 0 33369853.798828125 28755141.625732422 0 28755141.625732422 -12949418.084503174 0 0 0 0 39961235.153625488 22392268.479435444 0 22392268.479435444 -7465763.4475851059 0 0 0 0 -43946.903481986374 -256723.58725053072 0 -256723.58725053072 -661183.57266990608 0 0 0 0 -43073403.015563965 24678527.569565773 0 24678527.569565773 -14091201.592711449 0 0 0 0 -123192556.69052124 -151345020.03097463 0 -151345020.03097463 30414500.098546028 0 0 0 0 28015507.320098877 75415698.32745409 0 75415698.32745409 -75633400.063542649 0 0 0 0 -50879825.008544922 19300354.374597549 0 19300354.374597549 -3560786.141450882 0 0 0 0 1665384.5484313965 -2876905.3988194466 0 -2876905.3988194466 -8111839.8572645187 0 0 0 0 -201562.29308297485 -618750.01224986464 0 -618750.01224986464 -1990508.7400615953 0 0 0 0 -2703220.1009941101 149830.64159154892 0 149830.64159154892 66389.520921707153 0 0 0 0 372143.59062448144 -845126.11518745869 0 -845126.11518745869 -851900.72657688148 0 0 0 0 -11265708.794372559 -14145168.159407139 0 -14145168.159407139 -16413148.949332952 0 0 0 0 12382568.233399391 3616316.1333295852 0 3616316.1333295852 -15631199.41140461 0 0 0 0 23118517.775817871 3112792.2146673203 0 3112792.2146673203 -23519686.375993609 0 0 0 0 11989455.965332031 -10014786.539505959 0 -10014786.539505959 -45916636.132942319 0 0 0 0 6986027.681854248 -2211264.4889519215 0 -2211264.4889519215 -17693541.426436424 0 0 0 0 -248929.78422300518 108100.41393058002 0 108100.41393058002 -1907188.2643791554 0 0 0 0 2632345.6826477051 2935344.8380037844 0 2935344.8380037844 -2459481.8866430074 0 0 0 0 -1888122.4274291992 -2581390.3752636909 0 -2581390.3752636909 -3027238.9648349285 0 0 0 0 -3692859.7767791748 -2588970.3517999649 0 -2588970.3517999649 -4417654.8703001738 0 0 0 0 -12370944.906433105 -1483859.574898243 0 -1483859.574898243 -2676260.3300590515 0 0 0 0 -711738202.37359619 -770849232.02179861 0 -770849232.02179861 -530991635.081065 0 0 0 0 -457329.02408784628 -183993.65587513149 0 -183993.65587513149 -203493.13689791039 0 0 0 0 -750560253.15344238 -708473131.01547337 0 -708473131.01547337 -350787360.48389482 0 0 0 0 -753931811.08798218 -618104986.69706774 0 -618104986.69706774 -375503666.53194189 0 0 0 0 5193632.198059082 -13313083.523598194 0 -13313083.523598194 23053333.410732269 0 0 0 0 -7522862.7294006348 8251579.8977247477 0 8251579.8977247477 3168160.0368795395 0 0 0 0 31993988.436828613 -51099015.7660923 0 -51099015.7660923 27039455.258098602 0 0 0 0 124660.78601334989 -272545.04499007016 0 -272545.04499007016 -250215.63521773368 0 0 0 0 27980579.079711914 -27931030.602824211 0 -27931030.602824211 -8721651.3369636536 0 0 0 0 -41612957.491546631 3246273.3638751507 0 3246273.3638751507 2071239.2768816948 0 0 0 0 -45280699.637969971 -6572166.1195583344 0 -6572166.1195583344 4075625.1255822182 0 0 0 0 -61002416.252853394 6219643.8933942318 0 6219643.8933942318 4109677.4884138107 0 0 0 0 -51496676.972137451 -4243537.9870240688 0 -4243537.9870240688 1563646.148214817 0 0 0 0 -30819955.769775391 11029415.876372814 0 11029415.876372814 -8477987.6341485977 0 0 0 0 -40846783.321166992 4286854.4539217949 0 4286854.4539217949 3048923.4447469711 0 0 0 0 -40717870.150604248 3772549.6339056492 0 3772549.6339056492 4754418.5847167969 0 0 0 0 -46595986.943847656 9786722.2695202827 0 9786722.2695202827 2300408.3302950859 0 0 0 0 -11400047.977294922 4192593.21007061 0 4192593.21007061 -2184014.1210613251 0 0 0 0 -11969429.117107369 -1551766.9739844948 0 -1551766.9739844948 211749.05490420689 0 0 0 0 -45963640.233184814 -2128308.2944769859 0 -2128308.2944769859 4718392.6909255981 0 0 0 0 1688686.4693729579 1364323.9198085628 0 1364323.9198085628 -1068541.3741170834 0 0 0 0 -32763820.666854858 8760077.719913125 0 8760077.719913125 -259828.94690704346 0 0 0 0 -19771511.055472389 -5246110.4595908746 0 -5246110.4595908746 -2218247.7527454444 0 0 0 0 -26581424.464408875 733669.15151029825 0 733669.15151029825 -842909.94809150696 0 0 0 0 172428836.36450195 75350846.359643698 0 75350846.359643698 -79292898.17387104 0 0 0 0 -21725391.277711213 13862475.304302461 0 13862475.304302461 5237778.5398485791 0 0 0 0 69042778.315307617 -13299945.645003319 0 -13299945.645003319 67070921.577488899 0 0 0 0 66712813.368652344 -4084845.2326807976 0 -4084845.2326807976 68878713.667542458 0 0 0 0 57558590.348999023 -10947363.150891304 0 -10947363.150891304 67532940.806744576 0 0 0 0 34048768.24987793 8647167.9913990498 0 8647167.9913990498 64707848.19023037 0 0 0 0 -6870783.9234313965 2055632.8185389042 0 2055632.8185389042 3859023.5691280365 0 0 0 0 8872673.4350585938 27628693.758728027 0 27628693.758728027 51395758.643714905 0 0 0 0 8872673.4349365234 27628693.758865356 0 27628693.758865356 51395758.643732309 0 0 0 0 8872673.4348144531 27628693.758808136 0 27628693.758808136 51395758.64382267 0 0 0 0 -13015183.970694393 13796913.291338421 0 13796913.291338421 3655209.219375547 0 0 0 0 6344482.5654296875 18812605.115134239 0 18812605.115134239 4363972.464196682 0 0 0 0 -10072527.39992702 7160476.8505860381 0 7160476.8505860381 3094036.5216058269 0 0 0 0 25562568.427734375 24869517.823739052 0 24869517.823739052 -3790968.9228200912 0 0 0 0 5968445.1053771973 16520204.021678925 0 16520204.021678925 23351941.484004974 0 0 0 0 31273979.451599121 40949079.652560234 0 40949079.652560234 24774941.629161835 0 0 0 0 9803072.1389007568 6748613.6788038313 0 6748613.6788038313 -4895167.550942421 0 0 0 0 8383331.5171661377 11224730.480865836 0 11224730.480865836 -8980577.9339249134 0 0 0 0 19167564.684692383 19950579.976179123 0 19950579.976179123 -2403822.9700073004 0 0 0 0 -213040.06255340576 4744572.898953829 0 4744572.898953829 226261.37564989924 0 0 0 0 2163025.254119873 4603482.4081698656 0 4603482.4081698656 -5440197.4584034532 0 0 0 0 -2090606.9585876465 7842847.1913586557 0 7842847.1913586557 850344.55205394328 0 0 0 0 -29819300.889923096 14479195.581090927 0 14479195.581090927 607937.51501512527 0 0 0 0 -14938036.371153206 4689201.1048008278 0 4689201.1048008278 143913.27692951052 0 0 0 0 -6836321.7084960938 8570472.7522416711 0 8570472.7522416711 757628.50779151917 0 0 0 0 -1264930.7442016602 20040343.164854407 0 20040343.164854407 5252170.7810593843 0 0 0 0 -30857507.63420105 -2041393.0636436939 0 -2041393.0636436939 1443992.8562116623 0 0 0 0 -25889497.32220459 2895289.3612098694 0 2895289.3612098694 -3143183.7954521179 0 0 0 0 -34387297.679504395 7462868.9639177322 0 7462868.9639177322 -5547498.5269947052 0 0 0 0 -38339637.711532593 1038183.9953626394 0 1038183.9953626394 659889.73732089996 0 0 0 0 -33938920.005844116 -2989325.5538096428 0 -2989325.5538096428 3216663.1574389935 0 0 0 0 -34954564.23223877 -2378204.2055258751 0 -2378204.2055258751 2964188.808703661 0 0 0 0 -34795237.926330566 -5570484.5111131668 0 -5570484.5111131668 3387202.1287999153 0 0 0 0 -14826688.850921631 -7419507.7572255954 0 -7419507.7572255954 -1812599.2743600756 0 0 0 0 -8403416.0683181584 -2095457.7445270568 0 -2095457.7445270568 497568.65990531864 0 0 0 0 -14557163.422676086 13293243.257159729 0 13293243.257159729 14145968.743890122 0 0 0 0 -33590221.315582275 -2753350.5129582882 0 -2753350.5129582882 1402058.5578961372 0 0 0 0 -14971451.679409027 -16196292.892242793 0 -16196292.892242793 4834542.5884886384 0 0 0 0 -22101235.616734266 -5936157.2684553787 0 -5936157.2684553787 2452668.0139805116 0 0 0 0 -6351624.3654327393 5448672.930328846 0 5448672.930328846 1891812.20805794 0 0 0 0 -16383053.055500574 3647690.269800894 0 3647690.269800894 1353336.2437480404 0 0 0 0 -8973676.3416918814 2779748.2673859186 0 2779748.2673859186 733040.3164582469 0 0 0 0 -16432239.376708984 -2928282.2884096131 0 -2928282.2884096131 4893587.7764543742 0 0 0 0 -3353172.2008361816 4818603.4928572476 0 4818603.4928572476 1978528.5020488799 0 0 0 0 -3393769.1185112 4552872.7985162046 0 4552872.7985162046 239600.03818961978 0 0 0 0 -1732636.5608842373 707088.73219437152 0 707088.73219437152 -1750089.3114622438 0 0 0 0 -3511065.6865997314 1147691.4632737339 0 1147691.4632737339 878697.51706859469 0 0 0 0 -1021859.0488891602 258593.7117933929 0 258593.7117933929 -741977.31092858315 0 0 0 0 -800927.63479614258 -50645.616736412048 0 -50645.616736412048 -923898.29891109467 0 0 0 0 -3918427.5814969987 1128014.962362621 0 1128014.962362621 -149940.35113924835 0 0 0 0 -346215.76878589392 324350.14548033103 0 324350.14548033103 286211.28174575884 0 0 0 0 10555632.837738037 -18541362.355925716 0 -18541362.355925716 -84022478.304959863 0 0 0 0 -35415133.355773926 -18305501.250841297 0 -18305501.250841297 115264521.08054155 0 0 0 0 -123882767.1262207 -23443265.759648934 0 -23443265.759648934 -51402159.537769645 0 0 0 0 -255295865.84375 -107795504.8252276 0 -107795504.8252276 -175899.94650353311 0 0 0 0 -30648897.08795166 -50954243.344722614 0 -50954243.344722614 -154846722.02605298 0 0 0 0 -30139690.396377563 -183582260.73199561 0 -183582260.73199561 -323144127.52955139 0 0 0 0 -43919302.836547852 -74752141.361100703 0 -74752141.361100703 -26676525.53000227 0 0 0 0 -27339518.006645203 53891817.143744625 0 53891817.143744625 -18683511.403789673 0 0 0 0 -8860083.459854126 -7708146.435167715 0 -7708146.435167715 -2017116.9081197716 0 0 0 0 -23579340.371520996 2563189.8596248999 0 2563189.8596248999 18712907.678646743 0 0 0 0 -1666684.4017459005 -775182.0077348426 0 -775182.0077348426 115912.40481082033 0 0 0 0 -1334511.4319686145 -372138.03250213712 0 -372138.03250213712 587793.05091015098 0 0 0 0 -19699991.838928223 -7566697.9806500822 0 -7566697.9806500822 8260055.1861477122 0 0 0 0 -7503146.6648254395 -6061.2296015396714 0 -6061.2296015396714 -21715294.097842112 0 0 0 0 -35733332.182220459 -15997836.217685901 0 -15997836.217685901 3934942.6053908989 0 0 0 0 -37764879.14642334 -45741740.673934512 0 -45741740.673934512 -15588202.139406167 0 0 0 0 5562927.4587020874 -11534301.57168988 0 -11534301.57168988 -78705.258951542506 0 0 0 0 -705990.76476237178 -450677.25070781261 0 -450677.25070781261 -248010.91138282567 0 0 0 0 -60283628.400024414 34891291.403942063 0 34891291.403942063 4945.3838545652607 0 0 0 0 18637591.291595459 16938575.755679831 0 16938575.755679831 -7357588.3934730515 0 0 0 0 -44939461.544258118 7136642.5821598172 0 7136642.5821598172 20180308.490808964 0 0 0 0 -696756403.94076729 -417134326.21279788 0 -417134326.21279788 -132757501.56286311 0 0 0 0 -692699374.98892212 -457944082.69464207 0 -457944082.69464207 -140965952.48449862 0 0 0 0 -784649096.40978241 -546229204.42443013 0 -546229204.42443013 -216218638.05871868 0 0 0 0 -723978029.19006348 -541152686.06238377 0 -541152686.06238377 -225495687.15929341 0 0 0 0 -801933433.38043976 -503178919.11007547 0 -503178919.11007547 -69516723.298624992 0 0 0 0 -589267577.39157104 -543995282.07639003 0 -543995282.07639003 -541006652.4330802 0 0 0 0 -491399478.19506073 -347110201.06485975 0 -347110201.06485975 -230719365.79943585 0 0 0 0 -1312313.6966300011 -414987.65703559667 0 -414987.65703559667 -526628.26506148104 0 0 0 0 146739.09906005859 -706770.47034871578 0 -706770.47034871578 -1795587.8950335979 0 0 0 0 -1053060.4884510599 -1227608.8893574327 0 -1227608.8893574327 -1923251.7515112921 0 0 0 0 -1673668.9807137102 -574628.93332955241 0 -574628.93332955241 -920294.49991568865 0 0 0 0 -772900.7703509219 -806465.16091827303 0 -806465.16091827303 -1538463.7740038573 0 0 0 0 -5007995.4545593262 -3058575.7157925963 0 -3058575.7157925963 17073614.240912259 0 0 0 0 -416705328.63541412 -238412574.35948896 0 -238412574.35948896 -140805953.17182684 0 0 0 0 -614425247.06246948 -406635381.00701857 0 -406635381.00701857 -229832015.99383989 0 0 0 0 -720462362.79733276 -422767980.72189844 0 -422767980.72189844 -133704313.81799544 0 0 0 0 -698831655.29069519 -408224922.9666878 0 -408224922.9666878 -193685525.88784146 0 0 0 0 -725034385.92669678 -331582388.66680932 0 -331582388.66680932 -164131597.68396705 0 0 0 0 -976897008.74884033 -461521072.77181977 0 -461521072.77181977 -153571734.99350762 0 0 0 0 59263638.258087158 -16684823.338166028 0 -16684823.338166028 -118574720.0566124 0 0 0 0 -281961.82107281685 -260356.57095755637 0 -260356.57095755637 -534220.5025722112 0 0 0 0 -27082327.574882507 -49670922.969209053 0 -49670922.969209053 40267798.01850605 0 0 0 0 -798141359.4251709 -327607092.49928832 0 -327607092.49928832 -99018186.653375685 0 0 0 0 -743461497.42669678 -423116872.79448622 0 -423116872.79448622 -306834965.98987246 0 0 0 0 -633101147.19168091 -336420212.28004384 0 -336420212.28004384 -97854224.643139303 0 0 0 0 -630192414.04173851 -228451633.39084801 0 -228451633.39084801 -213512666.6349135 0 0 0 0 -778914885.1133728 -277672358.08208489 0 -277672358.08208489 -175263.10319857649 0 0 0 0 -750013096.87283325 -348811004.35335422 0 -348811004.35335422 -122838427.98078196 0 0 0 0 -794803035.51109314 -399879704.38570726 0 -399879704.38570726 256472.14462081785 0 0 0 0 -762476423.62691116 -377725722.25209486 0 -377725722.25209486 -105153022.37767565 0 0 0 0 -771951716.15713501 -467161888.45826375 0 -467161888.45826375 -125980551.70428079 0 0 0 0 -724828603.57633972 -429300969.78086179 0 -429300969.78086179 -105362819.63663864 0 0 0 0 -800022809.31263733 -445273718.30172002 0 -445273718.30172002 -54266032.126899123 0 0 0 0 -809749236.71656799 -430510494.87037057 0 -430510494.87037057 -60717717.389227986 0 0 0 0 -822155126.31939697 -433618193.41500127 0 -433618193.41500127 -1341271.7365522473 0 0 0 0 -830134713.32898712 -458392540.09859818 0 -458392540.09859818 -64411644.794703722 0 0 0 0 -784457614.96786499 -408894139.76623249 0 -408894139.76623249 -57030952.500936866 0 0 0 0 -836837616.63278198 -479203276.4452154 0 -479203276.4452154 -85010955.466204882 0 0 0 0 -839668188.16329956 -434644840.43741643 0 -434644840.43741643 27458377.41517663 0 0 0 0 -906174928.30344391 -532722259.97700882 0 -532722259.97700882 -47253522.734634876 0 0 0 0 -874819067.29244995 -638967488.70460522 0 -638967488.70460522 -197571796.26284337 0 0 0 0 -869452220.03536987 -583104431.58502221 0 -583104431.58502221 -3753448.1211915016 0 0 0 0 -644016957.08956909 -264823478.19823742 0 -264823478.19823742 148968911.01551342 0 0 0 0 -116958860.27285886 86350748.965528101 0 86350748.965528101 297120488.14454269 0 0 0 0 -872133014.49401855 -379918644.97113037 0 -379918644.97113037 202230594.46895409 0 0 0 0 -1121599992.528595 -575695500.3818295 0 -575695500.3818295 119827675.34114707 0 0 0 0 -769675625.33911514 -347272357.12562358 0 -347272357.12562358 71459121.032684088 0 0 0 0 -689082890.84146118 -372071828.44624281 0 -372071828.44624281 47074553.199597597 0 0 0 0 -569793109.97414398 -123562334.55571491 0 -123562334.55571491 188189727.7845614 0 0 0 0 -115809746.8293457 -136195589.6116221 0 -136195589.6116221 -40875543.759954572 0 0 0 0 -517824.20409658551 -280935.94447393715 0 -280935.94447393715 -118017.51772391841 0 0 0 0 -96144648.016998291 -63948646.172174454 0 -63948646.172174454 -249506.32693611126 0 0 0 0 -369980667.11611652 -145876102.15205157 0 -145876102.15205157 -17219451.444558382 0 0 0 0 -359466231.67352295 -316989057.93109763 0 -316989057.93109763 -166284410.75622129 0 0 0 0 -728037543.01539612 -625535805.23623395 0 -625535805.23623395 -413462822.22226822 0 0 0 0 -607050.68395802379 -416565.24202172458 0 -416565.24202172458 -193731.22739645466 0 0 0 0 -189249304.67518616 -174792101.93920344 0 -174792101.93920344 -132149156.91853347 0 0 0 0 -212534295.79240417 -198805722.0238997 0 -198805722.0238997 49487.276544219305 0 0 0 0 -229600511.03863525 -111742527.29224062 0 -111742527.29224062 -137213147.35569006 0 0 0 0 -96743280.944717407 -72419190.456079304 0 -72419190.456079304 114304103.75730109 0 0 0 0 47818199.02180481 -279495775.68172663 0 -279495775.68172663 47741392.552324533 0 0 0 0 151175555.21232605 -359896364.34812725 0 -359896364.34812725 276980062.41759968 0 0 0 0 120307635.05563354 -280567073.30543864 0 -280567073.30543864 -699376320.2620697 0 0 0 0 -274169028.33575439 -464630079.13302034 0 -464630079.13302034 490099078.68647277 0 0 0 0 -456618.79723747075 -483599.16276585497 0 -483599.16276585497 -84158.167173571244 0 0 0 0 -37891382.135253906 -441678548.28843999 0 -441678548.28843999 126897467.42677736 0 0 0 0 -91739395.072814941 -443272377.62294507 0 -443272377.62294507 -194946196.92146778 0 0 0 0 -290233985.74926758 -628214853.30036545 0 -628214853.30036545 -141236620.33608818 0 0 0 0 -59683302.498718262 -251867448.59126902 0 -251867448.59126902 49646981.463737249 0 0 0 0 -216569457.61795044 -279364939.41879654 0 -279364939.41879654 317217648.57961845 0 0 0 0 -6286176.3540344238 -73948002.616237998 0 -73948002.616237998 -63225015.838903904 0 0 0 0 -101838118.55386353 18440810.154368043 0 18440810.154368043 201860442.7455225 0 0 0 0 -138787254.71481323 9647381.0312899351 0 9647381.0312899351 322243175.99638319 0 0 0 0 -145206.43852238357 -97127.708836190403 0 -97127.708836190403 -94486.334478740231 0 0 0 0 -25209594.520568848 -97397586.149830341 0 -97397586.149830341 168652550.06549907 0 0 0 0 -344607158.59411621 -215382529.85475409 0 -215382529.85475409 -138008206.31825447 0 0 0 0 -308708135.3265686 -529901323.21836668 0 -529901323.21836668 -253462187.59784308 0 0 0 0 -618795260.859375 -354477017.50040436 0 -354477017.50040436 156472181.88246107 0 0 0 0 -278119184.23339844 -316278717.76679134 0 -316278717.76679134 -50218252.273547173 0 0 0 0 -212917236.65698242 -197756034.8613863 0 -197756034.8613863 328122269.75012338 0 0 0 0 -262151261.95874023 -175656817.56258869 0 -175656817.56258869 173375143.57258934 0 0 0 0 -280050897.38624954 -337314431.6162535 0 -337314431.6162535 164155025.18276024 0 0 0 0 -83382027.567886353 -168054142.01847184 0 -168054142.01847184 86276127.015996933 0 0 0 0 -81869755.360366821 -173526297.20302975 0 -173526297.20302975 91631143.966955185 0 0 0 0 -388669594.92553711 -404207597.83679485 0 -404207597.83679485 95729989.828772545 0 0 0 0 -155129628.50463867 -326763227.85292673 0 -326763227.85292673 48308932.359910488 0 0 0 0 -233248399.87176514 -270465761.11796951 0 -270465761.11796951 124303454.59282494 0 0 0 0 -291610655.2901001 -348467558.38091397 0 -348467558.38091397 119083191.68137646 0 0 0 0 -89965169.80847168 -377574893.45851612 0 -377574893.45851612 114190628.60104918 0 0 0 0 -68208421.1875 -213098330.87763691 0 -213098330.87763691 110882057.48517382 0 0 0 0 -66642922.396392822 -247174253.06917667 0 -247174253.06917667 222601006.8502717 0 0 0 0 65272158.688812256 -161267979.55656886 0 -161267979.55656886 86162914.339533806 0 0 0 0 -30509239.064559937 -48967433.912142873 0 -48967433.912142873 293742252.62586927 0 0 0 0 -23888105.282265663 -47633261.565390609 0 -47633261.565390609 50913280.914424896 0 0 0 0 -114336609.37954712 -162302734.20794129 0 -162302734.20794129 141970374.31841159 0 0 0 0 38419643.205749512 -396498927.57408822 0 -396498927.57408822 933983154.29841471 0 0 0 0 301694309.04385376 -309676996.02603865 0 -309676996.02603865 211371580.38287032 0 0 0 0 64602128.822113037 -200803618.23878074 0 -200803618.23878074 229869445.67394131 0 0 0 0 -39674405.660713196 -418111311.47575629 0 -418111311.47575629 368072424.66691303 0 0 0 0 4253968.4978027344 -39514390.237936974 0 -39514390.237936974 -83574824.509876251 0 0 0 0 1547513.1244025826 -694223.15422500111 0 -694223.15422500111 182890.89508233266 0 0 0 0 -132007811.66928864 15254713.201037049 0 15254713.201037049 1354359870.0895686 0 0 0 0 13171171.206451416 -73305438.052361012 0 -73305438.052361012 518883588.894526 0 0 0 0 -55215939.54160881 -323621131.95371175 0 -323621131.95371175 319335507.09202766 0 0 0 0 242102035.39489746 -277732925.6167624 0 -277732925.6167624 221482719.55119061 0 0 0 0 -43063284.406982422 -196362856.35478258 0 -196362856.35478258 600613593.91379023 0 0 0 0 -17735764.961669922 -126024192.11517572 0 -126024192.11517572 467675645.39346528 0 0 0 0 3469615.4856062531 -4552251.9984739311 0 -4552251.9984739311 1493102.4059274718 0 0 0 0 -39263360.502731323 -13692062.428800941 0 -13692062.428800941 -528407.14306688309 0 0 0 0 -2320856.3928582072 -1339027.8630147576 0 -1339027.8630147576 1181936.1179536595 0 0 0 0 90087824.029205322 -182719580.69293708 0 -182719580.69293708 378292412.5059793 0 0 0 0 -5482559.0453872681 2631033.1315608621 0 2631033.1315608621 -2450050.2140777111 0 0 0 0 -1679865.7575092316 -195147.26821987703 0 -195147.26821987703 1113560.5988202761 0 0 0 0 -8482756.7900543213 9855735.1285925508 0 9855735.1285925508 3925218.2448987961 0 0 0 0 -4483027.1590881348 -9123817.5900650024 0 -9123817.5900650024 24591280.475410461 0 0 0 0 -6079453.7252197266 2263589.5087102056 0 2263589.5087102056 11564602.775975704 0 0 0 0 -14080896.029864639 -922561.79610265791 0 -922561.79610265791 5745243.8569326568 0 0 0 0 -6018534.7293701172 -42796227.348545074 0 -42796227.348545074 1116059.9265999794 0 0 0 0 -22090050.937985361 -8501221.6572806444 0 -8501221.6572806444 5323623.2057619933 0 0 0 0 -577676639.38394165 -1086402941.429502 0 -1086402941.429502 -1133077943.9283667 0 0 0 0 -9075393.4910888672 9611455.0716490746 0 9611455.0716490746 17650099.172880888 0 0 0 0 -251596249.44969177 -771192924.23301172 0 -771192924.23301172 -1244855066.6675987 0 0 0 0 -1568489.0623844862 -232015.31755362451 0 -232015.31755362451 1089086.3312856378 0 0 0 0 145513159.96343994 -683734960.03076935 0 -683734960.03076935 -2766875280.7980804 0 0 0 0 -16758970.803153992 -78149661.573836327 0 -78149661.573836327 32726518.265302658 0 0 0 0 -48970527.640380859 -8324171.1031723022 0 -8324171.1031723022 73837066.750519753 0 0 0 0 -17285947.612784982 408073.81111335754 0 408073.81111335754 3439857.678397499 0 0 0 0 -538630532.47009277 -705066006.5397954 0 -705066006.5397954 -1837052900.9840379 0 0 0 0 -466265801.22924805 -1096032953.7753296 0 -1096032953.7753296 -2684238287.8625336 0 0 0 0 -459728260.83706665 -1438184966.7131348 0 -1438184966.7131348 -2407710052.6226091 0 0 0 0 -956696168.60342407 -1091702298.2011485 0 -1091702298.2011485 -1602965656.2940569 0 0 0 0 -23319721.793888092 -60404285.49085933 0 -60404285.49085933 260016998.15910435 0 0 0 0 -925091495.71966553 -2200260283.2500935 0 -2200260283.2500935 -4154399931.9811144 0 0 0 0 -5682478.8579800129 -275394.22876062244 0 -275394.22876062244 726766.40280120075 0 0 0 0 -1239143883.5688477 -15357385.147246361 0 -15357385.147246361 -1488530523.4634771 0 0 0 0 -778142171.01113892 300910488.91316462 0 300910488.91316462 -608744342.78117585 0 0 0 0 -2616254267.0241241 -1298433440.8485346 0 -1298433440.8485346 -1093579596.249423 0 0 0 0 -606413659.11221313 -1040145337.8007932 0 -1040145337.8007932 -1481795037.1001074 0 0 0 0 -504675749.40591431 -445634090.41123724 0 -445634090.41123724 -1265463777.8315182 0 0 0 0 -355200042.21270752 51793098.885996819 0 51793098.885996819 -629962618.41081047 0 0 0 0 -210968488.70834351 -64860912.067442894 0 -64860912.067442894 -537155381.3258729 0 0 0 0 -422913008.1282959 -636497586.52961493 0 -636497586.52961493 -889184798.68201303 0 0 0 0 -665815626.52972412 -930835251.89282942 0 -930835251.89282942 -1871585540.2739036 0 0 0 0 -641931304.79290581 -701479975.53319216 0 -701479975.53319216 -604504414.75202942 0 0 0 0 -671632875.86587524 -681240880.02578092 0 -681240880.02578092 -355362814.31493354 0 0 0 0 -681384542.23934937 -855500658.9957006 0 -855500658.9957006 -698249224.29022956 0 0 0 0 -1118108810.0165253 -941210503.99065423 0 -941210503.99065423 -24632807.629229069 0 0 0 0 -939063730.38343811 -659494122.36675787 0 -659494122.36675787 -84821516.718806744 0 0 0 0 -974101040.17749786 -212205431.9120906 0 -212205431.9120906 361603247.41726017 0 0 0 0 88413094.921257019 395665048.0849607 0 395665048.0849607 493974844.47439003 0 0 0 0 -875896594.45401001 -313858899.52097034 0 -313858899.52097034 173100849.7037015 0 0 0 0 -878208960.09844971 -203895686.02036572 0 -203895686.02036572 337353013.02819192 0 0 0 0 -1652890863.0024414 -224098293.61601353 0 -224098293.61601353 927577417.82872248 0 0 0 0 -1480300417.8392639 -1552086680.5587316 0 -1552086680.5587316 -877963421.3359704 0 0 0 0 -2095795470.7819672 -965699234.35308242 0 -965699234.35308242 627268876.08339405 0 0 0 0 -1497241632.644516 -133683708.68894278 0 -133683708.68894278 629752.30646506231 0 0 0 0 -6612545490.2819862 184349819.78221059 0 184349819.78221059 -925089306.31800652 0 0 0 0 -6867935239.5541801 1666306597.0890191 0 1666306597.0890191 451943005.43103713 0 0 0 0 -3550175413.4722624 4031558536.2775245 0 4031558536.2775245 -907245124.06801581 0 0 0 0 -7770162485.1087112 -1421258221.0059922 0 -1421258221.0059922 348939682.2525019 0 0 0 0 692861786.13970947 -871739254.83881962 0 -871739254.83881962 364219729.13718617 0 0 0 0 -6225294.7391019017 -1327419.5179193504 0 -1327419.5179193504 314916.82898937719 0 0 0 0 -122421421.18856049 -28359243.739645392 0 -28359243.739645392 -68983129.165545285 0 0 0 0 -12414972.008775547 -4316377.7487493567 0 -4316377.7487493567 -176330.91403308057 0 0 0 0 -995225338.50137329 -476032125.98807633 0 -476032125.98807633 1470986406.177103 0 0 0 0 -3686142762.1621733 -554649715.78890502 0 -554649715.78890502 3125135294.6328063 0 0 0 0 -564340931.82820129 588652185.92924654 0 588652185.92924654 275545156.34458899 0 0 0 0 -321496050.60134888 -3538005183.1568518 0 -3538005183.1568518 -453543577.48822236 0 0 0 0 -6083300.8560801595 -3015528.9214349948 0 -3015528.9214349948 -773290.55030079326 0 0 0 0 -1636888062.9544983 -3829325199.578651 0 -3829325199.578651 1717503935.8689303 0 0 0 0 -4398351518.8371887 751386563.1565249 0 751386563.1565249 683673547.94803882 0 0 0 0 -4113491423.2128906 -1918046190.1489511 0 -1918046190.1489511 218090069.61628413 0 0 0 0 -1321527832.692627 -2080311438.0770316 0 -2080311438.0770316 -839623714.37748981 0 0 0 0 -1870300423.0806885 915188495.78228116 0 915188495.78228116 -504286990.46754164 0 0 0 0 -1306647731.4196472 -737831409.85205364 0 -737831409.85205364 620512384.73809338 0 0 0 0 -2682202296.6744995 -1132045127.5271297 0 -1132045127.5271297 810090592.14527559 0 0 0 0 -3207120441.2329407 -495900381.35264754 0 -495900381.35264754 304549111.35333788 0 0 0 0 -1972135980.0439453 584785274.30602133 0 584785274.30602133 656450620.18546081 0 0 0 0 -1617603390.6591535 -1062582233.9712397 0 -1062582233.9712397 -123526181.27934015 0 0 0 0 -1581670063.4492188 -96532193.5294936 0 -96532193.5294936 -15630479.040969683 0 0 0 0 -1682241213.8406525 -67284055.660155624 0 -67284055.660155624 194103148.39621449 0 0 0 0 -253372745.90151978 -123381728.33040322 0 -123381728.33040322 -499796.24089930445 0 0 0 0 -985693.39326387644 -619237.3523217719 0 -619237.3523217719 -5248.588066960423 0 0 0 0 345642912.75357056 -402942849.0100863 0 -402942849.0100863 271606028.29998088 0 0 0 0 530147050.75965881 -339917557.09408128 0 -339917557.09408128 151982911.25811553 0 0 0 0 -1419791.9498407692 -1148004.3001462501 0 -1148004.3001462501 -150964.2596022161 0 0 0 0 -1757214435.6724854 -538245789.58801317 0 -538245789.58801317 1070077156.0316378 0 0 0 0 525548944.94651794 -40826716.085710168 0 -40826716.085710168 436143286.67721009 0 0 0 0 -282199.11359608173 -262616.81232568622 0 -262616.81232568622 14112.257952534594 0 0 0 0 367357428.65686035 217844719.10880762 0 217844719.10880762 -57596653.126772881 0 0 0 0 -1330286321.576355 -488494175.98164898 0 -488494175.98164898 -349946971.49492598 0 0 0 0 323077409.75424194 -430293825.21522784 0 -430293825.21522784 159181951.2362586 0 0 0 0 374514049.97970581 -264093216.40640569 0 -264093216.40640569 157849470.6784358 0 0 0 0 -157360916.16867065 49735149.990099549 0 49735149.990099549 23996507.806287527 0 0 0 0 -996512.27146233618 -799262.06678698212 0 -799262.06678698212 222008.65410051146 0 0 0 0 -95143291.623199463 -70512527.446339011 0 -70512527.446339011 57120285.754409432 0 0 0 0 18474209.967285156 -4358728.5597735643 0 -4358728.5597735643 12628313.691939354 0 0 0 0 -84492664.799743652 -131455242.69242835 0 -131455242.69242835 69649959.739098549 0 0 0 0 -78205218.70860672 -1499721.5416641533 0 -1499721.5416641533 85168554.389170647 0 0 0 0 -32881837.409790039 -26381682.324476242 0 -26381682.324476242 15298498.255057096 0 0 0 0 -79985973.740600586 -13187618.771816492 0 -13187618.771816492 20768697.739794746 0 0 0 0 -93539525.727783203 -167425489.56790924 0 -167425489.56790924 -433643739.55214691 0 0 0 0 -28031200.961883545 40417901.726324081 0 40417901.726324081 37220943.877920866 0 0 0 0 -29535727.039814979 -4335296.3494986743 0 -4335296.3494986743 7111532.8540028548 0 0 0 0 -13808543.991867065 10735768.069820762 0 10735768.069820762 15723433.287095547 0 0 0 0 -17601674.009583756 -4992206.8093361408 0 -4992206.8093361408 4469102.6656763013 0 0 0 0 -215040334.53192139 132914572.34980989 0 132914572.34980989 105040180.75134158 0 0 0 0 -8443512.8979587555 -4850760.3864166886 0 -4850760.3864166886 7135752.2597087622 0 0 0 0 -59901876.416625977 -45173600.606900692 0 -45173600.606900692 153251476.64484394 0 0 0 0 14113744.846176147 24597367.077112675 0 24597367.077112675 -92066653.233812809 0 0 0 0 -42223985.260787964 -94920860.671197653 0 -94920860.671197653 -118155530.51302767 0 0 0 0 -423165.36403332651 184053.42215277255 0 184053.42215277255 187546.22623808403 0 0 0 0 -15283711.257187676 -1893551.3555049077 0 -1893551.3555049077 13172606.403688457 0 0 0 0 28355741.251983643 79823191.743194818 0 79823191.743194818 -279963751.38581753 0 0 0 0 201620484.04353333 170469138.66945601 0 170469138.66945601 86990656.176718712 0 0 0 0 -20754487.219424032 -8861249.8377182856 0 -8861249.8377182856 4026653.5685281195 0 0 0 0 615643438.56837463 86688707.320252895 0 86688707.320252895 -424869546.45468402 0 0 0 0 -727245809.61683655 -479840383.10880518 0 -479840383.10880518 272216673.72422934 0 0 0 0 -279998317.92523193 399969514.31880832 0 399969514.31880832 -1023582668.7993336 0 0 0 0 -24670205.480525285 -14263587.045613639 0 -14263587.045613639 273333.81600603182 0 0 0 0 -87650887.932647705 28437259.439083099 0 28437259.439083099 569426757.15173721 0 0 0 0 -362278297.15777588 373960777.46583557 0 373960777.46583557 386361755.99968052 0 0 0 0 273635506.35421753 128664622.29383993 0 128664622.29383993 -1185735343.0534468 0 0 0 0 -374624973.40233994 -1467500244.7567835 0 -1467500244.7567835 -2187778090.2604179 0 0 0 0 137470906.81530762 349423715.0217371 0 349423715.0217371 -222927586.94307423 0 0 0 0 -463283303.77960205 -444338446.41403341 0 -444338446.41403341 120665843.50190663 0 0 0 0 473366903.48203659 198770953.72281092 0 198770953.72281092 -931691882.82987261 0 0 0 0 -4369110.8672983125 733828.69010184705 0 733828.69010184705 4061110.46889841 0 0 0 0 -1174470545.2847748 -1122351313.9842322 0 -1122351313.9842322 -354008963.06266785 0 0 0 0 -1407637630.7827606 -2159848093.0204849 0 -2159848093.0204849 -1002414657.7495484 0 0 0 0 -4310015548.877121 -1794510167.4773126 0 -1794510167.4773126 207462005.76898861 0 0 0 0 -1042089750.4519043 -1485836936.5909138 0 -1485836936.5909138 191317137.71919537 0 0 0 0 -1645953995.477417 -2107868044.2684622 0 -2107868044.2684622 -913738482.26623249 0 0 0 0 -5571177007.0931702 -762878341.98983741 0 -762878341.98983741 -545617217.42982769 0 0 0 0 -5801636495.2948608 -644525266.29465222 0 -644525266.29465222 127277989.28085279 0 0 0 0 -5401353087.8806763 -74116261.803956985 0 -74116261.803956985 -280700676.55443478 0 0 0 0 -8158714065.0963745 1971416106.7221289 0 1971416106.7221289 -2863346222.43154 0 0 0 0 -5338786785.0117493 -537677624.0851655 0 -537677624.0851655 -1678670959.3685975 0 0 0 0 -6240330599.4362793 1033358388.4175806 0 1033358388.4175806 -6397612472.3071775 0 0 0 0 -1537314772.4438934 -2203180261.797821 0 -2203180261.797821 -2257127549.3852663 0 0 0 0 -6277190680.3253555 -2504790356.8102436 0 -2504790356.8102436 -1539164841.8158855 0 0 0 0 -987108065.07318115 -1810933532.98316 0 -1810933532.98316 -2777465861.4473562 0 0 0 0 -2533064390.6576843 2305820483.5813322 0 2305820483.5813322 -1063159482.9641101 0 0 0 0 -6326788452.3345337 3571487095.6724653 0 3571487095.6724653 -1449554124.3719072 0 0 0 0 -9487020.759365797 -5520962.5715512373 0 -5520962.5715512373 -1368892.2164373114 0 0 0 0 -6460580621.6583862 861430122.39377022 0 861430122.39377022 418443359.39269733 0 0 0 0 -3225268036.2469482 982812277.79406619 0 982812277.79406619 139818079.1273315 0 0 0 0 -3218192328.3677368 850992130.13787031 0 850992130.13787031 288061251.38761759 0 0 0 0 -6050853778.9601593 -131982953.21564555 0 -131982953.21564555 604344085.22535849 0 0 0 0 -6192481140.2621422 121955189.53695905 0 121955189.53695905 1174159578.6554966 0 0 0 0 -5388632.4920507073 -689706.0608939752 0 -689706.0608939752 -3865843.2576762154 0 0 0 0 -9386207128.3707428 877654353.59873223 0 877654353.59873223 1255595183.3187456 0 0 0 0 -2588440.5832288824 12160.832572683692 0 12160.832572683692 -2592401.099413367 0 0 0 0 -5580304769.3655233 -317332392.90536374 0 -317332392.90536374 -596656542.53272951 0 0 0 0 -5733406316.7896118 303371146.36074007 0 303371146.36074007 -371544339.68197137 0 0 0 0 -4890562559.1173916 1564692473.3323643 0 1564692473.3323643 -2681625828.1940484 0 0 0 0 -6614272951.7357216 -41209871.377398215 0 -41209871.377398215 269398067.41482025 0 0 0 0 -5911736809.4709473 -400075618.81606382 0 -400075618.81606382 242052661.35199869 0 0 0 0 -5918611569.6001511 -48171902.107914791 0 -48171902.107914791 254938170.47208601 0 0 0 0 -5886310268.6480408 -98241771.882406205 0 -98241771.882406205 18182048.432131678 0 0 0 0 -6350441752.0110359 280942281.85525912 0 280942281.85525912 55024941.503772825 0 0 0 0 -5979594514.5536041 -53460353.054397821 0 -53460353.054397821 5414057.240909528 0 0 0 0 -5657167460.7388172 113143824.61633053 0 113143824.61633053 131115577.95682299 0 0 0 0 -4461808255.7280884 460200598.8479721 0 460200598.8479721 -144984236.68826163 0 0 0 0 -5358194886.0098419 131394148.71111637 0 131394148.71111637 -170085886.90105867 0 0 0 0 -5348055.9787608087 -655673.35757364333 0 -655673.35757364333 -1570062.7562409486 0 0 0 0 -3271227351.2971268 294768317.03079438 0 294768317.03079438 -505179360.71749401 0 0 0 0 -2392997.9987441748 -1144213.5031566992 0 -1144213.5031566992 -298445.23069952196 0 0 0 0 -2879032348.0650635 993792429.9802351 0 993792429.9802351 36823435.191494942 0 0 0 0 -3725907721.6073914 756266083.43836486 0 756266083.43836486 169475447.16223192 0 0 0 0 -3078066693.3276825 100390358.7231406 0 100390358.7231406 -330100893.89159477 0 0 0 0 -2661618549.7458801 109741629.86515772 0 109741629.86515772 -257786511.54377824 0 0 0 0 -4014980796.5290222 43473770.474315614 0 43473770.474315614 -197289120.99605596 0 0 0 0 -3419093639.4245071 493637728.34288275 0 493637728.34288275 350340175.78419614 0 0 0 0 -3962314.0568514671 -1367724.4410270378 0 -1367724.4410270378 -1114932.5515228126 0 0 0 0 -2525918.750417483 -242265.66146957129 0 -242265.66146957129 -300806.33502892667 0 0 0 0 -5251072618.5014648 201402124.11655229 0 201402124.11655229 277280541.78855139 0 0 0 0 -4662580669.0934906 -170980526.59285572 0 -170980526.59285572 252114174.39574122 0 0 0 0 -5290401833.5638199 -317582421.28035253 0 -317582421.28035253 -276626374.37740064 0 0 0 0 -4479438315.9542542 577857190.27124202 0 577857190.27124202 331272333.97896969 0 0 0 0 -3998327817.9580688 230580774.96270394 0 230580774.96270394 -366569603.22251058 0 0 0 0 -3132842118.8698425 468577620.79659176 0 468577620.79659176 -375881645.62013817 0 0 0 0 -2097682887.1365356 -481731281.15359473 0 -481731281.15359473 -1283112972.2467682 0 0 0 0 -2172525826.0637054 -554177991.86436927 0 -554177991.86436927 -1005502263.1449361 0 0 0 0 -3695373530.8521729 -1118130191.0010402 0 -1118130191.0010402 -1109641067.913331 0 0 0 0 -774335199.12220764 -976098461.41635752 0 -976098461.41635752 -1856732326.0841427 0 0 0 0 -735341831.85202026 -989191936.72041273 0 -989191936.72041273 -2511053514.335578 0 0 0 0 -277521291.01503372 -1352453092.6026149 0 -1352453092.6026149 -2224754956.146327 0 0 0 0 -1359838470.6440735 -76986982.827485561 0 -76986982.827485561 -1943085172.9739237 0 0 0 0 -379631736.49295044 409501969.11740148 0 409501969.11740148 -911166548.39842534 0 0 0 0 -631900792.27536011 -988996005.07195067 0 -988996005.07195067 -823850709.6966877 0 0 0 0 -1271693812.1647644 24909084.555583239 0 24909084.555583239 374959526.84643483 0 0 0 0 -2603949567.519928 328789179.9229399 0 328789179.9229399 563427810.71990919 0 0 0 0 -1154172839.7822571 -213704856.33386064 0 -213704856.33386064 95450091.396886349 0 0 0 0 -2805484942.6307144 710901360.38184619 0 710901360.38184619 71894612.148632526 0 0 0 0 -1745268826.3880844 -246771262.89812756 0 -246771262.89812756 171129968.71858978 0 0 0 0 -1066073914.098999 892512862.81450415 0 892512862.81450415 -450594750.11123419 0 0 0 0 -4926819.0161208659 -5025591.1139826942 0 -5025591.1139826942 1945858.1595293605 0 0 0 0 -92689228.985084534 405351078.33099961 0 405351078.33099961 -763212442.14207697 0 0 0 0 257391835.97505951 210892791.09668642 0 210892791.09668642 -441492261.01784587 0 0 0 0 -6204325.4390480667 -1609839.5289531648 0 -1609839.5289531648 4313203.499135362 0 0 0 0 -285027156.27539062 -330791484.90898609 0 -330791484.90898609 -130162461.3018446 0 0 0 0 -435935974.05194092 -111870085.92337942 0 -111870085.92337942 -444877644.71667492 0 0 0 0 -1071677010.053772 -935652325.49348021 0 -935652325.49348021 -655458075.01735997 0 0 0 0 -570849888.53429031 -629544749.24160266 0 -629544749.24160266 -745960196.54161024 0 0 0 0 -502385622.51538086 -104211081.43557358 0 -104211081.43557358 295958060.11052036 0 0 0 0 -19415199.778325498 -8369534.0545779243 0 -8369534.0545779243 6648046.1921812464 0 0 0 0 -205236606.44226074 209050924.69317055 0 209050924.69317055 309496934.6485163 0 0 0 0 -88902573.320571899 -335941813.8591218 0 -335941813.8591218 -456887073.26717377 0 0 0 0 -425525405.62901306 -416163911.92149258 0 -416163911.92149258 -215462147.42118263 0 0 0 0 -199392203.3059082 -567484622.94601059 0 -567484622.94601059 -385657982.6752224 0 0 0 0 156689932.94168091 -149023233.16992664 0 -149023233.16992664 -215807520.60712814 0 0 0 0 203880607.85968018 -425437208.4994278 0 -425437208.4994278 503318441.1892395 0 0 0 0 -1048471.6561469138 850868.73092223704 0 850868.73092223704 1112858.0530346585 0 0 0 0 -387142450.78405762 -445725073.71013832 0 -445725073.71013832 -284358874.55602455 0 0 0 0 -278634176.90472412 -643943843.7476387 0 -643943843.7476387 -492965078.74440384 0 0 0 0 -455050038.5177002 -636508013.08928871 0 -636508013.08928871 -324771425.59105968 0 0 0 0 -495462353.4602356 -577289627.09632564 0 -577289627.09632564 -411537961.70365238 0 0 0 0 -382140049.31707764 -552016185.93775225 0 -552016185.93775225 -557650150.57581091 0 0 0 0 -515341353.18473816 -850045662.28304267 0 -850045662.28304267 -753260085.91068554 0 0 0 0 -619785652.94192505 -388367719.1809144 0 -388367719.1809144 -378987020.02825463 0 0 0 0 -483724879.99954224 -693123166.53360128 0 -693123166.53360128 -964408723.16800308 0 0 0 0 -910137407.2257843 -821921071.85912204 0 -821921071.85912204 -998887309.9513768 0 0 0 0 -557272977.8162384 -758349505.55775607 0 -758349505.55775607 -1742198643.994736 0 0 0 0 -1166467417.7557526 -1895827806.213778 0 -1895827806.213778 -2187308032.8731222 0 0 0 0 -2146512283.4760742 -1059175733.8809566 0 -1059175733.8809566 -632672446.06556034 0 0 0 0 -885265308.18253326 -688630658.21516061 0 -688630658.21516061 -1069749739.6606703 0 0 0 0 -1056449970.4098816 -445916715.18913317 0 -445916715.18913317 -390002326.49579656 0 0 0 0 -3097381942.1104126 -140541701.16758823 0 -140541701.16758823 -912252184.15629387 0 0 0 0 -320998877.17831421 -1613197069.3502998 0 -1613197069.3502998 -3329441879.6987247 0 0 0 0 -3932946.6733967066 -2716822.9840159304 0 -2716822.9840159304 2492168.3884150623 0 0 0 0 312217446.73643494 231802058.58005619 0 231802058.58005619 -1176708695.3979802 0 0 0 0 231174661.90943909 -1231960315.2874408 0 -1231960315.2874408 -3137415068.7852135 0 0 0 0 -7456419.5057277679 -263143.07248450443 0 -263143.07248450443 163572.92005901225 0 0 0 0 902909191.82189941 -33930285.862040043 0 -33930285.862040043 -519360562.52888513 0 0 0 0 -2118029700.230957 364055572.6749773 0 364055572.6749773 -376420569.31429958 0 0 0 0 -1702923608.1209412 -2361331730.8879838 0 -2361331730.8879838 -1911970225.0914817 0 0 0 0 -1218410786.1632538 -1465638327.8766637 0 -1465638327.8766637 -445041522.65121651 0 0 0 0 -15498093.947865635 5412880.2630030159 0 5412880.2630030159 -485851.38102259953 0 0 0 0 265675933.720047 189979665.72336149 0 189979665.72336149 -534274511.16390419 0 0 0 0 -1158200688.6015778 353038764.06359386 0 353038764.06359386 1821790697.2415462 0 0 0 0 -56875028.719366074 231815358.40828907 0 231815358.40828907 -34782739.334028244 0 0 0 0 -206978455.55933762 -615010655.48931849 0 -615010655.48931849 156742363.03140831 0 0 0 0 -499169719.81002808 -821484314.15252209 0 -821484314.15252209 -1220311844.9600334 0 0 0 0 -1835982402.1438141 -29977807.581228256 0 -29977807.581228256 85542584.164452553 0 0 0 0 -751108813.24554443 274525210.83837557 0 274525210.83837557 1630191844.861496 0 0 0 0 -478981194.85598755 736365912.51125479 0 736365912.51125479 -1261049691.0921912 0 0 0 0 689410947.9260788 578946930.26406908 0 578946930.26406908 -1252573363.1077271 0 0 0 0 -4274495180.629425 1157603964.0633497 0 1157603964.0633497 -78467004.357786179 0 0 0 0 -3246918315.9373474 -767641510.98738861 0 -767641510.98738861 296925014.25306892 0 0 0 0 -7835228.0437027365 2221559.4018610585 0 2221559.4018610585 -59320.051440245472 0 0 0 0 -807223372.55522156 1875042934.6703115 0 1875042934.6703115 -743056274.1430397 0 0 0 0 -4163425156.4040222 175689470.58495045 0 175689470.58495045 -514656171.58480453 0 0 0 0 -3314594509.3925018 -677725539.28377962 0 -677725539.28377962 -6342413.5990924835 0 0 0 0 -3361394016.3463135 -234092696.95534611 0 -234092696.95534611 -1696826976.0650833 0 0 0 0 -2770842006.1490479 -975652220.89795446 0 -975652220.89795446 -2089051586.8459692 0 0 0 0 -3798638898.0797424 -1768156834.7292657 0 -1768156834.7292657 -1995744369.233758 0 0 0 0 -2538738249.7881165 -1490240422.2145865 0 -1490240422.2145865 -1017515794.7034862 0 0 0 0 -2665162151.798996 -559857642.46761274 0 -559857642.46761274 -1434240460.4511375 0 0 0 0 -1597668100.5748596 -1861603248.1261349 0 -1861603248.1261349 -110275806.3701067 0 0 0 0 438055585.14926147 -1356292861.3427291 0 -1356292861.3427291 -1591795048.8554268 0 0 0 0 -1472708103.6598415 -1127188068.2207353 0 -1127188068.2207353 -1148837422.6997337 0 0 0 0 -767669739.64276123 -1641105598.2613871 0 -1641105598.2613871 -1679729977.6543045 0 0 0 0 -520865296.15956116 -1426379610.0568659 0 -1426379610.0568659 -2245239310.0342073 0 0 0 0 -1609910088.9648438 -1113100702.2838571 0 -1113100702.2838571 -1874923979.7502213 0 0 0 0 -2349789187.71492 -1497944678.7772808 0 -1497944678.7772808 -1359804657.3954363 0 0 0 0 -2499061397.5755005 -1043720636.1343312 0 -1043720636.1343312 -1487035576.1361899 0 0 0 0 -3790611189.8378363 -1709073379.171279 0 -1709073379.171279 -1254498061.9930706 0 0 0 0 -1431732864.5257149 -1390594941.8944569 0 -1390594941.8944569 -1924200038.8062153 0 0 0 0 -3083093538.6266327 78493328.196600556 0 78493328.196600556 -1045264548.481337 0 0 0 0 -2097254.7578017749 -261557.88263271004 0 -261557.88263271004 -802499.36631563876 0 0 0 0 -5293265455.3680115 -827786804.20432162 0 -827786804.20432162 -350602374.58170843 0 0 0 0 -4188685317.72892 -583655807.25202096 0 -583655807.25202096 -1327805102.5041013 0 0 0 0 -3783113161.2266874 -1454592119.5175755 0 -1454592119.5175755 -1863562634.3189507 0 0 0 0 -4675269242.0351791 -112596600.27933723 0 -112596600.27933723 -334698507.59124792 0 0 0 0 -4067839896.8306274 -330207797.56961405 0 -330207797.56961405 -1224361739.2679439 0 0 0 0 -4306145673.4102325 -1427048553.4047208 0 -1427048553.4047208 -1101973472.7081211 0 0 0 0 -4514303624.7140045 -868401306.90005565 0 -868401306.90005565 -1584561906.9307017 0 0 0 0 -4338174556.5882568 -499552709.66286922 0 -499552709.66286922 -1171564481.7923524 0 0 0 0 -4333548039.012085 -1223385401.9262733 0 -1223385401.9262733 -2594122744.532701 0 0 0 0 -4457313564.6927567 -813591990.31327772 0 -813591990.31327772 -1415748826.2608359 0 0 0 0 -5250965734.0094604 349479517.67261267 0 349479517.67261267 -2665083709.1136456 0 0 0 0 -6128103127.0349121 -806997221.10265064 0 -806997221.10265064 -1641212702.7820013 0 0 0 0 -1688613.7704002671 631278.8433624357 0 631278.8433624357 -4122991.2657191381 0 0 0 0 -3919356318.6772785 2395741146.7576308 0 2395741146.7576308 -2564293719.4060287 0 0 0 0 -4615681097.8679352 -1782326329.1388361 0 -1782326329.1388361 -1372585351.9703825 0 0 0 0 -2492143227.1811295 1053717632.4086537 0 1053717632.4086537 -1769179386.1800365 0 0 0 0 -3850540749.9611969 -1642645455.1108427 0 -1642645455.1108427 1566465172.6638775 0 0 0 0 -2872151719.8339767 -976244584.47425246 0 -976244584.47425246 -220639188.50351283 0 0 0 0 -4638264435.1127014 -1577835608.3386397 0 -1577835608.3386397 -348866470.39377558 0 0 0 0 -4413297340.3440094 -1554757847.6410987 0 -1554757847.6410987 -1147283386.3735909 0 0 0 0 -4647021631.3320045 -2035152630.0783169 0 -2035152630.0783169 -90449106.546161473 0 0 0 0 -4742404680.8929901 -1648276067.1458032 0 -1648276067.1458032 -142899125.67448127 0 0 0 0 -6615060086.4660587 -763778673.37815011 0 -763778673.37815011 213544368.38333318 0 0 0 0 -5641718948.4677048 -1536208224.996758 0 -1536208224.996758 -324845301.4568547 0 0 0 0 -4877098413.338089 -550417734.6193614 0 -550417734.6193614 -779239164.21148229 0 0 0 0 151223860.08349609 -136163401.89848709 0 -136163401.89848709 108547248.04018414 0 0 0 0 -2154066.3025404364 -4895489.0451054275 0 -4895489.0451054275 1509680.6218485194 0 0 0 0 -44466598.905027717 2373307.9098792085 0 2373307.9098792085 7476675.6457016626 0 0 0 0 -305994883.43109131 -23649774.330266953 0 -23649774.330266953 97314042.951920033 0 0 0 0 -1213105.8308105469 -150579430.98958111 0 -150579430.98958111 349414241.57023478 0 0 0 0 164618951.32836914 -322807301.18779945 0 -322807301.18779945 141857944.43820953 0 0 0 0 165300238.32390594 -215610407.0704813 0 -215610407.0704813 -210592156.12526512 0 0 0 0 164448869.09158325 -193517721.15067101 0 -193517721.15067101 -34136335.980762482 0 0 0 0 6767576.2863006592 -76204238.806312084 0 -76204238.806312084 143247199.71145248 0 0 0 0 -18107274.790481776 -15221467.856800869 0 -15221467.856800869 5442766.595576657 0 0 0 0 -13516061.130767822 -49544441.539214134 0 -49544441.539214134 -2271458.9666585922 0 0 0 0 641200.61041259766 -94168586.999544859 0 -94168586.999544859 -455651.27688670158 0 0 0 0 -105898410.84371948 -57663199.417924285 0 -57663199.417924285 145155265.17961359 0 0 0 0 16559605.670288086 -77694190.20850563 0 -77694190.20850563 -71334278.330505371 0 0 0 0 -20700634.542541504 -32970852.282235622 0 -32970852.282235622 -62950834.490131855 0 0 0 0 -54540370.725158691 -36004799.582044125 0 -36004799.582044125 -21864521.460324764 0 0 0 0 -2700763.0970458984 -66157167.866082668 0 -66157167.866082668 -25589500.85244751 0 0 0 0 -651260.884765625 -66595646.920356274 0 -66595646.920356274 -36092296.581672192 0 0 0 0 -294724785.88265991 -36547209.948265433 0 -36547209.948265433 179121738.81704283 0 0 0 0 -146649370.77679443 -161748274.0686872 0 -161748274.0686872 -93375038.429844499 0 0 0 0 -97500805.911499023 63881814.508868694 0 63881814.508868694 -206341397.88312626 0 0 0 0 -402142621.64001465 134878009.52202272 0 134878009.52202272 87217548.414258003 0 0 0 0 -257801407.04748535 -15778551.674198389 0 -15778551.674198389 241252341.39354229 0 0 0 0 -341202590.38256836 21759484.137912273 0 21759484.137912273 241879371.23290968 0 0 0 0 33521305.150268555 -124338099.45140767 0 -124338099.45140767 67957892.816493034 0 0 0 0 56513189.127319336 -13158117.932797194 0 -13158117.932797194 -14331859.501976967 0 0 0 0 -45807256.098510742 -47962596.838319778 0 -47962596.838319778 -5066298.9354205132 0 0 0 0 -43274548.315307617 -35411817.912527561 0 -35411817.912527561 -23185240.357212305 0 0 0 0 -238297936.18841553 21779259.215100288 0 21779259.215100288 116362438.92120647 0 0 0 0 -288689662.16934204 -69462217.847823143 0 -69462217.847823143 393870412.1544137 0 0 0 0 -133513786.68011475 -86316693.769021958 0 -86316693.769021958 196932473.01458263 0 0 0 0 -128729861.36914062 -124755980.60719171 0 -124755980.60719171 182577371.55425835 0 0 0 0 94805547.828063965 -312128110.15730238 0 -312128110.15730238 335591799.68661022 0 0 0 0 -374670213.43887329 -52334385.093845844 0 -52334385.093845844 669500370.24369621 0 0 0 0 -345366904.81259537 82963697.780697167 0 82963697.780697167 321811014.792665 0 0 0 0 -181822969.9276123 -310131456.2525233 0 -310131456.2525233 1006197400.9168549 0 0 0 0 -355143783.35800171 23775829.368941069 0 23775829.368941069 273072872.91200829 0 0 0 0 -349102192.49917603 63721942.786610126 0 63721942.786610126 289428547.88750696 0 0 0 0 -368984769.31771851 113657995.77151918 0 113657995.77151918 222707679.10022211 0 0 0 0 -209485513.78887939 313325959.32011271 0 313325959.32011271 -425912319.13168848 0 0 0 0 -205995409.61923218 224946682.90692449 0 224946682.90692449 -16876409.82971859 0 0 0 0 -386204158.10004425 381758623.20968485 0 381758623.20968485 122214805.67552376 0 0 0 0 -213084247.60522461 -22741874.655790746 0 -22741874.655790746 -429344407.79382896 0 0 0 0 1226880.3484077454 -910272629.04632723 0 -910272629.04632723 -180717956.71334743 0 0 0 0 96368784.675872803 699618748.69927192 0 699618748.69927192 501069881.25648069 0 0 0 0 -6799364.0628245324 -909850.51161921769 0 -909850.51161921769 2571848.22727209 0 0 0 0 390198224.45907593 -440707020.69928968 0 -440707020.69928968 425126642.6362052 0 0 0 0 377984430.53665161 276990811.61426318 0 276990811.61426318 225996804.70086932 0 0 0 0 -555091319.68512344 -591575027.95453799 0 -591575027.95453799 -437067691.51222801 0 0 0 0 -449216614.13031006 137005421.22077203 0 137005421.22077203 1038199152.0367203 0 0 0 0 -727238112.28787231 -298558954.45170379 0 -298558954.45170379 -646114946.77010965 0 0 0 0 -1264927584.0090218 -1258912384.9798532 0 -1258912384.9798532 -408025976.51857901 0 0 0 0 -555339299.64575195 -965510257.71078968 0 -965510257.71078968 -1603345912.4853024 0 0 0 0 -641679779.65593338 -1442439815.1013579 0 -1442439815.1013579 -757217070.07044792 0 0 0 0 -3842248.5218600035 -3207782.8289735653 0 -3207782.8289735653 3216483.9184708581 0 0 0 0 -204331938.24676514 -1389141867.5630474 0 -1389141867.5630474 -1850581726.8753848 0 0 0 0 -793368871.36734009 -583625258.8224194 0 -583625258.8224194 69871811.462405205 0 0 0 0 -168564143.86943054 -81095714.34823513 0 -81095714.34823513 77665429.881790161 0 0 0 0 -854636787.47215271 -970045966.08372808 0 -970045966.08372808 -648112564.15347457 0 0 0 0 -364030473.13369751 -734056085.3070159 0 -734056085.3070159 -1215530262.6312585 0 0 0 0 -512372199.39016724 -878298431.36907387 0 -878298431.36907387 -755696172.23726702 0 0 0 0 -226178227.26052856 -446498812.85655546 0 -446498812.85655546 -617079660.98661518 0 0 0 0 -478067353.989151 -768478742.32962084 0 -768478742.32962084 -774946403.64199686 0 0 0 0 -505744913.47177124 -854772710.9480896 0 -854772710.9480896 -754702413.07063484 0 0 0 0 -454902084.858078 -778872674.10494852 0 -778872674.10494852 -934857610.56616402 0 0 0 0 -561313944.8989563 -1084615239.3753209 0 -1084615239.3753209 -1151094761.4178317 0 0 0 0 -483006664.95089722 -844352601.82728004 0 -844352601.82728004 -1252445741.0727711 0 0 0 0 -6878231.1144891977 -5247708.5586725399 0 -5247708.5586725399 5042783.5319055449 0 0 0 0 -694044974.94189453 -1133518537.2509818 0 -1133518537.2509818 -1144192293.1891208 0 0 0 0 -571519275.61630249 -1024413074.9840589 0 -1024413074.9840589 -1275624941.0642083 0 0 0 0 -722191508.74403 -557919257.71830189 0 -557919257.71830189 -1393301926.807965 0 0 0 0 -694459222.94522095 -816097528.13205671 0 -816097528.13205671 -1106689908.7668734 0 0 0 0 -22858620.072842836 890588.94821880478 0 890588.94821880478 1311921.7982251898 0 0 0 0 225395869.90444946 617313077.14420509 0 617313077.14420509 195384808.16574383 0 0 0 0 -36002412.573563188 2394103.6464663241 0 2394103.6464663241 3481246.2869489817 0 0 0 0 -565256846.86813354 -50593245.830649853 0 -50593245.830649853 174622985.87715816 0 0 0 0 46273079.563140869 -879172153.11195469 0 -879172153.11195469 -1269645610.9905014 0 0 0 0 554596481.80699158 830886784.34695482 0 830886784.34695482 -473512630.29897499 0 0 0 0 -1496748666.3591156 40018551.455327511 0 40018551.455327511 1303569506.5996487 0 0 0 0 249292610.67076874 -355718110.96288347 0 -355718110.96288347 -732114004.88656998 0 0 0 0 -73798845.091003418 464223438.15828609 0 464223438.15828609 -671645021.06681728 0 0 0 0 -1125680556.6296463 207612893.67668688 0 207612893.67668688 105306581.11779213 0 0 0 0 -808607745.26478577 -624365949.54285097 0 -624365949.54285097 -113364617.30598831 0 0 0 0 -4105990.7706092149 1944554.5198404137 0 1944554.5198404137 -630098.58304462302 0 0 0 0 -471137687.53744507 -301648610.3490448 0 -301648610.3490448 90140104.688694 0 0 0 0 -42715909.961288452 -57533749.457630157 0 -57533749.457630157 168736532.58886623 0 0 0 0 -602270310.01622009 -14069477.094296455 0 -14069477.094296455 535545445.82952499 0 0 0 0 48178836.849899292 1209327746.8541398 0 1209327746.8541398 726546699.13119984 0 0 0 0 -8566367.3824157715 -32931207.126945496 0 -32931207.126945496 14789546.89066124 0 0 0 0 383010764.23155212 326225112.54900479 0 326225112.54900479 -14212750.042631865 0 0 0 0 485341313.21603394 238722135.13579226 0 238722135.13579226 -708044321.80448592 0 0 0 0 -152746296.48365784 -215197824.99595928 0 -215197824.99595928 32254628.775186539 0 0 0 0 -254037238.38356018 -319071370.58849812 0 -319071370.58849812 32175748.528431892 0 0 0 0 -310509023.79692078 -119429047.75814152 0 -119429047.75814152 875322228.83270741 0 0 0 0 -11945721.433446884 4947587.9285627417 0 4947587.9285627417 -891165.45079598669 0 0 0 0 -265213955.56951904 -300599396.41239166 0 -300599396.41239166 117163325.47214127 0 0 0 0 -273215448.64825821 -269788294.98780799 0 -269788294.98780799 10198772.794513702 0 0 0 0 -91900148.308418274 -333154208.56496954 0 -333154208.56496954 -365149794.65421295 0 0 0 0 -15971393.637670115 5050515.0019049058 0 5050515.0019049058 -1306564.566384804 0 0 0 0 -160505196.82261658 -224216358.41108894 0 -224216358.41108894 -394085795.89684391 0 0 0 0 -134745578.25471497 -425142056.39361763 0 -425142056.39361763 -100526661.36054039 0 0 0 0 -1166505.2906252146 -1204089.9285603007 0 -1204089.9285603007 282736.37498009019 0 0 0 0 -2522320.0929412842 62759.587024688721 0 62759.587024688721 -81248685.705835342 0 0 0 0 -136816968.36405945 -220406720.81628704 0 -220406720.81628704 -51941424.534531593 0 0 0 0 -239428313.30413246 47304036.97800374 0 47304036.97800374 61015146.817653656 0 0 0 0 -156867130.32066345 101102413.84522057 0 101102413.84522057 158395178.34689856 0 0 0 0 -26123049.717909575 6803856.860920609 0 6803856.860920609 -690268.36372348107 0 0 0 0 -24192618.759613037 15099652.654586792 0 15099652.654586792 21563987.930309296 0 0 0 0 -89516990.092956543 14276059.941650391 0 14276059.941650391 172408601.89343262 0 0 0 0 -35529003.617571875 7823624.9804350017 0 7823624.9804350017 678865.53448850755 0 0 0 0 -30483784.034240723 -4515273.3764944077 0 -4515273.3764944077 54821512.024021149 0 0 0 0 -27818621.078468323 3215099.3220596313 0 3215099.3220596313 10934030.109851837 0 0 0 0 -27509327.434944153 3827831.6721305847 0 3827831.6721305847 3368421.5153083801 0 0 0 0 -11765937.980407715 -277395.26873016357 0 -277395.26873016357 -3586372.2908325195 0 0 0 0 -24686229.247871399 -592779.56221675873 0 -592779.56221675873 2632009.947303772 0 0 0 0 -26694782.752929688 -3318801.2326812744 0 -3318801.2326812744 1519620.1441192627 0 0 0 0 2888048.0969276428 21346272.801129341 0 21346272.801129341 -14952375.756086349 0 0 0 0 -11594286.305633545 -9563661.6842784882 0 -9563661.6842784882 -32962419.801503181 0 0 0 0 -2942848.8047524393 -3885605.7026959695 0 -3885605.7026959695 603332.71009180928 0 0 0 0 -89223010.839557648 459026629.02654451 0 459026629.02654451 344135169.7625351 0 0 0 0 157374430.11147308 110980183.2431612 0 110980183.2431612 102794816.6941185 0 0 0 0 -22225184.532577515 -9106265.9758653641 0 -9106265.9758653641 -10463986.746888161 0 0 0 0 -7032131.5707470328 -10675343.587334054 0 -10675343.587334054 3123315.2904605502 0 0 0 0 -28931879.364105225 -7973398.6770477295 0 -7973398.6770477295 425800.03472900391 0 0 0 0 147491107.90478516 -2454454.1110668182 0 -2454454.1110668182 -55713586.443670273 0 0 0 0 226701148.37310791 -41572307.724193573 0 -41572307.724193573 -109382277.84680557 0 0 0 0 226598414.52639771 -68956112.416630507 0 -68956112.416630507 -303304001.54907608 0 0 0 0 211577340.44642639 98305721.252493858 0 98305721.252493858 -146282643.65011787 0 0 0 0 188145613.13514709 71112141.44559288 0 71112141.44559288 -99029831.845806122 0 0 0 0 -130362970.52435303 14882728.526192188 0 14882728.526192188 194548484.1217187 0 0 0 0 -36506398.93272613 484066.07896586508 0 484066.07896586508 7841307.0342872776 0 0 0 0 -115440177.44702148 22208991.995694816 0 22208991.995694816 -3672053.0544595122 0 0 0 0 -8977738.1781501286 1570173.3738936707 0 1570173.3738936707 -18998.242582915351 0 0 0 0 29064840.993865967 -126162269.63564748 0 -126162269.63564748 109379524.45530516 0 0 0 0 -20864445.29197121 -15256797.850661792 0 -15256797.850661792 5481232.3085253015 0 0 0 0 -114551338.80267334 8719808.8660605252 0 8719808.8660605252 70671459.517658308 0 0 0 0 -38496862.851011246 4440142.5585034192 0 4440142.5585034192 1357704.8355806768 0 0 0 0 -42718524.749058515 10409250.280405808 0 10409250.280405808 8558801.9731622525 0 0 0 0 -29961343.847671509 -5755964.3258142471 0 -5755964.3258142471 3802772.3623161316 0 0 0 0 -69517498.448822021 -8118579.2328681946 0 -8118579.2328681946 5890967.9949302673 0 0 0 0 -30588954.057769775 197667.37919521332 0 197667.37919521332 1670511.5142459869 0 0 0 0 -4711542.5401543435 47309.335496984422 0 47309.335496984422 151024.13388394192 0 0 0 0 -1807706.4646072686 -42919.658463750035 0 -42919.658463750035 1375179.7164216405 0 0 0 0 -31089085.977665611 -3060905.8159179315 0 -3060905.8159179315 8566249.6956030019 0 0 0 0 -20866669.005126953 -4850331.3669033051 0 -4850331.3669033051 9244511.8917984962 0 0 0 0 201525578.14768982 65917098.386782944 0 65917098.386782944 -30512916.60195303 0 0 0 0 -58779221.939621083 9827890.6389653906 0 9827890.6389653906 6545260.5568118338 0 0 0 0 29009935.176177979 -56331446.623324752 0 -56331446.623324752 -10992736.359728009 0 0 0 0 -57370239.926391602 4889727.9129981995 0 4889727.9129981995 23168624.133556366 0 0 0 0 -15065423.215698242 11332136.79552412 0 11332136.79552412 -3404533.7517318726 0 0 0 0 -45597720.996906787 5877563.3464498874 0 5877563.3464498874 4480207.2852540957 0 0 0 0 -60580129.80645752 5375562.901884079 0 5375562.901884079 -24231406.733154297 0 0 0 0 -29161717.706253052 -2367830.1408815384 0 -2367830.1408815384 10546443.882717133 0 0 0 0 -70178085.370422363 27073146.513492584 0 27073146.513492584 36836277.229877472 0 0 0 0 -52956294.264427185 -23269112.979719162 0 -23269112.979719162 56362151.33264637 0 0 0 0 -28679200.510381423 3703061.3420823403 0 3703061.3420823403 6940705.9215854201 0 0 0 0 -58273064.723621368 -13256128.574087381 0 -13256128.574087381 39881169.901290894 0 0 0 0 12191915.293182373 78762058.443974495 0 78762058.443974495 40060318.215970993 0 0 0 0 -43301927.404190063 -28906829.933917999 0 -28906829.933917999 29843773.329991817 0 0 0 0 -72922854.158973694 -40681103.814278126 0 -40681103.814278126 99411139.379717827 0 0 0 0 -23462217.456825256 -27833495.949924946 0 -27833495.949924946 25605837.244642258 0 0 0 0 -20606172.190429688 -100634614.44526458 0 -100634614.44526458 266251472.56973934 0 0 0 0 9992105.238155365 352923734.52531958 0 352923734.52531958 413765122.94786549 0 0 0 0 -26052103.977046967 215474140.32171118 0 215474140.32171118 -103263078.32704997 0 0 0 0 -91393270.662979126 174408782.02677345 0 174408782.02677345 91762372.10286808 0 0 0 0 -20692969.052757263 177040376.53299677 0 177040376.53299677 -141724702.70613563 0 0 0 0 573851511.17060089 377219338.40158296 0 377219338.40158296 -307145233.72156525 0 0 0 0 -19923725.009498596 96312958.607858181 0 96312958.607858181 -275942387.02865207 0 0 0 0 -303274389.25119781 83049650.736572742 0 83049650.736572742 -100432074.48336601 0 0 0 0 -36554548.10282135 198180517.69220614 0 198180517.69220614 -145187997.66155422 0 0 0 0 -101789318.99080658 102906285.56489432 0 102906285.56489432 -255562849.73567605 0 0 0 0 -165160895.68860626 162849613.42401552 0 162849613.42401552 -87736622.51154232 0 0 0 0 -109926348.71099854 88935852.5633564 0 88935852.5633564 -119707962.2904377 0 0 0 0 -322480356.12452269 287054280.28564513 0 287054280.28564513 -174525445.79529619 0 0 0 0 -157155546.11715698 51942062.960094452 0 51942062.960094452 -14135820.168527603 0 0 0 0 -109796659.68669128 139690914.00185156 0 139690914.00185156 -217108827.97228241 0 0 0 0 -100907631.1364212 33827111.409109116 0 33827111.409109116 -68037156.187624931 0 0 0 0 -117037220.64435577 14013658.515310287 0 14013658.515310287 32883036.883523941 0 0 0 0 -79588132.023284912 -32560575.327281952 0 -32560575.327281952 53734919.570735931 0 0 0 0 -43706161.624394417 -34488465.425661206 0 -34488465.425661206 18587702.417678833 0 0 0 0 -46553435.915622711 12989716.516363144 0 12989716.516363144 -34811622.963245392 0 0 0 0 -57438299.632881165 -51602854.574172974 0 -51602854.574172974 77906942.431739807 0 0 0 0 -9628002.4099025726 78426223.245113134 0 78426223.245113134 -49273630.907356262 0 0 0 0 6656895.4232330322 33792244.273187637 0 33792244.273187637 -166822948.57951832 0 0 0 0 -97884236.166534424 280838028.24577761 0 280838028.24577761 -381605862.88634682 0 0 0 0 -429270049.48751831 386558708.31694126 0 386558708.31694126 -274205796.15099573 0 0 0 0 -169651004.22441101 78311200.138874054 0 78311200.138874054 -41326401.101668358 0 0 0 0 2379991.048210144 296742937.80246639 0 296742937.80246639 -564276613.5429039 0 0 0 0 -166562596.0371933 320359438.1919651 0 320359438.1919651 -337289507.20796037 0 0 0 0 -558449424.1970768 590262636.01940882 0 590262636.01940882 -158522997.08016491 0 0 0 0 -516501486.22503662 654865175.78710938 0 654865175.78710938 -612684474.63393426 0 0 0 0 -216702061.14100647 490177552.25227094 0 490177552.25227094 -669626495.58149433 0 0 0 0 -626064081.13883972 1027424904.7383906 0 1027424904.7383906 -863375054.39865208 0 0 0 0 -245693770.98683167 289322150.93318534 0 289322150.93318534 803287626.78765583 0 0 0 0 -2813489.7229509503 2422561.9238491822 0 2422561.9238491822 3120689.871655961 0 0 0 0 -369377790.95987701 -71914440.462907314 0 -71914440.462907314 959734921.72988653 0 0 0 0 -255526002.70625782 394716983.32897031 0 394716983.32897031 -377378270.24634457 0 0 0 0 -273177846.3214798 228727177.55415344 0 228727177.55415344 -120100333.756603 0 0 0 0 -436440632.43945312 566884832.17733943 0 566884832.17733943 -110987585.86347441 0 0 0 0 -515711102.02990723 371751676.37139511 0 371751676.37139511 95098769.517877579 0 0 0 0 -513165994.29234314 181949414.66100025 0 181949414.66100025 -227183240.4568634 0 0 0 0 -136059969.60954285 504398551.39025593 0 504398551.39025593 -992374294.21098089 0 0 0 0 -1020508030.4180908 -72379728.856664181 0 -72379728.856664181 -230930717.81265402 0 0 0 0 -9450275.230335176 -1023074.776227802 0 -1023074.776227802 1124212.2970749903 0 0 0 0 -1341373597.0832253 -603259190.08759332 0 -603259190.08759332 930866531.0025444 0 0 0 0 -231085338.97681618 622248877.24957657 0 622248877.24957657 -236161701.05090237 0 0 0 0 276437847.42294312 -35871632.430894852 0 -35871632.430894852 -197863338.39647293 0 0 0 0 -462380159.98454285 -704530465.37282395 0 -704530465.37282395 375218687.81665802 0 0 0 0 -11251653.790808685 -387923.51696787355 0 -387923.51696787355 1007445.5227892207 0 0 0 0 -425395305.10560608 155058467.0476172 0 155058467.0476172 1430947513.5371161 0 0 0 0 1020466615.943512 153535877.37031078 0 153535877.37031078 -1205132038.5485919 0 0 0 0 -3721698.4292981774 903335.84749357402 0 903335.84749357402 500964.15186932462 0 0 0 0 -524867018.62297058 757125968.62621558 0 757125968.62621558 264184746.85116196 0 0 0 0 -42546195.791992188 324482536.08358574 0 324482536.08358574 319524270.72052383 0 0 0 0 -8001124.4227721691 -1206201.5718108583 0 -1206201.5718108583 719476.91531502502 0 0 0 0 -119001758.10331726 43823281.400793076 0 43823281.400793076 528765587.70389557 0 0 0 0 34952314.444877625 201465548.08427286 0 201465548.08427286 -119127274.39061356 0 0 0 0 -5680098.3680496216 372361958.16147566 0 372361958.16147566 -78713792.717260361 0 0 0 0 57202748.266029358 10900153.958873749 0 10900153.958873749 -336556503.08584166 0 0 0 0 -773445.14662642777 1111860.0230554119 0 1111860.0230554119 -968723.95260318182 0 0 0 0 -655920877.36077881 -71425926.643533707 0 -71425926.643533707 27653145.111246109 0 0 0 0 -19052604.716784 34179732.12251839 0 34179732.12251839 -9817908.0600471497 0 0 0 0 34559621.175758362 71235874.884307861 0 71235874.884307861 -64392623.679162979 0 0 0 0 4377296.8533477783 46869803.547485828 0 46869803.547485828 -2972923.9049701691 0 0 0 0 239331040.04832077 -585688128.36183393 0 -585688128.36183393 -295692822.49835205 0 0 0 0 -4465113.6764236242 -39162.586452459451 0 -39162.586452459451 729217.9375226628 0 0 0 0 145006882.12979889 11304296.345481873 0 11304296.345481873 -250485788.28414345 0 0 0 0 -604780669.13866425 -495258954.4300251 0 -495258954.4300251 792396636.01560497 0 0 0 0 -282895673.62828445 -272913376.4286418 0 -272913376.4286418 246096181.37134933 0 0 0 0 -615280077.90363312 120915870.50384903 0 120915870.50384903 -115173074.56027317 0 0 0 0 -379727270.45641327 -505227237.63259315 0 -505227237.63259315 -278535117.19712448 0 0 0 0 -731370801.79135895 845033470.33541679 0 845033470.33541679 460861958.49664879 0 0 0 0 -798756600.42118883 -471022254.42166001 0 -471022254.42166001 388195271.58330727 0 0 0 0 293220475.89676666 -429200685.85173988 0 -429200685.85173988 -675020029.7000258 0 0 0 0 457547294.07636261 747110976.18320751 0 747110976.18320751 -759356182.97527504 0 0 0 0 544158233.01921082 379346832.85751534 0 379346832.85751534 80243671.664142668 0 0 0 0 1307638608.0518036 1288783206.6756487 0 1288783206.6756487 137910997.77019519 0 0 0 0 -251694342.58208466 -408639297.72928524 0 -408639297.72928524 -670480481.59303665 0 0 0 0 1161692417.2076797 1604285594.5100498 0 1604285594.5100498 540678739.53909016 0 0 0 0 268580.00209718198 773878.09942419454 0 773878.09942419454 -2005691.8091311846 0 0 0 0 -3674672.350107614 -333346.54365927074 0 -333346.54365927074 2295435.4347999692 0 0 0 0 -29404365.462265015 -765911961.12014389 0 -765911961.12014389 132020455.04176712 0 0 0 0 -1546325882.1504135 -608088816.71177912 0 -608088816.71177912 122120067.66399384 0 0 0 0 -1392960961.98909 -663114682.86373043 0 -663114682.86373043 -129268924.97751141 0 0 0 0 764978.84086280316 353427.59939311817 0 353427.59939311817 -2133453.4594481494 0 0 0 0 1585724478.8290558 607419227.99276686 0 607419227.99276686 -189467286.18811274 0 0 0 0 487395023.82923889 823948068.68667984 0 823948068.68667984 1098273389.3795919 0 0 0 0 615525482.23151398 730505752.0937624 0 730505752.0937624 -114257357.38348675 0 0 0 0 -52007653.432727814 311680196.2697947 0 311680196.2697947 -235887101.06418324 0 0 0 0 -358146198.33894348 93762250.84255147 0 93762250.84255147 -244886924.01286364 0 0 0 0 89933553.071159363 156544521.42266893 0 156544521.42266893 -263763051.17585135 0 0 0 0 25195337.466245651 308203168.56759644 0 308203168.56759644 -257538051.08912492 0 0 0 0 127125992.54120636 291297655.58376026 0 291297655.58376026 -295551097.1490922 0 0 0 0 80066163.637687683 -12545104.168787003 0 -12545104.168787003 -236698116.09859276 0 0 0 0 -437205050.25440216 399755193.70458317 0 399755193.70458317 -441155595.62082005 0 0 0 0 -457813905.52281189 167167258.88935852 0 167167258.88935852 -205209673.40545416 0 0 0 0 -1030598552.9740263 -158749853.77788395 0 -158749853.77788395 -232719579.57434845 0 0 0 0 -1011039725.6804428 739677308.57568741 0 739677308.57568741 -90693797.889744282 0 0 0 0 -6606132238.1398792 -3843312300.2562246 0 -3843312300.2562246 280096092.29398382 0 0 0 0 -8561191.4634592831 -4371352.203154075 0 -4371352.203154075 -1894484.5489654946 0 0 0 0 -2593406910.2466125 2449909180.3999281 0 2449909180.3999281 -2050708778.5431092 0 0 0 0 -1489036117.9828019 -2025062321.2633483 0 -2025062321.2633483 -476359168.77181911 0 0 0 0 -1442548236.5012131 -4579312425.4400349 0 -4579312425.4400349 -5938930082.6835756 0 0 0 0 -4635075329.3328018 -1906251217.2290494 0 -1906251217.2290494 77389848.35798341 0 0 0 0 -4504186997.0523624 -2484019443.1511383 0 -2484019443.1511383 16501786.252524763 0 0 0 0 644646429.69011688 -1121399103.8054502 0 -1121399103.8054502 -1313607951.2288589 0 0 0 0 -1146215.7921072226 -102064.94619684666 0 -102064.94619684666 -2706810.6750546806 0 0 0 0 -3561266668.0312653 -2132439657.0031381 0 -2132439657.0031381 -181318567.33823222 0 0 0 0 -1212971478.233223 -1278811496.3213601 0 -1278811496.3213601 -229809176.20237684 0 0 0 0 -2059986.2771964427 -320117.84746351838 0 -320117.84746351838 -7243179.623576371 0 0 0 0 -2094305503.3745422 -622820550.74575806 0 -622820550.74575806 -560747222.49276733 0 0 0 0 -1889031811.0576782 -519866214.26906943 0 -519866214.26906943 -591115922.12355614 0 0 0 0 -983604938.51972961 -584926398.00969791 0 -584926398.00969791 -728778795.50523567 0 0 0 0 -201425907.84143066 -425097896.879529 0 -425097896.879529 -587493396.90677261 0 0 0 0 -537304446.7538147 -952526469.03945923 0 -952526469.03945923 575916471.06611443 0 0 0 0 -1071706048.7108154 -463235106.64866066 0 -463235106.64866066 137268142.73535538 0 0 0 0 -1089432334.5393324 -1466441823.4513667 0 -1466441823.4513667 262191635.33798599 0 0 0 0 177715142.40759277 -1823514720.6758938 0 -1823514720.6758938 -1922559666.4058666 0 0 0 0 -3679145838.7033997 -2511854904.0867519 0 -2511854904.0867519 -177024312.83482265 0 0 0 0 -726729325.74943542 -1915889306.0002508 0 -1915889306.0002508 -800366609.5292263 0 0 0 0 -24531440.81684877 -5624596.0509995604 0 -5624596.0509995604 251432.39850679468 0 0 0 0 -829659749.230896 387020566.48712015 0 387020566.48712015 318102778.23789859 0 0 0 0 496886150.68966675 122261138.23131895 0 122261138.23131895 -602579567.77248383 0 0 0 0 747512329.43191528 1058804333.3967832 0 1058804333.3967832 -827660216.24233556 0 0 0 0 789227163.0409956 -551554006.18619466 0 -551554006.18619466 -246223113.93815374 0 0 0 0 -702913097.41375732 -468756910.61999989 0 -468756910.61999989 2684186054.8535995 0 0 0 0 -33031506.562010363 -4602895.2029212993 0 -4602895.2029212993 3709495.932582228 0 0 0 0 -83227906.012084961 -392181558.72776687 0 -392181558.72776687 439438024.22736859 0 0 0 0 518642987.01477051 -830986245.0413475 0 -830986245.0413475 2075387519.3711896 0 0 0 0 544660568.31542969 125405981.36319733 0 125405981.36319733 2952049713.463356 0 0 0 0 -232065524.99703979 -845593970.52926636 0 -845593970.52926636 2080980718.2823601 0 0 0 0 -543845354.12139893 -363483056.60017967 0 -363483056.60017967 1671996735.5717926 0 0 0 0 267929269.04379272 -324291883.47107601 0 -324291883.47107601 771296868.53742027 0 0 0 0 786496274.28900146 -416696242.79659081 0 -416696242.79659081 1510907064.1283646 0 0 0 0 -537914005.06021118 -818677136.74800873 0 -818677136.74800873 46485114.453063488 0 0 0 0 -473452354.62843323 378307294.56095266 0 378307294.56095266 2184146775.9491653 0 0 0 0 -350327752.25445557 -348481594.6905098 0 -348481594.6905098 2496927853.1506987 0 0 0 0 -19057963.156850278 -10831192.391022511 0 -10831192.391022511 -445193.62463465123 0 0 0 0 -240196360.25335693 -192852024.88520622 0 -192852024.88520622 1573863965.6179714 0 0 0 0 -186814119.3482666 207820451.34617615 0 207820451.34617615 1439113518.6240892 0 0 0 0 -242396830.19421387 -88862190.281841278 0 -88862190.281841278 1563493021.1920071 0 0 0 0 367150567.09692383 -135761491.87909222 0 -135761491.87909222 750741435.69094467 0 0 0 0 190504384.16998291 -755380005.28476143 0 -755380005.28476143 1350365916.6692886 0 0 0 0 414183228.94538116 296749197.03822803 0 296749197.03822803 1355650804.0871849 0 0 0 0 355171075.22259521 -145879861.53137779 0 -145879861.53137779 1823668057.1933422 0 0 0 0 276815665.59698486 255080043.25138283 0 255080043.25138283 1676091447.2152824 0 0 0 0 166878631.68286133 -206138740.43676662 0 -206138740.43676662 2371599016.7005234 0 0 0 0 764313495.61743164 -760653072.11971664 0 -760653072.11971664 1749147672.4789314 0 0 0 0 1630521449.4108887 42081503.724292755 0 42081503.724292755 2280740065.6877899 0 0 0 0 850121812.49951172 475358525.36994171 0 475358525.36994171 2581575115.2798157 0 0 0 0 716681108.37805176 -989082133.5717659 0 -989082133.5717659 3399298722.0724869 0 0 0 0 900341786.27026367 476011597.93426895 0 476011597.93426895 4264881434.8074799 0 0 0 0 1059354763.2185059 339779675.98069763 0 339779675.98069763 2493660490.801712 0 0 0 0 -1520581.7691112608 -235057.76574604586 0 -235057.76574604586 1226945.3201553291 0 0 0 0 816565278.79992676 -1428913790.4863129 0 -1428913790.4863129 5298442098.05797 0 0 0 0 -270920717.16833496 105356449.38549805 0 105356449.38549805 2351493383.4698029 0 0 0 0 -72213146.106262207 -644666644.45883703 0 -644666644.45883703 2132165118.0931306 0 0 0 0 -395906742.21954346 -197186331.09029007 0 -197186331.09029007 2048142017.0822453 0 0 0 0 454617273.91931152 117267086.38314605 0 117267086.38314605 1345591835.8811638 0 0 0 0 300306761.59436035 -582072344.3170476 0 -582072344.3170476 1713665941.0546207 0 0 0 0 105916983.23357391 117709194.21756268 0 117709194.21756268 488664763.73061275 0 0 0 0 66765847.591949463 -213963201.1135788 0 -213963201.1135788 741106072.62852287 0 0 0 0 110863988.28372192 -239956206.56120491 0 -239956206.56120491 1364580774.4138861 0 0 0 0 -402043328.27572632 -210021739.52880859 0 -210021739.52880859 1392396315.3070369 0 0 0 0 -605708010.4161396 -269614384.81714439 0 -269614384.81714439 763327392.22492886 0 0 0 0 -476490562.02042198 501169379.51733673 0 501169379.51733673 479865658.73678207 0 0 0 0 100023016.52996826 -207495459.3747654 0 -207495459.3747654 -312989085.16485023 0 0 0 0 -694903669.92330933 -136945095.37560463 0 -136945095.37560463 -301120266.99408674 0 0 0 0 135522426.58325195 -737163167.87013531 0 -737163167.87013531 -317586037.28221703 0 0 0 0 -273399257.11148071 -214556927.43446255 0 -214556927.43446255 816787205.94086075 0 0 0 0 -598160772.43664551 -1133803420.1983786 0 -1133803420.1983786 -634443265.1788516 0 0 0 0 -1067796980.1163216 -117722284.2026298 0 -117722284.2026298 -1113767107.4809399 0 0 0 0 -1258081258.6854553 221180684.99458599 0 221180684.99458599 201480118.15255594 0 0 0 0 -910183887.23377991 268338493.50174332 0 268338493.50174332 -794060575.21558094 0 0 0 0 -379599926.91015625 -528460702.49079132 0 -528460702.49079132 -901385668.1130352 0 0 0 0 -1212232516.3052979 -907727263.36335182 0 -907727263.36335182 -370875613.17476797 0 0 0 0 -957049151.78814888 778306387.28941226 0 778306387.28941226 -777637919.87259769 0 0 0 0 -2477078.8495099545 1611127.9518343657 0 1611127.9518343657 2119180.6284021568 0 0 0 0 -282633171.02908325 823623285.4440155 0 823623285.4440155 -2587051257.7836514 0 0 0 0 -5226204.3526145294 2254407.5648454684 0 2254407.5648454684 -953180.69677903457 0 0 0 0 -95613042.771816254 682463278.65586519 0 682463278.65586519 -2068136698.466444 0 0 0 0 -777336595.76496887 1307993734.7955298 0 1307993734.7955298 -778863981.19603395 0 0 0 0 -234547367.10115051 805830059.62240863 0 805830059.62240863 -417500774.68604636 0 0 0 0 -4648808.1191914231 3628291.3778758794 0 3628291.3778758794 4636338.6193787372 0 0 0 0 131275167.12541199 73840664.449071407 0 73840664.449071407 -591426545.78149128 0 0 0 0 -538207961.3445816 29766815.671900749 0 29766815.671900749 488583332.9635582 0 0 0 0 -26179015.114837646 218947550.32878101 0 218947550.32878101 557376810.12726212 0 0 0 0 -44265658.98626709 -217891762.04507446 0 -217891762.04507446 1152127873.8928003 0 0 0 0 -255252679.23890686 61967264.507288575 0 61967264.507288575 1546890949.6984739 0 0 0 0 54699235.321807861 292913965.52217937 0 292913965.52217937 1664713860.7904875 0 0 0 0 -79129522.063583374 -106208809.91594553 0 -106208809.91594553 275873836.69518375 0 0 0 0 23035509.616363525 351265965.077443 0 351265965.077443 817184802.04803753 0 0 0 0 68441647.193252563 -464495292.69538879 0 -464495292.69538879 1426556528.7592638 0 0 0 0 -2957004.0568934157 -301551.89149078727 0 -301551.89149078727 301107.27723415336 0 0 0 0 435947262.64700317 111352835.8151474 0 111352835.8151474 -65730553.707233429 0 0 0 0 -481348555.5256958 387607455.23617744 0 387607455.23617744 -188658655.08497429 0 0 0 0 -391280644.7653656 -172164502.67849755 0 -172164502.67849755 2075207087.8478456 0 0 0 0 -17740752.706699565 -3788287.4914511913 0 -3788287.4914511913 921673.48078250198 0 0 0 0 -1839541040.3830566 -311868569.33172989 0 -311868569.33172989 -43475440.762253046 0 0 0 0 -1218274249.9485474 29873379.818303108 0 29873379.818303108 198126547.71634102 0 0 0 0 -598621405.30484009 -1305645269.0272675 0 -1305645269.0272675 -399230035.5871315 0 0 0 0 -273734473.95692444 -86010565.667579651 0 -86010565.667579651 170418442.30997634 0 0 0 0 -125312367.996521 -18828919.376280785 0 -18828919.376280785 107717705.75234985 0 0 0 0 -415572827.4356842 127026593.06929159 0 127026593.06929159 151812110.45404625 0 0 0 0 -82237848.745788574 198740080.52865601 0 198740080.52865601 -110687753.56251621 0 0 0 0 10425538.14201355 28711132.602796555 0 28711132.602796555 133902642.99590302 0 0 0 0 -16024793.440128326 229814587.50670719 0 229814587.50670719 115146422.94421387 0 0 0 0 -116146209.96795654 134044454.54296875 0 134044454.54296875 40775026.990390778 0 0 0 0 -30723121.627426147 71385969.258163452 0 71385969.258163452 47226908.455858231 0 0 0 0 -125079519.849823 114463872.23485756 0 114463872.23485756 150850626.59268868 0 0 0 0 -71510535.027420044 35932514.07512188 0 35932514.07512188 26129583.113325119 0 0 0 0 -19045154.599441528 34567894.849082947 0 34567894.849082947 9468708.9608097076 0 0 0 0 -50966306.841682434 -18006965.128317833 0 -18006965.128317833 100935646.90639848 0 0 0 0 -23243151.851099968 -3975678.5057560895 0 -3975678.5057560895 15096530.216660261 0 0 0 0 -9221317.4313110784 -1828091.4210321866 0 -1828091.4210321866 11225082.0795027 0 0 0 0 -193081999.78515625 18884099.463558674 0 18884099.463558674 103140640.51845932 0 0 0 0 -22848336.581451416 -7347050.3426067531 0 -7347050.3426067531 40206742.307835221 0 0 0 0 -14483571.091346741 4800232.3279423267 0 4800232.3279423267 33472752.274699569 0 0 0 0 -10169704.079097748 3592918.3837002814 0 3592918.3837002814 5228472.9631562233 0 0 0 0 -22435452.802833557 6814988.5951116979 0 6814988.5951116979 7197743.4231103063 0 0 0 0 -8966469.1144858226 117792.40794310719 0 117792.40794310719 4744455.9043814931 0 0 0 0 136959766.10316467 77556485.271895438 0 77556485.271895438 -27221527.769807398 0 0 0 0 80985496.625350952 -64066090.928174645 0 -64066090.928174645 22748225.769731164 0 0 0 0 6822410.2010955811 -415478874.79895043 0 -415478874.79895043 -31042600.105480194 0 0 0 0 -9993759.2702779323 -3431057.4767715633 0 -3431057.4767715633 9013003.5843512155 0 0 0 0 126874596.41687012 -103035569.83266258 0 -103035569.83266258 39000888.313106537 0 0 0 0 -2742180.910709925 45260.161199722439 0 45260.161199722439 2505923.2706671692 0 0 0 0 687619485.89260864 270210875.28609848 0 270210875.28609848 128581569.36402512 0 0 0 0 741605873.6867981 132982078.93037891 0 132982078.93037891 -19792481.294549942 0 0 0 0 726019126.70529175 -199609157.26677895 0 -199609157.26677895 -121888724.25531387 0 0 0 0 -246767036.73519897 -671338946.73665619 0 -671338946.73665619 -112401704.50900269 0 0 0 0 545355880.57070923 -733066163.54258156 0 -733066163.54258156 -822384463.11087036 0 0 0 0 1130395894.0336304 -123702135.79532623 0 -123702135.79532623 -579605565.24139404 0 0 0 0 -19700944.118651643 -2246661.4312766865 0 -2246661.4312766865 7659347.9863238484 0 0 0 0 -14877466.004196167 -1667984.7521018982 0 -1667984.7521018982 28389113.228979111 0 0 0 0 143998646.92023468 -74636688.648015827 0 -74636688.648015827 -10192373.904019013 0 0 0 0 132946339.34234619 -10674489.751642298 0 -10674489.751642298 76925732.371011734 0 0 0 0 20779639.863311768 -73457922.472114742 0 -73457922.472114742 -129571250.15850109 0 0 0 0 -232918179.84902954 43223457.833382607 0 43223457.833382607 -152076437.50562924 0 0 0 0 -229827682.37771606 12797541.475961089 0 12797541.475961089 -45405249.000647217 0 0 0 0 46602844.08265686 10611114.103223711 0 10611114.103223711 -68030475.193710238 0 0 0 0 94688008.772979736 -86053790.868482575 0 -86053790.868482575 -55133552.130899638 0 0 0 0 58408066.326843262 14571659.384504437 0 14571659.384504437 170793491.6379289 0 0 0 0 -115815656.17642212 -111917181.34864777 0 -111917181.34864777 359957606.77071595 0 0 0 0 6808690.1311340332 -66766993.196115196 0 -66766993.196115196 121091231.82975471 0 0 0 0 111507571.40046692 -226637742.78845358 0 -226637742.78845358 -56958994.262726426 0 0 0 0 -234079931.15139771 37579641.262262523 0 37579641.262262523 -66391190.010740817 0 0 0 0 -1995357954.5305939 819105009.1550684 0 819105009.1550684 80863726.840201706 0 0 0 0 -401462440.33554077 114813103.47831845 0 114813103.47831845 -268303106.55361617 0 0 0 0 -1577410556.1372128 -714470403.5804894 0 -714470403.5804894 -556963.57170522213 0 0 0 0 -622640862.47795868 -32972.585071604699 0 -32972.585071604699 -31579627.080759112 0 0 0 0 -525368528.74667358 27037433.907436967 0 27037433.907436967 -69560372.395444602 0 0 0 0 -425308864.77770996 -114952899.26676023 0 -114952899.26676023 -103045054.72965777 0 0 0 0 -1193075930.7817078 -29489191.360034227 0 -29489191.360034227 53857773.854178309 0 0 0 0 -622517144.46600342 -166862948.93248057 0 -166862948.93248057 -83936011.021694183 0 0 0 0 -474789130.74777222 -130230138.55596191 0 -130230138.55596191 26354952.002667725 0 0 0 0 -243098137.91743469 -60637820.038075954 0 -60637820.038075954 -79816299.389947534 0 0 0 0 64687825.081283569 -55667609.943779618 0 -55667609.943779618 -88058372.277198523 0 0 0 0 -242175075.77469683 2909626.7106991545 0 2909626.7106991545 -26536301.136042476 0 0 0 0 22081777.839889526 -25475213.397351831 0 -25475213.397351831 -105935191.27235824 0 0 0 0 10756452.438209534 148210720.49501574 0 148210720.49501574 56960623.970771335 0 0 0 0 -3127444.505591061 -79517.314494108781 0 -79517.314494108781 861223.63075818506 0 0 0 0 473225.24655914307 82977080.840636343 0 82977080.840636343 293579098.7812317 0 0 0 0 6569487.7062835693 6254969.9276946485 0 6254969.9276946485 32721894.825568557 0 0 0 0 -862971.42526271194 -5155.2184600625187 0 -5155.2184600625187 149882.30131003674 0 0 0 0 -77069259.940612793 30630429.636928201 0 30630429.636928201 113705594.82040966 0 0 0 0 -202686777.80859375 63060279.461051643 0 63060279.461051643 110507192.78881586 0 0 0 0 -42309049.468198776 -73532136.522009268 0 -73532136.522009268 -209059324.69543725 0 0 0 0 -1067610942.5033646 -66238311.601157382 0 -66238311.601157382 -77359170.653366342 0 0 0 0 -255511059.27190685 -355663792.32594866 0 -355663792.32594866 -76658211.15685764 0 0 0 0 190712308.42539978 84166716.54987812 0 84166716.54987812 119346127.72099656 0 0 0 0 372786959.7050705 -1550078810.8162103 0 -1550078810.8162103 -148868049.78405762 0 0 0 0 -6326262.9199391939 -1274556.3422424812 0 -1274556.3422424812 358113.080497185 0 0 0 0 -1715668930.5862064 -1788111477.9011357 0 -1788111477.9011357 -39398827.425503619 0 0 0 0 -6566556631.646553 657120535.95031011 0 657120535.95031011 757524225.03318119 0 0 0 0 -586245112.41918945 398305461.75904733 0 398305461.75904733 764561605.47025836 0 0 0 0 -6603864477.2725525 -627373593.68941522 0 -627373593.68941522 1512723594.1984684 0 0 0 0 -3759015.5464055575 678661.94986195676 0 678661.94986195676 361154.59233024908 0 0 0 0 -344064320.15402985 -493441656.00946784 0 -493441656.00946784 -178883444.71498388 0 0 0 0 -464587774.62034535 -331026013.5778234 0 -331026013.5778234 -369356783.11471975 0 0 0 0 -1860687.709014304 1132248.3639993668 0 1132248.3639993668 -971680.26991701266 0 0 0 0 -896023116.89782143 -624813252.20356035 0 -624813252.20356035 -198789445.63022423 0 0 0 0 418636775.66014099 1298828487.0527475 0 1298828487.0527475 744786490.2001332 0 0 0 0 532180004.49849129 811449568.94244146 0 811449568.94244146 -1633712140.359879 0 0 0 0 -6607563878.2709808 1258509013.9279356 0 1258509013.9279356 734306136.07786882 0 0 0 0 -2894347481.7250977 -639752414.90825117 0 -639752414.90825117 1355006386.3828065 0 0 0 0 1212080316.4828186 -269681636.34724307 0 -269681636.34724307 -460847972.28299749 0 0 0 0 -6411511.5560043454 -849381.56540783914 0 -849381.56540783914 -1109316.0758111419 0 0 0 0 1047245582.5741425 -309573045.17347717 0 -309573045.17347717 712131360.65197372 0 0 0 0 -1279924021.4168167 417419432.83530545 0 417419432.83530545 193495548.46208608 0 0 0 0 -900770370.98590851 468702444.98637986 0 468702444.98637986 199900305.15183529 0 0 0 0 -450856.5990999639 -886025.81547338143 0 -886025.81547338143 -1734956.2882579197 0 0 0 0 -906984129.37200928 470847506.28997028 0 470847506.28997028 200199216.39075482 0 0 0 0 -519304015.95272255 634620213.95349967 0 634620213.95349967 -427512631.41638851 0 0 0 0 -474204257.85562134 -669308161.70603704 0 -669308161.70603704 35156836.103990018 0 0 0 0 -960223.32129231654 -778185.95286129415 0 -778185.95286129415 -1530748.5299152858 0 0 0 0 -6583119519.7769661 -1546119222.583416 0 -1546119222.583416 626928246.78303468 0 0 0 0 -1678448058.1990776 1041579808.444451 0 1041579808.444451 -232278069.56694135 0 0 0 0 -6600195510.8339443 -1103842575.1970999 0 -1103842575.1970999 383246115.8777523 0 0 0 0 -6609962167.8976183 1900693970.7760005 0 1900693970.7760005 -368781705.2670064 0 0 0 0 -1618630253.5380132 -314796581.75868195 0 -314796581.75868195 169029057.5185861 0 0 0 0 -9555071.7690033242 -4145265.5241301712 0 -4145265.5241301712 -728697.34898755094 0 0 0 0 225402517.25789809 -153266892.16396818 0 -153266892.16396818 375597235.3513124 0 0 0 0 213574719.4442215 -743047067.49313772 0 -743047067.49313772 898370459.22870541 0 0 0 0 -140674070.41321564 -91740031.633267581 0 -91740031.633267581 820213276.22501099 0 0 0 0 38675112.859573364 -217558627.02304974 0 -217558627.02304974 371874892.97698331 0 0 0 0 53090467.694786072 -298822643.53931558 0 -298822643.53931558 559231675.27911496 0 0 0 0 -9292612.0409102142 -3908058.6096880175 0 -3908058.6096880175 -28801.831968949875 0 0 0 0 30116541.313194275 150506549.54487056 0 150506549.54487056 -115865627.37230277 0 0 0 0 18770130.364513397 -261414206.09244937 0 -261414206.09244937 44108429.19788754 0 0 0 0 -1041219624.8871117 276616391.70596719 0 276616391.70596719 -13648049.59294343 0 0 0 0 -145222339.36207199 -129197490.37872815 0 -129197490.37872815 -111769859.07958841 0 0 0 0 -1168295912.6336746 -358042876.32845545 0 -358042876.32845545 -113150766.11955881 0 0 0 0 19692543.404029846 45876664.097584486 0 45876664.097584486 -36752751.96840018 0 0 0 0 132558141.19602394 -22732571.974141359 0 -22732571.974141359 -98408628.093996048 0 0 0 0 -26163278.716384888 -93883525.480382323 0 -93883525.480382323 330522019.01398563 0 0 0 0 -8642747.3976430111 -2263552.6874972712 0 -2263552.6874972712 1580508.5870753676 0 0 0 0 16451987.761421204 -140563459.71537524 0 -140563459.71537524 224191409.75789118 0 0 0 0 81271152.563430786 -158541611.24475831 0 -158541611.24475831 343873428.3488369 0 0 0 0 -75666.2509239465 -224710.24391950388 0 -224710.24391950388 824288.39434234635 0 0 0 0 58661632.914160728 -268254263.81249529 0 -268254263.81249529 669024937.47283494 0 0 0 0 12211198.468551636 -91836556.425850928 0 -91836556.425850928 -118161063.89464021 0 0 0 0 -26761549.660667419 -21728509.016961582 0 -21728509.016961582 70185596.587790385 0 0 0 0 -26927842.156904221 -24727572.461023074 0 -24727572.461023074 16280782.375706136 0 0 0 0 -85253.945105232298 -889679.80366580561 0 -889679.80366580561 2591475.4698322597 0 0 0 0 -8387679.9491119385 -22850017.308347292 0 -22850017.308347292 -5415213.2425070032 0 0 0 0 -7619116.642578125 -238001940.22737437 0 -238001940.22737437 470151716.01727188 0 0 0 0 -1136116.7384185791 -7232874.2879076228 0 -7232874.2879076228 15446165.15950945 0 0 0 0 220917596.05799866 -107432724.01744461 0 -107432724.01744461 61682105.148099825 0 0 0 0 -151056.45009617507 -2510411.9240163211 0 -2510411.9240163211 5280881.7541862661 0 0 0 0 1340035.188293457 -7837566.6149778143 0 -7837566.6149778143 15368714.488642573 0 0 0 0 -1546128.3499450684 -8377317.9144555628 0 -8377317.9144555628 15540608.670281708 0 0 0 0 -18767402.341079712 21739017.811439514 0 21739017.811439514 3817172.4913854599 0 0 0 0 -966825.23959732056 -6900610.8684136439 0 -6900610.8684136439 15826550.928962022 0 0 0 0 -9006949.4286822602 537821.65121871233 0 537821.65121871233 12841339.353381466 0 0 0 0 -18738799.637330055 21870440.378418088 0 21870440.378418088 -5996447.7672538757 0 0 0 0 36072605.43346405 -16662477.143510818 0 -16662477.143510818 1637751.7243404388 0 0 0 0 -114861847.38465881 101227077.17108274 0 101227077.17108274 -762583549.19288731 0 0 0 0 -9205534.6520444192 -924974.65376784839 0 -924974.65376784839 12291386.225187749 0 0 0 0 -164059302.10906982 98377536.46444875 0 98377536.46444875 424320266.08463621 0 0 0 0 -2486084.1225846484 587038.05780695565 0 587038.05780695565 3069142.8329895795 0 0 0 0 -80298229.587112427 -234321936.54730487 0 -234321936.54730487 338735519.06540966 0 0 0 0 407325852.22328472 167394581.69122881 0 167394581.69122881 332919838.32194996 0 0 0 0 95891239.482057095 203961448.21897405 0 203961448.21897405 390829044.38472795 0 0 0 0 10711272.685255051 -304053486.09472501 0 -304053486.09472501 871955738.25707531 0 0 0 0 506476363.88522339 -463444706.62118435 0 -463444706.62118435 450985300.02205157 0 0 0 0 76521906.302326679 -388959599.98308372 0 -388959599.98308372 467183174.49140882 0 0 0 0 3722006.7591285706 -253519466.71563864 0 -253519466.71563864 491328134.89012051 0 0 0 0 -61571803.391143799 -102820319.81651115 0 -102820319.81651115 499978453.63334519 0 0 0 0 44184671.93817997 -155682393.48954058 0 -155682393.48954058 464534092.76395512 0 0 0 0 -28890702.482940674 178393846.476717 0 178393846.476717 338359726.82470894 0 0 0 0 -2164899.0548948348 -1052728.5511871129 0 -1052728.5511871129 1223952.2602397539 0 0 0 0 379121811.86837769 -389238754.62308598 0 -389238754.62308598 174323893.16079998 0 0 0 0 -65261301.519271851 32500180.598700047 0 32500180.598700047 708463173.55880773 0 0 0 0 44071822.992431641 167693616.39041805 0 167693616.39041805 -126625386.4907732 0 0 0 0 -10642614.106231689 21242179.059004784 0 21242179.059004784 66292126.235779762 0 0 0 0 -47438972.143234253 85295259.067636967 0 85295259.067636967 161806423.55723238 0 0 0 0 -8335340.5769729614 -48908101.223706484 0 -48908101.223706484 -5393309.3258624077 0 0 0 0 -19000927.208747864 -270298.97086858749 0 -270298.97086858749 11529748.58443737 0 0 0 0 -9087837.9471486472 -2440279.37213156 0 -2440279.37213156 5164743.7031536242 0 0 0 0 -19353558.719234478 -6372875.4810842108 0 -6372875.4810842108 7582518.8166247923 0 0 0 0 -19557132.155517578 4755840.917327404 0 4755840.917327404 4375717.617992878 0 0 0 0 34432494.80893898 -65910081.130922318 0 -65910081.130922318 -184787991.06198978 0 0 0 0 37325196.448799133 -41417843.728656292 0 -41417843.728656292 6527642.3679302335 0 0 0 0 -28537115.846346855 1933412.6213274002 0 1933412.6213274002 20343535.847206116 0 0 0 0 -27482346.483560562 -112932.35002660751 0 -112932.35002660751 20614659.198001862 0 0 0 0 -17572132.762937631 4932578.6406010743 0 4932578.6406010743 8394848.068402322 0 0 0 0 -51859423.87829113 -411800515.59049636 0 -411800515.59049636 226249231.85853222 0 0 0 0 -545380635.16968727 321733653.97554815 0 321733653.97554815 195423107.28676945 0 0 0 0 128455232.8836813 6639379.3549760655 0 6639379.3549760655 -6955652.0951665509 0 0 0 0 -17743316.236463547 -6538938.8950709105 0 -6538938.8950709105 13973250.677593231 0 0 0 0 -14009976.509216309 -2744833.9466297626 0 -2744833.9466297626 4505549.423160553 0 0 0 0 -21116523.162638023 2612713.9384417124 0 2612713.9384417124 7700154.0920089995 0 0 0 0 -131545934.26506233 -90960899.956133246 0 -90960899.956133246 311675696.27962261 0 0 0 0 61579693.505919456 246936387.21400228 0 246936387.21400228 -249199738.74552423 0 0 0 0 -271398000.51326561 469696641.00931066 0 469696641.00931066 -171125495.50891301 0 0 0 0 -19324899.27234723 -8018848.3876717575 0 -8018848.3876717575 -534487.34960476356 0 0 0 0 -222205177.25677872 208881867.03107154 0 208881867.03107154 -109930356.86713237 0 0 0 0 -605084304.87010288 277007746.18148458 0 277007746.18148458 -122050015.43892717 0 0 0 0 -5762642.2984273639 152643.58072637487 0 152643.58072637487 1981926.7281333993 0 0 0 0 -24742281.591716766 -1083456.5520492792 0 -1083456.5520492792 28353009.621382713 0 0 0 0 -20134626.933639526 -9840257.6791768074 0 -9840257.6791768074 35764260.315694332 0 0 0 0 -21242973.9929327 -2492459.1003086343 0 -2492459.1003086343 6814808.2237685621 0 0 0 0 -20717349.874026775 10489.069904923439 0 10489.069904923439 11407730.938454628 0 0 0 0 -28213897.597019196 -9603749.2447075844 0 -9603749.2447075844 20570821.507870674 0 0 0 0 16581229.351394653 63981291.281126857 0 63981291.281126857 60293112.333597183 0 0 0 0 -11808480.05856432 -47922.957889720798 0 -47922.957889720798 6129314.0308302334 0 0 0 0 -26628468.639938354 27892905.216171741 0 27892905.216171741 9780599.9504551888 0 0 0 0 -26888043.396760464 32124558.252502948 0 32124558.252502948 75861019.821576118 0 0 0 0 80144442.380149841 96667309.811936378 0 96667309.811936378 -95805406.123726323 0 0 0 0 155097578.12511826 280771831.96397996 0 280771831.96397996 191528781.95844221 0 0 0 0 677898948.77720261 -309333389.89780045 0 -309333389.89780045 -467792175.8064003 0 0 0 0 -158565324.78083229 45223009.386428587 0 45223009.386428587 -858547995.18221974 0 0 0 0 -16807241.216707837 -6974095.1197834928 0 -6974095.1197834928 -2014511.0498432724 0 0 0 0 -20040245.164794922 -1650050.4612483978 0 -1650050.4612483978 295131889.51533222 0 0 0 0 -100119960.83910561 330007963.73716271 0 330007963.73716271 -411201238.38566005 0 0 0 0 -232807622.42324352 284852040.12390888 0 284852040.12390888 -280748169.86153567 0 0 0 0 -118168070.03534508 453930718.45966965 0 453930718.45966965 -191876874.50639153 0 0 0 0 16618151.488386154 313790410.1388942 0 313790410.1388942 -278486643.04089665 0 0 0 0 -11714169.59491371 -2629466.8290728857 0 -2629466.8290728857 271830.98785041721 0 0 0 0 -258339149.49999905 -5256718.0594925135 0 -5256718.0594925135 899343528.58507013 0 0 0 0 -458619623.5489006 705086239.17227876 0 705086239.17227876 -295591756.04101682 0 0 0 0 -1250705502.5945053 -1821004580.2982492 0 -1821004580.2982492 -125220338.23376137 0 0 0 0 -6616629349.7217999 1839166442.29952 0 1839166442.29952 1011478717.2253095 0 0 0 0 -4879430875.3090401 2701800768.8728619 0 2701800768.8728619 -542825293.6203084 0 0 0 0 -6095541.9897727668 -962737.04153706878 0 -962737.04153706878 154039.63283518952 0 0 0 0 -9037727434.1036415 -55986924.820441753 0 -55986924.820441753 -353419857.93403023 0 0 0 0 -6616116348.4954185 -407964856.1462996 0 -407964856.1462996 -1529706881.4188719 0 0 0 0 -6586164272.8570738 -105939641.49464293 0 -105939641.49464293 699667647.62344658 0 0 0 0 -1950368514.3374691 364653374.56870389 0 364653374.56870389 144777375.37435028 0 0 0 0 -1940037753.329607 428280481.35625923 0 428280481.35625923 -212534280.63843483 0 0 0 0 -1900538176.9961395 -1033222983.4767942 0 -1033222983.4767942 565426980.93419075 0 0 0 0 -13188681.234336089 -5014815.5253289584 0 -5014815.5253289584 -2369615.7125137234 0 0 0 0 -6603596071.4469595 2842967478.3967195 0 2842967478.3967195 -729870039.71618199 0 0 0 0 -43108123.027412415 11198614.358833313 0 11198614.358833313 -48720650.427049637 0 0 0 0 -120935242.3534317 -14411514.273785591 0 -14411514.273785591 -8495405.9581108093 0 0 0 0 -45039900.864695549 -44999901.337072849 0 -44999901.337072849 -5706084.6747207642 0 0 0 0 -1628467.155658029 -3925100.6743705012 0 -3925100.6743705012 7538875.5701852432 0 0 0 0 21094063.484916687 4234295.8143844604 0 4234295.8143844604 -12140489.906524658 0 0 0 0 -27130008.822525024 26545501.10333252 0 26545501.10333252 123211309.26644135 0 0 0 0 -86612286.344963074 4963592.6244659424 0 4963592.6244659424 193837728.45264435 0 0 0 0 -20966915.795303345 -42400141.412834167 0 -42400141.412834167 -26757686.112201691 0 0 0 0 -68769503.664367676 -82974727.872970581 0 -82974727.872970581 106003030.38790131 0 0 0 0 -281786.41914767027 2066555.3840286508 0 2066555.3840286508 -46357.27167936787 0 0 0 0 -25629944.343169689 194010092.66034496 0 194010092.66034496 -99226494.227870941 0 0 0 0 -654463877.31300735 136031267.29396057 0 136031267.29396057 179214113.57452011 0 0 0 0 -447387563.64398956 262105107.65600967 0 262105107.65600967 -3048162.8228311539 0 0 0 0 -406340053.77549744 -125251438.63883209 0 -125251438.63883209 42371522.872882843 0 0 0 0 -648638071.37626648 85901744.910144806 0 85901744.910144806 182693038.11778831 0 0 0 0 -1000491435.4522009 358487210.69533372 0 358487210.69533372 -22760557.979190826 0 0 0 0 -347842772.15706635 214626945.07466602 0 214626945.07466602 5850745.8077220917 0 0 0 0 -1099922480.6234875 -227639146.67312908 0 -227639146.67312908 27258115.392147064 0 0 0 0 560742073.4960289 101437559.25227737 0 101437559.25227737 488387975.15728951 0 0 0 0 762610716.10670471 948918867.07755756 0 948918867.07755756 811660791.3661747 0 0 0 0 -730186.73737256229 -632923.5352066122 0 -632923.5352066122 2026327.5986547731 0 0 0 0 -272539089.40937805 9183188.3507890701 0 9183188.3507890701 -8141082.2582931519 0 0 0 0 550441562.87082386 -66751663.243906498 0 -66751663.243906498 106612967.09036827 0 0 0 0 -282784612.24085999 116043464.43582535 0 116043464.43582535 604853343.27008533 0 0 0 0 -334700615.28418541 -144512246.67521846 0 -144512246.67521846 147714370.98394966 0 0 0 0 -1144299222.0233307 -183793212.61860371 0 -183793212.61860371 278607474.69403934 0 0 0 0 252751701.31532288 291071928.67411041 0 291071928.67411041 -862572082.87106705 0 0 0 0 11521748.979934692 306475715.72903347 0 306475715.72903347 578641027.09483433 0 0 0 0 -6718101.7566470988 4395211.7427212782 0 4395211.7427212782 2123494.1192720868 0 0 0 0 -102799386.67460632 13793516.123283386 0 13793516.123283386 7253766.6076507568 0 0 0 0 -105436584.21644592 17435136.278993607 0 17435136.278993607 16698437.749360085 0 0 0 0 -109537761.85241699 20441766.551316261 0 20441766.551316261 15310459.391338348 0 0 0 0 -621407552.36826324 425209537.88336372 0 425209537.88336372 -181707007.00821877 0 0 0 0 -2391401.9958614409 -832673.56909138989 0 -832673.56909138989 1018365.8396339798 0 0 0 0 -7131496.8106022775 -700031.11852436652 0 -700031.11852436652 4153550.5294050938 0 0 0 0 -99530380.175033569 24130061.061912537 0 24130061.061912537 10497282.915162563 0 0 0 0 -86922563.439750671 -18712873.101980209 0 -18712873.101980209 11669837.577020645 0 0 0 0 -1111681.7690483518 4508021.8531266116 0 4508021.8531266116 7038610.4337290041 0 0 0 0 -212102789.35366821 -322647680.75608444 0 -322647680.75608444 -420243135.64636898 0 0 0 0 -340716616.03126526 -128344400.36296844 0 -128344400.36296844 -65826409.978236198 0 0 0 0 1375101.5276298523 -71777007.136324883 0 -71777007.136324883 -125670373.66164017 0 0 0 0 -397678855.91928101 143191181.72973537 0 143191181.72973537 204627038.39336824 0 0 0 0 -623651660.02918243 -15831631.628380775 0 -15831631.628380775 408366111.54288673 0 0 0 0 -267893344.2452774 291968757.77321386 0 291968757.77321386 385640205.03843689 0 0 0 0 -406999344.72406769 273889857.2102685 0 273889857.2102685 710739700.67540169 0 0 0 0 281247.0870597735 1725631.2682830058 0 1725631.2682830058 2107395.9602768905 0 0 0 0 100588352.18564606 -464303622.75850821 0 -464303622.75850821 551481153.00410485 0 0 0 0 314854920.58007812 -881621705.12926733 0 -881621705.12926733 894359662.65904045 0 0 0 0 1085377715.980011 866330713.27000427 0 866330713.27000427 25920571.608214378 0 0 0 0 -1817404221.309166 -34772341.35227108 0 -34772341.35227108 329844513.0907135 0 0 0 0 -307243396.46000671 175318281.16361237 0 175318281.16361237 286677060.74902344 0 0 0 0 -3129006.9986572266 522340166.64397478 0 522340166.64397478 620211309.68701279 0 0 0 0 -359262915.8533783 126834247.469203 0 126834247.469203 726024667.74448967 0 0 0 0 -3510912.430089321 -9283365.4527915195 0 -9283365.4527915195 14077411.410162494 0 0 0 0 -595914518.04219818 164086773.76830196 0 164086773.76830196 655999198.37190056 0 0 0 0 -8147303.819598332 2465786.7031343468 0 2465786.7031343468 6851382.6706279134 0 0 0 0 -49891752.208694458 -17584840.641181946 0 -17584840.641181946 10925407.853889465 0 0 0 0 -32173401.858680725 -28578582.328756332 0 -28578582.328756332 56830692.142028809 0 0 0 0 -4846809.0967576802 -5615534.3221591609 0 -5615534.3221591609 9259778.7324992158 0 0 0 0 -299460965.11541748 63042714.499941111 0 63042714.499941111 511844418.47754288 0 0 0 0 -298654036.9377594 -21129841.165944099 0 -21129841.165944099 377868550.82887554 0 0 0 0 -3717263.5029754639 1338590.2327976227 0 1338590.2327976227 7937968.4499702454 0 0 0 0 7000754.9124069214 -65479.10357093811 0 -65479.10357093811 13229481.303398132 0 0 0 0 -2547774.607697688 -1706526.8949161684 0 -1706526.8949161684 9064432.1906034127 0 0 0 0 -4936501.760269165 -14048811.183616638 0 -14048811.183616638 24750688.718029022 0 0 0 0 -7162784.9461306408 -4333325.5226437785 0 -4333325.5226437785 8592083.4254127257 0 0 0 0 -17936135.545051575 -16206580.649868011 0 -16206580.649868011 19492733.504081726 0 0 0 0 -46665130.377670288 26812771.357196808 0 26812771.357196808 19430556.526092529 0 0 0 0 -575968551.15471649 -136090543.32386971 0 -136090543.32386971 1293812293.5494709 0 0 0 0 -429560030.40809631 96482809.68896389 0 96482809.68896389 201646801.17486954 0 0 0 0 172607763.39603424 -225398914.31405568 0 -225398914.31405568 286328885.73156357 0 0 0 0 180090600.23933411 -322336884.64140892 0 -322336884.64140892 -733034196.73333073 0 0 0 0 170365931.01654053 -595268345.65593147 0 -595268345.65593147 262709490.42543793 0 0 0 0 501537102.34521484 834162625.80708122 0 834162625.80708122 274392999.53456473 0 0 0 0 -1131153330.9514008 -82421892.624919891 0 -82421892.624919891 391047216.95068169 0 0 0 0 -186024923.99908447 224775531.65798187 0 224775531.65798187 -1604605059.2166719 0 0 0 0 -672007.20469436795 92645.447151092812 0 92645.447151092812 991535.29466102528 0 0 0 0 -15589770.934997559 844324993.00175285 0 844324993.00175285 274447999.35128164 0 0 0 0 1922842923.9794464 -349719717.06093884 0 -349719717.06093884 412732588.68445969 0 0 0 0 -432405474.5869751 -198648460.58512974 0 -198648460.58512974 2003956493.9863071 0 0 0 0 -445985758.14266968 -42838627.706433296 0 -42838627.706433296 557884246.09833717 0 0 0 0 -103330129.98013306 -280189078.07786655 0 -280189078.07786655 -726649641.6575346 0 0 0 0 -3104865.3412617818 7782843.2649114914 0 7782843.2649114914 13162235.807698606 0 0 0 0 6870978.6805419922 10085306.563432693 0 10085306.563432693 26309303.771881104 0 0 0 0 7254911.1695861816 23034257.528726578 0 23034257.528726578 24228943.53746438 0 0 0 0 -23347059.689483643 302458.24115943909 0 302458.24115943909 65224002.949483871 0 0 0 0 -16903266.337219149 -9404222.2604142874 0 -9404222.2604142874 21227206.773126066 0 0 0 0 7196649.1317901611 26344013.101500511 0 26344013.101500511 7286729.8715171814 0 0 0 0 6892919.2659416199 9126341.3584220409 0 9126341.3584220409 11374848.536430359 0 0 0 0 -209826825.42578125 -58829154.434936523 0 -58829154.434936523 80334524.867996693 0 0 0 0 -21419351.721984863 35542210.455116749 0 35542210.455116749 -3360360.2830305099 0 0 0 0 -779693.30382587016 359439.85634136852 0 359439.85634136852 4034816.0822469704 0 0 0 0 -143673367.29772949 59266321.629918098 0 59266321.629918098 39892201.537189484 0 0 0 0 -37927307.380477905 14624.605494022369 0 14624.605494022369 70356934.96087265 0 0 0 0 -27556583.322637562 -7874644.3726290986 0 -7874644.3726290986 11381878.144089568 0 0 0 0 -49202276.807220459 -45106451.685486794 0 -45106451.685486794 67352253.643904209 0 0 0 0 -102673973.55300903 -52382070.298826218 0 -52382070.298826218 67314718.710303307 0 0 0 0 -27808163.426657677 3095725.4182755947 0 3095725.4182755947 18067466.409671783 0 0 0 0 -96387598.794815063 45641698.370228767 0 45641698.370228767 81451018.715549469 0 0 0 0 -26016040.472320557 10866445.294071198 0 10866445.294071198 44859501.210836887 0 0 0 0 -12919750.570280481 -5349196.42811443 0 -5349196.42811443 14994999.144971274 0 0 0 0 -11577405.133289337 -10338036.919740677 0 -10338036.919740677 22993579.221496582 0 0 0 0 -24750763.169497736 1243118.5563224442 0 1243118.5563224442 13826339.035869477 0 0 0 0 -5700174.5798950195 42114313.574573517 0 42114313.574573517 36762600.46097374 0 0 0 0 -3307741.1165705156 -2567533.8244952392 0 -2567533.8244952392 2632911.038726802 0 0 0 0 -10503291.275534365 -4818914.5696655922 0 -4818914.5696655922 14063509.849681791 0 0 0 0 -12759834.2942276 -5433567.0159277916 0 -5433567.0159277916 9677717.4607810974 0 0 0 0 -18366503.56669426 848439.04423427582 0 848439.04423427582 11383359.351783752 0 0 0 0 -25840304.083316803 684616.01955080032 0 684616.01955080032 17313994.829385757 0 0 0 0 -9974817.8328094482 7516653.3812465668 0 7516653.3812465668 35662452.980439186 0 0 0 0 -40408896.351052612 -7855219.7859246423 0 -7855219.7859246423 17351849.691433709 0 0 0 0 -1060457.6489835232 -1038556.1613996262 0 -1038556.1613996262 4050708.3908501826 0 0 0 0 4612854.3831367493 -21093624.699150085 0 -21093624.699150085 26108568.255867004 0 0 0 0 7068061.1018829346 -19237755.132522583 0 -19237755.132522583 20429800.411735535 0 0 0 0 -560429.88349914551 -11295567.250095367 0 -11295567.250095367 22991319.632911682 0 0 0 0 -6567805.6059875488 -16348106.116214752 0 -16348106.116214752 22307331.864860535 0 0 0 0 -4666608.8849411011 -13714395.233715057 0 -13714395.233715057 23393331.152511597 0 0 0 0 -7844919.3490905762 -11160876.259483337 0 -11160876.259483337 17772765.219497681 0 0 0 0 -18269535.946754456 -8207426.2725982666 0 -8207426.2725982666 21460947.838195801 0 0 0 0 -1672732.4507904053 -20034081.977731705 0 -20034081.977731705 20504350.022636414 0 0 0 0 8342849.8862609863 -19144110.18753624 0 -19144110.18753624 12282929.554363251 0 0 0 0 3519095.8380661011 -15663695.434337616 0 -15663695.434337616 20290543.678268433 0 0 0 0 4270545.781463623 -30482030.46018219 0 -30482030.46018219 -3442706.3525352478 0 0 0 0 10822984.164253235 -13836777.051834106 0 -13836777.051834106 19208443.07346344 0 0 0 0 -136354754.10194397 -32949535.657081604 0 -32949535.657081604 35167806.775150299 0 0 0 0 -398590.0820133239 -277265.67577703856 0 -277265.67577703856 1259723.3912712261 0 0 0 0 -71222092.119457245 70578285.645612717 0 70578285.645612717 -20105230.306417465 0 0 0 0 -50494643.094192505 41960218.990474701 0 41960218.990474701 10417396.652751923 0 0 0 0 -54409354.203676224 37232936.280956268 0 37232936.280956268 27468510.077430725 0 0 0 0 -56920701.941368103 29620664.278116226 0 29620664.278116226 38263165.613254547 0 0 0 0 -34658861.825519562 12365120.772151947 0 12365120.772151947 30556134.936721802 0 0 0 0 59584427.819841385 2342265.3843173981 0 2342265.3843173981 -7481776.8055725098 0 0 0 0 -3022685.1659609601 3623148.1422395371 0 3623148.1422395371 1802174.0929096844 0 0 0 0 -886825.64985501394 -510922.39104587957 0 -510922.39104587957 2524780.2448389828 0 0 0 0 1223426092.0274811 -367905801.69303894 0 -367905801.69303894 105101993.02418518 0 0 0 0 5426946.3456573486 73801448.524681091 0 73801448.524681091 -15715166.31867218 0 0 0 0 -123988663.13885498 25844967.854499817 0 25844967.854499817 38050693.713582993 0 0 0 0 -734213431.66107368 81256485.127964973 0 81256485.127964973 114011056.14145279 0 0 0 0 -362062765.55207825 -213678177.68697357 0 -213678177.68697357 -211506753.52570343 0 0 0 0 99600339.095787048 -321947199.2338829 0 -321947199.2338829 -22322508.139789581 0 0 0 0 -1447669880.0872498 -90423393.913793564 0 -90423393.913793564 743001519.85933685 0 0 0 0 -324009029.61748123 127124062.94754219 0 127124062.94754219 109648454.62258911 0 0 0 0 -377021854.52737808 72918790.399578094 0 72918790.399578094 88485283.285179138 0 0 0 0 -481748215.68032455 99890723.194324493 0 99890723.194324493 151501608.73791122 0 0 0 0 -322607298.4815712 97502488.803747177 0 97502488.803747177 32504575.325912476 0 0 0 0 25080218.367895126 -53590929.577933311 0 -53590929.577933311 -47357319.598526001 0 0 0 0 -285614698.05225372 11477083.789726257 0 11477083.789726257 115192574.83797181 0 0 0 0 -1616447.3047682419 87050.600134689361 0 87050.600134689361 6736161.2189651281 0 0 0 0 -27319886.906345367 61404208.880525589 0 61404208.880525589 -5450736.6818466187 0 0 0 0 -438903057.83031464 150386461.17404556 0 150386461.17404556 27410921.328477576 0 0 0 0 -428764542.67765808 95480708.766155243 0 95480708.766155243 27263878.387947083 0 0 0 0 -550941855.07720947 119559394.27486801 0 119559394.27486801 38947895.455722809 0 0 0 0 -614503843.06041336 74844478.185283661 0 74844478.185283661 25261555.840011597 0 0 0 0 -729141754.75551987 51162590.980800629 0 51162590.980800629 54313469.846595764 0 0 0 0 -562501895.53839231 -5416584.3052821159 0 -5416584.3052821159 56411392.513893127 0 0 0 0 -510274992.20549774 24980918.806880951 0 24980918.806880951 73863572.37021637 0 0 0 0 -439425682.8792305 8853542.6056060791 0 8853542.6056060791 55335988.401500702 0 0 0 0 -470343758.87241745 64822053.841430664 0 64822053.841430664 62010307.843597412 0 0 0 0 -450060516.84326553 106191044.63498306 0 106191044.63498306 80520427.478603363 0 0 0 0 -673215423.73959351 -195810827.54053116 0 -195810827.54053116 -16525220.315895081 0 0 0 0 -425060744.3467865 -107985990.13786697 0 -107985990.13786697 10177972.934696198 0 0 0 0 -538451912.87410307 -74599648.415426731 0 -74599648.415426731 43316270.404693604 0 0 0 0 -348096837.50239182 -128063289.62011337 0 -128063289.62011337 23744528.168922424 0 0 0 0 -432768850.17245865 -135232675.21450233 0 -135232675.21450233 27915297.612052917 0 0 0 0 -391217927.52009583 -135997782.77650833 0 -135997782.77650833 74785871.081892967 0 0 0 0 -380086336.37909412 -146874856.34941053 0 -146874856.34941053 50689285.803985596 0 0 0 0 -354449988.24266815 -71987770.734888077 0 -71987770.734888077 37566358.639960289 0 0 0 0 -428967368.83170319 -4337629.264509201 0 -4337629.264509201 8021208.4784927368 0 0 0 0 -92386817.392295837 38044883.226894379 0 38044883.226894379 -21155871.917118073 0 0 0 0 -674250891.10416603 -119816010.31270409 0 -119816010.31270409 73893280.568874359 0 0 0 0 -289680751.0881443 -297402265.11157131 0 -297402265.11157131 61088716.473091125 0 0 0 0 -500097731.38385582 268938088.29722881 0 268938088.29722881 -52427876.067855835 0 0 0 0 -474683506.28236961 140017208.6440649 0 140017208.6440649 36088742.23714447 0 0 0 0 -300258342.36301804 49554.693370819092 0 49554.693370819092 -7893372.8740558624 0 0 0 0 -315446683.25859833 147505500.12571716 0 147505500.12571716 27357950.968294144 0 0 0 0 -171711401.63940048 111935508.01226044 0 111935508.01226044 -187081513.71174622 0 0 0 0 -500747986.35762405 -87144009.241652489 0 -87144009.241652489 34769695.004150391 0 0 0 0 -150951609.29889297 92244434.835388184 0 92244434.835388184 87484499.841773987 0 0 0 0 36700371.396835327 -252821105.54005241 0 -252821105.54005241 209524521.59992123 0 0 0 0 -252701270.10418987 -40374802.895675659 0 -40374802.895675659 65528188.777675629 0 0 0 0 -24391394.603607178 72640572.95926857 0 72640572.95926857 116079789.2634964 0 0 0 0 -3521822.3682661466 -167185.19789988128 0 -167185.19789988128 2395174.0061209816 0 0 0 0 188660452.3828001 -379647188.51085281 0 -379647188.51085281 64619651.099269867 0 0 0 0 -784504176.70104218 434957795.66668129 0 434957795.66668129 -139900973.01062775 0 0 0 0 -6928528.0231981054 -646119.714707023 0 -646119.714707023 4313627.5521886013 0 0 0 0 -305120476.90319014 7694949.2340700626 0 7694949.2340700626 90376179.925380707 0 0 0 0 -573449517.96144676 175169033.2933073 0 175169033.2933073 82632958.607437134 0 0 0 0 -340366677.2973671 204195036.05175018 0 204195036.05175018 -23865348.990570068 0 0 0 0 -522125165.957901 222492846.85146332 0 222492846.85146332 49183714.668414116 0 0 0 0 -394598088.21793747 31717049.11149025 0 31717049.11149025 -91510878.403139114 0 0 0 0 -207929921.88759232 196720086.95451927 0 196720086.95451927 30691319.667729378 0 0 0 0 -118111194.85217667 -131963684.60008049 0 -131963684.60008049 342055189.74725342 0 0 0 0 -7123962.6476548798 -800056.07613762701 0 -800056.07613762701 4241825.6613054834 0 0 0 0 -243754427.76730824 -83811742.629652977 0 -83811742.629652977 177072525.90843201 0 0 0 0 -1948952.1318101883 26068537.730139732 0 26068537.730139732 -44365824.299293518 0 0 0 0 64599455.274019241 -122960688.06090546 0 -122960688.06090546 13741246.623027623 0 0 0 0 1584119.657473512 1624500.1779332305 0 1624500.1779332305 -3319292.3955678698 0 0 0 0 -9524020.77135849 27447014.396303177 0 27447014.396303177 -6893291.5140991211 0 0 0 0 -37364003.548538208 -14125623.889816761 0 -14125623.889816761 -6437542.5104370117 0 0 0 0 -21588708.432473235 -6869420.6796784978 0 -6869420.6796784978 -12895862.189302251 0 0 0 0 -38624724.119428635 -8481784.5053138733 0 -8481784.5053138733 -10506480.177429199 0 0 0 0 -36524110.488766074 -20026854.96066593 0 -20026854.96066593 -2040336.1061687469 0 0 0 0 -26817334.492488861 1201788.3936882019 0 1201788.3936882019 -39063583.101104736 0 0 0 0 -25011803.087530211 -12020377.48862436 0 -12020377.48862436 -12076731.018070659 0 0 0 0 67270.752380772028 -756950.14526482671 0 -756950.14526482671 -879348.06789779104 0 0 0 0 59961431.24982357 -699847.74015235901 0 -699847.74015235901 -52557904.23327446 0 0 0 0 -35757363.386928558 -9872522.2634339333 0 -9872522.2634339333 190837.31213188171 0 0 0 0 1903058.940823555 45143558.664309502 0 45143558.664309502 18015363.675323486 0 0 0 0 -57403831.437309265 -32575192.719024658 0 -32575192.719024658 -8473433.954656601 0 0 0 0 -10308315.520220656 -8786813.1576300077 0 -8786813.1576300077 -2523986.6169182295 0 0 0 0 -5196887.2627412109 -8676282.7121787146 0 -8676282.7121787146 -6349446.9783964474 0 0 0 0 -87043014.976518631 -54505678.113062859 0 -54505678.113062859 46916401.382478714 0 0 0 0 -107483460.32828522 201612.11675739288 0 201612.11675739288 -36152709.424968719 0 0 0 0 -389225443.40651703 5384517.0453987122 0 5384517.0453987122 45653439.961360931 0 0 0 0 -304328856.18424797 91113338.771970749 0 91113338.771970749 8006189.9006137848 0 0 0 0 -185899241.12929535 -66612183.011550903 0 -66612183.011550903 5696396.4567489624 0 0 0 0 -35841163.650226593 -1255364.6131572723 0 -1255364.6131572723 -114409277.10868454 0 0 0 0 -288861334.2852757 14986485.065981865 0 14986485.065981865 7469278.7017288208 0 0 0 0 -844768397.10292816 57263114.543989182 0 57263114.543989182 55765488.501404762 0 0 0 0 -317819642.11864853 -149015638.72929001 0 -149015638.72929001 -227384145.32134628 0 0 0 0 -53657671.03037262 -17410793.505224228 0 -17410793.505224228 -175277108.57361221 0 0 0 0 -51786836.596014023 23182063.228479385 0 23182063.228479385 64570193.695030212 0 0 0 0 -34685167.582195282 13898507.751235962 0 13898507.751235962 18489232.446537137 0 0 0 0 144320728.72960758 -42414304.094898224 0 -42414304.094898224 -112096486.01099777 0 0 0 0 -36242626.376612186 -3101725.2275075912 0 -3101725.2275075912 -2505417.3266906738 0 0 0 0 -11981502.744372033 -1903478.0091778764 0 -1903478.0091778764 -11153660.4652826 0 0 0 0 -36407241.78442508 -2101343.7190327644 0 -2101343.7190327644 1621102.0524635315 0 0 0 0 -28394577.281701088 374898.23149585724 0 374898.23149585724 -1221670.6412305832 0 0 0 0 -371924.42913813656 -995968.19204079825 0 -995968.19204079825 107904.69954712875 0 0 0 0 -12270142.510825157 9644507.774892807 0 9644507.774892807 -9169226.6973381042 0 0 0 0 -20944918.708107822 5506055.2250160277 0 5506055.2250160277 -5501911.6850967407 0 0 0 0 132689392.74854565 43011064.250799179 0 43011064.250799179 -108523717.19045639 0 0 0 0 -14767828.746175241 4223355.2213016683 0 4223355.2213016683 -14547973.473528521 0 0 0 0 -45703297.528035164 51959748.425642014 0 51959748.425642014 -62014348.84954834 0 0 0 0 -32228856.510046482 14936472.614365578 0 14936472.614365578 22857133.543785095 0 0 0 0 -21154885.993738174 112052183.52158356 0 112052183.52158356 16350886.4962883 0 0 0 0 1648453709.4963565 -27715734.749802977 0 -27715734.749802977 1831267288.9584389 0 0 0 0 -2526915.974536411 1801282.7015212625 0 1801282.7015212625 339637.32058147341 0 0 0 0 -343916416.65060425 -499225079.02696419 0 -499225079.02696419 1635936925.3377781 0 0 0 0 -12892260.403017402 947147658.24388742 0 947147658.24388742 809439591.20019531 0 0 0 0 -12357029.137130741 14965125.58111063 0 14965125.58111063 -16178951.947395734 0 0 0 0 85530546.21762085 -139875134.78645802 0 -139875134.78645802 473024490.10348511 0 0 0 0 -411092454.11463928 143025415.62129974 0 143025415.62129974 -178237560.74638033 0 0 0 0 -232460620.83573341 -12680259.665821075 0 -12680259.665821075 -48385942.599563599 0 0 0 0 -212196643.6525116 71457317.448299408 0 71457317.448299408 -9845893.5340576172 0 0 0 0 -262547602.13048172 68446261.260005951 0 68446261.260005951 -23624474.462228775 0 0 0 0 -211742352.21236229 2467587.0446777344 0 2467587.0446777344 10962766.067382812 0 0 0 0 -444738659.21482658 -67769339.39874649 0 -67769339.39874649 61106522.86681366 0 0 0 0 -298080217.59375 -47185655.001972198 0 -47185655.001972198 63274327.804057121 0 0 0 0 -215947453.97794533 -65102748.08000946 0 -65102748.08000946 3714715.9688529968 0 0 0 0 -9231236.5637645721 8406914.5607299805 0 8406914.5607299805 -36795480.971408844 0 0 0 0 -164438141.44718599 -6353771.9538836479 0 -6353771.9538836479 1589098.0870132446 0 0 0 0 -16014938.417464778 20205477.959360197 0 20205477.959360197 -23833122.778999843 0 0 0 0 1963985405.6075211 2117752228.4607391 0 2117752228.4607391 290614905.48921204 0 0 0 0 -228534398.49123383 -147875567.13635254 0 -147875567.13635254 -98169660.844154358 0 0 0 0 -3168862116.0042725 -398090377.15537643 0 -398090377.15537643 1185610781.3027959 0 0 0 0 137694758.56327057 602026200.56712914 0 602026200.56712914 1415673801.2390099 0 0 0 0 696991405.64118958 -297492922.64884949 0 -297492922.64884949 1367203468.4252663 0 0 0 0 -1015108463.7439651 -178160623.43657112 0 -178160623.43657112 1586894642.661911 0 0 0 0 1027623976.3649616 684165810.63143468 0 684165810.63143468 1138720730.9857445 0 0 0 0 -26447111.61476532 22181217.383929469 0 22181217.383929469 -22654147.939385191 0 0 0 0 -2268507512.1624985 1885987685.8510399 0 1885987685.8510399 2388067489.3094435 0 0 0 0 -527596339.36964417 2312414532.1624699 0 2312414532.1624699 2075523351.2272301 0 0 0 0 1824333069.5710254 276210176.9773438 0 276210176.9773438 -1270911092.9843521 0 0 0 0 -32634021.47631073 -701021894.2170248 0 -701021894.2170248 -1658520193.0266972 0 0 0 0 -271717804.64335632 -371583986.82889366 0 -371583986.82889366 41138412.485773087 0 0 0 0 486311423.6439209 -248620134.41457844 0 -248620134.41457844 50019443.832715988 0 0 0 0 -701289850.29743004 -988924994.79904604 0 -988924994.79904604 1103091718.0346947 0 0 0 0 -50973517.675048828 -402769283.94911575 0 -402769283.94911575 91518962.368251324 0 0 0 0 -84426017.037460327 -574178328.0503397 0 -574178328.0503397 1023695728.3845043 0 0 0 0 7301800.9905967712 -286139800.19377899 0 -286139800.19377899 322987067.97843552 0 0 0 0 204685298.53067017 -414278665.92370987 0 -414278665.92370987 88808014.910209656 0 0 0 0 332632746.06397247 -599247816.71504879 0 -599247816.71504879 -575335687.27293777 0 0 0 0 135628120.74906921 -269153375.33058929 0 -269153375.33058929 -118571815.44650459 0 0 0 0 -44892438.62651062 -279834087.15673447 0 -279834087.15673447 130997017.84877014 0 0 0 0 -25299856.082122803 -231855110.37109566 0 -231855110.37109566 74506822.909797668 0 0 0 0 -223548524.01362991 -114099008.32713318 0 -114099008.32713318 -14482298.860307693 0 0 0 0 -116761219.21286774 -27643171.683558464 0 -27643171.683558464 -35030134.110452652 0 0 0 0 -492920036.07647324 129548132.65083838 0 129548132.65083838 93726966.346672058 0 0 0 0 -3947411.0472894646 1121674.7037118077 0 1121674.7037118077 279358.50411984418 0 0 0 0 62586598.667755127 -243298222.46269035 0 -243298222.46269035 194467490.46644211 0 0 0 0 -7338138.7880859375 -316647226.19687843 0 -316647226.19687843 137862464.95679379 0 0 0 0 44551209.331176758 -277941330.69415092 0 -277941330.69415092 79749549.903074741 0 0 0 0 -692694902.13679504 -134713203.47408867 0 -134713203.47408867 -137104706.64105988 0 0 0 0 32448666.463945389 -110599448.8620553 0 -110599448.8620553 209419143.943367 0 0 0 0 -537158497.49673462 535379797.38073921 0 535379797.38073921 264113553.27945042 0 0 0 0 -21978341.441009209 -8199745.2115737256 0 -8199745.2115737256 9403947.3034036867 0 0 0 0 -114845012.1724205 31155168.398731232 0 31155168.398731232 -54736717.590461731 0 0 0 0 -15976114.567739643 -2003066.8453029748 0 -2003066.8453029748 5437973.0791153722 0 0 0 0 -248488023.50073242 -103732562.13977432 0 -103732562.13977432 -52065223.422538757 0 0 0 0 -619737245.00750732 -182830797.65333557 0 -182830797.65333557 79209354.804122925 0 0 0 0 59664000.654945374 113800110.57839012 0 113800110.57839012 -90774113.768295288 0 0 0 0 -235717262.28932381 8576834.463662982 0 8576834.463662982 20738070.113910675 0 0 0 0 -71930760.529830933 -45357573.264277458 0 -45357573.264277458 31118979.489334106 0 0 0 0 -14841163.02987729 85043.930416796356 0 85043.930416796356 5264093.1175282653 0 0 0 0 20799582.108222961 -24808991.835974932 0 -24808991.835974932 -4397845.6288795471 0 0 0 0 -156576967.43634033 17632885.913925171 0 17632885.913925171 11275779.503995895 0 0 0 0 -16352459.768146802 3889681.481870573 0 3889681.481870573 4072979.7914761323 0 0 0 0 -33099001.892959595 29923110.300815582 0 29923110.300815582 44648575.795871735 0 0 0 0 -25734375.997085571 -34272246.449801445 0 -34272246.449801445 -1359033.1386680603 0 0 0 0 -12632914.544217408 14590126.043004215 0 14590126.043004215 -1595890.5655174255 0 0 0 0 -22320036.380240329 13882189.02284779 0 13882189.02284779 -8407948.1948468257 0 0 0 0 -84115876.928955078 65769553.369577408 0 65769553.369577408 3427569.3032035828 0 0 0 0 -138184647.04019165 61749037.727140427 0 61749037.727140427 4949053.6513888836 0 0 0 0 102948351.77156067 -548219019.44779062 0 -548219019.44779062 551308044.9649868 0 0 0 0 -4119791.8210871089 -635860.11228639632 0 -635860.11228639632 1445193.780916282 0 0 0 0 13050450.712213516 122587524.87360048 0 122587524.87360048 13306603.119028091 0 0 0 0 -290104714.64028931 -486933368.04329872 0 -486933368.04329872 1256163272.9354978 0 0 0 0 -13853848.21434021 223121556.95886993 0 223121556.95886993 520114420.53230476 0 0 0 0 -21797545.460418701 59180547.866836548 0 59180547.866836548 235981584.74006271 0 0 0 0 -49108976.545249939 -93008007.914075851 0 -93008007.914075851 474427331.87421799 0 0 0 0 78412523.83682251 50662533.937215805 0 50662533.937215805 48030249.298969269 0 0 0 0 -17040093.840330124 51386737.308740616 0 51386737.308740616 58660465.554122925 0 0 0 0 -449109489.98419189 -89458729.291490555 0 -89458729.291490555 -59956262.538623333 0 0 0 0 -598350434.82770061 -469078061.74486065 0 -469078061.74486065 -309136847.26844406 0 0 0 0 -915103823.57730865 -424388526.10260963 0 -424388526.10260963 -137271558.271698 0 0 0 0 -568610690.95636749 -478045427.51514626 0 -478045427.51514626 -309226234.42260933 0 0 0 0 -592668845.76643372 -141815536.08273315 0 -141815536.08273315 32395613.591333389 0 0 0 0 -78681677.077690125 85312168.933713913 0 85312168.933713913 127534609.79546928 0 0 0 0 -72987776.591563463 -66281303.208627343 0 -66281303.208627343 52066752.93572998 0 0 0 0 -1766174.0225142427 -633181.02470574807 0 -633181.02470574807 1308212.7102653161 0 0 0 0 -464278383.47619247 -493184712.92541695 0 -493184712.92541695 -356544032.45746231 0 0 0 0 -791403901.79560947 -718800576.2268796 0 -718800576.2268796 -495053786.44078827 0 0 0 0 5155555.3508605957 -16692586.085601807 0 -16692586.085601807 81407267.984867096 0 0 0 0 58916190.438121796 -48907571.829249382 0 -48907571.829249382 12462704.046443939 0 0 0 0 -4199094.9850385226 -1340740.2376381122 0 -1340740.2376381122 3354319.5082204696 0 0 0 0 -9647183.7993840016 -5238917.9102140144 0 -5238917.9102140144 4818539.5714620855 0 0 0 0 9865986.6862754822 -89778147.225996017 0 -89778147.225996017 -12664075.22794342 0 0 0 0 10512481.894744873 42869177.569238663 0 42869177.569238663 -703052.76294445992 0 0 0 0 134539321.8371582 4914643.8574639559 0 4914643.8574639559 -79691451.890228271 0 0 0 0 2052265.7071304321 -5675016.341802597 0 -5675016.341802597 42596267.204170227 0 0 0 0 -132787031.36261559 -32334103.95737648 0 -32334103.95737648 -69927678.709949493 0 0 0 0 -60229936.174354553 82606437.85528183 0 82606437.85528183 -77884700.982910156 0 0 0 0 -65154262.386966705 -57183816.563860893 0 -57183816.563860893 -55607879.925144196 0 0 0 0 -116353255.80633163 26606954.784677505 0 26606954.784677505 -171387717.83731079 0 0 0 0 -359850837.95976257 705121.87715339661 0 705121.87715339661 -28562909.748157501 0 0 0 0 -324810837.68665791 -107491812.66012907 0 -107491812.66012907 -451797641.56575012 0 0 0 0 -432852043.85350037 -329780163.49449158 0 -329780163.49449158 -193269000.32224655 0 0 0 0 -202793495.1600914 61456941.481817245 0 61456941.481817245 13583438.04955864 0 0 0 0 -450188335.19963837 13770466.790302277 0 13770466.790302277 70383032.992677689 0 0 0 0 -321167240.67859268 -70291725.066265106 0 -70291725.066265106 29766636.156228065 0 0 0 0 -301811840.89943314 224815697.62831879 0 224815697.62831879 -848567410.25341034 0 0 0 0 -1189724340.7017593 -430512800.85532761 0 -430512800.85532761 -133314741.93999958 0 0 0 0 -1589422840.2708282 -726376411.22036743 0 -726376411.22036743 101207516.53218842 0 0 0 0 -547528948.08198929 -661385309.71564865 0 -661385309.71564865 -1017760005.2288742 0 0 0 0 -199003458.4338913 -28989342.08644104 0 -28989342.08644104 -5767682.8703231812 0 0 0 0 -4721275.2212458495 667382.78548838571 0 667382.78548838571 3289848.1463665999 0 0 0 0 -377308624.17103195 -168323160.10268784 0 -168323160.10268784 8080733.8266601562 0 0 0 0 -245175132.82331848 -126927997.58689117 0 -126927997.58689117 -73606274.852376938 0 0 0 0 -249807708.83409536 -26749975.641626418 0 -26749975.641626418 62149741.377128601 0 0 0 0 -272003654.82729721 -94573786.007814407 0 -94573786.007814407 5138847.787361145 0 0 0 0 -199714172.54375458 -39634919.814754486 0 -39634919.814754486 54348034.409042358 0 0 0 0 -91215417.128387451 -23267396.768346786 0 -23267396.768346786 4418104.5287017822 0 0 0 0 -101822828.40544987 55359822.751666546 0 55359822.751666546 86135653.140476227 0 0 0 0 -48476977.117153168 107774396.78470802 0 107774396.78470802 89402956.38623333 0 0 0 0 -42845800.949628718 13571637.238153763 0 13571637.238153763 14379998.981406357 0 0 0 0 -55230587.585224152 -18899313.924585342 0 -18899313.924585342 27583366.587875366 0 0 0 0 -50656333.961210094 14323425.188151605 0 14323425.188151605 18371954.215883404 0 0 0 0 59629286.692024231 128864607.7538147 0 128864607.7538147 23890107.898510933 0 0 0 0 -133318808.8687973 -10937591.286393166 0 -10937591.286393166 12941715.6842556 0 0 0 0 -112140625.56010056 -42616808.832973003 0 -42616808.832973003 -2676168.5200023651 0 0 0 0 -87404259.49654007 -15106670.727765083 0 -15106670.727765083 15348940.113283157 0 0 0 0 -106697887.00485229 -49543799.432317734 0 -49543799.432317734 5820384.07421875 0 0 0 0 -159115188.97895813 -41642666.730113506 0 -41642666.730113506 42365856.256137848 0 0 0 0 -140322823.17616844 -96808834.594406605 0 -96808834.594406605 -60616589.352336884 0 0 0 0 -952830.68815951422 -6123615.7793288827 0 -6123615.7793288827 -113341.80510450457 0 0 0 0 -200353715.6111412 -116174568.68408728 0 -116174568.68408728 -41489165.916416168 0 0 0 0 -17804924.234091718 -4117530.9814163856 0 -4117530.9814163856 1135202.009270126 0 0 0 0 -210763228.93526459 -110088987.17351818 0 -110088987.17351818 -5561043.5740470886 0 0 0 0 -29919713.164871216 -62164661.649827003 0 -62164661.649827003 94299737.98837471 0 0 0 0 -101802657.5364151 -72856814.292943001 0 -72856814.292943001 -138980844.41936493 0 0 0 0 -191971038.74562454 -37877959.190987587 0 -37877959.190987587 85816438.796472549 0 0 0 0 -145133003.27757263 -66289102.136375427 0 -66289102.136375427 -29735311.591228008 0 0 0 0 -42590252.625727311 11751828.058637567 0 11751828.058637567 14530130.458304193 0 0 0 0 -98412862.137922287 32326089.553091049 0 32326089.553091049 53357482.52167511 0 0 0 0 37643625.982315063 128078276.21179914 0 128078276.21179914 43342583.901947975 0 0 0 0 -361201422.03499222 40107319.576397419 0 40107319.576397419 120736601.93126488 0 0 0 0 93069787.87184906 -17251509.811756134 0 -17251509.811756134 -23491864.977405548 0 0 0 0 -176365399.13989639 -58127029.934738159 0 -58127029.934738159 17369455.530791998 0 0 0 0 -119665889.28623295 -29523139.378551483 0 -29523139.378551483 13943551.387969971 0 0 0 0 -7369169.0555074522 454897.2234882398 0 454897.2234882398 748813.69760851562 0 0 0 0 -33771642.256777368 43566.256234884262 0 43566.256234884262 38564240.260318756 0 0 0 0 -30474553.87486434 12165542.946597099 0 12165542.946597099 4492549.4149093628 0 0 0 0 -20059407.114714146 -10806408.380711555 0 -10806408.380711555 40158716.529125214 0 0 0 0 -34231338.292450666 15641274.832890511 0 15641274.832890511 29936609.464315414 0 0 0 0 -14408871.490557671 5600501.5950555801 0 5600501.5950555801 2755782.1883516312 0 0 0 0 -24468550.988452911 8006513.4937262153 0 8006513.4937262153 881734.31140453834 0 0 0 0 -26166126.774565272 6801674.3203264661 0 6801674.3203264661 -1705726.1576135233 0 0 0 0 -31284383.768875599 17706558.463836193 0 17706558.463836193 -3323887.3832120895 0 0 0 0 -16865544.372061968 6939679.0224030018 0 6939679.0224030018 -3282884.3327903748 0 0 0 0 -15490540.80389595 2343796.695438385 0 2343796.695438385 -12133543.818691254 0 0 0 0 -36163635.821672961 1742558.5037386902 0 1742558.5037386902 3160680.7250654614 0 0 0 0 -23246291.843392946 4039854.0754456408 0 4039854.0754456408 -204104.01551228575 0 0 0 0 -14816785.349058108 1233208.0227718942 0 1233208.0227718942 -1431641.9585428573 0 0 0 0 -29231363.413943857 2651853.2330796719 0 2651853.2330796719 -25399601.633789062 0 0 0 0 -9257967.9733581543 -2014954.1079339981 0 -2014954.1079339981 -175712.96562957764 0 0 0 0 33171547.539382935 65098989.497928619 0 65098989.497928619 -15299388.243265867 0 0 0 0 -71074953.013130188 10244833.625575066 0 10244833.625575066 30490216.411754608 0 0 0 0 -144388934.67580414 72590484.037185669 0 72590484.037185669 28825166.129770994 0 0 0 0 -25106550.417191628 -31862377.773555517 0 -31862377.773555517 -4208945.2399049746 0 0 0 0 -196996503.05450439 -23494905.496210098 0 -23494905.496210098 9324332.0947628021 0 0 0 0 -159263600.76860046 -38422412.534908295 0 -38422412.534908295 -39650781.548898935 0 0 0 0 -82659955.480415344 -23697050.328620911 0 -23697050.328620911 -9873519.7639045715 0 0 0 0 -157875456.02871704 3467659.6812438965 0 3467659.6812438965 21742439.081208229 0 0 0 0 -79796506.440177917 62500284.996152878 0 62500284.996152878 23722447.448677778 0 0 0 0 -36715034.06247279 5133999.0030504484 0 5133999.0030504484 4274.4333115937188 0 0 0 0 -103049723.16403437 2396791.7588043213 0 2396791.7588043213 3764420.4761981964 0 0 0 0 -8047319.4542636871 -22630177.701081753 0 -22630177.701081753 60189101.97313118 0 0 0 0 161448086.58909178 165772544.83726883 0 165772544.83726883 -99392916.267883301 0 0 0 0 -65889316.949966431 5089203.8337593079 0 5089203.8337593079 7063225.7236557007 0 0 0 0 -56681095.627395764 1286467.9767375612 0 1286467.9767375612 8667106.7425277233 0 0 0 0 -165861560.35987473 -36498814.019877434 0 -36498814.019877434 3854359.3193969727 0 0 0 0 -29052381.559200045 -29408166.23306188 0 -29408166.23306188 -3376572.2383709354 0 0 0 0 -33501312.121634722 14055121.010528306 0 14055121.010528306 7714475.1469506621 0 0 0 0 -33751780.428466797 17077659.134674072 0 17077659.134674072 11235977.617362976 0 0 0 0 -78259551.781755447 17764653.890493326 0 17764653.890493326 14283823.296662796 0 0 0 0 -28480151.217852958 -624916.4207710959 0 -624916.4207710959 4743555.392950275 0 0 0 0 -65009132.13217926 5575044.9473428726 0 5575044.9473428726 8740272.3774170876 0 0 0 0 -58242182.26815033 7945411.8975610733 0 7945411.8975610733 -710543.87418651581 0 0 0 0 -65194335.018592834 5224804.7998657227 0 5224804.7998657227 6555459.9254493713 0 0 0 0 -17818792.493016988 -6609479.4092133939 0 -6609479.4092133939 1722244.6478427909 0 0 0 0 -64333374.94276619 4417070.7774273157 0 4417070.7774273157 1058143.3596935272 0 0 0 0 -33187374.188560486 -5178895.8708381653 0 -5178895.8708381653 -499619.01096248627 0 0 0 0 -42747724.312606812 -1333377.0120005608 0 -1333377.0120005608 11339571.993619919 0 0 0 0 -34339486.263580114 -6603224.7103991732 0 -6603224.7103991732 2711419.3001950481 0 0 0 0 -34340987.987043381 -10253698.219094276 0 -10253698.219094276 62013381.353086472 0 0 0 0 -255023797.76062012 81736514.02671051 0 81736514.02671051 36831353.755638123 0 0 0 0 -46229839.624206543 -12318019.499267578 0 -12318019.499267578 6354077.7567849159 0 0 0 0 -35974524.914414674 -6452879.4203908164 0 -6452879.4203908164 2281571.4635338704 0 0 0 0 -36648932.516120911 -18107693.442728639 0 -18107693.442728639 -1902617.5984973907 0 0 0 0 -54886177.584644318 -13364215.727191925 0 -13364215.727191925 47393.223978042603 0 0 0 0 -120036922.39790726 -49785205.848902702 0 -49785205.848902702 16627463.169963837 0 0 0 0 -3544308.5303620845 -8480998.4693325926 0 -8480998.4693325926 -2231814.7288550474 0 0 0 0 -52590008.363536835 -24221399.391190052 0 -24221399.391190052 -15605541.821949005 0 0 0 0 -23316366.72309494 -8726814.4663329124 0 -8726814.4663329124 -1022891.2291297913 0 0 0 0 -12386236.564044952 -12732598.195293427 0 -12732598.195293427 -1975114.0839424133 0 0 0 0 -190815086.45383072 33276332.782614946 0 33276332.782614946 386644668.38842583 0 0 0 0 -42344217.635498047 -107196097.59233093 0 -107196097.59233093 -27994443.404877663 0 0 0 0 -113774936.21166992 -74337706.771785736 0 -74337706.771785736 -41645266.46677351 0 0 0 0 -58249586.959605217 -2426980.5202771425 0 -2426980.5202771425 7325630.5614948273 0 0 0 0 -102755154.54872131 -3381373.0233366489 0 -3381373.0233366489 9056267.5727043152 0 0 0 0 -12001793.106833188 -6064029.8427812308 0 -6064029.8427812308 -711046.8056521276 0 0 0 0 23726181.373767853 51341089.655831814 0 51341089.655831814 42565672.333096981 0 0 0 0 -81973360.983764648 -8592228.919301033 0 -8592228.919301033 -5225718.8586511612 0 0 0 0 -72356687.089996338 12594209.411020517 0 12594209.411020517 11233735.941808701 0 0 0 0 -19827179.420090392 1294472.9063178468 0 1294472.9063178468 5500040.8895447962 0 0 0 0 -84458051.951141357 -2748953.8294980526 0 -2748953.8294980526 -1068503.3592939377 0 0 0 0 285302285.47906876 -1223087489.1677833 0 -1223087489.1677833 -1697314242.3123932 0 0 0 0 -87919881.606185913 -3011181.6896820068 0 -3011181.6896820068 5721031.7084136009 0 0 0 0 -89111518.914125443 1494868.1339069605 0 1494868.1339069605 -4513923.2682151794 0 0 0 0 -848407268.89831543 -1429647548.701252 0 -1429647548.701252 799786537.56193542 0 0 0 0 -77875076.933803558 -182814995.22384739 0 -182814995.22384739 -1052625914.1698017 0 0 0 0 -12893027.504845822 -6999329.5909078345 0 -6999329.5909078345 -1185463.7741273623 0 0 0 0 -77109439.753147125 231244787.99859619 0 231244787.99859619 -107814440.06347084 0 0 0 0 -93214570.855117798 -10758240.755982876 0 -10758240.755982876 9660765.4201521873 0 0 0 0 -88817361.881469727 -7614417.8506646156 0 -7614417.8506646156 -6246793.8000745773 0 0 0 0 -88241744.243251801 -4549789.8426156044 0 -4549789.8426156044 9577329.2892379761 0 0 0 0 -93966905.514053345 -7010127.7981185913 0 -7010127.7981185913 9187886.5186812282 0 0 0 0 586955060.08579254 529701011.65664101 0 529701011.65664101 103676915.74337387 0 0 0 0 -26541475.570666876 -1852016.8613884114 0 -1852016.8613884114 11712143.192022473 0 0 0 0 -81900375.076194763 -793210.54530477524 0 -793210.54530477524 4904821.4686129093 0 0 0 0 -98389939.971607208 16893837.061179668 0 16893837.061179668 -11148445.052629232 0 0 0 0 -202873826.29032898 429486988.77249146 0 429486988.77249146 -6082397.246711731 0 0 0 0 -430709608.67514038 493866280.46524429 0 493866280.46524429 209963719.69487739 0 0 0 0 -94365465.678304672 -6897899.5902789831 0 -6897899.5902789831 21260700.624547958 0 0 0 0 -111967291.19264221 -13066256.503561497 0 -13066256.503561497 14435682.913570404 0 0 0 0 -87068273.989135742 3749997.838203907 0 3749997.838203907 21412514.712789282 0 0 0 0 -171246886.64814758 -3327391.9933831096 0 -3327391.9933831096 72561054.00220935 0 0 0 0 -31269947.145469666 97514428.962873936 0 97514428.962873936 -81879207.789541245 0 0 0 0 -54344007.267028809 -11233281.44991684 0 -11233281.44991684 26430706.600514412 0 0 0 0 -405252107.79259491 63477184.51529026 0 63477184.51529026 94294676.238183975 0 0 0 0 -132286013.91763306 -286078161.53111482 0 -286078161.53111482 96785258.938854337 0 0 0 0 -575232287.60369873 -376255383.06703281 0 -376255383.06703281 266253371.56734085 0 0 0 0 -670194534.61363983 107896122.27861857 0 107896122.27861857 112312275.37612152 0 0 0 0 -1462615.5881967507 31241.350994011387 0 31241.350994011387 -343286.09676542133 0 0 0 0 -44185990.919586182 42695320.666204751 0 42695320.666204751 -11102248.845515758 0 0 0 0 -11383773.173903633 -7276547.1963555459 0 -7276547.1963555459 4793322.2885344364 0 0 0 0 -9027000.0921455622 -17634052.427535012 0 -17634052.427535012 4918986.1597938538 0 0 0 0 -8359962.3115005493 -7386994.4999454021 0 -7386994.4999454021 -1916917.1723623276 0 0 0 0 -8829422.6329861879 -13062391.294636369 0 -13062391.294636369 -5565554.1899757385 0 0 0 0 -2114335.1266686264 -8709368.3932519555 0 -8709368.3932519555 -929028.94745817035 0 0 0 0 -154271798.08404922 67671716.796064377 0 67671716.796064377 -61288846.673965454 0 0 0 0 -32021094.097221375 -135141069.04145813 0 -135141069.04145813 -578188923.87269115 0 0 0 0 518734.8241617009 -1199825.0695865955 0 -1199825.0695865955 -964099.05933834054 0 0 0 0 -354434128.02168274 68021558.014127016 0 68021558.014127016 -48778368.911125183 0 0 0 0 -22666989.017293908 5707664.97691679 0 5707664.97691679 11356729.685399324 0 0 0 0 -60162319.376617432 -12827002.601575851 0 -12827002.601575851 7664319.3918437958 0 0 0 0 -20220241.944388479 3602338.2438348606 0 3602338.2438348606 12205247.998766938 0 0 0 0 -150903142.61224365 132921549.53372765 0 132921549.53372765 95266511.949355841 0 0 0 0 -51640528.613658905 -15564419.479449272 0 -15564419.479449272 61129103.669001579 0 0 0 0 -49306814.001823694 8116025.4988939408 0 8116025.4988939408 17524319.258770533 0 0 0 0 183648806.84347534 114696077.34502792 0 114696077.34502792 -55240050.603925705 0 0 0 0 232535638.95774841 -134160227.5616169 0 -134160227.5616169 78274406.533747673 0 0 0 0 251315685.59979248 307157805.44660759 0 307157805.44660759 -326311839.16439629 0 0 0 0 -641472870.02624512 194823073.28945255 0 194823073.28945255 12073469.065134048 0 0 0 0 -35592866.030914307 -176543141.71936417 0 -176543141.71936417 166666470.11425972 0 0 0 0 -827912623.78540802 -186828975.99026871 0 -186828975.99026871 393938923.6925621 0 0 0 0 -10885459.402390175 -1963111.9843163164 0 -1963111.9843163164 2083274.4414108125 0 0 0 0 13510829.421108246 247037066.97223663 0 247037066.97223663 -98037401.081359863 0 0 0 0 50243199.5676651 177871875.9406929 0 177871875.9406929 -21314756.273391724 0 0 0 0 -79691943.570396423 149190903.18572807 0 149190903.18572807 -11804629.844657898 0 0 0 0 -642710770.38500977 -324751734.67023373 0 -324751734.67023373 -98015455.741019726 0 0 0 0 -4217996.4613298438 -1081836.7974621914 0 -1081836.7974621914 -776833.65223432984 0 0 0 0 -54407425.980461121 41371790.903339386 0 41371790.903339386 244566491.36295319 0 0 0 0 -242725979.39460754 267155910.67360115 0 267155910.67360115 193106089.15693903 0 0 0 0 -272085295.04531097 362664542.9339304 0 362664542.9339304 42143602.5789814 0 0 0 0 -110889916.09742737 425884796.8689146 0 425884796.8689146 -238531058.51293945 0 0 0 0 -320223198.15560913 -726981569.13744926 0 -726981569.13744926 -495565320.37765503 0 0 0 0 -415876728.68063354 -627647895.77078438 0 -627647895.77078438 -277911609.41082764 0 0 0 0 -3350332.810951788 -1515312.2909696973 0 -1515312.2909696973 -70379.60059522558 0 0 0 0 -2065976166.7049637 201668070.57179451 0 201668070.57179451 2388285580.4199219 0 0 0 0 -655959048.82617188 -821841036.91373253 0 -821841036.91373253 -382531659.60472679 0 0 0 0 -95377868.941574097 271107528.19060993 0 271107528.19060993 -236465274.95271301 0 0 0 0 19088198.156524658 52175470.371069908 0 52175470.371069908 182266170.15052032 0 0 0 0 -167806391.62911987 -454979890.73474312 0 -454979890.73474312 -328278480.48231125 0 0 0 0 -730382480.05210114 127007649.63801193 0 127007649.63801193 297702147.35607529 0 0 0 0 -543203562.61455917 -425844614.78641605 0 -425844614.78641605 17724337.650245667 0 0 0 0 -330693461.92678833 -193163609.55460358 0 -193163609.55460358 271866340.08016968 0 0 0 0 -231533760.85155296 278676135.48063433 0 278676135.48063433 -12326061.124763489 0 0 0 0 -158614184.96721649 -611803259.00026703 0 -611803259.00026703 -477519304.83475494 0 0 0 0 -1393612.1324689984 -922429.05206724536 0 -922429.05206724536 -1179540.585948173 0 0 0 0 -1755298.428894043 -136579198.75984955 0 -136579198.75984955 -467851034.14904404 0 0 0 0 -28980903.960632324 48966932.04334259 0 48966932.04334259 -366071130.27956009 0 0 0 0 -12747640.152999878 -86257242.512143135 0 -86257242.512143135 -75131228.849010468 0 0 0 0 -87267800.093811035 -205449842.87616348 0 -205449842.87616348 -91662617.117254257 0 0 0 0 -126249649.17605591 -434216642.8411026 0 -434216642.8411026 67810412.940338135 0 0 0 0 -71549602.54549408 -262798911.4953146 0 -262798911.4953146 23240682.966293335 0 0 0 0 -15536896.803848267 -82673574.596755981 0 -82673574.596755981 -71045308.600645065 0 0 0 0 -25298081.931915283 -99500856.146820068 0 -99500856.146820068 30802334.278249741 0 0 0 0 -114409310.92634583 -98909470.539335251 0 -98909470.539335251 225911148.74957275 0 0 0 0 -59914343.21282959 -51874432.617822647 0 -51874432.617822647 73344167.422571182 0 0 0 0 -39477757.456329346 -41487904.145661831 0 -41487904.145661831 -39837410.300483704 0 0 0 0 -10679174.310897827 -14298588.49055481 0 -14298588.49055481 -119277820.96132231 0 0 0 0 -38263558.710781097 66311435.49808836 0 66311435.49808836 -9403355.7341117859 0 0 0 0 -22217038.716003418 -12093111.877824783 0 -12093111.877824783 -10324752.442527771 0 0 0 0 -49358279.433700562 -13172899.242752552 0 -13172899.242752552 -357265.15756607056 0 0 0 0 -200367760.97412109 157556740.79474163 0 157556740.79474163 160726062.97204638 0 0 0 0 -117179271.02477646 -44332614.422530353 0 -44332614.422530353 46671174.837988853 0 0 0 0 -111320656.53322983 -306094632.21500182 0 -306094632.21500182 97543614.171581268 0 0 0 0 -20786731.072387695 -87946164.246484756 0 -87946164.246484756 -141185299.32622528 0 0 0 0 -58015900.277101606 -20135875.59441369 0 -20135875.59441369 2999558.8516841489 0 0 0 0 -24444398.97072576 -17719351.05327056 0 -17719351.05327056 1327450.8607347929 0 0 0 0 -175027524.25590515 -287703946.82001114 0 -287703946.82001114 311694228.54990959 0 0 0 0 -30192296.579986572 -323734214.18029404 0 -323734214.18029404 107931699.74501228 0 0 0 0 -97313235.78427124 -20944674.441799641 0 -20944674.441799641 72300687.584027171 0 0 0 0 -29842027.108360931 -19853463.30490648 0 -19853463.30490648 -2367743.9557242123 0 0 0 0 -30168341.016479492 -65922137.179210305 0 -65922137.179210305 31903466.225865841 0 0 0 0 -12660150.670822144 -21596831.850114822 0 -21596831.850114822 3093801.6486573815 0 0 0 0 -34370066.223464578 -31283343.920328736 0 -31283343.920328736 -2149577.3959007151 0 0 0 0 -402076237.93267059 -31841956.966941833 0 -31841956.966941833 767935427.45018005 0 0 0 0 -7284931.7101745605 -25891271.110568285 0 -25891271.110568285 23816637.379543304 0 0 0 0 -41882203.339378208 -7121924.0073244125 0 -7121924.0073244125 2620393.1709008729 0 0 0 0 40410445.927337646 -27758591.100124359 0 -27758591.100124359 296624702.28194427 0 0 0 0 -37023128.279067993 -110010504.92529297 0 -110010504.92529297 363026847.73147583 0 0 0 0 -10540628.286135167 -29103802.460164547 0 -29103802.460164547 -6592295.3165930696 0 0 0 0 -4558917.0992736816 -14704723.317709923 0 -14704723.317709923 3517910.3886864185 0 0 0 0 -22140065.015151978 -19497557.427104831 0 -19497557.427104831 4790509.3931136131 0 0 0 0 -13252493.120049268 -12862295.383627839 0 -12862295.383627839 -1520739.2559923674 0 0 0 0 -34096493.276427925 -22428921.953276485 0 -22428921.953276485 2604537.5370111167 0 0 0 0 -76591507.546230793 195400942.67760944 0 195400942.67760944 346909704.45705414 0 0 0 0 -14954684.501800537 -14940991.109349325 0 -14940991.109349325 -1178488.1664661765 0 0 0 0 -12184091.763572693 -12502527.954159692 0 -12502527.954159692 -3662189.2793107629 0 0 0 0 -22833767.713973999 -11691795.549708933 0 -11691795.549708933 -1844639.8505654335 0 0 0 0 -20000225.194200188 -19819753.020519733 0 -19819753.020519733 -2770970.9541633534 0 0 0 0 -24399428.686157227 -84505274.527105331 0 -84505274.527105331 20514027.804105759 0 0 0 0 -41951479.666389465 -43275602.327188253 0 -43275602.327188253 11677645.580141068 0 0 0 0 -30601698.201400757 -38559804.446686625 0 -38559804.446686625 33424468.575444698 0 0 0 0 48085842.647781372 -100735691.54173064 0 -100735691.54173064 -2058325.2264614105 0 0 0 0 -108932526.61403847 -33099622.656320482 0 -33099622.656320482 30189855.171584129 0 0 0 0 -114165004.12719727 -82382107.169399738 0 -82382107.169399738 25569280.760313034 0 0 0 0 -111016608.46208191 -88672584.294486046 0 -88672584.294486046 9258685.0993785858 0 0 0 0 -250269290.1645813 -12333950.833502769 0 -12333950.833502769 67308317.230419636 0 0 0 0 -266489009.64581299 -42572522.002569199 0 -42572522.002569199 47485283.157550335 0 0 0 0 -215371186.43597412 -14292292.973785877 0 -14292292.973785877 51733242.814539909 0 0 0 0 -196566972.34155273 15736011.820232391 0 15736011.820232391 40046678.093275547 0 0 0 0 -24409125.211249374 -6916091.751264764 0 -6916091.751264764 6919887.1116252411 0 0 0 0 -29277174.324885167 -5252681.0274494067 0 -5252681.0274494067 3265294.4450432705 0 0 0 0 -23758175.496894836 -6516412.7808247805 0 -6516412.7808247805 5238882.2899631858 0 0 0 0 -43148993.408340454 -6596582.7078781128 0 -6596582.7078781128 -1963493.9542198181 0 0 0 0 -13216127.485489845 -74671542.919057131 0 -74671542.919057131 -13579997.577747345 0 0 0 0 -17946169.588176407 -14440824.041247675 0 -14440824.041247675 3312977.0777007081 0 0 0 0 -76951062.556243896 -6327557.1940815449 0 -6327557.1940815449 -380002.7599003315 0 0 0 0 2322018.2461050674 -4893445.3205734324 0 -4893445.3205734324 -1742811.857973926 0 0 0 0 -31635242.382747173 -57287479.811326899 0 -57287479.811326899 22314422.126485944 0 0 0 0 -4353635.2885225229 -689250.74783623032 0 -689250.74783623032 1647342.7655489305 0 0 0 0 -29447686.78922534 34598708.01477854 0 34598708.01477854 -16424143.665167332 0 0 0 0 -35385980.503929138 23417678.554332614 0 23417678.554332614 -26657017.227655768 0 0 0 0 -80411526.311607361 48513528.761477947 0 48513528.761477947 54872322.092032433 0 0 0 0 -110256573.38388062 6351936.255241245 0 6351936.255241245 5221123.6456952095 0 0 0 0 -41454972.179123878 -6430784.3305909485 0 -6430784.3305909485 5487607.5168385506 0 0 0 0 -9427958.6516485214 2155836.6656428929 0 2155836.6656428929 5866339.8917797608 0 0 0 0 -42473294.131797791 -31248037.577130705 0 -31248037.577130705 -44957859.014354855 0 0 0 0 68728328.332767487 -87840452.937831163 0 -87840452.937831163 -75512375.624745369 0 0 0 0 -20854199.21419923 -7644429.6542010214 0 -7644429.6542010214 1419480.5566732825 0 0 0 0 -27127341.575370789 -8212523.5277073979 0 -8212523.5277073979 -33250871.701042175 0 0 0 0 -25933211.051540196 -10614349.19671526 0 -10614349.19671526 3413069.5868182052 0 0 0 0 -81484863.572463989 -27476277.536707968 0 -27476277.536707968 26056901.114739925 0 0 0 0 16279290.977096558 -31861229.510934234 0 -31861229.510934234 -29203978.233202696 0 0 0 0 -2931479.0392640159 -6639177.6610022811 0 -6639177.6610022811 1828561.4140139357 0 0 0 0 -31587244.097548619 -9411129.2168983966 0 -9411129.2168983966 1147766.6906708926 0 0 0 0 -21047867.993933544 -6125967.8087462932 0 -6125967.8087462932 773533.86326007708 0 0 0 0 -34993705.443855286 -8758228.2050031461 0 -8758228.2050031461 2622738.699843362 0 0 0 0 -29264261.692771912 -14918803.168536097 0 -14918803.168536097 3606206.2571828961 0 0 0 0 -30416333.44418335 -5791343.3813021258 0 -5791343.3813021258 2500710.1067815535 0 0 0 0 -25352102.240608215 -8192598.3669434711 0 -8192598.3669434711 -1152451.9187218994 0 0 0 0 -28444080.62006693 -4818312.8674837835 0 -4818312.8674837835 3215647.1503246417 0 0 0 0 -28739521.160591125 -9978356.2109514028 0 -9978356.2109514028 -217444.11304853857 0 0 0 0 -23078014.484741211 -7459704.6542970836 0 -7459704.6542970836 -3516088.9814506173 0 0 0 0 -18210751.430827837 -5897303.1168349087 0 -5897303.1168349087 -1490945.1472520556 0 0 0 0 -48536424.633588791 -7573736.6875041127 0 -7573736.6875041127 4373613.0845267195 0 0 0 0 -24200099.116317175 -7460809.2583005652 0 -7460809.2583005652 -2003318.4349299977 0 0 0 0 -34824666.157333374 251383.65631627571 0 251383.65631627571 1606557.7498922427 0 0 0 0 -44383851.214230537 -20646955.803411841 0 -20646955.803411841 -9682889.0813446045 0 0 0 0 -28800463.572314985 -1077426.1695728414 0 -1077426.1695728414 7020870.8247837182 0 0 0 0 -50588954.084311962 -11311992.32831192 0 -11311992.32831192 2698074.4764547348 0 0 0 0 -42869502.012130737 -10396458.104276657 0 -10396458.104276657 167777.66138458252 0 0 0 0 -40442224.430740356 -12000353.612749577 0 -12000353.612749577 1191509.6808485985 0 0 0 0 -38456807.959106445 -8291823.2593712807 0 -8291823.2593712807 -1545664.1811755896 0 0 0 0 -33562919.337211609 -14205653.402159452 0 -14205653.402159452 40057.733353614807 0 0 0 0 -38375042.499542236 -10250601.662506819 0 -10250601.662506819 4321899.6701922417 0 0 0 0 -51577721.217514038 6740288.0323035717 0 6740288.0323035717 3962044.6529709101 0 0 0 0 -35458353.204269409 -13143547.235433102 0 -13143547.235433102 -531773.01927137375 0 0 0 0 -32428399.109231487 -6212838.6127230376 0 -6212838.6127230376 526099.72848654026 0 0 0 0 -48484791.972618103 -732555.01418268681 0 -732555.01418268681 -2202781.579082489 0 0 0 0 -24199316.513287704 -14090100.898369709 0 -14090100.898369709 6829121.3339275392 0 0 0 0 8344112.9511710629 -8903133.9023643862 0 -8903133.9023643862 -2110321.5231318269 0 0 0 0 -13096221.740470886 -75254600.156363487 0 -75254600.156363487 37484017.037573814 0 0 0 0 47891739.516403198 -19080300.779488564 0 -19080300.779488564 -6661938.5238946676 0 0 0 0 1973287.9178619385 -53196611.106235981 0 -53196611.106235981 -4658539.8965501785 0 0 0 0 -2016890.2686767578 -30249837.733540535 0 -30249837.733540535 40936637.154320717 0 0 0 0 54025360.648925781 -14862623.682085037 0 -14862623.682085037 13772215.207201004 0 0 0 0 -8067512.1506498903 -1029350.763507938 0 -1029350.763507938 452796.58401319943 0 0 0 0 -23863217.941043895 -13304187.915482599 0 -13304187.915482599 -1488040.3901562095 0 0 0 0 -193312569.37388611 10054151.701582432 0 10054151.701582432 -6416380.6046581268 0 0 0 0 11050479.897384644 11695249.004477024 0 11695249.004477024 17779888.231125832 0 0 0 0 105408695.91206169 -50087944.332010984 0 -50087944.332010984 -38983647.200202942 0 0 0 0 1869408.6352273915 -23264867.179424599 0 -23264867.179424599 1959358.25043217 0 0 0 0 -9076475.2629892603 -13945886.75884811 0 -13945886.75884811 1353435.4687456666 0 0 0 0 -159265656.77857971 118793461.212286 0 118793461.212286 148314223.56811523 0 0 0 0 38770181.548439026 -38051260.390488744 0 -38051260.390488744 -43970470.244999945 0 0 0 0 -23696669.468534946 47277050.353994042 0 47277050.353994042 -12336709.562566757 0 0 0 0 -10790508.335479736 -226747380.3421998 0 -226747380.3421998 -236840527.99945259 0 0 0 0 -32566617.200122833 -46683583.070738792 0 -46683583.070738792 -3986561.6201505661 0 0 0 0 55195317.424041748 -75818498.443496704 0 -75818498.443496704 -36113886.548857689 0 0 0 0 2153012.0854606628 -22321817.704356194 0 -22321817.704356194 -29343823.974992692 0 0 0 0 -11250163.21470058 -28380952.667402234 0 -28380952.667402234 7666129.0432467461 0 0 0 0 2812058.2673771158 -1547424.1694394005 0 -1547424.1694394005 -423091.90746794222 0 0 0 0 -56787610.661113739 16851759.309477329 0 16851759.309477329 -4932316.2543934584 0 0 0 0 -20963164.617028557 -14312207.812174791 0 -14312207.812174791 430954.26839315286 0 0 0 0 -33801753.846607208 -100460377.45906329 0 -100460377.45906329 -174028453.87101579 0 0 0 0 -10302434.956870437 -46605408.039196983 0 -46605408.039196983 -64060762.952357769 0 0 0 0 -18442572.707386017 -27262619.682662487 0 -27262619.682662487 -29034067.716136932 0 0 0 0 -47342188.274139404 -73463338.502571106 0 -73463338.502571106 -51594484.394504309 0 0 0 0 -110831103.74090052 -71338248.506224275 0 -71338248.506224275 5693382.9463329315 0 0 0 0 -107167549.12895489 -100026557.94998816 0 -100026557.94998816 6299337.4967927933 0 0 0 0 -209075157.42222977 -121091395.42821455 0 -121091395.42821455 30048365.831927299 0 0 0 0 -62247463.664604187 -50175443.408237457 0 -50175443.408237457 14839938.900913239 0 0 0 0 -141862004.22356415 -55372771.897417068 0 -55372771.897417068 32494458.162178993 0 0 0 0 -55183300.50994873 -63871074.852700233 0 -63871074.852700233 27474435.931350708 0 0 0 0 170032.54428863525 -34182598.862864494 0 -34182598.862864494 7911210.817445755 0 0 0 0 -158930539.03440094 59606688.190766335 0 59606688.190766335 30873.600919485092 0 0 0 0 -138646938.06921196 -66526270.436626196 0 -66526270.436626196 70872527.852546692 0 0 0 0 -230497638.31020355 -47326761.45599556 0 -47326761.45599556 98808375.087908745 0 0 0 0 -232847667.79285431 -62168733.756731033 0 -62168733.756731033 78856169.39107132 0 0 0 0 -224815443.21298027 -90514887.879406929 0 -90514887.879406929 108635524.42962837 0 0 0 0 -209459871.30088806 -94975498.565674782 0 -94975498.565674782 89951056.901619911 0 0 0 0 -223041548.79447174 -35385775.083098412 0 -35385775.083098412 156887101.60067844 0 0 0 0 -58429243.231903076 -6792928.0728807449 0 -6792928.0728807449 87949472.969374657 0 0 0 0 -62510433.456512213 93569751.760758594 0 93569751.760758594 86195408.054615021 0 0 0 0 -571685973.84152985 -84054515.04985857 0 -84054515.04985857 202387883.45730972 0 0 0 0 -302654012.7531414 -85057179.291221857 0 -85057179.291221857 126703314.61972237 0 0 0 0 -232365743.98318863 93049542.013560057 0 93049542.013560057 281477314.13692379 0 0 0 0 -232895963.2123642 -106841770.35193825 0 -106841770.35193825 80877774.305024028 0 0 0 0 -229972131.81554794 -99680216.136577845 0 -99680216.136577845 94652618.949117661 0 0 0 0 -35649648.232765198 133549850.93259764 0 133549850.93259764 36363084.262122869 0 0 0 0 -8908678.7602653503 92362800.788596153 0 92362800.788596153 60165972.09132576 0 0 0 0 -39426197.149360657 126110741.00308657 0 126110741.00308657 114167226.89405346 0 0 0 0 416452141.04564285 312375952.73966169 0 312375952.73966169 100801934.72313786 0 0 0 0 -8152982.996802194 224417.20171876997 0 224417.20171876997 2833701.8811093494 0 0 0 0 389774534.41403961 -204241359.79789662 0 -204241359.79789662 -526466672.1137867 0 0 0 0 -270364723.509655 327618525.81080604 0 327618525.81080604 446626965.13678265 0 0 0 0 -775991237.90758514 549069.76048994064 0 549069.76048994064 391658404.8919856 0 0 0 0 -391354489.41021729 -469323790.06462729 0 -469323790.06462729 -429238615.58770853 0 0 0 0 -380892285.45573425 -188941590.46743321 0 -188941590.46743321 -226662589.26945543 0 0 0 0 -182961765.378582 -177551192.04210258 0 -177551192.04210258 -72975552.513226509 0 0 0 0 -300750661.57602692 -145100831.12847042 0 -145100831.12847042 80098204.249706447 0 0 0 0 -278931821.02251053 -129157916.13319325 0 -129157916.13319325 60634672.959563255 0 0 0 0 -547605106.00662231 -246815319.95918083 0 -246815319.95918083 21932488.220167875 0 0 0 0 -531804164.57292938 -300605866.12918729 0 -300605866.12918729 -224008340.66101521 0 0 0 0 -732708491.92417145 5092983.1074423194 0 5092983.1074423194 -196632023.96909243 0 0 0 0 -184605744.25566101 -227849699.43710852 0 -227849699.43710852 -211493139.44480205 0 0 0 0 -133640254.87789917 -137897745.7950716 0 -137897745.7950716 -70930353.860135674 0 0 0 0 -289668052.19261169 571218327.25045395 0 571218327.25045395 -549722319.1915288 0 0 0 0 -95262073.799547195 -181085615.26083276 0 -181085615.26083276 -392670611.81727469 0 0 0 0 -3373194.9632860422 1317493.253906827 0 1317493.253906827 1147697.1809360716 0 0 0 0 -685847194.30554008 975925281.58617139 0 975925281.58617139 1000188426.8024931 0 0 0 0 -356614206.33403778 36328232.99576664 0 36328232.99576664 51585434.39475584 0 0 0 0 -3371245.6926902346 -3866690.2000090629 0 -3866690.2000090629 1181389.2199019482 0 0 0 0 -123048625.04211617 89872963.790669203 0 89872963.790669203 -197496605.92432404 0 0 0 0 -372452853.58556938 68968637.860785007 0 68968637.860785007 19901510.082388878 0 0 0 0 -145048224.67260361 127852104.3856864 0 127852104.3856864 -19196975.453880787 0 0 0 0 60960582.236888885 -147995721.17914805 0 -147995721.17914805 -312936997.99659061 0 0 0 0 -435096760.84072876 -135701621.67262697 0 -135701621.67262697 -269330501.45076513 0 0 0 0 -1894036.4802206587 -2199005.3903208077 0 -2199005.3903208077 446797.41926319001 0 0 0 0 -695851636.66882324 -174196374.13499135 0 -174196374.13499135 -61259108.745176315 0 0 0 0 -458183116.31763458 -313905313.83058727 0 -313905313.83058727 -1795593246.0144792 0 0 0 0 -402921221.26102448 -5482495.7072577477 0 -5482495.7072577477 35504418.318160057 0 0 0 0 -288498430.77086639 94227113.784509659 0 94227113.784509659 -137915014.13726425 0 0 0 0 -181000497.26990509 159096465.44122696 0 159096465.44122696 -108667872.95039558 0 0 0 0 -213482737.20352936 -73472121.516829252 0 -73472121.516829252 -280676218.64101315 0 0 0 0 -289461716.24333954 162217348.19577026 0 162217348.19577026 -456736020.79708004 0 0 0 0 -735566906.79520035 388763078.91028452 0 388763078.91028452 -255907458.78539085 0 0 0 0 -293067735.96753311 125493856.18258286 0 125493856.18258286 -113519225.64191246 0 0 0 0 -224409851.08371258 237625996.02232742 0 237625996.02232742 -154491960.05113983 0 0 0 0 -172872123.1918602 67296785.079375267 0 67296785.079375267 -198825808.84092999 0 0 0 0 -148326756.19155693 303085062.68961966 0 303085062.68961966 40117164.569108963 0 0 0 0 -435748866.56480789 150435999.55995464 0 150435999.55995464 -4787573.3058023453 0 0 0 0 -1985892.5912862588 -2173813.937670486 0 -2173813.937670486 1181561.6701003499 0 0 0 0 -374421962.29174423 304682479.90653563 0 304682479.90653563 -35307570.491987228 0 0 0 0 -268486447.00909042 119984677.90308666 0 119984677.90308666 -144621355.50597477 0 0 0 0 -264957014.97234726 -3595486.7499570847 0 -3595486.7499570847 -45815497.569278717 0 0 0 0 -221439832.93580151 43516296.505763531 0 43516296.505763531 -8860886.7884168625 0 0 0 0 -236428235.11253214 25158670.967799425 0 25158670.967799425 -2216735.8899784088 0 0 0 0 -24002687.257099152 -14127470.360025406 0 -14127470.360025406 -49111351.686603546 0 0 0 0 -27171811.492486119 -32826846.545886695 0 -32826846.545886695 1971580.3964195251 0 0 0 0 22939350.872097015 22670373.403330326 0 22670373.403330326 -33472313.198444366 0 0 0 0 -23598999.796512604 -10094720.667985439 0 -10094720.667985439 -7291564.6927061081 0 0 0 0 -6700271.1633974006 -10365095.996064745 0 -10365095.996064745 -1558696.4611951932 0 0 0 0 -26742915.394729614 -10091589.151985168 0 -10091589.151985168 1087329.2487735748 0 0 0 0 36660397.659914017 -28097609.631150007 0 -28097609.631150007 -15728714.43165946 0 0 0 0 -10559862.80890711 -2898962.3118993677 0 -2898962.3118993677 2763715.0640067221 0 0 0 0 -40712432.972976685 -55123653.349737644 0 -55123653.349737644 50586754.436451674 0 0 0 0 -27642494.504364014 -1578219.8135137558 0 -1578219.8135137558 3533097.7031364441 0 0 0 0 -25437070.603122711 -3615034.6337966919 0 -3615034.6337966919 -2492560.7664241791 0 0 0 0 -29649191.912952423 -14559289.844577789 0 -14559289.844577789 -5148985.9711265564 0 0 0 0 207641.71034184098 -403636.58689042274 0 -403636.58689042274 -139926.1005846234 0 0 0 0 -13039901.840826416 -5472520.1487347111 0 -5472520.1487347111 4219040.671360461 0 0 0 0 -12323656.498070097 -9735912.5052770413 0 -9735912.5052770413 3630515.4856947046 0 0 0 0 -20227370.008201599 -8141643.5635051727 0 -8141643.5635051727 9243025.5024657249 0 0 0 0 -3516069.2311515808 125138.80314603448 0 125138.80314603448 13391045.57711941 0 0 0 0 5988230.4924659729 -358285.40560746193 0 -358285.40560746193 -3694085.9781975448 0 0 0 0 8825778.3908615112 -8352818.0091630816 0 -8352818.0091630816 -39364851.869300455 0 0 0 0 -41793879.151664734 -19563345.342155814 0 -19563345.342155814 17080499.700909734 0 0 0 0 -8289244.5476355888 1157032.3611034662 0 1157032.3611034662 2496569.1452641096 0 0 0 0 25600480.893850327 49213663.922273725 0 49213663.922273725 -75093948.898914576 0 0 0 0 -196358730.75095177 18906443.896083504 0 18906443.896083504 71438363.716960669 0 0 0 0 -2974550.2199707031 12015117.622829914 0 12015117.622829914 -25215104.306756258 0 0 0 0 
</DataArray>
<DataArray type="Float64" Name="cross_section_updated" format="ascii">
1 1 0.05025623483011149 1 1 1 1 0.050257092217589006 1 1 1 1 1 1 1 1 1 1 1 1 0.049465564582902043 1 1 1 1 0.049464881187394644 1 1 1 1 1 1 1 0.048545257740565811 1 1 1 1 1 1 1 1 0.046108657442012785 1 1 1 1 1 1 1 1 1 1 1 0.044992162924411175 0.049660910744012882 1 1 1 1 1 1 1 1 0.047284616212223261 1 1 1 1 1 1 1 1 1 1 1 1 1 1 1 1 1 1 1 1 1 1 0.048081832482544634 1 1 1 1 1 1 1 1 1 1 1 0.04653899810006483 1 1 1 0.048504819841625357 1 1 1 1 1 1 1 1 1 1 1 1 1 1 1 1 1 1 1 1 1 1 1 1 1 1 1 1 1 1 1 1 1 1 1 1 1 1 1 1 1 1 1 1 1 0.050206810172409161 1 0.051354668767229293 1 1 1 1 1 1 1 1 1 1 1 1 1 1 1 1 1 1 1 1 1 1 1 1 1 1 0.040642381838497971 1 1 0.048728980887888601 1 0.048871499438600495 1 1 1 1 1 1 1 1 1 1 1 1 1 1 0.059336649220357432 1 0.042999544610131384 1 1 1 1 1 1 1 0.040519196305127195 1 0.054195543671234012 1 1 1 1 1 1 0.050553979052421108 1 1 0.040156875699677991 1 1 1 1 1 1 0.046852503029830059 0.023188085312930869 1 1 0.050522687449529813 1 0.031877390162428271 1 0.049281904527306866 0.037903953776674201 1 1 1 0.028260449569448086 1 1 1 1 1 1 1 1 1 1 1 1 1 0.0233765804268036 1 1 1 1 1 1 1 0.024226375834332063 1 1 1 1 1 1 1 0.026632865767021979 1 1 1 1 0.048482328184571662 1 1 1 1 1 1 0.050463775526065555 1 1 1 0.045894643128792656 1 1 1 1 1 1 1 0.044178493621547424 1 1 1 1 1 1 0.053949280829585125 1 1 1 1 1 1 0.042071199699458439 1 1 1 1 1 1 1 0.052534906644220294 1 1 1 1 1 1 1 1 1 1 1 1 1 1 1 1 1 1 1 1 1 0.057796810350340129 0.050359200241677671 1 1 1 1 1 0.0098707463204089768 1 1 1 1 1 1 1 0.048432131324622055 1 0.01137676080861913 1 1 1 0.037624297259749542 1 1 1 0.046667710083509853 1 0.050045213969086802 1 1 1 1 1 1 1 0.019529767520946373 1 1 1 1 1 1 1 0.03164343059685075 1 1 1 0.049973116237003748 1 1 1 1 1 1 1 1 1 1 1 1 1 1 1 1 1 1 1 1 1 1 1 1 1 1 1 1 1 1 1 1 0.019274627231896248 1 1 1 1 1 1 1 1 1 1 1 1 1 1 1 1 1 1 1 1 1 1 1 1 1 1 1 1 1 1 1 1 0.052569835186068462 1 1 1 1 1 1 1 1 1 1 1 1 1 1 1 1 1 1 1 1 0.049792667438746496 1 1 1 1 1 1 1 0.047411043048822557 1 1 1 1 1 0.043293984318437929 1 1 0.049380784486500753 1 0.02420102570759497 1 1 1 1 0.018251328236377047 1 1 0.013545971753778203 1 1 1 1 1 1 0.049566080987852382 1 1 1 1 1 1 1 1 1 1 1 1 1 1 1 1 1 1 1 0.027584658365759393 1 1 1 1 1 1 1 1 1 1 1 0.052626325041366849 0.015521170919550381 1 1 1 1 1 1 1 1 1 1 1 1 1 1 1 1 1 1 1 1 1 0.047073099624990879 1 0.048690562015037769 0.04014643999605487 1 1 0.046860882403344385 1 1 1 1 1 1 1 1 1 1 1 1 1 0.032440079901305596 1 1 1 1 1 1 1 0.041616713050600516 0.041523833945737859 1 1 1 1 1 1 1 1 0.046005415246882259 0.055997908969267166 1 1 1 0.038806840611039749 1 1 1 1 1 1 1 1 1 1 1 1 1 1 1 1 1 1 1 1 1 1 1 1 1 1 1 1 1 1 1 1 1 1 1 0.04575219259806753 1 1 0.047921312600355696 1 1 1 1 0.047352739574558149 1 1 1 0.041425570780794403 1 1 1 0.046604942769606694 1 1 0.044810421283636423 1 1 1 1 1 1 1 1 1 1 1 1 1 1 1 1 1 1 1 1 1 0.041999944983065009 1 1 1 0.03983271923349848 1 1 1 1 1 0.045236693384775276 1 1 1 1 1 1 0.044998415743301795 1 1 1 1 1 1 1 1 1 1 1 1 1 1 1 1 1 1 0.047174204913097713 1 1 1 1 1 1 1 1 1 1 1 1 1 1 1 1 1 1 1 1 1 0.049431426974202455 1 1 1 1 1 1 1 1 1 1 1 1 1 1 1 0.052141000379798338 1 1 1 1 1 1 1 1 1 1 1 1 1 1 1 1 1 1 0.048720359870877417 1 1 1 1 1 1 1 0.048906698016065973 1 1 1 1 1 1 1 1 1 1 1 1 1 1 1 1 1 1 1 1 1 0.049560766415865952 1 1 1 1 1 1 1 1 1 0.04895759402525196 1 1 1 1 1 1 1 1 0.021045740994724643 1 1 1 1 1 1 1 1 1 1 1 1 1 1 1 1 1 1 1 0.063268585831211754 1 1 1 1 1 0.024349224696488661 1 1 1 0.049931500987163514 1 1 1 1 1 1 0.049595666539520855 1 1 1 1 1 1 1 1 1 1 0.051928177223871733 1 1 1 1 1 1 1 1 1 1 1 1 0.024913315625539084 1 0.056162576135840289 1 1 1 1 1 1 1 0.064320318915033675 1 0.030170370786301338 1 1 1 1 1 1 1 1 1 1 1 1 1 1 1 1 1 1 1 1 1 1 1 1 1 1 1 1 1 1 1 1 1 1 1 1 1 1 1 1 1 1 1 1 1 0.033479349175516156 0.04946965908114604 1 1 0.051530569257572906 1 1 1 1 1 1 1 1 1 1 1 1 1 1 1 1 0.054430827450197818 1 1 1 1 0.050867390623149572 1 1 0.049988254340725256 1 1 1 1 1 1 0.052364415276813028 1 0.053231865614715872 1 1 0.050377585556284729 1 1 1 1 1 1 1 1 1 1 0.031804137405631976 1 1 1 1 1 0.052156290171097859 0.049439388352437719 1 1 1 1 0.045460513832437641 1 1 0.044476731355599389 1 0.033334295943908743 1 1 1 1 1 0.036530380839165835 1 1 0.049841733945777497 1 1 1 1 1 1 1 1 1 1 1 1 0.04962261062972511 1 1 1 1 1 1 1 1 1 1 1 1 1 1 1 0.042065277652485487 1 0.04999366641592709 1 0.044660583897345389 0.053209141056583975 1 0.037262303939172105 1 1 0.049988846498805029 1 1 1 1 1 1 0.018531369403171117 1 0.050100898082683636 1 1 0.022212204687829994 1 1 1 0.052560091984011945 1 1 0.049988896149194439 1 1 1 1 1 0.033876370000874463 1 1 0.036400698631804271 1 1 1 1 1 0.04992095640029022 1 0.048350913552880515 1 1 0.050468939269777482 1 1 0.02716389200498432 1 1 1 1 1 1 1 1 0.027752594780648447 1 1 1 1 1 1 1 1 1 1 0.02886435972830375 1 1 1 1 0.048756562672795226 1 1 0.045975792246373298 1 1 1 1 1 0.058294298087599561 1 1 1 1 1 0.050020279808883822 1 0.049726389216708508 1 1 1 1 1 1 0.050284736920522134 1 1 1 1 1 1 1 1 0.048973303635924323 0.045754254923407928 0.030358623524071655 1 1 1 1 0.047593286495397007 1 0.041794883427261821 1 1 1 0.05917208202359292 0.04999346601503081 1 1 1 0.051344846062811915 1 1 1 0.053338977230692204 1 0.046773070408378338 1 0.047760687978844626 0.059219424047779419 1 0.049973578680070033 1 1 1 1 0.045321984089575933 1 1 1 0.049865852791887072 1 0.028699715057490437 1 0.03688099113757818 1 1 1 1 1 1 1 0.050061825720763453 1 1 1 1 0.040722564878908227 1 1 1 1 1 1 1 1 0.049986388042164709 1 0.050191241181313746 0.049511264064721248 1 1 1 0.037159396616162535 1 1 1 1 0.035492010443775084 0.049462192628012019 1 1 0.04369694955141018 0.047949991033909747 1 1 1 1 1 0.049281428285914392 1 1 1 1 1 1 1 1 0.047009792604438702 1 0.042213913837629818 1 1 1 1 1 1 1 1 1 1 1 1 1 1 1 1 1 0.048029002218887742 1 1 1 1 1 1 1 1 1 1 1 1 1 1 1 1 1 1 1 1 1 1 1 1 1 0.049838544290789002 1 0.045921503791613222 1 1 1 1 1 0.050034169193704348 0.049958111409829864 1 1 1 1 0.056229353200652608 0.03692612900138096 1 0.03789813460387096 1 1 0.038706238802036913 1 1 0.03787201799923838 1 1 1 1 0.049434750807674427 0.028230719008858044 1 1 1 1 1 1 1 1 0.04620802639055327 1 1 0.040989919910897135 1 1 1 0.040682703499763183 1 1 0.045498445527065015 1 1 1 1 1 1 0.050243897999057582 1 1 1 1 1 1 0.038236217469964293 1 1 1 1 1 0.050703087240386288 1 1 0.049214846105825126 0.034784299794891831 1 1 0.051849097735536712 1 1 0.049974753786955442 1 1 1 1 1 1 1 1 1 1 1 1 0.032563156593459874 1 0.051587634106012914 1 1 0.051171153461831785 1 1 1 1 1 1 0.050106764155146609 1 1 1 0.048677201764496775 0.034804371233387005 0.0500047852210833 1 1 1 0.054886066467045788 0.046290870855672718 1 0.049328357093178045 0.042825420878643917 1 1 0.047782236440299872 1 1 0.048110533674554694 1 0.04625941465661422 1 0.048174549116778528 1 1 1 0.052675475234111216 0.048969299351623266 1 1 0.052345411044244061 0.047016762494297773 0.047984851059766895 0.049330062248273757 1 1 1 0.047573378586877504 0.05163631177898316 1 1 0.048826842188726752 0.042094864215987071 0.051619410088655351 1 0.045354515921704405 0.050950042251974852 1 1 0.052542608057595787 1 0.050760579961383896 0.047993637609304078 1 0.051566481989032763 1 1 0.044800167262240231 1 0.041419483213029462 0.04595876721181455 1 1 1 1 0.048384241088011301 0.03502887525988975 1 1 0.050079907330798673 1 1 1 0.049770685531274297 1 1 1 1 1 1 1 1 1 1 1 1 1 1 1 1 1 1 1 1 1 1 1 1 1 1 1 1 1 1 1 1 1 1 1 1 1 1 1 1 1 1 1 1 1 1 1 1 1 1 1 1 1 1 1 1 1 1 0.036314359234649221 1 0.045307920742606707 1 1 1 1 1 1 1 1 1 1 1 1 1 1 0.036551610468495012 1 1 1 1 1 1 1 1 1 1 0.045521528745230092 1 1 1 1 1 1 1 1 1 1 1 1 1 1 1 1 1 1 1 1 1 1 1 1 1 1 1 1 1 1 1 1 1 1 1 1 1 1 1 1 1 1 1 1 1 1 0.049972299650977076 1 1 1 0.050032069919414994 1 0.049540188870272485 1 1 1 1 1 0.048816288963623861 1 0.056050436664806622 1 1 1 1 1 1 1 1 1 1 1 1 1 1 1 1 1 1 1 1 1 1 1 1 1 0.052074214195201349 1 1 1 1 1 1 0.031384695953179748 1 0.044227955025599001 1 1 1 0.029390837695602912 1 1 0.0166950034534172 1 1 1 1 1 1 1 1 1 1 1 1 1 1 1 1 1 1 1 1 1 1 1 1 1 1 1 1 1 1 1 1 1 1 1 1 1 0.053468124367933009 1 0.042821577726173093 1 1 1 1 1 1 1 1 1 1 0.050910242755935788 1 1 1 1 1 1 1 1 1 1 1 1 1 1 1 1 1 0.026907651928597193 1 1 1 0.05006701013546231 0.0077330833949252401 1 0.0012956691795928538 1 1 1 1 1 1 1 1 0.049126790037396215 1 1 1 1 0.045498520206338107 1 1 1 1 1 1 1 0.049195148267360565 1 1 0.035239839338000012 1 0.011782677220410407 1 1 0.051175019527299262 1 1 0.020680419585670917 0.050072081165584946 1 1 1 1 1 1 1 1 1 1 1 1 1 1 1 0.0017978030201004983 1 0.020995392670394797 1 1 1 0.049647411147894435 1 0.043205603357878312 1 1 1 1 1 1 1 1 1 1 1 1 0.047362373822565522 1 0.052770215876529462 1 1 1 1 1 1 1 1 0.04257170345941922 1 1 0.040693525703105665 1 1 1 0.054901259835317677 0.051178648853733653 1 1 1 1 1 1 1 1 1 1 1 1 1 1 1 1 1 1 1 1 1 0.0457607243162646 1 1 1 1 1 0.050059782841421707 1 0.046574576772562076 1 1 1 1 0.045177211868201589 1 1 0.051437146707451087 1 1 1 1 1 0.052837937204657293 1 1 1 1 0.048731736048954262 1 1 1 1 1 1 1 0.04416824570502749 1 1 1 0.038634473947304092 1 1 1 1 1 1 1 1 1 1 1 0.038313165609167588 1 1 1 1 1 1 1 1 0.047034345786042826 1 1 1 1 1 1 0.042434623918847628 1 1 1 1 1 1 0.040762728063266529 1 1 1 1 1 1 1 1 1 1 1 0.04998205606825086 1 1 1 0.050386559859355501 1 1 1 0.048942433884728867 1 0.050044653333730885 1 1 1 1 1 1 0.045362449930461714 1 1 1 1 1 1 1 1 1 1 1 1 1 1 1 0.048886510239263978 1 1 1 1 1 0.052731612274236277 1 1 1 1 1 1 1 1 0.050687337771028532 1 1 1 1 1 1 1 1 1 1 1 1 1 1 1 1 0.049219363495315624 1 1 1 1 0.049856922823761009 1 1 1 1 1 1 1 1 1 1 1 1 1 1 1 1 1 1 1 1 1 1 1 1 1 1 0.029637179176709987 1 1 1 0.049977507752243265 1 0.040303669145585252 1 1 1 1 0.042200819318897811 1 0.04971556831145945 1 1 1 1 1 0.049949122090641819 1 1 1 1 1 1 1 1 1 0.030539103314391455 1 1 1 1 1 1 1 1 1 1 1 1 1 1 1 1 1 1 1 1 1 1 1 1 0.048254575081033035 0.051698249706177923 1 1 1 1 1 0.051168821949212205 1 1 1 0.049740239745435497 1 1 1 0.047838197890595832 1 1 0.049786910539271909 1 0.050423790798866705 1 1 1 1 0.048532059408186196 1 1 1 1 0.047901840818446659 0.049777580495364723 1 1 1 1 1 1 1 1 1 1 1 1 0.049078500872963567 1 1 1 1 0.049934083445318106 1 1 1 1 1 0.051513798292824695 1 1 0.050546688225220453 1 1 1 1 1 1 1 1 1 1 1 1 1 1 1 1 0.050241478642568602 1 1 0.0495263113255177 1 1 1 0.049376311770970328 1 1 1 1 1 1 1 1 1 1 1 0.049850000445452639 1 1 1 1 1 1 1 1 1 1 1 1 1 1 1 1 0.049866087103925642 1 1 0.055586877289724231 1 0.059044996702114341 1 1 0.029999672094624744 1 0.04958352720913764 1 0.029749398188981022 1 1 1 1 1 1 1 1 1 1 1 1 1 0.029900909722416706 1 0.052865240188497697 0.047356837632395524 1 1 0.027079959863627621 0.048685358631470339 1 1 0.050004357137257004 0.045525091126346826 1 1 1 0.019610621769408809 1 0.0356293487418958 1 1 0.050550682203155832 1 1 1 1 0.047161822743936536 0.030069109174457632 1 0.06028690481955739 1 1 0.041046086697953899 0.050044578603759486 1 1 0.04739738573558927 1 1 1 0.04288541276360533 1 1 1 0.051515938974086239 0.060534307590080466 0.045262866381602651 1 1 0.05358824001206991 1 0.08504055374343461 0.050119914958657849 1 1 1 1 1 1 1 1 1 1 1 0.051662189620140658 0.052474301272069528 1 0.059901043224801553 1 0.03258832570230507 1 0.042877041685757081 1 1 1 0.04953097232033507 1 1 1 1 1 0.050868819901280761 1 1 1 1 1 1 1 1 1 1 1 1 1 1 1 1 1 1 1 1 1 1 1 1 0.04959847995746787 1 1 1 1 1 1 1 1 1 1 1 1 1 1 1 1 1 1 3.0642456346818836e-05 1 1 1 1 1 1 1 1 1 1 1 0.050759589172571291 1 1 1 1 1 2.7755575615628914e-17 1 1 1 1 1 1 1 1 1 1 1 1 1 1 0.045873168214318749 1 1 1 1 1 1 1 1 1 1 1 1 1 1 0.04066294571568066 1 0.033827013022923257 1 1 1 1 0.038990829083751732 1 1 1 1 1 1 1 1 1 1 1 1 0.035238182870366196 1 0.050103181534178892 1 1 1 1 0.050341099744424474 1 1 1 1 1 1 1 0.019638761143276132 1 1 1 1 1 1 1 0.049972286900845833 1 1 1 0.038998179569978558 1 0.049988823566904539 1 1 1 1 1 1 1 1 1 0.045985263002388019 1 1 1 1 1 1 1 1 1 1 1 1 1 1 1 1 1 1 1 1 1 1 1 1 1 1 1 1 1 1 1 1 1 1 1 1 1 1 1 1 1 1 1 0.048804608332971539 1 1 0.03453057500711032 1 1 1 1 1 1 1 1 1 1 0.049599754901855309 1 1 1 1 1 0.053631493743832526 1 1 0.044829981966367047 1 1 1 1 1 1 0.035959078304826142 1 1 1 1 0.049958094808776915 1 1 0.043379283315022665 1 0.042443709881586383 1 1 1 1 1 1 1 1 1 1 1 0.044934092820905228 1 0.041164292502278335 1 1 1 1 0.04819747579887089 1 1 1 1 1 1 1 1 1 1 1 1 1 1 1 1 1 1 1 1 1 0.034435539092447051 1 1 1 1 0.043624956172166107 1 1 1 1 1 1 1 0.046832248656270878 1 1 1 1 1 0.030530387641507964 1 1 1 0.058519941968389777 1 1 1 0.037882984928497745 1 1 0.045767455725595096 1 1 1 0.055466760999690591 1 1 0.051832251000186153 1 1 1 1 1 1 1 1 1 1 1 1 1 1 1 1 1 1 1 1 1 1 1 1 1 1 1 1 1 1 1 0.048663693803754557 1 1 1 1 1 1 1 1 1 1 1 0.050459093195097546 1 1 1 1 1 1 1 1 1 1 1 1 1 1 1 0.051231818602917811 0.052479337316058063 1 1 1 0.046286762145460403 1 1 1 1 0.050326453850094169 1 1 0.046211387539194432 1 1 1 1 1 1 1 1 1 1 1 1 1 0.045463073677356788 0.047947577506257402 1 1 1 1 1 1 1 1 1 1 1 0.036793299011680478 1 1 0.046736394047895959 1 1 1 1 1 1 1 1 1 1 1 1 1 1 1 1 1 1 1 0.043309954704437603 1 1 1 0.050007495740103269 1 1 1 1 1 0.049906597393539809 1 1 1 1 1 1 1 1 1 1 1 1 1 1 1 1 1 1 1 1 0.049409233920272133 1 1 0.049170411335723287 1 1 1 1 1 1 1 1 1 1 1 1 1 1 1 1 1 1 1 0.049194402684948305 1 1 1 1 1 1 1 1 1 1 1 1 1 1 1 1 1 1 1 1 1 1 1 1 1 1 1 1 1 1 1 1 0.050623965690552067 1 1 1 1 1 1 0.07538432500016494 1 1 1 1 1 0.065464298341472174 1 1 1 1 0.057153388334286868 1 1 1 1 1 1 1 1 1 1 1 1 1 1 1 1 1 1 1 1 1 1 0.052459665394746828 1 1 1 1 1 1 1 0.050535240203353184 1 1 0.050146702099462488 1 1 0.049854845922431473 1 1 1 1 1 1 0.050041362347317681 1 1 1 1 1 1 1 1 1 1 0.05361807383723298 1 0.039649652290530316 1 1 1 1 1 1 1 1 0.049996266963540259 1 1 0.049016422356028683 1 1 1 0.047439139466832245 1 1 1 0.046514181454705997 1 1 1 0.0499999854290155 0.050011448411267825 1 1 0.045632811982026122 1 1 0.044818352723743876 1 1 0.049989669779740412 1 1 1 1 1 1 1 1 1 0.049989685809539275 1 1 1 0.044003920121330933 1 1 1 0.043194248135946398 1 1 1 0.049989535636309722 1 0.049965225093528874 1 1 0.039350589387073941 1 1 1 1 1 1 1 1 0.049063219694946703 1 1 0.050081509671972405 1 1 1 1 1 1 1 1 1 1 1 1 1 0.04635039803387106 1 0.050009751136339743 1 1 1 0.045366183407709669 0.049620684576764815 1 0.047394108967044296 1 1 1 1 0.050029850374917764 1 0.05063675320436508 1 1 1 1 1 1 1 1 1 0.050241211239817743 1 1 1 1 1 1 1 1 1 1 1 1 1 1 1 1 1 1 1 1 1 1 1 1 1 1 1 1 0.050063554346360103 1 1 1 1 1 1 0.050079050348828105 1 1 1 1 1 1 0.050053637488479102 1 1 1 1 1 1 0.050008964595324529 1 1 1 0.049924561173307014 1 1 1 0.049829332403572471 1 1 0.027540781551639137 1 1 1 1 1 1 0.036781081487836424 1 1 1 0.030743801973379947 0.049956303858532156 1 1 1 1 1 1 1 1 1 1 1 1 1 1 1 1 1 0.049968969235453277 1 1 1 1 1 1 1 0.049982684745430148 1 1 1 1 1 0.030375342843274061 1 1 1 1 1 0.049999717434803873 1 1 0.047342991930535483 1 1 1 1 0.049980253597775783 1 1 1 1 1 1 0.06040063666245115 1 0.024544302916548522 1 0.061595334936494113 0.031186135164757753 1 0.04999293498941379 1 1 1 0.050007405751150674 1 1 1 1 1 0.050043611829494225 1 1 1 0.049989642078019439 1 1 1 1 0.049970167712521385 0.047972554154814828 0.048864916422956498 1 1 1 1 0.048599422699691905 0.03333166025421555 1 0.030498676716351814 1 1 1 1 1 1 0.049991814536788318 1 0.04726300482854065 1 1 0.047812530649839632 1 1 1 0.049991261790255884 1 1 0.027905295381640244 1 1 1 1 1 1 1 1 1 1 1 1 0.049837478333358984 1 1 1 1 0.040235649978052873 1 1 1 1 0.039881062737471551 1 1 1 1 1 1 1 1 1 0.049482960590715427 0.037437930616554219 0.051444756394377199 1 1 1 0.050005389542007193 0.049801412855334043 1 1 0.047694103724105062 1 0.039467110306778894 1 1 1 1 1 1 1 0.046813725212052827 1 1 1 1 1 1 1 1 1 1 1 1 1 1 1 1 0.049848215664762704 1 1 1 1 1 1 1 1 1 0.049536387253734888 1 1 0.040966808116017425 1 0.045508414499306891 1 0.049747701392944939 1 1 0.043165388457985933 1 1 1 0.049999290253323128 0.053716564996387259 1 1 0.049054363734294115 1 1 1 0.044831584486762686 1 1 1 1 0.04964865597251153 1 1 1 1 1 1 1 1 1 1 1 0.044945400390015725 0.049981615515992596 1 1 1 1 1 1 1 1 1 1 1 1 1 1 1 1 1 1 1 1 1 1 1 1 1 1 1 1 1 1 1 1 0.049985046518726477 1 1 1 1 1 1 1 1 1 1 1 1 1 1 1 1 1 1 1 0.05069549736127351 1 1 1 1 1 1 0.049981764829669199 0.042180179653673745 1 1 0.044874722480108709 0.048637040413826681 1 1 1 0.049994012598787246 1 1 1 1 1 1 1 1 1 1 1 1 1 1 1 1 1 1 1 1 1 1 1 0.049382382916723186 1 0.043107226638770223 1 0.049789605706566042 1 1 1 1 1 1 0.032067552547650528 1 0.047982605267341771 0.051717816829171051 1 1 0.038647526181929528 1 1 1 1 1 1 0.049710494355797816 0.041291048684611351 1 1 0.033662279736483433 0.050432520512108496 1 1 0.033987207672081694 0.049906254223687191 1 1 1 1 1 1 1 1 0.029537849951549455 1 1 1 1 1 0.037350758967795369 1 1 0.039898402915144217 1 1 1 0.050002386115165186 1 1 1 1 1 1 1 1 1 1 1 1 1 1 1 1 1 1 1 1 1 1 1 1 1 1 1 1 1 1 1 1 1 1 0.049304075444340942 1 1 0.01072430969615204 1 0.059268670056365588 0.025249172873126779 1 1 1 1 1 1 1 1 1 0.058374798996144311 1 1 1 1 1 0.057541111045358917 1 1 1 1 1 1 1 0.050282052854335124 1 1 1 1 1 1 1 1 0.050961746025150786 1 1 1 1 1 0.051810710734568555 1 1 1 1 1 1 1 1 1 1 1 1 1 1 1 1 1 1 1 1 1 1 1 1 1 1 1 1 1 1 0.05068596051649335 0.049703473279024205 1 1 1 1 1 1 1 0.050076764242349608 1 1 1 0.05220936803090926 1 0.049037801071272778 1 1 1 1 1 1 1 1 1 1 1 1 1 1 1 1 1 1 1 1 1 0.049107426044393949 1 1 1 1 1 1 0.05275880035011099 1 1 1 1 1 1 1 0.0036091349245459814 1 1 0.049750976084673972 1 1 1 1 1 1 0.052718116835213699 1 1 1 0.0020510061141865016 1 1 0.0011812038852813261 0.049997755716687346 1 1 1 1 1 1 1 1 1 1 1 1 1 1 1 1 1 1 1 1 1 1 1 1 1 1 1 1 0.050034377455673545 1 1 1 1 1 1 1 1 1 1 1 1 1 1 1 1 1 1 1 0.0074005723329344936 1 1 1 0.005955658634913194 0.04927337530337083 1 1 1 1 1 0.04974149320128117 1 1 1 0.048362528194508959 1 1 1 1 1 0.047948124281921904 1 1 1 1 1 1 1 1 1 1 1 1 1 1 1 1 1 1 1 1 1 0.043741478443513337 1 1 1 1 1 1 0.034573495734249463 1 1 1 1 1 1 1 1 1 1 1 1 0.046484021664191508 1 1 1 1 0.048223745934371703 1 0.046494311248992268 1 1 1 1 1 1 1 1 1 1 1 1 1 0.029131940450431652 1 1 1 1 1 0.025480484219379367 1 1 1 1 1 1 0.048227366757751113 1 1 1 1 1 1 1 1 1 1 1 1 0.049851615780714786 1 1 0.049659282540356127 1 1 0.04870389429159705 1 1 0.049565862851759984 1 1 1 1 1 1 1 1 1 1 0.055025018282596552 1 1 1 1 1 1 1 1 0.050081571224143258 1 1 1 0.049931560959506863 1 1 1 0.033372227496880222 1 1 0.049106728030808594 1 1 1 0.051257735243530764 1 1 1 1 1 0.048388983283034391 1 0.049998971142690737 1 1 1 1 0.050093192605236134 0.053440600865329958 1 1 1 0.020858566297478093 1 1 1 1 0.049739397977921082 1 1 1 1 1 1 1 1 1 1 1 1 1 1 1 0.049814201384633883 1 1 0.051226800529217513 0.051108987313429326 1 1 1 1 0.048379488430824659 1 1 1 1 1 1 0.05025828726521956 1 1 1 1 1 1 0.050085867763888098 1 1 1 1 1 1 1 1 0.048299414631587184 1 1 1 1 1 1 1 1 1 1 0.050784311532507752 1 1 0.027139991549722867 1 1 0.025684106309265847 1 1 1 1 1 0.048991323715582735 0.049899038860028153 1 1 0.049993053552754824 0.05237131712438281 1 0.050993506080397759 1 0.042111386753878349 1 0.040825654645018319 0.04792552780361857 1 1 0.046531217693493693 1 0.050816882697905894 1 0.045939716619109935 1 0.036854349179961457 1 0.051145815005921476 1 1 0.04998410498279815 1 0.050064823638519974 1 0.04774834205196446 1 1 1 1 1 1 0.053223871241144763 1 1 1 0.050002615972888693 1 1 1 1 1 1 1 1 1 0.045946542277231092 1 1 0.053885954964631715 1 0.0499734870170324 1 0.04600745341402121 1 1 1 0.15435757192414384 0.047363302183892661 1 1 1 1 1 1 1 1 1 1 1 0.049179195407001622 1 1 1 1 1 0.047568885721958006 1 1 1 1 1 1 1 1 1 1 1 1 1 1 1 1 1 0.049324926379132439 1 1 1 1 1 1 0.025884334134285078 1 1 1 0.025085109532914734 1 1 0.049910842960222739 1 1 1 0.038014768194660875 1 0.041247592885577104 0.049516043825585776 1 1 1 1 1 1 1 1 1 0.038722612593796335 1 1 1 1 1 1 1 0.050022730965059749 1 0.048263470392052726 1 0.049420458596245248 1 1 1 1 1 1 1 1 1 1 1 1 1 1 1 1 1 1 1 1 1 1 1 1 1 1 1 1 1 1 1 1 1 1 1 1 1 0.034629881161608464 1 1 0.033096281999115136 0.03785376798950818 1 1 1 1 0.03603458737397381 1 1 1 1 1 0.04052132381624686 1 1 0.049994486890729925 0.043501885276930344 1 1 1 1 1 1 0.043679127688970497 1 0.049889764084347914 1 1 0.030387939327929991 0.041761747211178986 1 0.053042349663680911 1 1 1 0.049643475419893668 1 1 1 1 0.049528596454447266 1 1 1 0.029857091923284645 1 1 0.043386448621513904 0.049927770609957955 1 1 1 0.036308588135559594 1 1 1 1 0.049998868045119521 1 1 0.028691189167727182 1 1 1 0.055040283927216355 1 1 0.028307072878642443 1 1 1 0.055257328223990584 1 0.050457642090436725 1 1 0.048066007219716503 1 1 0.025973419484966096 0.049991792569142879 1 1 0.036394308299140997 1 0.050015301417161095 0.039510727090367674 1 1 1 1 0.045373223295832849 1 1 1 1 0.048816873656245013 1 1 1 1 1 1 1 1 1 1 1 1 0.033143274618912325 1 1 1 1 0.05000706422759485 1 0.059223717460741426 1 1 1 1 1 0.041932180946839738 0.049953466740588613 0.049899015889975418 1 1 1 1 1 1 1 1 0.040700163220431684 1 1 1 1 1 1 0.044652478964520972 1 1 1 1 0.040880497592744619 1 1 1 1 1 1 1 1 1 1 1 1 1 1 1 1 1 1 0.046460391003035159 1 0.052363698717241607 1 1 0.04431984121591788 0.05330102134914521 1 0.049052146014740117 1 1 0.049927375913529019 1 0.050786086042043169 1 0.051019921934144244 1 0.048138855125849679 1 1 1 1 0.049337342310696169 1 1 1 0.047709271403968426 1 1 1 1 1 1 1 1 1 1 1 1 1 1 1 1 1 1 1 1 1 1 1 1 1 0.049987015421738792 1 1 1 1 1 0.0072264250282329349 1 1 1 1 1 1 1 1 1 1 1 0.050171853529653795 1 1 1 1 1 0.04979394999540164 1 1 0.049065045045325315 0.0087249801955320144 1 1 1 0.028824330283695555 1 1 0.044813494773060264 0.029961997631590728 1 0.033752695263165003 1 1 1 1 1 1 1 1 1 1 1 1 1 1 1 1 0.049171227136443438 1 1 1 1 0.05110555393513809 1 1 1 1 1 1 1 1 0.031224797764895423 0.03262064203925958 1 1 0.049588532637470838 1 1 1 1 1 1 1 1 1 0.035672703155675854 0.054585144514480002 1 1 0.047710924243560035 1 1 1 0.046510844405179851 1 1 1 1 1 1 1 1 1 1 1 1 1 1 1 1 1 1 1 1 1 1 1 1 1 1 0.049585386982771242 1 1 1 1 1 1 1 1 1 1 1 1 1 1 1 1 1 1 1 1 0.043395654883301465 1 1 1 0.046904419860866395 0.049970907803062278 1 1 1 0.039438897681568573 1 1 0.049696738778977255 1 1 1 1 1 0.046547725390110567 1 0.051062752230879693 1 1 1 1 1 1 1 1 0.049145896406603821 1 1 1 0.042841079240604187 1 1 0.04842088917627458 1 0.047625886291201465 1 1 1 0.047843149171144211 1 1 1 0.04349262513183462 1 1 1 1 1 1 1 1 1 1 1 1 1 1 1 1 1 0.039570425331860844 1 1 1 1 1 1 1 1 1 0.050085241988365607 1 1 1 1 1 1 1 1 0.036932216520733203 1 1 1 1 1 1 1 1 1 1 1 1 1 0.050041074490501783 1 1 1 0.049716026414542813 1 1 1 1 1 1 1 1 1 1 1 1 1 1 1 1 1 1 1 0.050235485082881885 1 1 1 0.048407270219894952 1 0.050067381833297751 1 1 1 0.042793328822722063 1 1 1 0.050019860624882853 0.052197151316755765 1 1 1 1 1 1 1 1 1 1 1 1 1 1 1 1 1 1 1 1 1 1 0.050176595302131304 1 1 1 1 0.050362808287429173 1 1 1 1 0.050186212985297879 1 1 1 1 1 1 1 0.053768166906527345 1 1 1 1 0.052405690804630478 1 1 1 1 1 1 0.050849914561900404 1 1 1 1 1 1 0.049847938189333037 1 1 1 0.049769485959895166 1 1 1 1 1 1 1 1 1 0.049124907616543173 1 1 1 1 1 1 0.047486354018130589 1 1 1 1 1 1 1 1 1 1 1 0.049998255011174733 1 1 0.044109054285098842 1 1 1 1 1 0.049407246999890575 1 1 0.046661778147021542 1 1 1 1 1 1 1 0.034869932276073767 0.053265544909714031 1 1 1 1 0.052982494329409345 1 1 1 1 1 1 0.049994546731868761 1 1 1 1 1 1 1 1 1 1 0.046379178898156834 1 1 1 1 1 1 1 1 1 1 1 1 0.048243289376236495 1 0.050302371691795286 1 1 1 0.046248321417636233 1 1 0.046163570075263533 1 1 1 1 0.045656444835325764 1 1 1 1 1 0.046144819153166962 1 1 1 1 1 1 1 1 0.046264115381682333 1 1 1 1 0.050348028902917029 1 1 1 1 1 1 1 0.050108830226340884 1 1 1 1 1 1 1 1 1 1 0.050236552045548104 1 1 1 0.050428590391748775 1 0.04973715453567229 1 1 1 1 1 1 0.047376818240001672 1 0.049103349844518793 1 0.049937335740321762 1 1 1 1 0.048626329660209563 1 1 1 1 1 1 1 1 1 1 1 1 1 1 0.050978374233178324 1 0.022531354765701554 1 1 1 1 1 1 1 0.049693093341811392 1 1 1 1 1 1 1 1 1 1 1 1 1 0.02610592266872289 1 1 1 1 0.030355307087784365 1 1 1 1 1 1 1 1 1 1 1 1 1 1 1 1 1 1 1 1 1 1 1 1 0.049802429748155741 1 1 1 1 0.056692498966869981 1 1 1 0.048407513567215441 1 1 0.049958057211457858 1 1 0.043934128147894824 1 1 1 1 1 1 1 1 1 1 1 1 1 1 1 0.048954063248007815 1 1 0.049094261912530184 1 1 1 1 1 1 1 0.046339127902398011 1 1 1 1 1 0.041001257937451983 1 1 1 0.041120574923749764 1 1 1 0.041554359763288203 1 1 1 1 1 1 1 0.053857767126626432 1 1 1 0.044408258525531936 1 0.051795340513686769 0.046694112925571678 1 1 1 1 1 0.048244154085934264 1 1 1 1 1 1 1 1 1 1 0.054099759374544754 1 1 1 1 1 1 1 1 1 1 1 1 1 1 1 1 1 1 1 1 1 1 1 1 1 1 1 1 1 1 1 1 1 1 1 1 1 0.043812391436474606 1 1 1 1 1 1 1 1 1 1 1 1 1 1 1 1 0.037433571927426898 1 1 1 1 1 1 1 1 1 0.043823779241296539 1 1 1 1 1 1 1 0.043499443779532077 1 1 1 1 1 1 1 1 1 1 1 1 1 1 1 1 1 1 1 1 1 0.049902608747457181 1 1 1 1 1 1 1 1 1 1 1 1 1 1 1 1 1 0.050097802485537961 1 1 1 1 1 1 1 1 1 1 1 1 1 1 1 1 1 1 1 1 1 1 1 1 1 1 1 1 1 1 1 1 1 1 1 1 1 1 1 1 1 1 1 1 1 1 0.048954105822815161 1 1 1 1 1 1 1 1 1 1 1 1 1 0.050129527190304821 1 0.050010814424283317 1 1 1 1 1 0.050790850866954534 1 1 1 1 1 0.04964297957601483 0.049275026881854408 1 1 1 1 1 1 1 1 1 1 1 1 1 1 1 1 1 0.049498660294472849 0.04932150640887549 1 1 1 1 1 1 0.049485005763065512 1 0.049343702035621384 1 1 1 1 1 1 1 1 1 0.049832531008965265 1 1 1 1 1 1 1 1 1 1 1 1 1 1 1 1 1 1 1 0.049877520568652689 1 1 1 1 1 0.049528069257146985 1 0.049063926029149427 1 1 1 1 1 1 1 0.049076216247766688 1 1 1 0.049535856772002451 1 1 1 0.046965539303074247 1 1 0.036592009996110841 1 1 1 0.055828656654651247 1 1 0.052956180850977197 1 0.048743010894629062 1 0.056071946329366337 1 1 0.05182395629646247 1 1 1 1 1 1 1 1 1 1 1 1 1 1 1 1 1 1 1 1 1 0.049865468247647649 1 0.048321108152560167 1 1 1 1 1 1 1 0.048511374045595829 1 1 1 1 1 1 1 1 1 1 1 1 1 1 1 1 1 1 1 0.049634954207542811 1 1 1 0.049950582371424974 1 1 1 1 1 1 1 1 1 1 0.050728615595983503 1 1 1 1 0.051073192902617089 1 1 0.049825341993792023 1 1 1 1 1 0.051051902441450733 1 1 1 1 0.04981487120785931 1 0.051088327895379412 1 1 0.047768412610629862 1 1 1 1 1 1 1 0.047188709862435278 1 1 0.050326665522808234 1 0.046890291675859549 1 1 1 1 1 1 1 1 1 1 1 1 1 1 1 1 1 1 0.049810735490906727 1 1 1 1 1 1 1 0.050120086762396938 1 1 1 1 0.047935633295014414 1 1 1 1 1 1 1 1 1 0.049874759622367044 1 1 1 1 0.050155312797540319 1 1 1 1 1 1 1 1 1 1 1 1 0.048764552228729711 1 1 1 1 1 1 1 1 1 0.040795802450930951 1 1 1 1 1 1 1 1 1 1 1 1 0.041817631307294129 1 1 0.046460800989843634 1 1 1 1 1 1 1 1 1 0.049027503186148513 0.024113365688210472 0.032262274590512667 1 1 1 0.04999528151565226 1 1 1 1 1 1 0.032804831794221959 1 1 1 0.05044551543076975 0.050043579856986563 1 1 1 1 1 1 1 1 1 1 1 1 0.040760183045223684 1 1 1 0.049677759422535953 0.034424498273489111 1 1 1 1 1 0.022146934995864349 1 1 1 1 0.031458250554664627 1 1 1 1 0.050008790875784775 1 1 1 1 1 0.04182583391150399 0.034505440817364702 0.046875867860240172 1 1 1 0.037631033374117537 0.035760616992122643 1 1 1 1 1 1 1 1 1 0.041645540721265591 0.049920143584273748 1 1 1 0.049450197681585095 0.050266153814272435 1 1 1 1 1 1 1 1 1 1 1 1 1 1 1 1 1 0.041636201575974766 1 0.042406943783701363 1 1 1 1 0.03500245608572438 1 1 1 1 1 1 1 0.038069997576862122 1 1 1 1 1 1 1 0.043803913664512376 1 1 0.034166620396977168 1 0.038127212171624639 0.042382695626902452 1 1 1 0.042370609252524498 0.050010571088647968 1 1 1 0.050005880382548731 0.050036247454538628 1 1 1 1 1 1 1 1 1 1 0.050072714306733462 1 1 1 1 1 1 1 0.048471601409305051 1 1 1 1 0.04316103040234999 1 1 1 1 1 1 0.031390278036134422 1 1 1 1 0.049693348189961822 1 0.034209290560093523 1 1 1 1 1 1 1 1 1 1 1 1 1 1 0.029315595806060545 1 1 1 1 1 1 1 0.030811334350334552 1 1 1 1 0.049978868281280842 1 1 1 0.043612882821741521 1 1 1 1 1 1 1 1 1 1 1 1 1 1 1 1 1 1 1 1 1 1 0.045482816225395531 1 0.048280533672943153 1 1 0.048370744867095347 1 1 1 0.045452295148727902 1 1 0.043944585914717511 1 1 1 1 1 1 1 1 1 1 1 1 1 1 1 1 1 1 1 1 0.04401417007547586 0.050490370861448849 0.049029000974901676 1 1 1 1 1 1 1 1 1 1 1 1 1 0.044398609571495912 1 1 1 0.056671902838456391 1 1 0.029035302770241096 1 1 1 1 0.037282103847839337 1 1 0.048046789350782021 0.049370576392822607 1 1 1 1 0.048182309073638629 1 1 0.051626851402729095 1 0.050456956359311619 1 1 1 1 1 1 1 1 1 1 1 1 0.056529214351732283 1 1 1 1 1 1 1 0.045708249906745067 1 0.049834611847201338 1 1 1 1 0.048981211536751654 1 1 1 1 1 1 1 1 1 1 1 1 1 1 1 1 1 1 1 1 1 1 1 0.043410880965963503 1 1 1 0.049954690003427442 1 0.053921899785930781 1 1 1 0.012165238270779775 1 1 1 1 1 0.050051159294777103 1 1 0.06733290126745721 1 1 1 1 1 1 1 1 0.049389828878219778 1 1 1 1 1 0.047577615894711489 1 1 1 1 1 1 1 1 1 1 1 1 1 1 0.049111316790408956 1 1 1 1 0.048726144767699611 1 1 1 1 1 1 1 1 1 1 1 1 0.048629115294511992 1 1 1 1 0.048974335202602214 1 1 1 1 1 1 1 1 1 1 1 1 1 0.047315413364243289 1 1 0.051389680652285052 1 1 1 0.049775000900929123 1 1 1 1 1 1 1 1 1 1 1 1 1 0.054470415626298188 0.034428915145152894 1 0.042725058855445135 0.046374370232247983 1 1 1 0.050725893191557299 0.015713830538704385 1 0.03851092652154986 1 0.048527199275201958 1 0.031756073868434986 1 1 1 0.055826665954856206 1 0.050179650562936898 1 1 1 1 0.037527970347593892 1 1 1 1 1 1 0.046206982002048244 1 1 1 1 1 0.0096491167180108514 1 1 0.049950672049806188 1 1 0.048080573814748249 1 1 0.0502936508881828 1 1 1 1 1 0.035085433842422527 1 0.039419334358018712 1 1 1 1 1 1 1 1 1 1 1 1 1 0.046225384792785408 1 1 0.049115924138601018 1 1 1 1 1 1 1 1 1 0.034961525433443566 1 1 1 1 1 1 1 1 1 0.0059379325963571953 1 1 0.045451639718203041 1 0.012160566728254704 1 1 1 1 1 1 1 0.044190693489054529 1 1 1 1 1 1 1 0.0022486599713349188 1 0.054701526938441519 1 1 0.049272716884028844 1 1 1 0.048692039413821664 1 1 1 1 0.04640393661944868 1 1 1 1 1 0.050218491333266911 1 1 1 1 1 1 1 1 1 1 1 1 1 1 1 1 1 1 1 1 1 0.046942204890530734 1 1 0.046801512224170505 1 1 1 0.045308166703900421 1 1 1 1 0.048833642536241978 1 1 1 1 1 1 1 1 1 1 1 1 1 1 1 1 1 1 1 1 1 1 1 0.04575969065066763 1 1 1 1 1 1 0.037487604915248336 1 1 1 1 1 1 1 1 1 1 1 1 1 0.050149658523942736 1 0.02719498659431667 1 1 0.052316930437842954 1 1 1 1 0.0088475705396886817 0.043856334518960448 1 0.052377548907695859 1 0.034304301509733223 1 1 1 1 1 0 1 1 0.026184451030697681 0.036876170461055027 1 1 1 1 1 0.050976718347071202 1 1 0.049997259923627344 1 1 1 1 1 1 1 1 0.033163387667569155 0.046883660951565466 1 1 1 0.035684502955568673 1 0.049982535438252915 1 1 1 1 1 0.052367112447318828 1 0.043952070107620603 1 1 1 1 1 0.051651299863131252 0.049805241228057892 1 1 1 1 0.0500099111015498 1 1 1 1 0.050633673491460515 1 1 1 1 1 1 1 1 1 1 1 1 1 1 1 1 1 0.051576855922390516 1 1 0.050581099435680482 1 1 1 0.04915122391523602 1 1 1 1 1 1 1 1 1 1 1 1 1 1 1 1 1 1 1 0.0463016055380348 1 1 1 1 1 1 1 1 1 1 1 1 1 1 0.045798142686163598 0.049791177578176471 1 1 1 0.049564759562559388 1 1 1 1 1 0.047864256654986198 1 1 1 1 1 1 1 1 1 1 1 0.048329924521280557 1 1 0.04917870060604454 1 1 1 1 1 1 1 1 1 1 0.041145863653945861 1 1 1 0.03911440068230225 1 0.046116441095145719 1 0.050528232160974164 1 1 1 0.049991288168435018 0.051524937908261417 1 0.039801439933393377 1 1 0.051521148734126831 1 1 0.04959548784219503 0.039048934396091715 1 1 1 0.036872443718343403 1 1 0.056494176458339304 1 0.038851661487546041 1 1 1 0.056499329272383547 1 1 0.053324840906144741 0.04876084848481984 1 0.048066899265584509 1 1 0.049074367925647261 1 0.052251444122715096 1 1 1 1 1 1 1 1 1 0.050567430762370962 1 1 1 1 1 0.045816050868888639 1 1 1 1 1 1 1 1 1 1 0.049118427031303785 1 1 1 1 0.049485188984005946 0.050707661841211608 1 1 0.015134299093507143 1 0.02407391578670183 1 1 1 1 1 1.6653345369377348e-16 1 1 0.052679073048549109 1 0.050038161870460285 1 1 1 1 1 1 1 0.056711770698723608 1 1 1 1 1 1 1 1 1 0.01390210744680366 1 0.05008738372169115 1 0.049876150978797072 1 0.033189169927883705 1 1 1 1 0.049778720046528634 1 1 1 1 1 0.049260381922522779 0.057541996163421219 1 1 1 1 1 1 0.050883115533770402 1 1 1 1 1 0.029585122264210825 1 1 1 1 0.019302662531318106 1 1 0.040857154871809895 1 0.037543181281903405 1 1 1 0.057638239948809337 1 0.0096810734899561469 1 1 0.023492499913762836 0.050004777054548734 0.016688986394037479 1 1 1 1 1 1 0.050004416837350227 0.064411013337232453 0.052649485740789231 1 1 1 1 0.039463185104426646 1 0.045390384296011659 1 0.032726461230888272 1 1 1 1 1 1 0.047781869010420766 1 1 1 1 1 1 1 1 1 1 1 1 1 1 1 1 1 1 1 1 1 1 1 1 1 1 1 1 1 1 1 1 1 1 1 1 1 1 1 1 1 1 1 1 1 1 1 1 1 0.048571820424148857 1 1 1 0.046869054567510844 0.050097036416008538 1 1 1 1 1 1 1 1 1 1 1 1 1 1 1 1 1 1 1 0.029701512651819362 1 1 1 1 1 1 1 0.045156670397851359 1 1 0.028047672466843004 1 1 0.043951258310653836 1 1 0.047541150108172323 1 0.019597203241765185 1 1 0.017500531688464008 1 1 1 0.049902148844456651 1 0.033732587244004811 1 0.030700354432250415 0.015787403622163031 1 1 1 0.017721002808168546 0.050033406279287942 1 1 0.015646364332303653 1 1 0.022596406669092017 1 1 1 1 1 1 1 1 1 1 1 1 0.014114635619158135 1 1 1 1 0.010039834176811382 1 1 1 1 0.014224168470666723 1 1 1 1 1 1 1 1 1 0.049214926869199926 1 0.050003285717150639 1 1 1 1 0.046515031209587665 1 1 1 0.041881638990250283 1 1 1 1 1 1 0.033869176643147841 1 1 0.0499677490900882 1 1 1 0.046893583819353608 1 1 1 1 1 1 1 0.048033318028886683 1 1 1 1 1 0.049785871010884671 1 1 1 1 1 1 1 1 1 1 1 1 1 1 1 0.049844303844487584 1 1 1 1 1 0.047042795279310705 1 1 0.04565675349634659 1 0.051057395734625644 1 1 1 1 0.049751907133022473 0.049644139027316292 1 1 0.049255245404789018 1 1 1 1 1 1 1 1 1 1 1 0.050210880453734882 1 0.048987001943189411 1 1 1 1 1 0.049690231331795273 1 1 1 0.050662848803871445 1 1 1 0.050950227722827819 1 1 1 1 1 1 1 1 1 1 1 1 1 0.047343573544165178 1 1 1 1 1 1 1 0.022478185148836691 1 0.053671139997357134 1 1 1 1 1 1 1 0.050094766258565994 -5.5511151231257827e-17 1 1 1 1 1 1 1 1 1 0.045025648326958892 1 1 1 1 1 1 0.021890454723672601 0.034489471494904875 0.05158645257634667 1 0.013520036251545665 1 1 1 1 1 1 0.0073005853545928534 1 0.048867888791863462 1 0.050538626788465532 1 0.025433573021203471 1 1 1 1 1 1 0.026420129726446841 1 1 0.049677087814567179 1 1 1 1 0.050296512000872817 1 1 1 1 1 1 1 1 1 1 1 1 1 1 1 1 1 1 1 1 1 0.048000701076294089 1 0.048065538810276753 1 1 1 1 1 1 1 1 1 1 1 1 1 1 1 1 1 1 1 1 1 1 1 1 1 1 1 1 1 1 1 1 1 1 1 1 1 1 1 1 1 1 1 1 1 1 1 1 1 1 1 1 1 1 1 1 1 1 0.048959449735765159 1 1 1 1 1 1 1 1 1 1 1 1 1 1 1 1 1 1 1 1 1 1 1 0.049685437754280734 1 1 1 0.04536268965091711 1 0.050083068630810683 1 1 1 1 1 1 1 1 1 1 1 1 1 1 1 1 1 1 1 1 1 1 1 1 1 1 1 1 1 1 1 1 1 1 1 1 1 1 1 0.045809789115458535 1 0.051004402915848693 1 1 1 1 1 1 1 1 1 1 1 1 1 1 1 1 1 1 1 1 1 1 1 1 1 0.047930464006554985 1 1 1 1 1 1 1 1 1 1 1 1 1 1 1 1 1 1 1 1 1 1 1 1 1 1 1 1 1 1 1 1 1 1 1 1 1 1 1 1 1 1 1 1 1 1 1 1 1 1 1 1 1 1 1 1 1 1 1 1 1 1 1 1 1 1 1 1 1 0.020946279680759176 1 1 1 1 1 1 1 0.027549957926133746 1 1 0.05019511378580168 1 1 1 1 1 1 1 1 1 1 1 1 1 1 1 1 1 1 1 1 0.045748026161747855 1 1 1 1 1 1 1 1 1 1 1 1 1 1 1 1 1 1 1 1 1 1 1 1 1 1 1 1 1 1 1 1 0.043358626064926131 1 1 1 1 0.048792848994466564 1 0.033047239181556616 1 1 1 1 1 1 0.049310597829588423 1 1 0.048276940067930152 1 1 0.048477188963283541 0.044881943357953744 1 0.049886764281681983 1 1 1 0.048415139767136073 1 1 1 1 1 1 1 1 1 1 1 1 1 1 1 0.047110239572772335 1 1 1 1 1 1 1 1 0.045817941813540444 1 1 1 1 1 1 1 1 1 1 1 1 1 1 1 1 1 1 1 1 1 1 1 1 1 1 1 1 1 1 1 1 1 1 1 1 0.040313620523589624 1 1 1 1 1 1 1 0.039928861988886191 1 1 0.052781785147223412 1 0.038823823570691675 1 1 1 1 1 1 1 1 1 1 1 0.050001350669841557 0.049966174628619034 1 1 0.051231944546522912 1 1 0.049349437139619007 0.049670457131009156 1 1 1 1 0.048794212954096458 1 0.051625393800647942 1 1 0.048816931616912827 1 0.049756184485708815 0.05079431217559055 1 0.044523575372508589 1 0.053446029430648301 1 1 1 1 1 1 1 0.050065977984860038 1 0.04989918786731621 1 1 1 1 1 0.049793530124826124 1 1 1 0.043671405973130024 1 1 0.050606603054114116 1 0.036931574428466882 1 0.038556060474558326 0.052173225851050761 1 1 0.048791691908269375 1 1 1 1 1 1 0.049118544929163468 1 1 1 1 1 1 1 1 0.038777216370495027 0.050117870333193398 1 1 1 0.04573577065493703 1 1 1 1 0.053080781322782766 0.044678975054681172 1 0.046520491456727375 1 1 1 0.048740045320911224 1 1 1 1 1 1 1 1 1 1 1 1 1 1 1 1 0.050608538781231283 1 1 1 1 1 1 0.046557861032756581 1 0.045033665437051201 1 1 1 0.046781137546427445 0.044859908875089768 1 1 0.050014588546387267 1 0.050009395037202746 1 1 1 1 1 1 1 1 1 1 1 1 0.049998092779412244 0.050003474212007987 1 1 1 1 1 0.044326795798907317 1 1 1 1 1 1 1 0.049327115002563232 1 1 1 0.050000272546145821 1 0.040913320335535908 1 1 0.050125009580416699 1 1 1 1 1 1 1 1 1 0.050205636074080975 1 1 0.049998716953627134 1 1 1 1 1 1 1 1 1 1 1 0.045014835911862561 1 1 1 1 1 1 1 1 1 1 1 1 1 1 1 1 1 1 1 1 1 1 0.049902447684663259 1 1 1 1 1 1 1 1 1 1 1 0.049985852330097405 1 1 1 1 0.050413025076946089 1 1 1 1 1 1 1 1 1 1 1 0.049672833218351461 1 1 1 1 1 0.048993402566239533 1 0.050137424827648144 1 1 1 1 1 1 1 1 1 0.050336520141529374 1 1 0.0500354488965754 1 1 0.040322043929412646 1 1 1 1 0.050411524934321945 1 1 1 1 1 1 1 1 1 1 1 1 1 1 1 1 1 1 1 1 1 0.041455772532967755 1 1 0.047471171792806646 1 0.045586567776074768 1 1 1 1 1 1 1 1 1 0.047617732528337377 1 1 0.04862001187210073 0.050100807321514701 0.048641186025272294 1 1 1 0.050037828476601362 1 1 1 1 1 1 0.05076966476022713 0.049999731308824007 1 0.045414343182079125 1 1 0.046319252880442724 1 1 0.050074293616797431 1 1 1 1 0.049229957705068675 1 1 1 1 0.044208198183462534 1 1 1 1 1 1 1 1 1 1 1 0.050143035602206995 1 1 0.049944359098025887 1 0.046657603343878362 0.049982713360089706 1 1 0.049997568368972373 0.048207211383215195 0.046608266396359385 1 1 1 1 1 1 1 1 1 1 0.050328423269606834 1 1 1 1 1 1 1 1 1 0.055503998713076548 1 1 1 1 1 0.051763367467214078 1 1 1 1 1 1 1 1 1 1 0.049321361531160179 1 1 1 1 1 1 1 1 1 1 1 1 1 1 1 1 1 1 1 1 1 1 1 1 0.040402670056209206 0.051190164289324255 1 1 1 1 1 1 1 1 0.045960694091757945 1 1 1 1 1 1 1 1 1 1 1 1 1 1 1 1 0.047742810695930199 1 1 1 1 0.0331149406478016 1 1 1 0.055071535590359079 0.049916738395329438 1 1 1 1 1 1 0.049916015131341807 1 0.051797420165416129 1 1 1 0.050622455150622615 1 1 1 1 1 1 1 1 0.046830657931529046 1 0.030939864029233266 0.058503611621626116 1 1 1 1 1 1 1 1 1 1 1 1 0.04593199385911869 1 1 0.053189854919366682 1 0.048341071055208178 1 1 1 1 1 1 1 1 1 1 1 1 1 1 1 1 1 1 1 1 1 1 1 0.047585876955415739 1 1 1 1 1 0.047970596905371622 1 1 1 1 1 1 1 1 1 1 0.051170757459474303 1 1 1 0.050428329129236296 1 1 1 1 1 1 1 1 1 1 1 0.049969568224462156 0.04772270033775506 1 1 1 1 1 0.047552261367411516 1 1 1 0.048109670022064885 1 1 1 1 1 1 1 1 1 1 0.048624164237693175 1 1 1 1 1 1 1 0.049985790431556973 0.047369427845906739 1 0.049320048140636868 1 1 1 1 0.049228764073907014 1 1 1 1 1 0.047693166589872368 1 1 1 1 1 1 1 1 1 1 0.049997631960959812 1 1 1 1 1 1 1 1 1 1 0.048523994744895847 1 1 1 1 1 1 1 0.049562663605733678 1 1 1 1 1 1 1 1 1 1 1 1 1 1 1 1 1 1 1 1 0.048601198809262766 1 1 1 0.046284972606304889 1 1 1 1 1 1 1 1 1 1 1 1 1 0.044714229474498352 1 0.055663926202079328 0.051051516374330384 1 0.050880308324560516 0.049171659446943218 1 1 1 1 1 0.050137638085439154 1 1 1 1 1 1 1 0.054413902236975911 1 1 0.049213680428472774 1 1 0.037222429477777569 1 1 0.045113428929168031 1 1 0.0506505553958813 0.053166782948131756 0.045381620639910178 0.046894079717193615 1 1 0.052422880052877124 0.050825821895328027 1 1 0.042116727497794409 1 1 0.04769922205069814 1 1 1 1 0.050749915433100798 0.047114149312072688 0.049692137816115936 0.049749800833049244 1 1 1 0.05041435645435606 1 0.049435543364318914 1 0.045855195470067195 1 0.049149212455191854 0.044418978417957986 1 1 1 1 1 1 1 0.051780921131164837 1 1 0.048248520155853125 1 0.050144790644401846 1 1 0.05295840009782081 0.046655054427738339 1 1 1 1 1 1 1 1 1 1 1 1 1 1 1 1 1 0.051649131638917739 1 1 1 1 1 1 1 1 1 1 1 1 1 1 1 1 1 0.052321580133753931 1 1 1 1 1 1 1 1 1 1 1 1 1 1 0.036813648025659645 0.04725694603244017 1 1 1 1 0.049997824060176055 1 0.033051418068736835 1 1 1 0.052008666066384664 0.048158115288107428 1 0.050330698566557308 1 1 1 1 1 1 1 1 1 1 1 1 1 1 1 1 1 1 1 0.027575694135165266 1 0.049935791607676611 1 1 1 1 0.050375455472942629 1 1 1 1 1 1 1 1 1 1 1 1 1 1 1 1 1 1 1 1 0.050558287031413615 1 1 1 1 1 1 1 1 1 1 1 1 1 1 0.048624298475908517 1 1 1 1 1 1 1 1 1 1 1 1 1 1 1 1 1 1 1 1 1 1 1 1 1 1 1 1 1 1 1 1 1 1 1 1 1 1 1 1 1 1 1 1 1 1 1 1 1 1 1 1 1 1 1 1 1 1 1 1 1 1 0.048431586592347017 1 1 1 0.046324549772270913 1 1 0.048186965849060626 1 1 1 1 1 1 1 1 1 1 1 0.048137583923210332 1 1 1 1 0.049285251034194025 1 1 1 1 1 1 1 1 1 1 1 1 1 1 1 1 1 1 1 1 1 1 1 1 1 1 1 1 1 0.050002671223308669 1 1 1 1 0.050002682497495024 1 1 1 1 1 1 1 1 1 1 0.049875391864128822 1 1 0.049660336345187281 1 1 1 1 1 1 1 1 1 1 1 1 0.050250641205133888 1 1 1 1 1 1 1 1 0.04950077690025019 1 1 1 1 1 1 1 1 1 1 0.048852659925402067 1 0.049538240496684774 1 1 1 0.047727414833771402 1 1 1 0.050751402582689661 1 0.046039601955925408 1 0.047939866903990283 0.050034438675729265 1 1 1 1 1 0.046596901325388178 1 1 1 1 1 1 1 1 1 1 1 1 1 1 1 1 1 1 1 1 1 1 1 0.049934566394868637 1 1 0.048838920066290994 1 1 1 0.04972561086369285 1 0.049372348761458955 1 1 1 1 1 1 1 1 1 1 1 1 0.04992536794788198 1 1 1 1 1 1 1 1 1 1 1 1 1 1 1 1 1 1 1 0.045819318219640727 1 1 1 1 1 1 1 1 1 1 1 1 1 1 1 1 1 1 1 1 1 1 1 1 1 1 1 0.049467391144119362 1 1 1 1 1 1 1 1 1 1 1 1 1 1 1 1 1 1 0.046647145983318768 1 1 1 0.048268215040415903 1 1 1 0.05006174494381626 0.049993887938424512 1 1 1 1 1 0.050416725090459871 1 1 1 1 1 1 1 0.052273553050189124 0.051348926484252738 1 1 1 0.05000343226276438 1 0.050053666490423615 1 1 1 1 1 1 0.032469933142523652 0.043326244651164594 1 1 0.049653033052684585 0.052638319344392351 1 1 1 1 1 1 1 1 1 1 0.049991544832855533 1 1 1 1 1 1 0.050027046253414226 1 1 1 1 1 1 1 1 1 1 1 1 1 1 1 1 1 0.050005327579543457 1 1 1 1 0.043818343066206106 1 1 0.050022782115902026 1 1 1 1 1 1 1 1 1 1 1 0.052341981139148945 1 0.050552117265073415 1 0.051459940528832744 1 1 1 1 1 1 1 1 1 1 1 1 1 1 1 1 1 1 1 0.049194890724017518 1 1 0.047524868359039824 1 1 1 0.050077558218045243 1 1 0.050253312743263071 1 1 1 1 0.047108156742687687 1 1 1 1 1 1 1 0.04545927970630162 1 1 1 1 1 1 1 1 1 1 1 1 1 1 1 1 1 1 1 1 1 1 1 1 1 1 1 1 1 0.046330964698785344 1 1 1 1 1 1 1 1 1 1 1 1 1 1 1 1 1 1 1 1 1 1 1 1 1 1 1 1 1 1 1 1 1 1 1 1 1 0.051855706759987491 0.039515573574761792 0.042965349762123475 1 1 0.05041540866927173 1 1 1 0.048107522539191677 1 0.050210892104954649 1 1 1 1 1 0.04871540754186679 1 1 1 1 1 1 1 0.048740764269718961 1 1 1 1 1 1 1 1 1 1 1 1 1 1 0.023302157312213315 1 1 1 0.049428622761963845 1 0.049287370599556728 1 1 1 1 1 1 1 1 0.022543306041684592 1 1 1 1 1 1 1 0.05000058180329079 1 0.049930333978489165 1 0.052489029824724823 1 1 1 1 1 1 1 1 0.041406994497630224 1 1 0.050823936116066386 0.046775590858061433 0.045951647785646109 1 0.033490941273621455 1 0.060577633246862855 1 1 1 1 1 1 1 1 1 1 1 1 1 1 1 1 1 1 1 1 1 0.045496145903969193 1 1 0.0286913355853924 0.055997949443803915 1 1 1 0.050180746249817179 1 1 1 1 1 1 1 0.043364751066297044 1 0.048018968412052485 1 1 1 1 0.050665661001811989 1 1 0.0193702179929226 1 1 1 1 1 1 1 0.0073622663744592892 1 1 0.0060941787284882892 1 1 1 0.0065826504425379601 1 1 1 1 1 1 1 1 1 0.048558653298312653 1 1 1 1 1 1 0.05538571872385039 1 1 0.047974314218016463 1 1 1 1 0.0525276354374936 1 1 1 1 1 1 0.023054784397534514 0.034087068764719362 0.052131152141044315 1 1 1 0.05004137880934377 1 0.049996517095863689 1 0.03231915337693847 1 1 1 1 1 1 0.052907307116797961 1 1 1 0.0094752824666136312 1 1 1 0.03792252113065267 1 1 1 1 1 1 1 1 1 1 1 1 0.049777165747984436 1 1 1 0.049950515519514876 1 1 1 1 1 0.049361800870165201 0.051642322113512974 1 1 0.046158977320003208 1 0.045800631662624866 0.051021794980918828 0.051676197451116304 1 1 1 0.050450746161920454 1 1 1 1 1 0.042433873605909112 1 1 1 1 1 1 1 1 1 1 1 1 0.049245245851768676 1 1 1 1 1 1 0.037770823876716708 1 1 0.035806614613058445 1 1 0.049995899616974704 1 1 1 1 1 0.047141133626621576 1 1 0.0182221639473997 1 0.049111792662558593 1 0.049287156994024237 1 1 1 1 1 1 0.048532402845792896 1 1 1 1 0.049756659189629279 1 1 1 1 1 1 1 1 1 1 0.049451800207312047 1 1 1 1 1 0.049984671961526006 1 1 1 1 1 1 1 1 1 1 1 1 1 1 1 0.049559980588590936 1 1 1 1 1 0.048631695257884078 1 0.050465384895356069 1 1 1 1 1 0.049038776113033006 1 1 1 1 1 0.049861781503823172 1 1 1 1 1 0.05016189246435894 1 1 1 1 1 1 1 1 1 1 0.049081351865797103 1 0.049991374669811073 1 0.038622450568192523 1 1 0.040424306829151109 1 1 1 1 1 1 1 1 0.058356880874255813 1 0.039575630333735803 1 1 1 1 1 1 1 1 1 1 0.044439817033698807 1 1 1 1 1 1 1 1 1 1 0.050230503722214444 1 1 1 0.032403457300251445 1 0.04562346819778975 0.046014326218647511 1 1 1 0.048056831108653289 1 1 1 0.048137832433852876 0.050017815473810082 1 1 1 1 1 1 1 1 1 1 0.049852847169143802 0.050021926190490229 1 1 1 1 1 0.04993764267238987 1 1 1 1 1 1 1 1 1 1 0.049533750720218858 1 0.04882868303579161 0.049360946895327537 0.049016925133991855 1 1 1 1 1 1 1 1 0.049652950311413438 1 1 1 1 1 1 1 1 1 1 1 1 1 1 1 1 1 1 1 1 1 1 1 1 1 1 1 1 1 0.049891468943536799 1 1 1 1 0.049923114725788045 1 1 1 1 1 1 1 1 0.049491727734897809 1 1 1 1 1 1 1 1 0.049968089188463918 1 1 1 1 1 1 1 1 1 1 1 1 1 1 1 1 1 1 1 1 1 1 1 1 1 1 0.0514202870689726 1 1 1 1 1 1 0.054319995153040188 1 0.048851345164251922 1 1 0.048860515641447638 1 1 1 0.047876228004711821 1 0.037591706459509544 1 1 1 0.049885010122824508 1 1 1 0.037322032965874968 1 1 1 1 1 1 0.045978442239803213 1 1 1 1 1 1 1 1 1 1 1 1 1 1 1 1 1 1 1 1 1 1 1 1 1 1 1 0.045318768457170783 1 0.039432628108246368 1 1 1 1 0.044113859651075588 1 1 1 1 1 1 1 1 1 1 1 1 1 0.049048909021400869 1 1 0.048540636756298675 1 1 0.049719641164584799 1 1 1 1 1 0.049193438211968206 1 1 1 1 1 1 1 1 0.030495236452446159 1 0.036324820625978194 1 1 1 1 1 0.049624172963030941 0.060497364782471162 1 1 0.054549634803632632 1 1 1 0.025314442762574468 1 1 1 1 1 1 1 0.052999468720243963 1 1 1 1 1 1 1 1 1 1 1 1 1 1 1 1 0.040254478557451512 1 1 1 1 1 0.046939747177284885 1 0.047942398972248591 1 1 1 1 1 1 1 1 1 1 1 1 0.048761309228233018 1 0.049554399608122204 1 1 1 1 1 1 0.048862590950457023 0.049763961023196739 1 1 1 1 1 1 1 1 1 1 1 1 1 1 1 1 1 1 1 1 1 0.048573685755117113 1 1 0.053605143906668429 1 1 1 1 1 0.039581184542315226 1 1 1 1 1 1 0.050041858317850144 1 1 1 1 1 1 1 1 1 1 1 1 1 1 1 1 0.049762077497862711 1 1 0.044434690675960745 1 1 1 1 0.036379779462763419 1 1 1 1 1 1 1 1 1 1 1 0.04341613641136087 1 1 1 1 1 1 1 1 1 1 1 1 1 1 1 1 1 1 1 0.049308191342334828 1 1 1 1 1 1 1 1 1 1 1 1 0.04660661140439834 1 1 1 1 1 1 1 1 1 1 1 1 1 0.050014171286683812 0.015753722267249616 1 1 1 1 1 1 0.049707365875764242 1 1 1 1 1 1 1 1 1 1 1 1 1 1 1 1 1 1 1 1 1 1 1 1 1 1 1 1 1 1 1 1 1 1 1 0.051581003960076525 1 1 1 1 1 1 1 1 0.050264326460112432 1 1 1 1 1 1 1 1 1 1 1 1 0.050026403957975099 1 1 1 1 0.032414022885391303 1 0.022028429799973021 1 1 1 1 1 1 1 1 0.046057572607083201 1 1 1 1 1 1 1 1 1 1 0.039021215658485799 1 1 1 0.036297339211841639 1 1 0.04982721408016743 1 1 1 1 0.028022870622202309 1 1 0.020541689445417011 1 1 1 1 1 1 1 1 0.049988319884848642 1 1 1 0.050842394794495697 1 1 1 1 1 1 1 0.024939054216435191 1 0.050141009052706 1 0.049663702887556227 1 0.050786232192362932 0.015572598558488582 1 1 1 0.050019874607115364 0.049972916496677421 0.044860549858054828 1 1 0.05570484803420947 1 1 1 0.013424037838134149 1 1 1 1 0.055145386886535697 1 1 1 1 1 1 1 1 1 1 1 1 1 1 1 1 1 1 1 1 1 1 1 1 1 1 1 1 1 1 1 1 1 1 1 1 1 1 0.050525931566187086 1 1 1 1 1 1 1 1 0.042921717775768461 1 1 1 1 0.041154769942468361 1 1 0.047287252363906247 1 1 0.043817063675227509 1 1 1 1 0.048429950999779862 1 1 1 1 1 0.04689464590237654 1 1 1 1 1 1 1 1 1 1 1 1 1 0.048443461654032655 0.04886889200285445 1 1 1 0.048828428058349173 1 1 1 1 1 1 1 1 1 1 1 1 1 1 0.042401584345298025 1 1 1 1 1 1 0.047943590239100595 1 1 0.044550201643498925 1 1 1 1 1 1 1 1 1 1 0.029712980850020408 1 1 1 1 1 0.023335475108704908 1 1 1 1 1 1 1 1 1 1 0.032910953956699691 1 1 1 1 1 1 1 1 1 1 1 1 1 1 1 0.050217718579215045 1 1 1 1 1 1 1 1 1 1 1 1 1 1 1 1 1 1 1 1 1 1 1 0.049991601985634612 1 0.04533819553908517 1 1 1 0.050517533551821689 1 1 1 1 1 1 1 1 1 0.047789991801835588 1 1 1 0.03539569754193498 1 1 1 1 1 1 1 1 1 1 1 1 1 1 1 1 0.053226870135286722 1 1 1 1 1 0.049456423506798172 1 1 1 0.050650019491757362 1 0.050339339868101921 1 1 1 1 1 1 0.048616362464324339 1 1 1 1 1 1 1 1 1 1 1 1 1 1 1 1 1 1 1 1 1 1 1 1 1 1 1 0.049517961762640783 1 1 0.049811354416948887 1 1 1 1 1 1 1 0.046397476252448222 1 1 1 1 0.047937327894785074 1 1 0.047944224521809291 1 1 1 1 1 1 0.045364206832654644 1 1 1 0.048381957450270192 1 1 1 0.048374355935910787 1 1 1 1 1 0.042342365843834703 1 1 1 1 1 0.042897013117189686 1 1 1 1 1 1 1 1 0.045061425145110467 1 1 0.049907012840552739 1 1 1 1 0.049791095499123764 1 1 1 1 0.049677398346019593 1 1 1 1 0.055877037754246239 1 1 1 0.054484391521648599 1 0.050245156066157468 1 1 1 1 1 1 1 1 1 1 0.05087358525522221 1 1 1 1 1 1 1 0.052206688307924326 0.03937744983212578 1 1 1 1 1 0.04448205815701467 1 1 1 1 1 0.040639474290370903 1 1 1 0.032845594724256633 1 1 0.049442749906224132 1 1 0.049960696690389224 1 1 1 0.047101055209649495 1 1 1 1 1 1 0.03477862417858836 1 1 1 1 1 0.040408877642942924 1 1 1 1 1 0.045204756409751815 1 1 1 1 1 1 0.038214789520719078 1 1 1 1 0.056447899608327093 1 1 1 1 1 0.049038477320890103 1 1 1 1 1 1 1 1 1 1 0.051335657405833318 1 1 1 1 1 1 1 0.045514828249056213 1 1 1 1 0.047980938531450072 0.044341271162243581 1 1 0.057014578303129698 1 1 1 1 1 1 1 0.052497244085709063 1 1 1 1 1 1 1 0.063384283353087545 1 0.043296512803064818 1 1 0.048802710856951009 1 1 1 1 0.049136195707217514 1 0.055800625894845107 1 1 1 1 1 1 1 1 1 1 0.049865381699014041 1 1 1 1 1 0.05618351009998479 1 1 1 0.063565912152783469 1 1 1 1 0.049461424064635329 1 1 0.036036004478135299 1 1 1 1 1 0.055904286315155066 1 0.049550732454988713 1 0.050030248432048542 0.046770315200538405 1 1 1 1 0.053987474315949108 0.049469696363943501 1 1 1 1 1 1 1 1 1 1 1 1 1 0.049825889508067323 1 1 1 1 1 1 0.046500141356553226 0.051415194470509684 1 1 1 1 1 1 1 1 1 1 1 1 1 0.054595319021164559 1 1 1 1 1 1 1 1 1 1 1 1 1 1 1 1 1 1 1 1 1 1 1 1 1 1 1 1 1 1 1 1 1 0.049102640056556707 1 1 0.047848547266013806 1 1 1 1 1 1 1 0.04761479921231157 1 1 1 0.050085753511380247 1 1 0.031872806290741157 1 1 1 0.040311338604350364 0.049997848287784127 1 1 1 1 0.052474300631879932 0.044885968101757649 1 1 1 1 1 1 1 1 1 1 1 1 1 1 0.041131455509815382 1 1 0.049999149960595866 1 1 1 0.038490401990899717 1 1 1 1 0.050285018679923188 1 1 0.026858634432918416 1 1 1 1 1 1 1 1 1 1 1 0.01826800347047201 1 1 1 1 1 1 1 0.012869726145386633 1 1 1 1 1 1 1 1 1 1 1 1 1 1 1 1 1 1 0.049817779823632169 1 1 1 1 1 1 0.05697917662408155 1 0.049124591927341768 1 1 1 1 1 0.052582476009517716 1 1 0.05010260007365934 1 1 1 0.02660450501238169 1 1 1 0.05101583340406151 1 1 1 1 1 1 1 1 1 1 1 1 1 1 0.049520535801427443 1 1 1 1 0.048794290698832878 0.053520227539183701 1 1 1 1 1 1 1 1 1 1 1 1 1 1 1 1 1 1 1 0.051086037649070104 1 1 1 1 1 1 1 1 0.032842637451060468 1 0.031708415894721578 1 1 1 1 1 1 1 0.049978331042814246 1 0.046391169655520474 1 1 1 1 1 0.034408309775349429 1 1 1 1 1 1 0.04975212801176282 1 1 1 1 1 0.049261596732270069 0.046547641352901695 1 1 1 0.042060619321822236 0.046153530118191691 0.042390463844716647 1 1 1 1 1 0.044875457853997394 1 1 1 1 1 0.030856414260494989 1 1 1 1 0.029030092057194784 1 0.045667318692720699 0.020687332185913135 1 0.0092529382695694488 0.053698017684626717 1 1 1 0.051028627223859681 1 1 1 0.025960425749655975 1 1 1 0.02427228008658807 1 1 1 0.053739096615209321 1 1 1 1 1 1 1 1 0.049130369265935288 1 1 1 0.054412293498351895 1 1 1 1 1 1 0.048707758384269516 1 1 1 1 1 1 0.059155848496545059 1 1 1 1 1 1 1 1 1 1 1 1 1 1 0.04949174413412704 1 0.040637219576294459 1 1 1 0.054952590619947096 1 1 0.048980131349370438 1 0.038016891808932106 1 0.044599554847269421 1 1 0.036548756050257772 1 1 1 1 1 1 0.041552200160364372 1 1 1 1 0.048828811790209543 1 1 1 1 1 1 0.046872950798327463 1 1 1 1 1 1 1 1 1 1 0.048269072017929446 1 1 1 1 1 1 1 1 1 1 1 1 1 1 1 1 1 1 1 1.1796119636642288e-16 0.037114971504332295 1 1 1 0.030469708194935718 1 1 0.015140563151096312 1 1 0.039825333003698345 1 1 0.051051102448399145 1 1 0.036330145652405062 0.031322789583091773 1 1 1 1 0.031922942092451737 1 1 1 1 1 1 1 1 1 1 1 0.029632288342298019 0.046443533851778823 1 1 1 0.032215490734262053 1 0.049925103986268031 1 0.049956838745981745 1 1 1 1 1 0.049905468328967445 1 1 0.050735622813531785 1 0.027268273353495173 1 1 0.04995073693610555 0.050358282256156232 0.050253688385579011 1 1 1 1 0.052292376868778301 1 1 0.048474072848337234 1 0.048028160355047478 1 1 0.045152770620287788 1 1 1 1 1 1 1 1 0.050363194510273282 1 0.051712646134305193 0.045687920189713599 1 1 1 1 1 0.049985132562080425 0.048703769963277049 1 1 1 0.033090784906265436 0.035624809708271317 1 1 1 1 1 1 1 1 0.049946480728715256 1 0.05021811245827458 1 1 1 1 1 1 1 1 1 1 1 1 1 1 1 1 1 1 1 1 1 1 1 1 1 1 1 1 1 0.05178152433725159 1 1 1 1 1 1 1 1 1 1 1 1 1 1 1 0.048036202480578133 1 1 0.048492671619553014 1 1 1 1 1 0.048988106544209903 1 1 1 1 1 1 1 1 1 1 1 1 1 0.049504565075343121 1 1 1 1 1 1 1 1 1 0.048673441052844581 1 1 0.041161200376954005 1 1 1 1 0.049995810849621819 0.053300851390665219 0.037891716925168809 1 1 1 1 1 0.044373270923114314 1 1 1 
</DataArray>
</CellData>
</Piece>
</UnstructuredGrid>
</VTKFile>
