<?xml version="1.0"?>
<VTKFile type="UnstructuredGrid" version="0.1" byte_order="LittleEndian">
<UnstructuredGrid>
<Piece NumberOfPoints="31898" NumberOfCells="11152">
<Points>
<DataArray type="Float64" NumberOfComponents="3" format="ascii">
-0.5 -0.5 0 -0.47620991077874902 -0.44978878706170539 0 -0.49999999999999473 -0.42132396840504388 0 -0.5 -0.5 0 -0.47160970827802529 -0.4793630013852106 0 -0.47620991077874902 -0.44978878706170539 0 -0.5 -0.5 0 -0.47160970827802529 -0.4793630013852106 0 -0.44860394795025399 -0.5 0 -0.47160970827802529 -0.4793630013852106 0 -0.44860394795025399 -0.5 0 -0.4490820238307246 -0.45820516232899983 0 -0.44860394795025399 -0.5 0 -0.4490820238307246 -0.45820516232899983 0 -0.42881687682924802 -0.47781464288736519 0 -0.4490820238307246 -0.45820516232899983 0 -0.45555437223955858 -0.42914059360647611 0 -0.4490820238307246 -0.45820516232899983 0 -0.45555437223955858 -0.42914059360647611 0 -0.43867285131603428 -0.4271457417558665 0 -0.4490820238307246 -0.45820516232899983 0 -0.43867285131603428 -0.4271457417558665 0 -0.4263356171060747 -0.44269880333887462 0 -0.47160970827802529 -0.4793630013852106 0 -0.4490820238307246 -0.45820516232899983 0 -0.47620991077874902 -0.44978878706170539 0 -0.4490820238307246 -0.45820516232899983 0 -0.47620991077874902 -0.44978878706170539 0 -0.45555437223955858 -0.42914059360647611 0 -0.47620991077874902 -0.44978878706170539 0 -0.48101336032419229 -0.41069999664450008 0 -0.45555437223955858 -0.42914059360647611 0 -0.47620991077874902 -0.44978878706170539 0 -0.49999999999999473 -0.42132396840504388 0 -0.48101336032419229 -0.41069999664450008 0 -0.49999999999999473 -0.42132396840504388 0 -0.48101336032419229 -0.41069999664450008 0 -0.5 -0.393886241813306 0 -0.49999999999999473 -0.42132396840504388 0 -0.48101336032419229 -0.41069999664450008 0 -0.5 -0.393886241813306 0 -0.47854472220918332 -0.38978458738689759 0 -0.48422759779560409 -0.37130120630367158 0 -0.5 -0.393886241813306 0 -0.5 -0.36644851522156802 0 -0.48422759779560409 -0.37130120630367158 0 -0.48101336032419229 -0.41069999664450008 0 -0.5 -0.393886241813306 0 -0.47854472220918332 -0.38978458738689759 0 -0.48101336032419229 -0.41069999664450008 0 -0.47854472220918332 -0.38978458738689759 0 -0.46202672064839212 -0.40007602488395211 0 -0.48101336032419229 -0.41069999664450008 0 -0.46202672064839212 -0.40007602488395211 0 -0.47854472220918332 -0.38978458738689759 0 -0.46725442735267431 -0.37660061361585562 0 -0.46202672064839212 -0.40007602488395211 0 -0.47854472220918332 -0.38978458738689759 0 -0.46725442735267431 -0.37660061361585562 0 -0.48422759779560409 -0.37130120630367158 0 -0.46725442735267431 -0.37660061361585562 0 -0.46202672064839212 -0.40007602488395211 0 -0.46725442735267431 -0.37660061361585562 0 -0.45645674801697989 -0.38644133236760531 0 -0.46202672064839212 -0.40007602488395211 0 -0.46725442735267431 -0.37660061361585562 0 -0.45645674801697989 -0.38644133236760531 0 -0.4540003998136638 -0.37455519391687309 0 -0.45645674801697989 -0.38644133236760531 0 -0.46202672064839212 -0.40007602488395211 0 -0.44257020456291563 -0.38918913383950271 0 -0.46202672064839212 -0.40007602488395211 0 -0.44257020456291563 -0.38918913383950271 0 -0.44727608925983742 -0.41095911152778891 0 -0.46202672064839212 -0.40007602488395211 0 -0.44257020456291563 -0.38918913383950271 0 -0.44257020456291563 -0.38918913383950271 0 -0.44727608925983742 -0.41095911152778891 0 -0.43479358559901082 -0.4041454901736512 0 -0.44257020456291563 -0.38918913383950271 0 -0.4540003998136638 -0.37455519391687309 0 -0.44172858264042247 -0.37082207246888088 0 -0.45645674801697989 -0.38644133236760531 0 -0.44257020456291563 -0.38918913383950271 0 -0.4540003998136638 -0.37455519391687309 0 -0.46202672064839212 -0.40007602488395211 0 -0.45555437223955858 -0.42914059360647611 0 -0.44727608925983742 -0.41095911152778891 0 -0.46202672064839212 -0.40007602488395211 0 -0.45555437223955858 -0.42914059360647611 0 -0.48101336032419229 -0.41069999664450008 0 -0.46202672064839212 -0.40007602488395211 0 -0.45555437223955858 -0.42914059360647611 0 -0.44727608925983742 -0.41095911152778891 0 -0.43867285131603428 -0.4271457417558665 0 -0.43676601469929588 -0.41441201227470881 0 -0.44727608925983742 -0.41095911152778891 0 -0.43676601469929588 -0.41441201227470881 0 -0.43479358559901082 -0.4041454901736512 0 -0.45555437223955858 -0.42914059360647611 0 -0.44727608925983742 -0.41095911152778891 0 -0.43867285131603428 -0.4271457417558665 0 -0.43867285131603428 -0.4271457417558665 0 -0.42681803064840879 -0.42717069814352421 0 -0.4263356171060747 -0.44269880333887462 0 -0.42681803064840879 -0.42717069814352421 0 -0.41531815884496182 -0.42985383783075998 0 -0.4263356171060747 -0.44269880333887462 0 -0.42681803064840879 -0.42717069814352421 0 -0.42624289495594048 -0.42089725947505818 0 -0.42083332353326591 -0.42146747131641099 0 -0.42681803064840879 -0.42717069814352421 0 -0.43096994786351572 -0.41951492446283251 0 -0.42624289495594048 -0.42089725947505818 0 -0.43867285131603428 -0.4271457417558665 0 -0.42681803064840879 -0.42717069814352421 0 -0.43096994786351572 -0.41951492446283251 0 -0.43867285131603428 -0.4271457417558665 0 -0.43676601469929588 -0.41441201227470881 0 -0.43096994786351572 -0.41951492446283251 0 -0.43676601469929588 -0.41441201227470881 0 -0.43096994786351572 -0.41951492446283251 0 -0.42907264086257813 -0.41311715872526122 0 -0.43676601469929588 -0.41441201227470881 0 -0.42907264086257813 -0.41311715872526122 0 -0.43479358559901082 -0.4041454901736512 0 -0.42907264086257813 -0.41311715872526122 0 -0.43479358559901082 -0.4041454901736512 0 -0.42460885511582858 -0.40417321677700252 0 -0.42907264086257813 -0.41311715872526122 0 -0.41997834854398469 -0.41180534796019508 0 -0.42907264086257813 -0.41311715872526122 0 -0.42635027777857132 -0.41543594397746519 0 -0.41997834854398469 -0.41180534796019508 0 -0.42907264086257813 -0.41311715872526122 0 -0.41997834854398469 -0.41180534796019508 0 -0.42460885511582858 -0.40417321677700252 0 -0.42635027777857132 -0.41543594397746519 0 -0.41997834854398469 -0.41180534796019508 0 -0.42635027777857132 -0.41543594397746519 0 -0.42083332353326591 -0.42146747131641099 0 -0.41997834854398469 -0.41180534796019508 0 -0.43096994786351572 -0.41951492446283251 0 -0.42624289495594048 -0.42089725947505818 0 -0.42635027777857132 -0.41543594397746519 0 -0.43096994786351572 -0.41951492446283251 0 -0.42907264086257813 -0.41311715872526122 0 -0.42635027777857132 -0.41543594397746519 0 -0.42624289495594048 -0.42089725947505818 0 -0.42635027777857132 -0.41543594397746519 0 -0.42083332353326591 -0.42146747131641099 0 -0.42083332353326591 -0.42146747131641099 0 -0.41997834854398469 -0.41180534796019508 0 -0.40992282953163789 -0.42011435591993562 0 -0.41997834854398469 -0.41180534796019508 0 -0.39756877647335259 -0.40857286797681719 0 -0.41997834854398469 -0.41180534796019508 0 -0.40992282953163789 -0.42011435591993562 0 -0.39756877647335259 -0.40857286797681719 0 -0.40992282953163789 -0.42011435591993562 0 -0.41531815884496182 -0.42985383783075998 0 -0.39591554026262499 -0.42887225451549271 0 -0.41531815884496182 -0.42985383783075998 0 -0.39591554026262499 -0.42887225451549271 0 -0.41160927495564159 -0.44339431233754628 0 -0.42083332353326591 -0.42146747131641099 0 -0.40992282953163789 -0.42011435591993562 0 -0.41531815884496182 -0.42985383783075998 0 -0.42681803064840879 -0.42717069814352421 0 -0.42083332353326591 -0.42146747131641099 0 -0.41531815884496182 -0.42985383783075998 0 -0.44257020456291563 -0.38918913383950271 0 -0.42311368847744002 -0.37830224279505142 0 -0.42594061475171041 -0.39368797999533162 0 -0.44257020456291563 -0.38918913383950271 0 -0.42311368847744002 -0.37830224279505142 0 -0.44172858264042247 -0.37082207246888088 0 -0.44257020456291563 -0.38918913383950271 0 -0.42311368847744002 -0.37830224279505142 0 -0.42311368847744002 -0.37830224279505142 0 -0.42594061475171041 -0.39368797999533162 0 -0.416587075656149 -0.38785930376960043 0 -0.44257020456291563 -0.38918913383950271 0 -0.42594061475171041 -0.39368797999533162 0 -0.43479358559901082 -0.4041454901736512 0 -0.42594061475171041 -0.39368797999533162 0 -0.43479358559901082 -0.4041454901736512 0 -0.42460885511582858 -0.40417321677700252 0 -0.41997834854398469 -0.41180534796019508 0 -0.41325908582185972 -0.39811010703057192 0 -0.39770572831670092 -0.39911486077581648 0 -0.41997834854398469 -0.41180534796019508 0 -0.39770572831670092 -0.39911486077581648 0 -0.42594061475171041 -0.39368797999533162 0 -0.42460885511582858 -0.40417321677700252 0 -0.41325908582185972 -0.39811010703057192 0 -0.41997834854398469 -0.41180534796019508 0 -0.42460885511582858 -0.40417321677700252 0 -0.41325908582185972 -0.39811010703057192 0 -0.42594061475171041 -0.39368797999533162 0 -0.41325908582185972 -0.39811010703057192 0 -0.416587075656149 -0.38785930376960043 0 -0.41325908582185972 -0.39811010703057192 0 -0.416587075656149 -0.38785930376960043 0 -0.40403491357358612 -0.38133688525744702 0 -0.42311368847744002 -0.37830224279505142 0 -0.40403491357358612 -0.38133688525744702 0 -0.40365717239196519 -0.36741535175059892 0 -0.42311368847744002 -0.37830224279505142 0 -0.416587075656149 -0.38785930376960043 0 -0.40403491357358612 -0.38133688525744702 0 -0.40403491357358612 -0.38133688525744702 0 -0.39190790742475001 -0.38540387676521748 0 -0.39770572831670092 -0.39911486077581648 0 -0.40403491357358612 -0.38133688525744702 0 -0.39190790742475001 -0.38540387676521748 0 -0.3904578797192948 -0.37473938743617019 0 -0.41325908582185972 -0.39811010703057192 0 -0.40403491357358612 -0.38133688525744702 0 -0.39770572831670092 -0.39911486077581648 0 -0.39770572831670092 -0.39911486077581648 0 -0.37543310808941849 -0.38642437359143528 0 -0.39770572831670092 -0.39911486077581648 0 -0.37515920440272033 -0.40534038799344108 0 -0.37543310808941849 -0.38642437359143528 0 -0.39770572831670092 -0.39911486077581648 0 -0.37515920440272033 -0.40534038799344108 0 -0.39756877647335259 -0.40857286797681719 0 -0.37515920440272033 -0.40534038799344108 0 -0.37543310808941849 -0.38642437359143528 0 -0.37543310808941849 -0.38642437359143528 0 -0.3904578797192948 -0.37473938743617019 0 -0.37568304780698558 -0.36916333065311507 0 -0.39190790742475001 -0.38540387676521748 0 -0.37543310808941849 -0.38642437359143528 0 -0.3904578797192948 -0.37473938743617019 0 -0.37543310808941849 -0.38642437359143528 0 -0.37568304780698558 -0.36916333065311507 0 -0.39190790742475001 -0.38540387676521748 0 -0.39770572831670092 -0.39911486077581648 0 -0.37543310808941849 -0.38642437359143528 0 -0.41997834854398469 -0.41180534796019508 0 -0.39770572831670092 -0.39911486077581648 0 -0.39756877647335259 -0.40857286797681719 0 -0.40992282953163789 -0.42011435591993562 0 -0.39591554026262499 -0.42887225451549271 0 -0.39756877647335259 -0.40857286797681719 0 -0.37515920440272033 -0.40534038799344108 0 -0.39591554026262499 -0.42887225451549271 0 -0.39756877647335259 -0.40857286797681719 0 -0.37515920440272033 -0.40534038799344108 0 -0.39756877647335259 -0.40857286797681719 0 -0.37515920440272033 -0.40534038799344108 0 -0.39591554026262499 -0.42887225451549271 0 -0.37472313619600889 -0.43545561783144832 0 -0.39591554026262499 -0.42887225451549271 0 -0.39301703415267508 -0.44654444244683272 0 -0.37472313619600889 -0.43545561783144832 0 -0.39301703415267508 -0.44654444244683272 0 -0.37428706798929601 -0.46557084766945539 0 -0.37472313619600889 -0.43545561783144832 0 -0.39591554026262499 -0.42887225451549271 0 -0.39301703415267508 -0.44654444244683272 0 -0.41160927495564159 -0.44339431233754628 0 -0.39301703415267508 -0.44654444244683272 0 -0.40396056051613372 -0.45751466911048011 0 -0.41160927495564159 -0.44339431233754628 0 -0.40396056051613372 -0.45751466911048011 0 -0.39245383412573559 -0.47875733455523922 0 -0.41207507163844148 -0.46917161410542801 0 -0.40396056051613372 -0.45751466911048011 0 -0.38912381425271458 -0.46154275838996711 0 -0.39245383412573559 -0.47875733455523922 0 -0.40396056051613372 -0.45751466911048011 0 -0.39245383412573559 -0.47875733455523922 0 -0.40396056051613372 -0.45751466911048011 0 -0.40649676728151513 -0.45682610390212369 0 -0.40396056051613372 -0.45751466911048011 0 -0.38912381425271458 -0.46154275838996711 0 -0.39301703415267508 -0.44654444244683272 0 -0.40396056051613372 -0.45751466911048011 0 -0.38912381425271458 -0.46154275838996711 0 -0.39301703415267508 -0.44654444244683272 0 -0.38912381425271458 -0.46154275838996711 0 -0.37428706798929601 -0.46557084766945539 0 -0.38912381425271458 -0.46154275838996711 0 -0.37428706798929601 -0.46557084766945539 0 -0.38912381425271458 -0.46154275838996711 0 -0.38378714202547332 -0.47159002408209011 0 -0.37428706798929601 -0.46557084766945539 0 -0.38378714202547332 -0.47159002408209011 0 -0.39245383412573559 -0.47875733455523922 0 -0.37411677223754131 -0.47733161267270968 0 -0.39245383412573559 -0.47875733455523922 0 -0.37240076261097882 -0.48974555046165519 0 -0.37411677223754131 -0.47733161267270968 0 -0.38378714202547332 -0.47159002408209011 0 -0.37411677223754131 -0.47733161267270968 0 -0.37428706798929601 -0.46557084766945539 0 -0.38912381425271458 -0.46154275838996711 0 -0.38378714202547332 -0.47159002408209011 0 -0.39245383412573559 -0.47875733455523922 0 -0.38094710773533791 -0.49999999999999839 0 -0.39245383412573559 -0.47875733455523922 0 -0.38094710773533791 -0.49999999999999839 0 -0.39245383412573559 -0.47875733455523922 0 -0.37240076261097882 -0.48974555046165519 0 -0.38094710773533791 -0.49999999999999839 0 -0.39245383412573559 -0.47875733455523922 0 -0.40997732063196057 -0.5 0 -0.39245383412573559 -0.47875733455523922 0 -0.41207507163844148 -0.46917161410542801 0 -0.40997732063196057 -0.5 0 -0.41207507163844148 -0.46917161410542801 0 -0.40997732063196057 -0.5 0 -0.42881687682924802 -0.47781464288736519 0 -0.44860394795025399 -0.5 0 -0.40997732063196057 -0.5 0 -0.42881687682924802 -0.47781464288736519 0 -0.41207507163844148 -0.46917161410542801 0 -0.42881687682924802 -0.47781464288736519 0 -0.42627766738448791 -0.46032764904509182 0 -0.4490820238307246 -0.45820516232899983 0 -0.42881687682924802 -0.47781464288736519 0 -0.42627766738448791 -0.46032764904509182 0 -0.4490820238307246 -0.45820516232899983 0 -0.42627766738448791 -0.46032764904509182 0 -0.4263356171060747 -0.44269880333887462 0 -0.42627766738448791 -0.46032764904509182 0 -0.4263356171060747 -0.44269880333887462 0 -0.41655419253802572 -0.45404861160063659 0 -0.4263356171060747 -0.44269880333887462 0 -0.41160927495564159 -0.44339431233754628 0 -0.41655419253802572 -0.45404861160063659 0 -0.41531815884496182 -0.42985383783075998 0 -0.4263356171060747 -0.44269880333887462 0 -0.41160927495564159 -0.44339431233754628 0 -0.40396056051613372 -0.45751466911048011 0 -0.41160927495564159 -0.44339431233754628 0 -0.40649676728151513 -0.45682610390212369 0 -0.41160927495564159 -0.44339431233754628 0 -0.40649676728151513 -0.45682610390212369 0 -0.41655419253802572 -0.45404861160063659 0 -0.40396056051613372 -0.45751466911048011 0 -0.41160927495564159 -0.44339431233754628 0 -0.41207507163844148 -0.46917161410542801 0 -0.40649676728151513 -0.45682610390212369 0 -0.41655419253802572 -0.45404861160063659 0 -0.40396056051613372 -0.45751466911048011 0 -0.41207507163844148 -0.46917161410542801 0 -0.40649676728151513 -0.45682610390212369 0 -0.41207507163844148 -0.46917161410542801 0 -0.42627766738448791 -0.46032764904509182 0 -0.41655419253802572 -0.45404861160063659 0 -0.45662330498375908 -0.25656877445722759 0 -0.43445882011373449 -0.25478651907497341 0 -0.45662330498375908 -0.25656877445722759 0 -0.43445882011373449 -0.25478651907497341 0 -0.45034617445999431 -0.24335722649563979 0 -0.44999384684511368 -0.2755750489792308 0 -0.45662330498375908 -0.25656877445722759 0 -0.43445882011373449 -0.25478651907497341 0 -0.44999384684511368 -0.2755750489792308 0 -0.43077531442077321 -0.27459050524281542 0 -0.43445882011373449 -0.25478651907497341 0 -0.44999384684511368 -0.2755750489792308 0 -0.441361257405879 -0.29303276451920029 0 -0.43077531442077321 -0.27459050524281542 0 -0.44999384684511368 -0.2755750489792308 0 -0.4670541169931961 -0.26846056693166809 0 -0.46910519348062618 -0.28320526693770848 0 -0.44999384684511368 -0.2755750489792308 0 -0.4670541169931961 -0.26846056693166809 0 -0.45662330498375908 -0.25656877445722759 0 -0.45662330498375908 -0.25656877445722759 0 -0.47878778985378329 -0.25835102983948688 0 -0.4670541169931961 -0.26846056693166809 0 -0.45662330498375908 -0.25656877445722759 0 -0.47878778985378329 -0.25835102983948688 0 -0.45662330498375908 -0.25656877445722759 0 -0.47878778985378329 -0.25835102983948688 0 -0.47142395938804471 -0.23802335247430181 0 -0.47878778985378329 -0.25835102983948688 0 -0.5 -0.25669760885461612 0 -0.48361763707807442 -0.27426406281091331 0 -0.47878778985378329 -0.25835102983948688 0 -0.5 -0.25669760885461612 0 -0.4875835208682564 -0.24248539692068891 0 -0.5 -0.25669760885461612 0 -0.48361763707807442 -0.27426406281091331 0 -0.5 -0.28413533544635422 0 -0.4670541169931961 -0.26846056693166809 0 -0.47878778985378329 -0.25835102983948688 0 -0.48361763707807442 -0.27426406281091331 0 -0.4670541169931961 -0.26846056693166809 0 -0.48361763707807442 -0.27426406281091331 0 -0.46910519348062618 -0.28320526693770848 0 -0.46910519348062618 -0.28320526693770848 0 -0.48580896399913942 -0.29193665231809679 0 -0.47164434439118558 -0.29859902487093259 0 -0.48361763707807442 -0.27426406281091331 0 -0.46910519348062618 -0.28320526693770848 0 -0.48580896399913942 -0.29193665231809679 0 -0.5 -0.28413533544635422 0 -0.48580896399913942 -0.29193665231809679 0 -0.5 -0.3115730620380921 0 -0.48361763707807442 -0.27426406281091331 0 -0.5 -0.28413533544635422 0 -0.48580896399913942 -0.29193665231809679 0 -0.48580896399913942 -0.29193665231809679 0 -0.5 -0.3115730620380921 0 -0.48293754746551898 -0.30617437981156609 0 -0.48293754746551898 -0.30617437981156609 0 -0.47164434439118558 -0.29859902487093259 0 -0.47203566342767839 -0.31514771464943409 0 -0.48580896399913942 -0.29193665231809679 0 -0.48293754746551898 -0.30617437981156609 0 -0.47164434439118558 -0.29859902487093259 0 -0.47164434439118558 -0.29859902487093259 0 -0.46096111539772322 -0.3069557537098867 0 -0.47203566342767839 -0.31514771464943409 0 -0.46096111539772322 -0.3069557537098867 0 -0.44739706002137658 -0.30395698434733032 0 -0.45229582611609759 -0.31444164243390338 0 -0.46096111539772322 -0.3069557537098867 0 -0.45682111422556548 -0.29317658806621089 0 -0.44739706002137658 -0.30395698434733032 0 -0.47164434439118558 -0.29859902487093259 0 -0.46096111539772322 -0.3069557537098867 0 -0.45682111422556548 -0.29317658806621089 0 -0.44999384684511368 -0.2755750489792308 0 -0.46910519348062618 -0.28320526693770848 0 -0.45682111422556548 -0.29317658806621089 0 -0.46910519348062618 -0.28320526693770848 0 -0.47164434439118558 -0.29859902487093259 0 -0.45682111422556548 -0.29317658806621089 0 -0.44999384684511368 -0.2755750489792308 0 -0.45682111422556548 -0.29317658806621089 0 -0.441361257405879 -0.29303276451920029 0 -0.45682111422556548 -0.29317658806621089 0 -0.441361257405879 -0.29303276451920029 0 -0.44739706002137658 -0.30395698434733032 0 -0.441361257405879 -0.29303276451920029 0 -0.44739706002137658 -0.30395698434733032 0 -0.43527018611072049 -0.30465000121327751 0 -0.44739706002137658 -0.30395698434733032 0 -0.44024276041750632 -0.31887045497680111 0 -0.43527018611072049 -0.30465000121327751 0 -0.44739706002137658 -0.30395698434733032 0 -0.45229582611609759 -0.31444164243390338 0 -0.44024276041750632 -0.31887045497680111 0 -0.44024276041750632 -0.31887045497680111 0 -0.45653421084860168 -0.32646185290925811 0 -0.44024276041750632 -0.31887045497680111 0 -0.43930980958642257 -0.33554338078202212 0 -0.45653421084860168 -0.32646185290925811 0 -0.45229582611609759 -0.31444164243390338 0 -0.44024276041750632 -0.31887045497680111 0 -0.45653421084860168 -0.32646185290925811 0 -0.43930980958642257 -0.33554338078202212 0 -0.44966367396753332 -0.33841986907325933 0 -0.46855294336124231 -0.32873531729210143 0 -0.43930980958642257 -0.33554338078202212 0 -0.4507851133594416 -0.34910720111649318 0 -0.43930980958642257 -0.33554338078202212 0 -0.44966367396753332 -0.33841986907325933 0 -0.4507851133594416 -0.34910720111649318 0 -0.44966367396753332 -0.33841986907325933 0 -0.46855294336124231 -0.32873531729210143 0 -0.46386644800117471 -0.33586508895417932 0 -0.43930980958642257 -0.33554338078202212 0 -0.46855294336124231 -0.32873531729210143 0 -0.43930980958642257 -0.33554338078202212 0 -0.46855294336124231 -0.32873531729210143 0 -0.45653421084860168 -0.32646185290925811 0 -0.44966367396753332 -0.33841986907325933 0 -0.4586808436472537 -0.3401528003513713 0 -0.45711636988675219 -0.34547487934353349 0 -0.44966367396753332 -0.33841986907325933 0 -0.4586808436472537 -0.3401528003513713 0 -0.46386644800117471 -0.33586508895417932 0 -0.4586808436472537 -0.3401528003513713 0 -0.46472493826860672 -0.34236766697450172 0 -0.45711636988675219 -0.34547487934353349 0 -0.4586808436472537 -0.3401528003513713 0 -0.46472493826860672 -0.34236766697450172 0 -0.46386644800117471 -0.33586508895417932 0 -0.46855294336124231 -0.32873531729210143 0 -0.46207595183026873 -0.31834845619891672 0 -0.47203566342767839 -0.31514771464943409 0 -0.46855294336124231 -0.32873531729210143 0 -0.45653421084860168 -0.32646185290925811 0 -0.46207595183026873 -0.31834845619891672 0 -0.46096111539772322 -0.3069557537098867 0 -0.45229582611609759 -0.31444164243390338 0 -0.46207595183026873 -0.31834845619891672 0 -0.45229582611609759 -0.31444164243390338 0 -0.45653421084860168 -0.32646185290925811 0 -0.46207595183026873 -0.31834845619891672 0 -0.46096111539772322 -0.3069557537098867 0 -0.46207595183026873 -0.31834845619891672 0 -0.47203566342767839 -0.31514771464943409 0 -0.48293754746551898 -0.30617437981156609 0 -0.47203566342767839 -0.31514771464943409 0 -0.47770984076123751 -0.32964979107966252 0 -0.48293754746551898 -0.30617437981156609 0 -0.47770984076123751 -0.32964979107966252 0 -0.48293754746551898 -0.30617437981156609 0 -0.48763303240419292 -0.31981883507337211 0 -0.47770984076123751 -0.32964979107966252 0 -0.46855294336124231 -0.32873531729210143 0 -0.47203566342767839 -0.31514771464943409 0 -0.47770984076123751 -0.32964979107966252 0 -0.5 -0.3115730620380921 0 -0.5 -0.33901078862982997 0 -0.49048543526404831 -0.32960291085151988 0 -0.5 -0.3115730620380921 0 -0.48763303240419292 -0.31981883507337211 0 -0.49048543526404831 -0.32960291085151988 0 -0.5 -0.3115730620380921 0 -0.48293754746551898 -0.30617437981156609 0 -0.48763303240419292 -0.31981883507337211 0 -0.48763303240419292 -0.31981883507337211 0 -0.49048543526404831 -0.32960291085151988 0 -0.47770984076123751 -0.32964979107966252 0 -0.49048543526404831 -0.32960291085151988 0 -0.47770984076123751 -0.32964979107966252 0 -0.48708430315481122 -0.3479620774366432 0 -0.5 -0.33901078862982997 0 -0.49048543526404831 -0.32960291085151988 0 -0.48708430315481122 -0.3479620774366432 0 -0.47770984076123751 -0.32964979107966252 0 -0.47248213405695583 -0.35312520234775913 0 -0.47770984076123751 -0.32964979107966252 0 -0.47248213405695583 -0.35312520234775913 0 -0.48708430315481122 -0.3479620774366432 0 -0.46472493826860672 -0.34236766697450172 0 -0.47770984076123751 -0.32964979107966252 0 -0.47248213405695583 -0.35312520234775913 0 -0.46855294336124231 -0.32873531729210143 0 -0.46386644800117471 -0.33586508895417932 0 -0.47770984076123751 -0.32964979107966252 0 -0.46472493826860672 -0.34236766697450172 0 -0.46386644800117471 -0.33586508895417932 0 -0.47770984076123751 -0.32964979107966252 0 -0.47248213405695583 -0.35312520234775913 0 -0.48708430315481122 -0.3479620774366432 0 -0.48422759779560409 -0.37130120630367158 0 -0.5 -0.33901078862982997 0 -0.48708430315481122 -0.3479620774366432 0 -0.5 -0.36644851522156802 0 -0.48708430315481122 -0.3479620774366432 0 -0.5 -0.36644851522156802 0 -0.48422759779560409 -0.37130120630367158 0 -0.46725442735267431 -0.37660061361585562 0 -0.47248213405695583 -0.35312520234775913 0 -0.48422759779560409 -0.37130120630367158 0 -0.46725442735267431 -0.37660061361585562 0 -0.47248213405695583 -0.35312520234775913 0 -0.46725442735267431 -0.37660061361585562 0 -0.4540003998136638 -0.37455519391687309 0 -0.46226041713245919 -0.36267102145096558 0 -0.46725442735267431 -0.37660061361585562 0 -0.47248213405695583 -0.35312520234775913 0 -0.46226041713245919 -0.36267102145096558 0 -0.4540003998136638 -0.37455519391687309 0 -0.46226041713245919 -0.36267102145096558 0 -0.45167034254705118 -0.36337553476545958 0 -0.47248213405695583 -0.35312520234775913 0 -0.46226041713245919 -0.36267102145096558 0 -0.46130034509645268 -0.35111989715704561 0 -0.46472493826860672 -0.34236766697450172 0 -0.47248213405695583 -0.35312520234775913 0 -0.46130034509645268 -0.35111989715704561 0 -0.46472493826860672 -0.34236766697450172 0 -0.46130034509645268 -0.35111989715704561 0 -0.45711636988675219 -0.34547487934353349 0 -0.46130034509645268 -0.35111989715704561 0 -0.45711636988675219 -0.34547487934353349 0 -0.4507851133594416 -0.34910720111649318 0 -0.46226041713245919 -0.36267102145096558 0 -0.4507851133594416 -0.34910720111649318 0 -0.45167034254705118 -0.36337553476545958 0 -0.46226041713245919 -0.36267102145096558 0 -0.46130034509645268 -0.35111989715704561 0 -0.4507851133594416 -0.34910720111649318 0 -0.46226041713245919 -0.36267102145096558 0 -0.4507851133594416 -0.34910720111649318 0 -0.4507851133594416 -0.34910720111649318 0 -0.44504098357239391 -0.35771747353496869 0 -0.45167034254705118 -0.36337553476545958 0 -0.44966367396753332 -0.33841986907325933 0 -0.45711636988675219 -0.34547487934353349 0 -0.4507851133594416 -0.34910720111649318 0 -0.4507851133594416 -0.34910720111649318 0 -0.44408457896710762 -0.34741130507322732 0 -0.44504098357239391 -0.35771747353496869 0 -0.43930980958642257 -0.33554338078202212 0 -0.4507851133594416 -0.34910720111649318 0 -0.44408457896710762 -0.34741130507322732 0 -0.44408457896710762 -0.34741130507322732 0 -0.43834809566141358 -0.35386966642967582 0 -0.4310745521241639 -0.35060051531725012 0 -0.44408457896710762 -0.34741130507322732 0 -0.43834809566141358 -0.35386966642967582 0 -0.44504098357239391 -0.35771747353496869 0 -0.43834809566141358 -0.35386966642967582 0 -0.44504098357239391 -0.35771747353496869 0 -0.43256408976529492 -0.36260533289695268 0 -0.44504098357239391 -0.35771747353496869 0 -0.44172858264042247 -0.37082207246888088 0 -0.43256408976529492 -0.36260533289695268 0 -0.4540003998136638 -0.37455519391687309 0 -0.44172858264042247 -0.37082207246888088 0 -0.45167034254705118 -0.36337553476545958 0 -0.44504098357239391 -0.35771747353496869 0 -0.44172858264042247 -0.37082207246888088 0 -0.45167034254705118 -0.36337553476545958 0 -0.42311368847744002 -0.37830224279505142 0 -0.44172858264042247 -0.37082207246888088 0 -0.43256408976529492 -0.36260533289695268 0 -0.42311368847744002 -0.37830224279505142 0 -0.43256408976529492 -0.36260533289695268 0 -0.41867380740831611 -0.36398836527224071 0 -0.43256408976529492 -0.36260533289695268 0 -0.42210656065146929 -0.35476551363046099 0 -0.41867380740831611 -0.36398836527224071 0 -0.44408457896710762 -0.34741130507322732 0 -0.4310745521241639 -0.35060051531725012 0 -0.42443636388738298 -0.3390060521705498 0 -0.43834809566141358 -0.35386966642967582 0 -0.43256408976529492 -0.36260533289695268 0 -0.4310745521241639 -0.35060051531725012 0 -0.4310745521241639 -0.35060051531725012 0 -0.42266042161335821 -0.34652378860874011 0 -0.42210656065146929 -0.35476551363046099 0 -0.4310745521241639 -0.35060051531725012 0 -0.42266042161335821 -0.34652378860874011 0 -0.42443636388738298 -0.3390060521705498 0 -0.43256408976529492 -0.36260533289695268 0 -0.4310745521241639 -0.35060051531725012 0 -0.42210656065146929 -0.35476551363046099 0 -0.42210656065146929 -0.35476551363046099 0 -0.41243440171204931 -0.35621682403100541 0 -0.41867380740831611 -0.36398836527224071 0 -0.41243440171204931 -0.35621682403100541 0 -0.40365717239196519 -0.36741535175059892 0 -0.40302160193259851 -0.3439916005776541 0 -0.42210656065146929 -0.35476551363046099 0 -0.41714587076776338 -0.34786779488983011 0 -0.41243440171204931 -0.35621682403100541 0 -0.42266042161335821 -0.34652378860874011 0 -0.42210656065146929 -0.35476551363046099 0 -0.41714587076776338 -0.34786779488983011 0 -0.42266042161335821 -0.34652378860874011 0 -0.41714587076776338 -0.34786779488983011 0 -0.41853876063601031 -0.34037906703560689 0 -0.41714587076776338 -0.34786779488983011 0 -0.41853876063601031 -0.34037906703560689 0 -0.41714587076776338 -0.34786779488983011 0 -0.41243440171204931 -0.35621682403100541 0 -0.40302160193259851 -0.3439916005776541 0 -0.41714587076776338 -0.34786779488983011 0 -0.40302160193259851 -0.3439916005776541 0 -0.41853876063601031 -0.34037906703560689 0 -0.42311368847744002 -0.37830224279505142 0 -0.41867380740831611 -0.36398836527224071 0 -0.40365717239196519 -0.36741535175059892 0 -0.42311368847744002 -0.37830224279505142 0 -0.40365717239196519 -0.36741535175059892 0 -0.41243440171204931 -0.35621682403100541 0 -0.41867380740831611 -0.36398836527224071 0 -0.40365717239196519 -0.36741535175059892 0 -0.40403491357358612 -0.38133688525744702 0 -0.40365717239196519 -0.36741535175059892 0 -0.40403491357358612 -0.38133688525744702 0 -0.40365717239196519 -0.36741535175059892 0 -0.3904578797192948 -0.37473938743617019 0 -0.40365717239196519 -0.36741535175059892 0 -0.38979507995825918 -0.35965881973269581 0 -0.40365717239196519 -0.36741535175059892 0 -0.3904578797192948 -0.37473938743617019 0 -0.38979507995825918 -0.35965881973269581 0 -0.3904578797192948 -0.37473938743617019 0 -0.38979507995825918 -0.35965881973269581 0 -0.37568304780698558 -0.36916333065311507 0 -0.37568304780698558 -0.36916333065311507 0 -0.37593298752455201 -0.35190228771479481 0 -0.38979507995825918 -0.35965881973269581 0 -0.37568304780698558 -0.36916333065311507 0 -0.37593298752455201 -0.35190228771479481 0 -0.38979507995825918 -0.35965881973269581 0 -0.37595629511297179 -0.35029264644438168 0 -0.40302160193259851 -0.3439916005776541 0 -0.37595629511297179 -0.35029264644438168 0 -0.40302160193259851 -0.3439916005776541 0 -0.38842354837557669 -0.33756560667471242 0 -0.37595629511297179 -0.35029264644438168 0 -0.40302160193259851 -0.3439916005776541 0 -0.37595629511297179 -0.35029264644438168 0 -0.37607676276689278 -0.3419730509543204 0 -0.37390838074359528 -0.35076941925389299 0 -0.37595629511297179 -0.35029264644438168 0 -0.37607676276689278 -0.3419730509543204 0 -0.37595629511297179 -0.35029264644438168 0 -0.37593298752455201 -0.35190228771479481 0 -0.37390838074359528 -0.35076941925389299 0 -0.37595629511297179 -0.35029264644438168 0 -0.37593298752455201 -0.35190228771479481 0 -0.38979507995825918 -0.35965881973269581 0 -0.37595629511297179 -0.35029264644438168 0 -0.37593298752455201 -0.35190228771479481 0 -0.38979507995825918 -0.35965881973269581 0 -0.37593298752455201 -0.35190228771479481 0 -0.40365717239196519 -0.36741535175059892 0 -0.40302160193259851 -0.3439916005776541 0 -0.40365717239196519 -0.36741535175059892 0 -0.38979507995825918 -0.35965881973269581 0 -0.40302160193259851 -0.3439916005776541 0 -0.40302160193259851 -0.3439916005776541 0 -0.40263324863316441 -0.32967896077653092 0 -0.40263324863316441 -0.32967896077653092 0 -0.38842354837557669 -0.33756560667471242 0 -0.38442983343225828 -0.32189177462067481 0 -0.40302160193259851 -0.3439916005776541 0 -0.40263324863316441 -0.32967896077653092 0 -0.38842354837557669 -0.33756560667471242 0 -0.37607676276689278 -0.3419730509543204 0 -0.37641717267996733 -0.3184640617331177 0 -0.38842354837557669 -0.33756560667471242 0 -0.37607676276689278 -0.3419730509543204 0 -0.38442983343225828 -0.32189177462067481 0 -0.37607676276689278 -0.3419730509543204 0 -0.38442983343225828 -0.32189177462067481 0 -0.37595629511297179 -0.35029264644438168 0 -0.38842354837557669 -0.33756560667471242 0 -0.37607676276689278 -0.3419730509543204 0 -0.37607676276689278 -0.3419730509543204 0 -0.37641717267996733 -0.3184640617331177 0 -0.38442983343225828 -0.32189177462067481 0 -0.37641717267996733 -0.3184640617331177 0 -0.38442983343225828 -0.32189177462067481 0 -0.3841914044669909 -0.30132118344037401 0 -0.37641717267996733 -0.3184640617331177 0 -0.38442983343225828 -0.32189177462067481 0 -0.40263324863316441 -0.32967896077653092 0 -0.38442983343225828 -0.32189177462067481 0 -0.40185461233875269 -0.30098256284660307 0 -0.40263324863316441 -0.32967896077653092 0 -0.38442983343225828 -0.32189177462067481 0 -0.40263324863316441 -0.32967896077653092 0 -0.40185461233875269 -0.30098256284660307 0 -0.40263324863316441 -0.32967896077653092 0 -0.41242695344044827 -0.31820451366256841 0 -0.40185461233875269 -0.30098256284660307 0 -0.41242695344044827 -0.31820451366256841 0 -0.41920998916455232 -0.33677027649670849 0 -0.42301959421646518 -0.31628833020920039 0 -0.41920998916455232 -0.33677027649670849 0 -0.42301959421646518 -0.31628833020920039 0 -0.41242695344044827 -0.31820451366256841 0 -0.42301959421646518 -0.31628833020920039 0 -0.41541732284930832 -0.30730243798379953 0 -0.40302160193259851 -0.3439916005776541 0 -0.41920998916455232 -0.33677027649670849 0 -0.41853876063601031 -0.34037906703560689 0 -0.40302160193259851 -0.3439916005776541 0 -0.40263324863316441 -0.32967896077653092 0 -0.41920998916455232 -0.33677027649670849 0 -0.40263324863316441 -0.32967896077653092 0 -0.41920998916455232 -0.33677027649670849 0 -0.40263324863316441 -0.32967896077653092 0 -0.41242695344044827 -0.31820451366256841 0 -0.41920998916455232 -0.33677027649670849 0 -0.40302160193259851 -0.3439916005776541 0 -0.41853876063601031 -0.34037906703560689 0 -0.41853876063601031 -0.34037906703560689 0 -0.42443636388738298 -0.3390060521705498 0 -0.41920998916455232 -0.33677027649670849 0 -0.42443636388738298 -0.3390060521705498 0 -0.41920998916455232 -0.33677027649670849 0 -0.41853876063601031 -0.34037906703560689 0 -0.42443636388738298 -0.3390060521705498 0 -0.41920998916455232 -0.33677027649670849 0 -0.41853876063601031 -0.34037906703560689 0 -0.43930980958642257 -0.33554338078202212 0 -0.44408457896710762 -0.34741130507322732 0 -0.42443636388738298 -0.3390060521705498 0 -0.43930980958642257 -0.33554338078202212 0 -0.42443636388738298 -0.3390060521705498 0 -0.42301959421646518 -0.31628833020920039 0 -0.41920998916455232 -0.33677027649670849 0 -0.42443636388738298 -0.3390060521705498 0 -0.42301959421646518 -0.31628833020920039 0 -0.44408457896710762 -0.34741130507322732 0 -0.42443636388738298 -0.3390060521705498 0 -0.42266042161335821 -0.34652378860874011 0 -0.41853876063601031 -0.34037906703560689 0 -0.42443636388738298 -0.3390060521705498 0 -0.43930980958642257 -0.33554338078202212 0 -0.42443636388738298 -0.3390060521705498 0 -0.43930980958642257 -0.33554338078202212 0 -0.42301959421646518 -0.31628833020920039 0 -0.44024276041750632 -0.31887045497680111 0 -0.42395130998641067 -0.31127905704434472 0 -0.44024276041750632 -0.31887045497680111 0 -0.43930980958642257 -0.33554338078202212 0 -0.42301959421646518 -0.31628833020920039 0 -0.44024276041750632 -0.31887045497680111 0 -0.42301959421646518 -0.31628833020920039 0 -0.42395130998641067 -0.31127905704434472 0 -0.42301959421646518 -0.31628833020920039 0 -0.42395130998641067 -0.31127905704434472 0 -0.42395130998641067 -0.31127905704434472 0 -0.42709180872781188 -0.29439449141065738 0 -0.44024276041750632 -0.31887045497680111 0 -0.42395130998641067 -0.31127905704434472 0 -0.43527018611072049 -0.30465000121327751 0 -0.42395130998641067 -0.31127905704434472 0 -0.42709180872781188 -0.29439449141065738 0 -0.41541732284930832 -0.30730243798379953 0 -0.42395130998641067 -0.31127905704434472 0 -0.43527018611072049 -0.30465000121327751 0 -0.42709180872781188 -0.29439449141065738 0 -0.441361257405879 -0.29303276451920029 0 -0.43527018611072049 -0.30465000121327751 0 -0.42709180872781188 -0.29439449141065738 0 -0.42709180872781188 -0.29439449141065738 0 -0.43077531442077321 -0.27459050524281542 0 -0.42709180872781188 -0.29439449141065738 0 -0.41684225135067149 -0.28376244362903152 0 -0.43077531442077321 -0.27459050524281542 0 -0.441361257405879 -0.29303276451920029 0 -0.42709180872781188 -0.29439449141065738 0 -0.441361257405879 -0.29303276451920029 0 -0.42709180872781188 -0.29439449141065738 0 -0.43077531442077321 -0.27459050524281542 0 -0.42709180872781188 -0.29439449141065738 0 -0.41684225135067149 -0.28376244362903152 0 -0.40618483967714292 -0.29638963380315841 0 -0.42709180872781188 -0.29439449141065738 0 -0.40618483967714292 -0.29638963380315841 0 -0.41684225135067149 -0.28376244362903152 0 -0.40690107601488551 -0.28490397733270861 0 -0.40618483967714292 -0.29638963380315841 0 -0.41541732284930832 -0.30730243798379953 0 -0.40185461233875269 -0.30098256284660307 0 -0.40618483967714292 -0.29638963380315841 0 -0.42709180872781188 -0.29439449141065738 0 -0.41541732284930832 -0.30730243798379953 0 -0.40618483967714292 -0.29638963380315841 0 -0.41541732284930832 -0.30730243798379953 0 -0.40618483967714292 -0.29638963380315841 0 -0.41242695344044827 -0.31820451366256841 0 -0.41541732284930832 -0.30730243798379953 0 -0.40185461233875269 -0.30098256284660307 0 -0.41541732284930832 -0.30730243798379953 0 -0.40185461233875269 -0.30098256284660307 0 -0.42301959421646518 -0.31628833020920039 0 -0.41541732284930832 -0.30730243798379953 0 -0.42395130998641067 -0.31127905704434472 0 -0.41541732284930832 -0.30730243798379953 0 -0.42301959421646518 -0.31628833020920039 0 -0.42395130998641067 -0.31127905704434472 0 -0.41541732284930832 -0.30730243798379953 0 -0.38442983343225828 -0.32189177462067481 0 -0.40185461233875269 -0.30098256284660307 0 -0.39448508010510541 -0.297525044214214 0 -0.40185461233875269 -0.30098256284660307 0 -0.40174149504185092 -0.29681366012781812 0 -0.40618483967714292 -0.29638963380315841 0 -0.40185461233875269 -0.30098256284660307 0 -0.40174149504185092 -0.29681366012781812 0 -0.40185461233875269 -0.30098256284660307 0 -0.39448508010510541 -0.297525044214214 0 -0.40174149504185092 -0.29681366012781812 0 -0.40185461233875269 -0.30098256284660307 0 -0.39448508010510541 -0.297525044214214 0 -0.39448508010510541 -0.297525044214214 0 -0.40174149504185092 -0.29681366012781812 0 -0.37641717267996733 -0.3184640617331177 0 -0.37669606201677502 -0.29920373422444158 0 -0.38442983343225828 -0.32189177462067481 0 -0.39448508010510541 -0.297525044214214 0 -0.38442983343225828 -0.32189177462067481 0 -0.39448508010510541 -0.297525044214214 0 -0.3841914044669909 -0.30132118344037401 0 -0.37641717267996733 -0.3184640617331177 0 -0.3841914044669909 -0.30132118344037401 0 -0.37669606201677502 -0.29920373422444158 0 -0.39448508010510541 -0.297525044214214 0 -0.3841914044669909 -0.30132118344037401 0 -0.37928718982873688 -0.29895646409505849 0 -0.39448508010510541 -0.297525044214214 0 -0.37928718982873688 -0.29895646409505849 0 -0.3841914044669909 -0.30132118344037401 0 -0.37928718982873688 -0.29895646409505849 0 -0.3841914044669909 -0.30132118344037401 0 -0.37928718982873688 -0.29895646409505849 0 -0.37669606201677502 -0.29920373422444158 0 -0.37928718982873688 -0.29895646409505849 0 -0.37669606201677502 -0.29920373422444158 0 -0.37671758341694961 -0.29771744858697219 0 -0.37928718982873688 -0.29895646409505849 0 -0.37671758341694961 -0.29771744858697219 0 -0.37928718982873688 -0.29895646409505849 0 -0.37669606201677502 -0.29920373422444158 0 -0.37669606201677502 -0.29920373422444158 0 -0.37671758341694961 -0.29771744858697219 0 -0.37671758341694961 -0.29771744858697219 0 -0.38607699004493318 -0.28757386461908069 0 -0.38483052758877101 -0.28123782127595193 0 -0.37671758341694961 -0.29771744858697219 0 -0.3770412393053626 -0.27536550612006683 0 -0.37671758341694961 -0.29771744858697219 0 -0.38483052758877101 -0.28123782127595193 0 -0.3770412393053626 -0.27536550612006683 0 -0.37928718982873688 -0.29895646409505849 0 -0.37671758341694961 -0.29771744858697219 0 -0.38467000758835601 -0.29297497791584359 0 -0.37671758341694961 -0.29771744858697219 0 -0.38467000758835601 -0.29297497791584359 0 -0.38607699004493318 -0.28757386461908069 0 -0.39448508010510541 -0.297525044214214 0 -0.37928718982873688 -0.29895646409505849 0 -0.38467000758835601 -0.29297497791584359 0 -0.39448508010510541 -0.297525044214214 0 -0.38467000758835601 -0.29297497791584359 0 -0.39448508010510541 -0.297525044214214 0 -0.38467000758835601 -0.29297497791584359 0 -0.39217701296355612 -0.28987936211692023 0 -0.38467000758835601 -0.29297497791584359 0 -0.38607699004493318 -0.28757386461908069 0 -0.39217701296355612 -0.28987936211692023 0 -0.38607699004493318 -0.28757386461908069 0 -0.39049541959166939 -0.28414526237041138 0 -0.39217701296355612 -0.28987936211692023 0 -0.39049541959166939 -0.28414526237041138 0 -0.39420405367365152 -0.27853706101481662 0 -0.38483052758877101 -0.28123782127595193 0 -0.38607699004493318 -0.28757386461908069 0 -0.39049541959166939 -0.28414526237041138 0 -0.38483052758877101 -0.28123782127595193 0 -0.39597078832761667 -0.28551153658085893 0 -0.40174149504185092 -0.29681366012781812 0 -0.40123596036735593 -0.27818233727432817 0 -0.39049541959166939 -0.28414526237041138 0 -0.39597078832761667 -0.28551153658085893 0 -0.39420405367365152 -0.27853706101481662 0 -0.40174149504185092 -0.29681366012781812 0 -0.40123596036735593 -0.27818233727432817 0 -0.40174149504185092 -0.29681366012781812 0 -0.40322207619149192 -0.29288764445213411 0 -0.40123596036735593 -0.27818233727432817 0 -0.39049541959166939 -0.28414526237041138 0 -0.39597078832761667 -0.28551153658085893 0 -0.39217701296355612 -0.28987936211692023 0 -0.39597078832761667 -0.28551153658085893 0 -0.39217701296355612 -0.28987936211692023 0 -0.40174149504185092 -0.29681366012781812 0 -0.39448508010510541 -0.297525044214214 0 -0.39217701296355612 -0.28987936211692023 0 -0.40174149504185092 -0.29681366012781812 0 -0.40690107601488551 -0.28490397733270861 0 -0.40322207619149192 -0.29288764445213411 0 -0.40618483967714292 -0.29638963380315841 0 -0.40174149504185092 -0.29681366012781812 0 -0.40322207619149192 -0.29288764445213411 0 -0.40618483967714292 -0.29638963380315841 0 -0.40174149504185092 -0.29681366012781812 0 -0.40618483967714292 -0.29638963380315841 0 -0.40322207619149192 -0.29288764445213411 0 -0.40618483967714292 -0.29638963380315841 0 -0.40690107601488551 -0.28490397733270861 0 -0.40322207619149192 -0.29288764445213411 0 -0.40123596036735593 -0.27818233727432817 0 -0.39420405367365152 -0.27853706101481662 0 -0.37710287173325818 -0.2711091198417086 0 -0.40073042569286338 -0.25955101442083811 0 -0.40123596036735593 -0.27818233727432817 0 -0.39420405367365152 -0.27853706101481662 0 -0.40073042569286338 -0.25955101442083811 0 -0.40123596036735593 -0.27818233727432817 0 -0.40073042569286338 -0.25955101442083811 0 -0.40123596036735593 -0.27818233727432817 0 -0.40073042569286338 -0.25955101442083811 0 -0.41341650638623911 -0.27076301679274262 0 -0.39597078832761667 -0.28551153658085893 0 -0.40123596036735593 -0.27818233727432817 0 -0.39420405367365152 -0.27853706101481662 0 -0.39420405367365152 -0.27853706101481662 0 -0.37710287173325818 -0.2711091198417086 0 -0.3770412393053626 -0.27536550612006683 0 -0.39420405367365152 -0.27853706101481662 0 -0.3770412393053626 -0.27536550612006683 0 -0.39420405367365152 -0.27853706101481662 0 -0.38483052758877101 -0.28123782127595193 0 -0.3770412393053626 -0.27536550612006683 0 -0.37710287173325818 -0.2711091198417086 0 -0.3770412393053626 -0.27536550612006683 0 -0.37710287173325818 -0.2711091198417086 0 -0.38543722149146659 -0.25821727905458303 0 -0.40073042569286338 -0.25955101442083811 0 -0.37710287173325818 -0.2711091198417086 0 -0.37747963509906429 -0.24508953120583671 0 -0.37710287173325818 -0.2711091198417086 0 -0.40073042569286338 -0.25955101442083811 0 -0.37710287173325818 -0.2711091198417086 0 -0.38543722149146659 -0.25821727905458303 0 -0.37747963509906429 -0.24508953120583671 0 -0.38543722149146659 -0.25821727905458303 0 -0.3938256931015453 -0.25037754026629511 0 -0.37747963509906429 -0.24508953120583671 0 -0.38543722149146659 -0.25821727905458303 0 -0.3938256931015453 -0.25037754026629511 0 -0.40073042569286338 -0.25955101442083811 0 -0.40073042569286338 -0.25955101442083811 0 -0.40282532782868952 -0.25224285689579767 0 -0.40022281387448849 -0.24084313907701979 0 -0.40073042569286338 -0.25955101442083811 0 -0.40022281387448849 -0.24084313907701979 0 -0.3938256931015453 -0.25037754026629511 0 -0.40073042569286338 -0.25955101442083811 0 -0.40022281387448849 -0.24084313907701979 0 -0.40073042569286338 -0.25955101442083811 0 -0.40282532782868952 -0.25224285689579767 0 -0.41385673751816382 -0.25312989710486528 0 -0.40073042569286338 -0.25955101442083811 0 -0.41385673751816382 -0.25312989710486528 0 -0.40073042569286338 -0.25955101442083811 0 -0.41385673751816382 -0.25312989710486528 0 -0.41341650638623911 -0.27076301679274262 0 -0.41385673751816382 -0.25312989710486528 0 -0.41341650638623911 -0.27076301679274262 0 -0.42312684460972783 -0.26331748455384929 0 -0.41385673751816382 -0.25312989710486528 0 -0.41679144862722167 -0.25169429778568547 0 -0.43445882011373449 -0.25478651907497341 0 -0.40282532782868952 -0.25224285689579767 0 -0.41385673751816382 -0.25312989710486528 0 -0.4086566941719203 -0.24778871483445111 0 -0.40282532782868952 -0.25224285689579767 0 -0.41385673751816382 -0.25312989710486528 0 -0.41385673751816382 -0.25312989710486528 0 -0.41679144862722167 -0.25169429778568547 0 -0.41627810448972868 -0.24641300060905449 0 -0.41385673751816382 -0.25312989710486528 0 -0.41679144862722167 -0.25169429778568547 0 -0.41684225135067149 -0.28376244362903152 0 -0.41341650638623911 -0.27076301679274262 0 -0.43077531442077321 -0.27459050524281542 0 -0.40690107601488551 -0.28490397733270861 0 -0.40123596036735593 -0.27818233727432817 0 -0.41341650638623911 -0.27076301679274262 0 -0.41684225135067149 -0.28376244362903152 0 -0.40690107601488551 -0.28490397733270861 0 -0.41341650638623911 -0.27076301679274262 0 -0.41341650638623911 -0.27076301679274262 0 -0.43077531442077321 -0.27459050524281542 0 -0.42312684460972783 -0.26331748455384929 0 -0.43077531442077321 -0.27459050524281542 0 -0.42312684460972783 -0.26331748455384929 0 -0.43445882011373449 -0.25478651907497341 0 -0.41385673751816382 -0.25312989710486528 0 -0.43445882011373449 -0.25478651907497341 0 -0.43077531442077321 -0.27459050524281542 0 -0.43445882011373449 -0.25478651907497341 0 -0.41385673751816382 -0.25312989710486528 0 -0.42312684460972783 -0.26331748455384929 0 -0.43445882011373449 -0.25478651907497341 0 -0.41679144862722167 -0.25169429778568547 0 -0.43445882011373449 -0.25478651907497341 0 -0.42335340856967768 -0.24893549408922019 0 -0.32580796388430833 -0.26195871891040218 0 -0.34139866608006603 -0.2687790352098644 0 -0.31202674084989918 -0.26335133138269068 0 -0.32580796388430833 -0.26195871891040218 0 -0.33345250408021371 -0.25331871279766999 0 -0.32023222063025569 -0.2489608815952247 0 -0.32580796388430833 -0.26195871891040218 0 -0.31664960680882542 -0.25714232151458272 0 -0.32023222063025569 -0.2489608815952247 0 -0.31664960680882542 -0.25714232151458272 0 -0.30853150187083839 -0.25429835417001312 0 -0.32023222063025569 -0.2489608815952247 0 -0.32580796388430833 -0.26195871891040218 0 -0.31664960680882542 -0.25714232151458272 0 -0.31202674084989918 -0.26335133138269068 0 -0.33223611708196649 -0.27626932861073827 0 -0.31972670239926188 -0.28454160199560091 0 -0.31187737399160442 -0.27618124236115132 0 -0.34139866608006603 -0.2687790352098644 0 -0.31202674084989918 -0.26335133138269068 0 -0.33223611708196649 -0.27626932861073827 0 -0.31202674084989918 -0.26335133138269068 0 -0.3062135479255173 -0.26372173898871692 0 -0.33223611708196649 -0.27626932861073827 0 -0.31187737399160442 -0.27618124236115132 0 -0.3062135479255173 -0.26372173898871692 0 -0.33260241140844943 -0.2743168067351805 0 -0.33223611708196649 -0.27626932861073827 0 -0.31202674084989918 -0.26335133138269068 0 -0.33223611708196649 -0.27626932861073827 0 -0.3062135479255173 -0.26372173898871692 0 -0.33260241140844943 -0.2743168067351805 0 -0.34139866608006603 -0.2687790352098644 0 -0.31202674084989918 -0.26335133138269068 0 -0.33223611708196649 -0.27626932861073827 0 -0.34139866608006603 -0.2687790352098644 0 -0.34951875912658742 -0.28460269103381453 0 -0.33223611708196649 -0.27626932861073827 0 -0.34951875912658742 -0.28460269103381453 0 -0.33260241140844943 -0.2743168067351805 0 -0.33223611708196649 -0.27626932861073827 0 -0.34139866608006603 -0.2687790352098644 0 -0.33260241140844943 -0.2743168067351805 0 -0.33223611708196649 -0.27626932861073827 0 -0.34139866608006603 -0.2687790352098644 0 -0.3363084638556994 -0.26041051377605268 0 -0.34457472137820933 -0.25758558818627408 0 -0.32580796388430833 -0.26195871891040218 0 -0.34139866608006603 -0.2687790352098644 0 -0.3363084638556994 -0.26041051377605268 0 -0.32580796388430833 -0.26195871891040218 0 -0.3363084638556994 -0.26041051377605268 0 -0.33345250408021371 -0.25331871279766999 0 -0.3363084638556994 -0.26041051377605268 0 -0.33345250408021371 -0.25331871279766999 0 -0.34457472137820933 -0.25758558818627408 0 -0.33345250408021371 -0.25331871279766999 0 -0.34457472137820933 -0.25758558818627408 0 -0.34395992200845399 -0.24382677409400949 0 -0.34139866608006603 -0.2687790352098644 0 -0.34457472137820933 -0.25758558818627408 0 -0.35733732661955131 -0.26288598862094092 0 -0.34457472137820933 -0.25758558818627408 0 -0.35872453044413888 -0.25078889886649508 0 -0.34395992200845399 -0.24382677409400949 0 -0.34457472137820933 -0.25758558818627408 0 -0.35733732661955131 -0.26288598862094092 0 -0.35872453044413888 -0.25078889886649508 0 -0.37710287173325818 -0.2711091198417086 0 -0.36828299104124951 -0.26081605551440462 0 -0.37747963509906429 -0.24508953120583671 0 -0.35872453044413888 -0.25078889886649508 0 -0.36828299104124951 -0.26081605551440462 0 -0.37747963509906429 -0.24508953120583671 0 -0.35733732661955131 -0.26288598862094092 0 -0.35872453044413888 -0.25078889886649508 0 -0.36828299104124951 -0.26081605551440462 0 -0.37077059131023282 -0.27420673903703829 0 -0.34951875912658742 -0.28460269103381453 0 -0.37710287173325818 -0.2711091198417086 0 -0.3770412393053626 -0.27536550612006683 0 -0.37077059131023282 -0.27420673903703829 0 -0.3770412393053626 -0.27536550612006683 0 -0.37077059131023282 -0.27420673903703829 0 -0.37710287173325818 -0.2711091198417086 0 -0.36828299104124951 -0.26081605551440462 0 -0.37077059131023282 -0.27420673903703829 0 -0.37710287173325818 -0.2711091198417086 0 -0.37077059131023282 -0.27420673903703829 0 -0.35733732661955131 -0.26288598862094092 0 -0.36828299104124951 -0.26081605551440462 0 -0.37077059131023282 -0.27420673903703829 0 -0.34139866608006603 -0.2687790352098644 0 -0.35733732661955131 -0.26288598862094092 0 -0.37077059131023282 -0.27420673903703829 0 -0.34139866608006603 -0.2687790352098644 0 -0.37077059131023282 -0.27420673903703829 0 -0.34951875912658742 -0.28460269103381453 0 -0.34139866608006603 -0.2687790352098644 0 -0.37077059131023282 -0.27420673903703829 0 -0.34951875912658742 -0.28460269103381453 0 -0.3581763596052473 -0.30097106086504849 0 -0.34010739644885768 -0.2892065328944351 0 -0.34951875912658742 -0.28460269103381453 0 -0.34010739644885768 -0.2892065328944351 0 -0.37671758341694961 -0.29771744858697219 0 -0.37077059131023282 -0.27420673903703829 0 -0.34951875912658742 -0.28460269103381453 0 -0.37671758341694961 -0.29771744858697219 0 -0.34951875912658742 -0.28460269103381453 0 -0.37671758341694961 -0.29771744858697219 0 -0.3770412393053626 -0.27536550612006683 0 -0.37077059131023282 -0.27420673903703829 0 -0.37671758341694961 -0.29771744858697219 0 -0.34951875912658742 -0.28460269103381453 0 -0.3581763596052473 -0.30097106086504849 0 -0.37669606201677502 -0.29920373422444158 0 -0.37671758341694961 -0.29771744858697219 0 -0.3581763596052473 -0.30097106086504849 0 -0.37641717267996733 -0.3184640617331177 0 -0.37669606201677502 -0.29920373422444158 0 -0.36799370156123501 -0.30592930732763762 0 -0.37641717267996733 -0.3184640617331177 0 -0.36799370156123501 -0.30592930732763762 0 -0.35803691493684492 -0.31060122461938489 0 -0.37669606201677502 -0.29920373422444158 0 -0.36799370156123501 -0.30592930732763762 0 -0.3581763596052473 -0.30097106086504849 0 -0.37669606201677502 -0.29920373422444158 0 -0.3581763596052473 -0.30097106086504849 0 -0.36799370156123501 -0.30592930732763762 0 -0.35803691493684492 -0.31060122461938489 0 -0.3581763596052473 -0.30097106086504849 0 -0.35803691493684492 -0.31060122461938489 0 -0.33965665719371979 -0.30273838750565862 0 -0.35803691493684492 -0.31060122461938489 0 -0.33965665719371979 -0.30273838750565862 0 -0.34514704515453298 -0.31300544250539297 0 -0.3581763596052473 -0.30097106086504849 0 -0.33965665719371979 -0.30273838750565862 0 -0.34010739644885768 -0.2892065328944351 0 -0.35803691493684492 -0.31060122461938489 0 -0.3581763596052473 -0.30097106086504849 0 -0.33965665719371979 -0.30273838750565862 0 -0.3581763596052473 -0.30097106086504849 0 -0.33965665719371979 -0.30273838750565862 0 -0.33676996251121621 -0.31158184422573892 0 -0.33965665719371979 -0.30273838750565862 0 -0.34514704515453298 -0.31300544250539297 0 -0.33676996251121621 -0.31158184422573892 0 -0.33965665719371979 -0.30273838750565862 0 -0.32704471803945162 -0.30394193902942662 0 -0.33676996251121621 -0.31158184422573892 0 -0.32594772137393307 -0.30978944971135602 0 -0.32704471803945162 -0.30394193902942662 0 -0.33965665719371979 -0.30273838750565862 0 -0.32704471803945162 -0.30394193902942662 0 -0.32819068517220462 -0.29783339261299951 0 -0.33965665719371979 -0.30273838750565862 0 -0.32704471803945162 -0.30394193902942662 0 -0.32819068517220462 -0.29783339261299951 0 -0.33965665719371979 -0.30273838750565862 0 -0.33223611708196649 -0.27626932861073827 0 -0.32819068517220462 -0.29783339261299951 0 -0.33223611708196649 -0.27626932861073827 0 -0.32819068517220462 -0.29783339261299951 0 -0.34010739644885768 -0.2892065328944351 0 -0.33223611708196649 -0.27626932861073827 0 -0.34951875912658742 -0.28460269103381453 0 -0.34010739644885768 -0.2892065328944351 0 -0.32819068517220462 -0.29783339261299951 0 -0.33965665719371979 -0.30273838750565862 0 -0.34010739644885768 -0.2892065328944351 0 -0.32819068517220462 -0.29783339261299951 0 -0.31972670239926188 -0.28454160199560091 0 -0.31332574866090718 -0.291474364566292 0 -0.32819068517220462 -0.29783339261299951 0 -0.31332574866090718 -0.291474364566292 0 -0.33223611708196649 -0.27626932861073827 0 -0.32819068517220462 -0.29783339261299951 0 -0.31972670239926188 -0.28454160199560091 0 -0.31972670239926188 -0.28454160199560091 0 -0.31332574866090718 -0.291474364566292 0 -0.30937392239009109 -0.28339120160471948 0 -0.31972670239926188 -0.28454160199560091 0 -0.30937392239009109 -0.28339120160471948 0 -0.31187737399160442 -0.27618124236115132 0 -0.31992409361072222 -0.30462145692723192 0 -0.32594772137393307 -0.30978944971135602 0 -0.31307430431717392 -0.31869978567557272 0 -0.31992409361072222 -0.30462145692723192 0 -0.32594772137393307 -0.30978944971135602 0 -0.32594772137393307 -0.30978944971135602 0 -0.32704471803945162 -0.30394193902942662 0 -0.31992409361072222 -0.30462145692723192 0 -0.32594772137393307 -0.30978944971135602 0 -0.32704471803945162 -0.30394193902942662 0 -0.32819068517220462 -0.29783339261299951 0 -0.31332574866090718 -0.291474364566292 0 -0.31992409361072222 -0.30462145692723192 0 -0.32819068517220462 -0.29783339261299951 0 -0.32704471803945162 -0.30394193902942662 0 -0.32819068517220462 -0.29783339261299951 0 -0.31992409361072222 -0.30462145692723192 0 -0.32704471803945162 -0.30394193902942662 0 -0.31992409361072222 -0.30462145692723192 0 -0.32704471803945162 -0.30394193902942662 0 -0.32594772137393307 -0.30978944971135602 0 -0.31307430431717392 -0.31869978567557272 0 -0.32184288384298337 -0.33167017375041419 0 -0.32594772137393307 -0.30978944971135602 0 -0.32184288384298337 -0.33167017375041419 0 -0.32184288384298337 -0.33167017375041419 0 -0.31773804631203251 -0.35355089778947202 0 -0.32184288384298337 -0.33167017375041419 0 -0.34475024534571441 -0.34586667392980902 0 -0.31773804631203251 -0.35355089778947202 0 -0.32184288384298337 -0.33167017375041419 0 -0.34612464597635118 -0.32710031367078812 0 -0.34475024534571441 -0.34586667392980902 0 -0.33676996251121621 -0.31158184422573892 0 -0.32594772137393307 -0.30978944971135602 0 -0.34612464597635118 -0.32710031367078812 0 -0.32594772137393307 -0.30978944971135602 0 -0.34612464597635118 -0.32710031367078812 0 -0.32594772137393307 -0.30978944971135602 0 -0.32184288384298337 -0.33167017375041419 0 -0.34612464597635118 -0.32710031367078812 0 -0.33676996251121621 -0.31158184422573892 0 -0.34514704515453298 -0.31300544250539297 0 -0.34612464597635118 -0.32710031367078812 0 -0.35803691493684492 -0.31060122461938489 0 -0.34514704515453298 -0.31300544250539297 0 -0.34612464597635118 -0.32710031367078812 0 -0.35803691493684492 -0.31060122461938489 0 -0.34612464597635118 -0.32710031367078812 0 -0.35600230731325749 -0.33324145173106873 0 -0.37641717267996733 -0.3184640617331177 0 -0.35803691493684492 -0.31060122461938489 0 -0.37641717267996733 -0.3184640617331177 0 -0.35803691493684492 -0.31060122461938489 0 -0.36719759625642318 -0.33008752154143739 0 -0.35803691493684492 -0.31060122461938489 0 -0.36719759625642318 -0.33008752154143739 0 -0.35600230731325749 -0.33324145173106873 0 -0.37607676276689278 -0.3419730509543204 0 -0.37641717267996733 -0.3184640617331177 0 -0.36719759625642318 -0.33008752154143739 0 -0.37607676276689278 -0.3419730509543204 0 -0.3688763256213185 -0.34309961767568647 0 -0.36719759625642318 -0.33008752154143739 0 -0.36719759625642318 -0.33008752154143739 0 -0.36118874601324108 -0.3436521492952741 0 -0.35600230731325749 -0.33324145173106873 0 -0.3688763256213185 -0.34309961767568647 0 -0.36719759625642318 -0.33008752154143739 0 -0.36118874601324108 -0.3436521492952741 0 -0.34612464597635118 -0.32710031367078812 0 -0.35600230731325749 -0.33324145173106873 0 -0.34475024534571441 -0.34586667392980902 0 -0.36118874601324108 -0.3436521492952741 0 -0.35600230731325749 -0.33324145173106873 0 -0.34475024534571441 -0.34586667392980902 0 -0.36118874601324108 -0.3436521492952741 0 -0.34475024534571441 -0.34586667392980902 0 -0.35925477447714671 -0.35134479444962452 0 -0.34475024534571441 -0.34586667392980902 0 -0.35480891830463612 -0.3592101017575729 0 -0.33937201587241012 -0.36587749477948078 0 -0.34475024534571441 -0.34586667392980902 0 -0.35480891830463612 -0.3592101017575729 0 -0.35925477447714671 -0.35134479444962452 0 -0.36118874601324108 -0.3436521492952741 0 -0.37225797237559449 -0.35115364910559932 0 -0.36118874601324108 -0.3436521492952741 0 -0.35925477447714671 -0.35134479444962452 0 -0.36985982957495511 -0.35171195823109852 0 -0.37568304780698558 -0.36916333065311507 0 -0.37593298752455201 -0.35190228771479481 0 -0.37225797237559449 -0.35115364910559932 0 -0.35480891830463612 -0.3592101017575729 0 -0.35925477447714671 -0.35134479444962452 0 -0.36985982957495511 -0.35171195823109852 0 -0.37607676276689278 -0.3419730509543204 0 -0.3688763256213185 -0.34309961767568647 0 -0.37225797237559449 -0.35115364910559932 0 -0.37607676276689278 -0.3419730509543204 0 -0.37225797237559449 -0.35115364910559932 0 -0.37607676276689278 -0.3419730509543204 0 -0.37390838074359528 -0.35076941925389299 0 -0.37225797237559449 -0.35115364910559932 0 -0.37593298752455201 -0.35190228771479481 0 -0.37390838074359528 -0.35076941925389299 0 -0.37225797237559449 -0.35115364910559932 0 -0.3688763256213185 -0.34309961767568647 0 -0.36118874601324108 -0.3436521492952741 0 -0.37225797237559449 -0.35115364910559932 0 -0.37593298752455201 -0.35190228771479481 0 -0.37390838074359528 -0.35076941925389299 0 -0.36118874601324108 -0.3436521492952741 0 -0.36985982957495511 -0.35171195823109852 0 -0.37225797237559449 -0.35115364910559932 0 -0.37595629511297179 -0.35029264644438168 0 -0.37390838074359528 -0.35076941925389299 0 -0.37390838074359528 -0.35076941925389299 0 -0.37225797237559449 -0.35115364910559932 0 -0.36985982957495511 -0.35171195823109852 0 -0.37225797237559449 -0.35115364910559932 0 -0.37568304780698558 -0.36916333065311507 0 -0.37225797237559449 -0.35115364910559932 0 -0.36100598543278789 -0.37820409176948921 0 -0.35480891830463612 -0.3592101017575729 0 -0.36985982957495511 -0.35171195823109852 0 -0.36100598543278789 -0.37820409176948921 0 -0.36985982957495511 -0.35171195823109852 0 -0.37225797237559449 -0.35115364910559932 0 -0.36100598543278789 -0.37820409176948921 0 -0.37225797237559449 -0.35115364910559932 0 -0.36100598543278789 -0.37820409176948921 0 -0.33937201587241012 -0.36587749477948078 0 -0.36100598543278789 -0.37820409176948921 0 -0.35480891830463612 -0.3592101017575729 0 -0.33937201587241012 -0.36587749477948078 0 -0.36100598543278789 -0.37820409176948921 0 -0.33937201587241012 -0.36587749477948078 0 -0.31773804631203251 -0.35355089778947202 0 -0.33937201587241012 -0.36587749477948078 0 -0.31773804631203251 -0.35355089778947202 0 -0.32803705280137402 -0.37447550275240871 0 -0.34475024534571441 -0.34586667392980902 0 -0.33937201587241012 -0.36587749477948078 0 -0.31773804631203251 -0.35355089778947202 0 -0.31773804631203251 -0.35355089778947202 0 -0.31381007312398762 -0.37448885129246268 0 -0.31773804631203251 -0.35355089778947202 0 -0.31381007312398762 -0.37448885129246268 0 -0.32803705280137402 -0.37447550275240871 0 -0.31381007312398762 -0.37448885129246268 0 -0.29871455833571747 -0.36148408621311728 0 -0.29196992941862432 -0.3825632544476108 0 -0.31773804631203251 -0.35355089778947202 0 -0.31381007312398762 -0.37448885129246268 0 -0.29871455833571747 -0.36148408621311728 0 -0.31773804631203251 -0.35355089778947202 0 -0.29871455833571747 -0.36148408621311728 0 -0.29282778547957722 -0.33935753649529382 0 -0.31773804631203251 -0.35355089778947202 0 -0.29282778547957722 -0.33935753649529382 0 -0.29871455833571747 -0.36148408621311728 0 -0.27675503022224163 -0.36681377825091099 0 -0.29282778547957722 -0.33935753649529382 0 -0.29871455833571747 -0.36148408621311728 0 -0.27675503022224163 -0.36681377825091099 0 -0.29196992941862432 -0.3825632544476108 0 -0.27675503022224163 -0.36681377825091099 0 -0.25757508569408222 -0.36424633604315798 0 -0.26546808025963542 -0.34847395767735678 0 -0.27675503022224163 -0.36681377825091099 0 -0.25757508569408222 -0.36424633604315798 0 -0.25812358553267323 -0.37605355791306738 0 -0.25757508569408222 -0.36424633604315798 0 -0.24839247009954951 -0.37292447016044328 0 -0.24532753696728959 -0.36501789644951049 0 -0.25757508569408222 -0.36424633604315798 0 -0.25812358553267323 -0.37605355791306738 0 -0.24839247009954951 -0.37292447016044328 0 -0.25757508569408222 -0.36424633604315798 0 -0.26546808025963542 -0.34847395767735678 0 -0.24650166737573331 -0.3569693529562265 0 -0.26546808025963542 -0.34847395767735678 0 -0.24650166737573331 -0.3569693529562265 0 -0.24881121389389799 -0.33838995723746451 0 -0.27675503022224163 -0.36681377825091099 0 -0.26546808025963542 -0.34847395767735678 0 -0.29282778547957722 -0.33935753649529382 0 -0.26791752464712137 -0.32516417520111718 0 -0.27544300416693679 -0.31995488319631832 0 -0.29282778547957722 -0.33935753649529382 0 -0.26546808025963542 -0.34847395767735678 0 -0.26791752464712137 -0.32516417520111718 0 -0.29282778547957722 -0.33935753649529382 0 -0.26791752464712137 -0.32516417520111718 0 -0.29282778547957722 -0.33935753649529382 0 -0.26791752464712137 -0.32516417520111718 0 -0.24881121389389799 -0.33838995723746451 0 -0.26546808025963542 -0.34847395767735678 0 -0.26791752464712137 -0.32516417520111718 0 -0.24881121389389799 -0.33838995723746451 0 -0.26791752464712137 -0.32516417520111718 0 -0.24881121389389799 -0.33838995723746451 0 -0.2441082332202735 -0.32380704628422963 0 -0.26791752464712137 -0.32516417520111718 0 -0.2444966906846206 -0.31181945912301329 0 -0.26791752464712137 -0.32516417520111718 0 -0.26963915832665503 -0.30942012505775762 0 -0.2444966906846206 -0.31181945912301329 0 -0.26791752464712137 -0.32516417520111718 0 -0.2441082332202735 -0.32380704628422963 0 -0.2444966906846206 -0.31181945912301329 0 -0.26791752464712137 -0.32516417520111718 0 -0.27544300416693679 -0.31995488319631832 0 -0.26963915832665503 -0.30942012505775762 0 -0.26791752464712137 -0.32516417520111718 0 -0.27544300416693679 -0.31995488319631832 0 -0.27544300416693679 -0.31995488319631832 0 -0.29403167998309421 -0.32125824908992018 0 -0.29478162596868879 -0.30702079099249591 0 -0.27544300416693679 -0.31995488319631832 0 -0.29403167998309421 -0.32125824908992018 0 -0.29282778547957722 -0.33935753649529382 0 -0.31307430431717392 -0.31869978567557272 0 -0.32184288384298337 -0.33167017375041419 0 -0.29282778547957722 -0.33935753649529382 0 -0.32184288384298337 -0.33167017375041419 0 -0.31773804631203251 -0.35355089778947202 0 -0.29282778547957722 -0.33935753649529382 0 -0.31307430431717392 -0.31869978567557272 0 -0.29403167998309421 -0.32125824908992018 0 -0.29282778547957722 -0.33935753649529382 0 -0.31307430431717392 -0.31869978567557272 0 -0.29403167998309421 -0.32125824908992018 0 -0.29478162596868879 -0.30702079099249591 0 -0.31992409361072222 -0.30462145692723192 0 -0.29478162596868879 -0.30702079099249591 0 -0.31992409361072222 -0.30462145692723192 0 -0.31307430431717392 -0.31869978567557272 0 -0.29478162596868879 -0.30702079099249591 0 -0.31992409361072222 -0.30462145692723192 0 -0.30687808727867438 -0.29770175581860719 0 -0.29478162596868879 -0.30702079099249591 0 -0.30687808727867438 -0.29770175581860719 0 -0.29813438661480679 -0.29530641477552327 0 -0.29478162596868879 -0.30702079099249591 0 -0.31992409361072222 -0.30462145692723192 0 -0.2984608121496099 -0.28511533651958437 0 -0.31992409361072222 -0.30462145692723192 0 -0.30687808727867438 -0.29770175581860719 0 -0.2984608121496099 -0.28511533651958437 0 -0.31332574866090718 -0.291474364566292 0 -0.31992409361072222 -0.30462145692723192 0 -0.2984608121496099 -0.28511533651958437 0 -0.31332574866090718 -0.291474364566292 0 -0.30937392239009109 -0.28339120160471948 0 -0.2984608121496099 -0.28511533651958437 0 -0.31332574866090718 -0.291474364566292 0 -0.2984608121496099 -0.28511533651958437 0 -0.30937392239009109 -0.28339120160471948 0 -0.2984608121496099 -0.28511533651958437 0 -0.30347897474907187 -0.279643462580969 0 -0.30687808727867438 -0.29770175581860719 0 -0.29951482580247829 -0.29240083595456018 0 -0.29813438661480679 -0.29530641477552327 0 -0.30687808727867438 -0.29770175581860719 0 -0.2984608121496099 -0.28511533651958437 0 -0.29951482580247829 -0.29240083595456018 0 -0.29951482580247829 -0.29240083595456018 0 -0.29813438661480679 -0.29530641477552327 0 -0.29499124589990039 -0.29073588210889412 0 -0.2984608121496099 -0.28511533651958437 0 -0.29951482580247829 -0.29240083595456018 0 -0.29499124589990039 -0.29073588210889412 0 -0.29499124589990039 -0.29073588210889412 0 -0.29148170063899659 -0.29460773718781319 0 -0.28586576089235322 -0.28577101837165192 0 -0.29813438661480679 -0.29530641477552327 0 -0.29499124589990039 -0.29073588210889412 0 -0.29148170063899659 -0.29460773718781319 0 -0.2984608121496099 -0.28511533651958437 0 -0.29499124589990039 -0.29073588210889412 0 -0.28586576089235322 -0.28577101837165192 0 -0.29148170063899659 -0.29460773718781319 0 -0.28586576089235322 -0.28577101837165192 0 -0.2798353156189245 -0.29508903771003908 0 -0.29148170063899659 -0.29460773718781319 0 -0.29478162596868879 -0.30702079099249591 0 -0.2798353156189245 -0.29508903771003908 0 -0.29478162596868879 -0.30702079099249591 0 -0.26963915832665503 -0.30942012505775762 0 -0.2798353156189245 -0.29508903771003908 0 -0.29478162596868879 -0.30702079099249591 0 -0.26963915832665503 -0.30942012505775762 0 -0.29813438661480679 -0.29530641477552327 0 -0.29148170063899659 -0.29460773718781319 0 -0.29478162596868879 -0.30702079099249591 0 -0.27544300416693679 -0.31995488319631832 0 -0.29478162596868879 -0.30702079099249591 0 -0.26963915832665503 -0.30942012505775762 0 -0.26963915832665503 -0.30942012505775762 0 -0.26057201890547982 -0.29344093798311832 0 -0.2798353156189245 -0.29508903771003908 0 -0.26963915832665503 -0.30942012505775762 0 -0.2444966906846206 -0.31181945912301329 0 -0.26963915832665503 -0.30942012505775762 0 -0.26057201890547982 -0.29344093798311832 0 -0.2444966906846206 -0.31181945912301329 0 -0.26057201890547982 -0.29344093798311832 0 -0.27108878797196961 -0.28331686931735522 0 -0.25298377122075039 -0.27518622721876451 0 -0.26057201890547982 -0.29344093798311832 0 -0.25298377122075039 -0.27518622721876451 0 -0.2435111179254994 -0.29490773243705071 0 -0.26057201890547982 -0.29344093798311832 0 -0.27108878797196961 -0.28331686931735522 0 -0.2798353156189245 -0.29508903771003908 0 -0.28586576089235322 -0.28577101837165192 0 -0.27108878797196961 -0.28331686931735522 0 -0.2798353156189245 -0.29508903771003908 0 -0.27108878797196961 -0.28331686931735522 0 -0.27618707322233982 -0.26709712530320262 0 -0.25298377122075039 -0.27518622721876451 0 -0.28586576089235322 -0.28577101837165192 0 -0.27108878797196961 -0.28331686931735522 0 -0.27618707322233982 -0.26709712530320262 0 -0.27618707322233982 -0.26709712530320262 0 -0.25431856302814809 -0.24833495949118861 0 -0.27618707322233982 -0.26709712530320262 0 -0.25298377122075039 -0.27518622721876451 0 -0.25431856302814809 -0.24833495949118861 0 -0.27618707322233982 -0.26709712530320262 0 -0.27309361240676189 -0.24179026653703889 0 -0.25431856302814809 -0.24833495949118861 0 -0.27618707322233982 -0.26709712530320262 0 -0.2907170577323625 -0.25177677077710309 0 -0.27309361240676189 -0.24179026653703889 0 -0.27618707322233982 -0.26709712530320262 0 -0.2907170577323625 -0.25177677077710309 0 -0.29477899871119112 -0.26293378760569941 0 -0.2984608121496099 -0.28511533651958437 0 -0.28586576089235322 -0.28577101837165192 0 -0.27618707322233982 -0.26709712530320262 0 -0.2984608121496099 -0.28511533651958437 0 -0.27618707322233982 -0.26709712530320262 0 -0.27618707322233982 -0.26709712530320262 0 -0.29477899871119112 -0.26293378760569941 0 -0.29948479845841441 -0.27338487519771032 0 -0.2984608121496099 -0.28511533651958437 0 -0.27618707322233982 -0.26709712530320262 0 -0.29948479845841441 -0.27338487519771032 0 -0.29477899871119112 -0.26293378760569941 0 -0.29948479845841441 -0.27338487519771032 0 -0.30156079933714469 -0.26765617134954151 0 -0.30156079933714469 -0.26765617134954151 0 -0.30403476516136241 -0.27459464834518948 0 -0.30588444940973558 -0.27063474712059482 0 -0.29948479845841441 -0.27338487519771032 0 -0.30156079933714469 -0.26765617134954151 0 -0.30403476516136241 -0.27459464834518948 0 -0.30156079933714469 -0.26765617134954151 0 -0.30588444940973558 -0.27063474712059482 0 -0.3062135479255173 -0.26372173898871692 0 -0.2984608121496099 -0.28511533651958437 0 -0.29948479845841441 -0.27338487519771032 0 -0.30347897474907187 -0.279643462580969 0 -0.29948479845841441 -0.27338487519771032 0 -0.30403476516136241 -0.27459464834518948 0 -0.30347897474907187 -0.279643462580969 0 -0.30937392239009109 -0.28339120160471948 0 -0.30347897474907187 -0.279643462580969 0 -0.31187737399160442 -0.27618124236115132 0 -0.30403476516136241 -0.27459464834518948 0 -0.30347897474907187 -0.279643462580969 0 -0.31187737399160442 -0.27618124236115132 0 -0.30403476516136241 -0.27459464834518948 0 -0.31187737399160442 -0.27618124236115132 0 -0.30588444940973558 -0.27063474712059482 0 -0.31187737399160442 -0.27618124236115132 0 -0.30588444940973558 -0.27063474712059482 0 -0.3062135479255173 -0.26372173898871692 0 -0.31664960680882542 -0.25714232151458272 0 -0.31202674084989918 -0.26335133138269068 0 -0.30853150187083839 -0.25429835417001312 0 -0.2907170577323625 -0.25177677077710309 0 -0.29477899871119112 -0.26293378760569941 0 -0.30853150187083839 -0.25429835417001312 0 -0.31202674084989918 -0.26335133138269068 0 -0.3062135479255173 -0.26372173898871692 0 -0.30853150187083839 -0.25429835417001312 0 -0.29477899871119112 -0.26293378760569941 0 -0.30156079933714469 -0.26765617134954151 0 -0.3062135479255173 -0.26372173898871692 0 -0.29477899871119112 -0.26293378760569941 0 -0.3062135479255173 -0.26372173898871692 0 -0.30853150187083839 -0.25429835417001312 0 -0.33709504481289931 -0.46474263175187808 0 -0.33075086723682939 -0.45093918684289991 0 -0.35302422329502631 -0.44785824460859458 0 -0.33709504481289931 -0.46474263175187808 0 -0.33075086723682939 -0.45093918684289991 0 -0.32054712240525829 -0.47546959342145068 0 -0.33075086723682939 -0.45093918684289991 0 -0.34095461206840061 -0.42640878026434909 0 -0.33075086723682939 -0.45093918684289991 0 -0.35302422329502631 -0.44785824460859458 0 -0.34095461206840061 -0.42640878026434909 0 -0.33075086723682939 -0.45093918684289991 0 -0.32054706720266329 -0.44859283512714471 0 -0.3206124180200437 -0.43193612962395289 0 -0.33075086723682939 -0.45093918684289991 0 -0.32054706720266329 -0.44859283512714471 0 -0.31571728338184601 -0.45752087103574601 0 -0.32054706720266329 -0.44859283512714471 0 -0.31571728338184601 -0.45752087103574601 0 -0.30706080135445341 -0.45057148265483188 0 -0.33075086723682939 -0.45093918684289991 0 -0.32054712240525829 -0.47546959342145068 0 -0.33075086723682939 -0.45093918684289991 0 -0.31571728338184601 -0.45752087103574601 0 -0.32054712240525829 -0.47546959342145068 0 -0.32054712240525829 -0.47546959342145068 0 -0.32750579650535672 -0.48798687004089669 0 -0.32933965142182292 -0.47777380670114528 0 -0.32054712240525829 -0.47546959342145068 0 -0.31034337757368669 -0.50000000000000133 0 -0.32750579650535672 -0.48798687004089669 0 -0.33387795429423722 -0.5 0 -0.31034337757368669 -0.50000000000000133 0 -0.32054712240525829 -0.47546959342145068 0 -0.32750579650535672 -0.48798687004089669 0 -0.31034337757368669 -0.50000000000000133 0 -0.32750579650535672 -0.48798687004089669 0 -0.34342087683177741 -0.48669095008188618 0 -0.33387795429423722 -0.5 0 -0.33709504481289931 -0.46474263175187808 0 -0.32933965142182292 -0.47777380670114528 0 -0.35181335970555933 -0.47167232718529989 0 -0.34342087683177741 -0.48669095008188618 0 -0.32933965142182292 -0.47777380670114528 0 -0.35181335970555933 -0.47167232718529989 0 -0.32750579650535672 -0.48798687004089669 0 -0.34342087683177741 -0.48669095008188618 0 -0.32933965142182292 -0.47777380670114528 0 -0.33709504481289931 -0.46474263175187808 0 -0.32054712240525829 -0.47546959342145068 0 -0.32933965142182292 -0.47777380670114528 0 -0.32933965142182292 -0.47777380670114528 0 -0.35181335970555933 -0.47167232718529989 0 -0.34342087683177741 -0.48669095008188618 0 -0.35181335970555933 -0.47167232718529989 0 -0.35979455825166368 -0.48519290092039941 0 -0.34342087683177741 -0.48669095008188618 0 -0.35741253101478748 -0.5 0 -0.35979455825166368 -0.48519290092039941 0 -0.34342087683177741 -0.48669095008188618 0 -0.33387795429423722 -0.5 0 -0.35741253101478748 -0.5 0 -0.38094710773533791 -0.49999999999999839 0 -0.35741253101478748 -0.5 0 -0.37240076261097882 -0.48974555046165519 0 -0.35741253101478748 -0.5 0 -0.35979455825166368 -0.48519290092039941 0 -0.37240076261097882 -0.48974555046165519 0 -0.35181335970555933 -0.47167232718529989 0 -0.35979455825166368 -0.48519290092039941 0 -0.37411677223754131 -0.47733161267270968 0 -0.35181335970555933 -0.47167232718529989 0 -0.37411677223754131 -0.47733161267270968 0 -0.37428706798929601 -0.46557084766945539 0 -0.35979455825166368 -0.48519290092039941 0 -0.37240076261097882 -0.48974555046165519 0 -0.37411677223754131 -0.47733161267270968 0 -0.37411677223754131 -0.47733161267270968 0 -0.37428706798929601 -0.46557084766945539 0 -0.35181335970555933 -0.47167232718529989 0 -0.37428706798929601 -0.46557084766945539 0 -0.35302422329502631 -0.44785824460859458 0 -0.35181335970555933 -0.47167232718529989 0 -0.37428706798929601 -0.46557084766945539 0 -0.33709504481289931 -0.46474263175187808 0 -0.35181335970555933 -0.47167232718529989 0 -0.35302422329502631 -0.44785824460859458 0 -0.37428706798929601 -0.46557084766945539 0 -0.35302422329502631 -0.44785824460859458 0 -0.37472313619600889 -0.43545561783144832 0 -0.37428706798929601 -0.46557084766945539 0 -0.37472313619600889 -0.43545561783144832 0 -0.35302422329502631 -0.44785824460859458 0 -0.37472313619600889 -0.43545561783144832 0 -0.36076670325611282 -0.42019275678090617 0 -0.37515920440272033 -0.40534038799344108 0 -0.37472313619600889 -0.43545561783144832 0 -0.36076670325611282 -0.42019275678090617 0 -0.37515920440272033 -0.40534038799344108 0 -0.36076670325611282 -0.42019275678090617 0 -0.35115835689997099 -0.40187837368579798 0 -0.37515920440272033 -0.40534038799344108 0 -0.37472313619600889 -0.43545561783144832 0 -0.36076670325611282 -0.42019275678090617 0 -0.35115835689997099 -0.40187837368579798 0 -0.34095461206840061 -0.42640878026434909 0 -0.34815033243380111 -0.40144447968524521 0 -0.35115835689997099 -0.40187837368579798 0 -0.34095461206840061 -0.42640878026434909 0 -0.35115835689997099 -0.40187837368579798 0 -0.34095461206840061 -0.42640878026434909 0 -0.35302422329502631 -0.44785824460859458 0 -0.36076670325611282 -0.42019275678090617 0 -0.34095461206840061 -0.42640878026434909 0 -0.37543310808941849 -0.38642437359143528 0 -0.36100598543278789 -0.37820409176948921 0 -0.35115835689997099 -0.40187837368579798 0 -0.37543310808941849 -0.38642437359143528 0 -0.37568304780698558 -0.36916333065311507 0 -0.36100598543278789 -0.37820409176948921 0 -0.37543310808941849 -0.38642437359143528 0 -0.36100598543278789 -0.37820409176948921 0 -0.37515920440272033 -0.40534038799344108 0 -0.37543310808941849 -0.38642437359143528 0 -0.35115835689997099 -0.40187837368579798 0 -0.37515920440272033 -0.40534038799344108 0 -0.35115835689997099 -0.40187837368579798 0 -0.35115835689997099 -0.40187837368579798 0 -0.34646966066369161 -0.38533898881774881 0 -0.34316085436749 -0.39382471367395527 0 -0.34815033243380111 -0.40144447968524521 0 -0.35115835689997099 -0.40187837368579798 0 -0.34316085436749 -0.39382471367395527 0 -0.34815033243380111 -0.40144447968524521 0 -0.35115835689997099 -0.40187837368579798 0 -0.33937201587241012 -0.36587749477948078 0 -0.36100598543278789 -0.37820409176948921 0 -0.34646966066369161 -0.38533898881774881 0 -0.36100598543278789 -0.37820409176948921 0 -0.35115835689997099 -0.40187837368579798 0 -0.36100598543278789 -0.37820409176948921 0 -0.35115835689997099 -0.40187837368579798 0 -0.34646966066369161 -0.38533898881774881 0 -0.33937201587241012 -0.36587749477948078 0 -0.32803705280137402 -0.37447550275240871 0 -0.34646966066369161 -0.38533898881774881 0 -0.32803705280137402 -0.37447550275240871 0 -0.34646966066369161 -0.38533898881774881 0 -0.32931529664348408 -0.38869437358142001 0 -0.34646966066369161 -0.38533898881774881 0 -0.32931529664348408 -0.38869437358142001 0 -0.34316085436749 -0.39382471367395527 0 -0.34815033243380111 -0.40144447968524521 0 -0.33486919938690762 -0.39884665705885908 0 -0.32944617452305069 -0.41182817437998842 0 -0.32931529664348408 -0.38869437358142001 0 -0.34316085436749 -0.39382471367395527 0 -0.33486919938690762 -0.39884665705885908 0 -0.32931529664348408 -0.38869437358142001 0 -0.33486919938690762 -0.39884665705885908 0 -0.32365381597648563 -0.39942827076698811 0 -0.34815033243380111 -0.40144447968524521 0 -0.34316085436749 -0.39382471367395527 0 -0.33486919938690762 -0.39884665705885908 0 -0.33486919938690762 -0.39884665705885908 0 -0.32365381597648563 -0.39942827076698811 0 -0.32944617452305069 -0.41182817437998842 0 -0.32931529664348408 -0.38869437358142001 0 -0.32365381597648563 -0.39942827076698811 0 -0.30988209993594379 -0.39542680479545339 0 -0.32365381597648563 -0.39942827076698811 0 -0.30595412674790001 -0.41636475829844438 0 -0.30988209993594379 -0.39542680479545339 0 -0.31381007312398762 -0.37448885129246268 0 -0.32931529664348408 -0.38869437358142001 0 -0.30988209993594379 -0.39542680479545339 0 -0.31381007312398762 -0.37448885129246268 0 -0.32803705280137402 -0.37447550275240871 0 -0.32931529664348408 -0.38869437358142001 0 -0.34095461206840061 -0.42640878026434909 0 -0.32944617452305069 -0.41182817437998842 0 -0.3206124180200437 -0.43193612962395289 0 -0.33075086723682939 -0.45093918684289991 0 -0.34095461206840061 -0.42640878026434909 0 -0.3206124180200437 -0.43193612962395289 0 -0.34815033243380111 -0.40144447968524521 0 -0.34095461206840061 -0.42640878026434909 0 -0.32944617452305069 -0.41182817437998842 0 -0.32944617452305069 -0.41182817437998842 0 -0.3206124180200437 -0.43193612962395289 0 -0.30595412674790001 -0.41636475829844438 0 -0.32365381597648563 -0.39942827076698811 0 -0.32944617452305069 -0.41182817437998842 0 -0.30595412674790001 -0.41636475829844438 0 -0.3206124180200437 -0.43193612962395289 0 -0.30595412674790001 -0.41636475829844438 0 -0.29602166034141808 -0.43748304283089118 0 -0.30595412674790001 -0.41636475829844438 0 -0.28680587137917263 -0.41476105187328532 0 -0.29502227998321778 -0.40112933436643161 0 -0.30595412674790001 -0.41636475829844438 0 -0.28680587137917263 -0.41476105187328532 0 -0.29602166034141808 -0.43748304283089118 0 -0.28680587137917263 -0.41476105187328532 0 -0.29602166034141808 -0.43748304283089118 0 -0.27149625348017281 -0.42637325053463759 0 -0.29602166034141808 -0.43748304283089118 0 -0.27149625348017281 -0.42637325053463759 0 -0.29602166034141808 -0.43748304283089118 0 -0.27149625348017281 -0.42637325053463759 0 -0.27906578537949278 -0.44687665772048962 0 -0.31381007312398762 -0.37448885129246268 0 -0.30988209993594379 -0.39542680479545339 0 -0.31381007312398762 -0.37448885129246268 0 -0.30988209993594379 -0.39542680479545339 0 -0.29196992941862432 -0.3825632544476108 0 -0.30595412674790001 -0.41636475829844438 0 -0.30988209993594379 -0.39542680479545339 0 -0.30595412674790001 -0.41636475829844438 0 -0.30988209993594379 -0.39542680479545339 0 -0.29502227998321778 -0.40112933436643161 0 -0.30988209993594379 -0.39542680479545339 0 -0.29502227998321778 -0.40112933436643161 0 -0.29196992941862432 -0.3825632544476108 0 -0.28680587137917263 -0.41476105187328532 0 -0.29502227998321778 -0.40112933436643161 0 -0.2806661672136338 -0.39648987600255969 0 -0.29502227998321778 -0.40112933436643161 0 -0.29196992941862432 -0.3825632544476108 0 -0.2806661672136338 -0.39648987600255969 0 -0.27675503022224163 -0.36681377825091099 0 -0.29196992941862432 -0.3825632544476108 0 -0.26924588117792803 -0.38334910629271668 0 -0.29196992941862432 -0.3825632544476108 0 -0.26924588117792803 -0.38334910629271668 0 -0.2806661672136338 -0.39648987600255969 0 -0.27675503022224163 -0.36681377825091099 0 -0.26924588117792803 -0.38334910629271668 0 -0.25812358553267323 -0.37605355791306738 0 -0.28680587137917263 -0.41476105187328532 0 -0.2806661672136338 -0.39648987600255969 0 -0.26326431180229581 -0.40282557300305732 0 -0.26924588117792803 -0.38334910629271668 0 -0.2806661672136338 -0.39648987600255969 0 -0.26326431180229581 -0.40282557300305732 0 -0.26326431180229581 -0.40282557300305732 0 -0.2504897110532438 -0.38524934403489181 0 -0.24394706363899241 -0.39877073912243299 0 -0.26326431180229581 -0.40282557300305732 0 -0.24697084661892749 -0.41526345823838401 0 -0.24394706363899241 -0.39877073912243299 0 -0.26924588117792803 -0.38334910629271668 0 -0.26326431180229581 -0.40282557300305732 0 -0.2504897110532438 -0.38524934403489181 0 -0.26924588117792803 -0.38334910629271668 0 -0.2504897110532438 -0.38524934403489181 0 -0.25812358553267323 -0.37605355791306738 0 -0.2504897110532438 -0.38524934403489181 0 -0.25812358553267323 -0.37605355791306738 0 -0.24839247009954951 -0.37292447016044328 0 -0.28680587137917263 -0.41476105187328532 0 -0.26326431180229581 -0.40282557300305732 0 -0.27149625348017281 -0.42637325053463759 0 -0.27149625348017281 -0.42637325053463759 0 -0.24697084661892749 -0.41526345823838401 0 -0.26326431180229581 -0.40282557300305732 0 -0.27149625348017281 -0.42637325053463759 0 -0.24697084661892749 -0.41526345823838401 0 -0.27149625348017281 -0.42637325053463759 0 -0.25687425522332558 -0.44642006451091643 0 -0.24697084661892749 -0.41526345823838401 0 -0.25687425522332558 -0.44642006451091643 0 -0.27607931301277078 -0.46657199895299017 0 -0.25409384940020791 -0.47271975939701871 0 -0.25687425522332558 -0.44642006451091643 0 -0.27607931301277078 -0.46657199895299017 0 -0.27906578537949278 -0.44687665772048962 0 -0.27149625348017281 -0.42637325053463759 0 -0.25687425522332558 -0.44642006451091643 0 -0.27906578537949278 -0.44687665772048962 0 -0.29602166034141808 -0.43748304283089118 0 -0.27906578537949278 -0.44687665772048962 0 -0.29968055871002541 -0.46203125713240301 0 -0.27607931301277078 -0.46657199895299017 0 -0.27906578537949278 -0.44687665772048962 0 -0.29968055871002541 -0.46203125713240301 0 -0.31571728338184601 -0.45752087103574601 0 -0.29968055871002541 -0.46203125713240301 0 -0.30706080135445341 -0.45057148265483188 0 -0.31571728338184601 -0.45752087103574601 0 -0.32054712240525829 -0.47546959342145068 0 -0.29968055871002541 -0.46203125713240301 0 -0.32054706720266329 -0.44859283512714471 0 -0.29602166034141808 -0.43748304283089118 0 -0.32054706720266329 -0.44859283512714471 0 -0.3206124180200437 -0.43193612962395289 0 -0.29602166034141808 -0.43748304283089118 0 -0.32054706720266329 -0.44859283512714471 0 -0.29602166034141808 -0.43748304283089118 0 -0.30706080135445341 -0.45057148265483188 0 -0.29602166034141808 -0.43748304283089118 0 -0.29968055871002541 -0.46203125713240301 0 -0.30706080135445341 -0.45057148265483188 0 -0.32054712240525829 -0.47546959342145068 0 -0.31034337757368669 -0.50000000000000133 0 -0.2941570887960146 -0.48201569375099518 0 -0.32054712240525829 -0.47546959342145068 0 -0.29968055871002541 -0.46203125713240301 0 -0.2941570887960146 -0.48201569375099518 0 -0.27607931301277078 -0.46657199895299017 0 -0.29968055871002541 -0.46203125713240301 0 -0.2941570887960146 -0.48201569375099518 0 -0.2941570887960146 -0.48201569375099518 0 -0.28248249767631262 -0.5 0 -0.27039562620846602 -0.48462576079096858 0 -0.31034337757368669 -0.50000000000000133 0 -0.2941570887960146 -0.48201569375099518 0 -0.28248249767631262 -0.5 0 -0.28248249767631262 -0.5 0 -0.27039562620846602 -0.48462576079096858 0 -0.25462161777893849 -0.5 0 -0.27607931301277078 -0.46657199895299017 0 -0.2941570887960146 -0.48201569375099518 0 -0.27039562620846602 -0.48462576079096858 0 -0.27607931301277078 -0.46657199895299017 0 -0.27039562620846602 -0.48462576079096858 0 -0.25409384940020791 -0.47271975939701871 0 -0.27039562620846602 -0.48462576079096858 0 -0.25409384940020791 -0.47271975939701871 0 -0.25462161777893849 -0.5 0 -0.25462161777893849 -0.5 0 -0.23155232774708009 -0.47932355884050398 0 -0.22676073788156451 -0.5 0 -0.25409384940020791 -0.47271975939701871 0 -0.25462161777893849 -0.5 0 -0.23155232774708009 -0.47932355884050398 0 -0.25409384940020791 -0.47271975939701871 0 -0.23155232774708009 -0.47932355884050398 0 -0.2350399564306665 -0.45937717328673289 0 -0.23155232774708009 -0.47932355884050398 0 -0.2350399564306665 -0.45937717328673289 0 -0.2080224731694312 -0.47403962225972662 0 -0.23155232774708009 -0.47932355884050398 0 -0.22676073788156451 -0.5 0 -0.2080224731694312 -0.47403962225972662 0 -0.25687425522332558 -0.44642006451091643 0 -0.2350399564306665 -0.45937717328673289 0 -0.23180750449586429 -0.4343742486430574 0 -0.25687425522332558 -0.44642006451091643 0 -0.25409384940020791 -0.47271975939701871 0 -0.2350399564306665 -0.45937717328673289 0 -0.2350399564306665 -0.45937717328673289 0 -0.21590660946663959 -0.44883644739355771 0 -0.2080224731694312 -0.47403962225972662 0 -0.2350399564306665 -0.45937717328673289 0 -0.21590660946663959 -0.44883644739355771 0 -0.23180750449586429 -0.4343742486430574 0 -0.21590660946663959 -0.44883644739355771 0 -0.1943898331460783 -0.4473597119794826 0 -0.20910912931781811 -0.42543372189632289 0 -0.21590660946663959 -0.44883644739355771 0 -0.1943898331460783 -0.4473597119794826 0 -0.2080224731694312 -0.47403962225972662 0 -0.1943898331460783 -0.4473597119794826 0 -0.2080224731694312 -0.47403962225972662 0 -0.17967053697433849 -0.46928570206264231 0 -0.22676073788156451 -0.5 0 -0.2080224731694312 -0.47403962225972662 0 -0.19889985798419041 -0.5 0 -0.2080224731694312 -0.47403962225972662 0 -0.1821948971586228 -0.48648437486529872 0 -0.17967053697433849 -0.46928570206264231 0 -0.2080224731694312 -0.47403962225972662 0 -0.19889985798419041 -0.5 0 -0.1821948971586228 -0.48648437486529872 0 -0.19889985798419041 -0.5 0 -0.1821948971586228 -0.48648437486529872 0 -0.17103897808681609 -0.49999999999999778 0 -0.1821948971586228 -0.48648437486529872 0 -0.17103897808681609 -0.49999999999999778 0 -0.16495124080259491 -0.49121169214579941 0 -0.17103897808681609 -0.49999999999999778 0 -0.16495124080259491 -0.49121169214579941 0 -0.17103897808681609 -0.49999999999999778 0 -0.16495124080259491 -0.49121169214579941 0 -0.15905149781887321 -0.49999999999999961 0 -0.16495124080259491 -0.49121169214579941 0 -0.15905149781887321 -0.49999999999999961 0 -0.1545750311736096 -0.49062041690426861 0 -0.16495124080259491 -0.49121169214579941 0 -0.15905149781887321 -0.49999999999999961 0 -0.16495124080259491 -0.49121169214579941 0 -0.16530166315622061 -0.47155300009798301 0 -0.17967053697433849 -0.46928570206264231 0 -0.16495124080259491 -0.49121169214579941 0 -0.16530166315622061 -0.47155300009798301 0 -0.15083103946930049 -0.47082765280793248 0 -0.16495124080259491 -0.49121169214579941 0 -0.1545750311736096 -0.49062041690426861 0 -0.15083103946930049 -0.47082765280793248 0 -0.16495124080259491 -0.49121169214579941 0 -0.15083103946930049 -0.47082765280793248 0 -0.16495124080259491 -0.49121169214579941 0 -0.17967053697433849 -0.46928570206264231 0 -0.1821948971586228 -0.48648437486529872 0 -0.16495124080259491 -0.49121169214579941 0 -0.17967053697433849 -0.46928570206264231 0 -0.1943898331460783 -0.4473597119794826 0 -0.17967053697433849 -0.46928570206264231 0 -0.1943898331460783 -0.4473597119794826 0 -0.17967053697433849 -0.46928570206264231 0 -0.1657538353786501 -0.45488695337555668 0 -0.1943898331460783 -0.4473597119794826 0 -0.1657538353786501 -0.45488695337555668 0 -0.1755027511393909 -0.43471579892562301 0 -0.1657538353786501 -0.45488695337555668 0 -0.15761868306950341 -0.43586407366366631 0 -0.1755027511393909 -0.43471579892562301 0 -0.16530166315622061 -0.47155300009798301 0 -0.1657538353786501 -0.45488695337555668 0 -0.15083103946930049 -0.47082765280793248 0 -0.16530166315622061 -0.47155300009798301 0 -0.17967053697433849 -0.46928570206264231 0 -0.1657538353786501 -0.45488695337555668 0 -0.13671083813600751 -0.45044361347006462 0 -0.15083103946930049 -0.47082765280793248 0 -0.13671083813600751 -0.45044361347006462 0 -0.13441782301728619 -0.47175980973682791 0 -0.15083103946930049 -0.47082765280793248 0 -0.1657538353786501 -0.45488695337555668 0 -0.13671083813600751 -0.45044361347006462 0 -0.15083103946930049 -0.47082765280793248 0 -0.13671083813600751 -0.45044361347006462 0 -0.13816776916695811 -0.432543871779144 0 -0.15761868306950341 -0.43586407366366631 0 -0.1657538353786501 -0.45488695337555668 0 -0.13671083813600751 -0.45044361347006462 0 -0.15761868306950341 -0.43586407366366631 0 -0.13671083813600751 -0.45044361347006462 0 -0.13816776916695811 -0.432543871779144 0 -0.1225906368027144 -0.43005957413219659 0 -0.13671083813600751 -0.45044361347006462 0 -0.1225906368027144 -0.43005957413219659 0 -0.13671083813600751 -0.45044361347006462 0 -0.13441782301728619 -0.47175980973682791 0 -0.1201929706126502 -0.46127799294672761 0 -0.13441782301728619 -0.47175980973682791 0 -0.12605423818426559 -0.48707922202292669 0 -0.14429533434837091 -0.48908967660720287 0 -0.13441782301728619 -0.47175980973682791 0 -0.12605423818426559 -0.48707922202292669 0 -0.1201929706126502 -0.46127799294672761 0 -0.1295391708778694 -0.5 0 -0.12605423818426559 -0.48707922202292669 0 -0.14429533434837091 -0.48908967660720287 0 -0.15905149781887321 -0.49999999999999961 0 -0.1295391708778694 -0.5 0 -0.14429533434837091 -0.48908967660720287 0 -0.15905149781887321 -0.49999999999999961 0 -0.14429533434837091 -0.48908967660720287 0 -0.1545750311736096 -0.49062041690426861 0 -0.14429533434837091 -0.48908967660720287 0 -0.1545750311736096 -0.49062041690426861 0 -0.15083103946930049 -0.47082765280793248 0 -0.13441782301728619 -0.47175980973682791 0 -0.14429533434837091 -0.48908967660720287 0 -0.15083103946930049 -0.47082765280793248 0 -0.15345949684661231 -0.4053237642064671 0 -0.15136585988972451 -0.39002590355483568 0 -0.13982663417143551 -0.39933000433158738 0 -0.15136585988972451 -0.39002590355483568 0 -0.1368738238800834 -0.3880397179408614 0 -0.13982663417143551 -0.39933000433158738 0 -0.15345949684661231 -0.4053237642064671 0 -0.13982663417143551 -0.39933000433158738 0 -0.1398029654186671 -0.41064466143528439 0 -0.15136585988972451 -0.39002590355483568 0 -0.1368738238800834 -0.3880397179408614 0 -0.13959568407155781 -0.37291875636350952 0 -0.15136585988972451 -0.39002590355483568 0 -0.15951650330528561 -0.37856285477961621 0 -0.13959568407155781 -0.37291875636350952 0 -0.1368738238800834 -0.3880397179408614 0 -0.12625141541498519 -0.38197991289387551 0 -0.13959568407155781 -0.37291875636350952 0 -0.1368738238800834 -0.3880397179408614 0 -0.12625141541498519 -0.38197991289387551 0 -0.1273295258527142 -0.39594401256049883 0 -0.1368738238800834 -0.3880397179408614 0 -0.1273295258527142 -0.39594401256049883 0 -0.13982663417143551 -0.39933000433158738 0 -0.13982663417143551 -0.39933000433158738 0 -0.1295768038857959 -0.40463739140698729 0 -0.1398029654186671 -0.41064466143528439 0 -0.1273295258527142 -0.39594401256049883 0 -0.13982663417143551 -0.39933000433158738 0 -0.1295768038857959 -0.40463739140698729 0 -0.1273295258527142 -0.39594401256049883 0 -0.1295768038857959 -0.40463739140698729 0 -0.1219584454402414 -0.40406961642135292 0 -0.1295768038857959 -0.40463739140698729 0 -0.1296119374269841 -0.41417592727859581 0 -0.1225700411049412 -0.40994677461386392 0 -0.1296119374269841 -0.41417592727859581 0 -0.12315425937001 -0.41747458531602638 0 -0.1225700411049412 -0.40994677461386392 0 -0.1296119374269841 -0.41417592727859581 0 -0.13713184062407599 -0.42036644340313623 0 -0.12908399078123631 -0.42243277819987513 0 -0.1296119374269841 -0.41417592727859581 0 -0.12908399078123631 -0.42243277819987513 0 -0.12315425937001 -0.41747458531602638 0 -0.1296119374269841 -0.41417592727859581 0 -0.13713184062407599 -0.42036644340313623 0 -0.1398029654186671 -0.41064466143528439 0 -0.1295768038857959 -0.40463739140698729 0 -0.1296119374269841 -0.41417592727859581 0 -0.1398029654186671 -0.41064466143528439 0 -0.12908399078123631 -0.42243277819987513 0 -0.13816776916695811 -0.432543871779144 0 -0.1225906368027144 -0.43005957413219659 0 -0.13713184062407599 -0.42036644340313623 0 -0.12908399078123631 -0.42243277819987513 0 -0.13816776916695811 -0.432543871779144 0 -0.13816776916695811 -0.432543871779144 0 -0.14921107955709881 -0.42003443798493328 0 -0.15761868306950341 -0.43586407366366631 0 -0.13713184062407599 -0.42036644340313623 0 -0.13816776916695811 -0.432543871779144 0 -0.14921107955709881 -0.42003443798493328 0 -0.15345949684661231 -0.4053237642064671 0 -0.1398029654186671 -0.41064466143528439 0 -0.14921107955709881 -0.42003443798493328 0 -0.13713184062407599 -0.42036644340313623 0 -0.1398029654186671 -0.41064466143528439 0 -0.14921107955709881 -0.42003443798493328 0 -0.15345949684661231 -0.4053237642064671 0 -0.14921107955709881 -0.42003443798493328 0 -0.17009787391258249 -0.41611158199907422 0 -0.14921107955709881 -0.42003443798493328 0 -0.17009787391258249 -0.41611158199907422 0 -0.15761868306950341 -0.43586407366366631 0 -0.17009787391258249 -0.41611158199907422 0 -0.15761868306950341 -0.43586407366366631 0 -0.1755027511393909 -0.43471579892562301 0 -0.1943898331460783 -0.4473597119794826 0 -0.1755027511393909 -0.43471579892562301 0 -0.18951413900105801 -0.42212105940109063 0 -0.17009787391258249 -0.41611158199907422 0 -0.1755027511393909 -0.43471579892562301 0 -0.18951413900105801 -0.42212105940109063 0 -0.17009787391258249 -0.41611158199907422 0 -0.18562609472684241 -0.40161550393767448 0 -0.18951413900105801 -0.42212105940109063 0 -0.18562609472684241 -0.40161550393767448 0 -0.16863204450281991 -0.39380366607865908 0 -0.18254917963999329 -0.38971973427100182 0 -0.17009787391258249 -0.41611158199907422 0 -0.18562609472684241 -0.40161550393767448 0 -0.16863204450281991 -0.39380366607865908 0 -0.18562609472684241 -0.40161550393767448 0 -0.18254917963999329 -0.38971973427100182 0 -0.19364364155811911 -0.391297223908462 0 -0.15345949684661231 -0.4053237642064671 0 -0.17009787391258249 -0.41611158199907422 0 -0.16863204450281991 -0.39380366607865908 0 -0.15345949684661231 -0.4053237642064671 0 -0.15136585988972451 -0.39002590355483568 0 -0.16863204450281991 -0.39380366607865908 0 -0.15951650330528561 -0.37856285477961621 0 -0.17625218554490921 -0.38180729220612769 0 -0.1663610822414904 -0.3702523776444529 0 -0.16863204450281991 -0.39380366607865908 0 -0.15951650330528561 -0.37856285477961621 0 -0.17625218554490921 -0.38180729220612769 0 -0.15136585988972451 -0.39002590355483568 0 -0.16863204450281991 -0.39380366607865908 0 -0.15951650330528561 -0.37856285477961621 0 -0.17625218554490921 -0.38180729220612769 0 -0.1663610822414904 -0.3702523776444529 0 -0.18579747934449059 -0.37379744869579251 0 -0.16863204450281991 -0.39380366607865908 0 -0.17625218554490921 -0.38180729220612769 0 -0.18254917963999329 -0.38971973427100182 0 -0.17625218554490921 -0.38180729220612769 0 -0.18254917963999329 -0.38971973427100182 0 -0.18859193186727599 -0.38007498522408562 0 -0.17625218554490921 -0.38180729220612769 0 -0.18859193186727599 -0.38007498522408562 0 -0.18579747934449059 -0.37379744869579251 0 -0.18859193186727599 -0.38007498522408562 0 -0.2014200033848125 -0.37119512976538899 0 -0.18859193186727599 -0.38007498522408562 0 -0.2014200033848125 -0.37119512976538899 0 -0.18579747934449059 -0.37379744869579251 0 -0.18859193186727599 -0.38007498522408562 0 -0.1989719328316337 -0.38216032023399737 0 -0.2014200033848125 -0.37119512976538899 0 -0.1989719328316337 -0.38216032023399737 0 -0.20694960464083431 -0.38128159833907621 0 -0.2014200033848125 -0.37119512976538899 0 -0.1989719328316337 -0.38216032023399737 0 -0.19364364155811911 -0.391297223908462 0 -0.20620014074293039 -0.39180645285032889 0 -0.18859193186727599 -0.38007498522408562 0 -0.1989719328316337 -0.38216032023399737 0 -0.19364364155811911 -0.391297223908462 0 -0.18254917963999329 -0.38971973427100182 0 -0.18859193186727599 -0.38007498522408562 0 -0.19364364155811911 -0.391297223908462 0 -0.18562609472684241 -0.40161550393767448 0 -0.19364364155811911 -0.391297223908462 0 -0.20208872018367391 -0.4070926974887904 0 -0.19364364155811911 -0.391297223908462 0 -0.20620014074293039 -0.39180645285032889 0 -0.20208872018367391 -0.4070926974887904 0 -0.20620014074293039 -0.39180645285032889 0 -0.21479853281951461 -0.38638530273916921 0 -0.22382842548955789 -0.4035077318131633 0 -0.20620014074293039 -0.39180645285032889 0 -0.20208872018367391 -0.4070926974887904 0 -0.22382842548955789 -0.4035077318131633 0 -0.21479853281951461 -0.38638530273916921 0 -0.20694960464083431 -0.38128159833907621 0 -0.21335741342528061 -0.3748607861064962 0 -0.21479853281951461 -0.38638530273916921 0 -0.22412886374227589 -0.38235217247817599 0 -0.21335741342528061 -0.3748607861064962 0 -0.20694960464083431 -0.38128159833907621 0 -0.2014200033848125 -0.37119512976538899 0 -0.21335741342528061 -0.3748607861064962 0 -0.20620014074293039 -0.39180645285032889 0 -0.21479853281951461 -0.38638530273916921 0 -0.20694960464083431 -0.38128159833907621 0 -0.1989719328316337 -0.38216032023399737 0 -0.20620014074293039 -0.39180645285032889 0 -0.20694960464083431 -0.38128159833907621 0 -0.1943898331460783 -0.4473597119794826 0 -0.20910912931781811 -0.42543372189632289 0 -0.1943898331460783 -0.4473597119794826 0 -0.18951413900105801 -0.42212105940109063 0 -0.20910912931781811 -0.42543372189632289 0 -0.18951413900105801 -0.42212105940109063 0 -0.20208872018367391 -0.4070926974887904 0 -0.20910912931781811 -0.42543372189632289 0 -0.18562609472684241 -0.40161550393767448 0 -0.18951413900105801 -0.42212105940109063 0 -0.20208872018367391 -0.4070926974887904 0 -0.20208872018367391 -0.4070926974887904 0 -0.20910912931781811 -0.42543372189632289 0 -0.22382842548955789 -0.4035077318131633 0 -0.20910912931781811 -0.42543372189632289 0 -0.22382842548955789 -0.4035077318131633 0 -0.21590660946663959 -0.44883644739355771 0 -0.20910912931781811 -0.42543372189632289 0 -0.23180750449586429 -0.4343742486430574 0 -0.20910912931781811 -0.42543372189632289 0 -0.23180750449586429 -0.4343742486430574 0 -0.22382842548955789 -0.4035077318131633 0 -0.23180750449586429 -0.4343742486430574 0 -0.24697084661892749 -0.41526345823838401 0 -0.22382842548955789 -0.4035077318131633 0 -0.25687425522332558 -0.44642006451091643 0 -0.23180750449586429 -0.4343742486430574 0 -0.24697084661892749 -0.41526345823838401 0 -0.22412886374227589 -0.38235217247817599 0 -0.2351820232309369 -0.38700758852266848 0 -0.22952037500089251 -0.37311519752493849 0 -0.22412886374227589 -0.38235217247817599 0 -0.22186900287429051 -0.37074082218821958 0 -0.21335741342528061 -0.3748607861064962 0 -0.22412886374227589 -0.38235217247817599 0 -0.22952037500089251 -0.37311519752493849 0 -0.22186900287429051 -0.37074082218821958 0 -0.22382842548955789 -0.4035077318131633 0 -0.24394706363899241 -0.39877073912243299 0 -0.2351820232309369 -0.38700758852266848 0 -0.21479853281951461 -0.38638530273916921 0 -0.22412886374227589 -0.38235217247817599 0 -0.22382842548955789 -0.4035077318131633 0 -0.22412886374227589 -0.38235217247817599 0 -0.22382842548955789 -0.4035077318131633 0 -0.2351820232309369 -0.38700758852266848 0 -0.24697084661892749 -0.41526345823838401 0 -0.22382842548955789 -0.4035077318131633 0 -0.24394706363899241 -0.39877073912243299 0 -0.2504897110532438 -0.38524934403489181 0 -0.24394706363899241 -0.39877073912243299 0 -0.2351820232309369 -0.38700758852266848 0 -0.2504897110532438 -0.38524934403489181 0 -0.2351820232309369 -0.38700758852266848 0 -0.24036284435674521 -0.37772398595485779 0 -0.2351820232309369 -0.38700758852266848 0 -0.24036284435674521 -0.37772398595485779 0 -0.22952037500089251 -0.37311519752493849 0 -0.2504897110532438 -0.38524934403489181 0 -0.24036284435674521 -0.37772398595485779 0 -0.24839247009954951 -0.37292447016044328 0 -0.24839247009954951 -0.37292447016044328 0 -0.24532753696728959 -0.36501789644951049 0 -0.23861636880082099 -0.36955921174380651 0 -0.24036284435674521 -0.37772398595485779 0 -0.24839247009954951 -0.37292447016044328 0 -0.23861636880082099 -0.36955921174380651 0 -0.25757508569408222 -0.36424633604315798 0 -0.24532753696728959 -0.36501789644951049 0 -0.24650166737573331 -0.3569693529562265 0 -0.24532753696728959 -0.36501789644951049 0 -0.24234943749700691 -0.36154613291017651 0 -0.24650166737573331 -0.3569693529562265 0 -0.24532753696728959 -0.36501789644951049 0 -0.24234943749700691 -0.36154613291017651 0 -0.23928568589256061 -0.36455139619594779 0 -0.24234943749700691 -0.36154613291017651 0 -0.23928568589256061 -0.36455139619594779 0 -0.23696933381926599 -0.3585493042599866 0 -0.24532753696728959 -0.36501789644951049 0 -0.23928568589256061 -0.36455139619594779 0 -0.23861636880082099 -0.36955921174380651 0 -0.23928568589256061 -0.36455139619594779 0 -0.23861636880082099 -0.36955921174380651 0 -0.23345080570298909 -0.36409891217005902 0 -0.23928568589256061 -0.36455139619594779 0 -0.23345080570298909 -0.36409891217005902 0 -0.23696933381926599 -0.3585493042599866 0 -0.24036284435674521 -0.37772398595485779 0 -0.23861636880082099 -0.36955921174380651 0 -0.22952037500089251 -0.37311519752493849 0 -0.23345080570298909 -0.36409891217005902 0 -0.22186900287429051 -0.37074082218821958 0 -0.21424807490234879 -0.36231527430669241 0 -0.22952037500089251 -0.37311519752493849 0 -0.23345080570298909 -0.36409891217005902 0 -0.22186900287429051 -0.37074082218821958 0 -0.23696933381926599 -0.3585493042599866 0 -0.21424807490234879 -0.36231527430669241 0 -0.23861636880082099 -0.36955921174380651 0 -0.22952037500089251 -0.37311519752493849 0 -0.23345080570298909 -0.36409891217005902 0 -0.23345080570298909 -0.36409891217005902 0 -0.23696933381926599 -0.3585493042599866 0 -0.21424807490234879 -0.36231527430669241 0 -0.22913587473404851 -0.35200963246311751 0 -0.2097464541822805 -0.33582260124732738 0 -0.22913587473404851 -0.35200963246311751 0 -0.23696933381926599 -0.3585493042599866 0 -0.21424807490234879 -0.36231527430669241 0 -0.22913587473404851 -0.35200963246311751 0 -0.21998707993494029 -0.33959044394559312 0 -0.22913587473404851 -0.35200963246311751 0 -0.21424807490234879 -0.36231527430669241 0 -0.22913587473404851 -0.35200963246311751 0 -0.23696933381926599 -0.3585493042599866 0 -0.22913587473404851 -0.35200963246311751 0 -0.24881121389389799 -0.33838995723746451 0 -0.22913587473404851 -0.35200963246311751 0 -0.23696933381926599 -0.3585493042599866 0 -0.24650166737573331 -0.3569693529562265 0 -0.22913587473404851 -0.35200963246311751 0 -0.24650166737573331 -0.3569693529562265 0 -0.24881121389389799 -0.33838995723746451 0 -0.23696933381926599 -0.3585493042599866 0 -0.24650166737573331 -0.3569693529562265 0 -0.24234943749700691 -0.36154613291017651 0 -0.23696933381926599 -0.3585493042599866 0 -0.24650166737573331 -0.3569693529562265 0 -0.22913587473404851 -0.35200963246311751 0 -0.24881121389389799 -0.33838995723746451 0 -0.2325545649384867 -0.33453283978227571 0 -0.24881121389389799 -0.33838995723746451 0 -0.2441082332202735 -0.32380704628422963 0 -0.2325545649384867 -0.33453283978227571 0 -0.23613058105125781 -0.31890710479075163 0 -0.2279063026952847 -0.3135077128279592 0 -0.2444966906846206 -0.31181945912301329 0 -0.2441082332202735 -0.32380704628422963 0 -0.23498207165859719 -0.32537142019391418 0 -0.23613058105125781 -0.31890710479075163 0 -0.2441082332202735 -0.32380704628422963 0 -0.23498207165859719 -0.32537142019391418 0 -0.2325545649384867 -0.33453283978227571 0 -0.2441082332202735 -0.32380704628422963 0 -0.23613058105125781 -0.31890710479075163 0 -0.2444966906846206 -0.31181945912301329 0 -0.2279063026952847 -0.3135077128279592 0 -0.2193464910840433 -0.31976030368968739 0 -0.21134622408423179 -0.310554889255794 0 -0.23613058105125781 -0.31890710479075163 0 -0.2279063026952847 -0.3135077128279592 0 -0.22829430606921119 -0.32293804105388452 0 -0.23498207165859719 -0.32537142019391418 0 -0.22829430606921119 -0.32293804105388452 0 -0.2325545649384867 -0.33453283978227571 0 -0.23498207165859719 -0.32537142019391418 0 -0.23613058105125781 -0.31890710479075163 0 -0.22829430606921119 -0.32293804105388452 0 -0.22829430606921119 -0.32293804105388452 0 -0.2193464910840433 -0.31976030368968739 0 -0.22209033975117781 -0.32887735541776358 0 -0.2279063026952847 -0.3135077128279592 0 -0.22829430606921119 -0.32293804105388452 0 -0.2193464910840433 -0.31976030368968739 0 -0.22913587473404851 -0.35200963246311751 0 -0.2325545649384867 -0.33453283978227571 0 -0.21998707993494029 -0.33959044394559312 0 -0.22913587473404851 -0.35200963246311751 0 -0.21998707993494029 -0.33959044394559312 0 -0.2097464541822805 -0.33582260124732738 0 -0.22829430606921119 -0.32293804105388452 0 -0.2325545649384867 -0.33453283978227571 0 -0.22209033975117781 -0.32887735541776358 0 -0.2325545649384867 -0.33453283978227571 0 -0.22209033975117781 -0.32887735541776358 0 -0.21998707993494029 -0.33959044394559312 0 -0.21998707993494029 -0.33959044394559312 0 -0.21026925672920721 -0.32756514861737779 0 -0.22209033975117781 -0.32887735541776358 0 -0.21998707993494029 -0.33959044394559312 0 -0.21026925672920721 -0.32756514861737779 0 -0.21998707993494029 -0.33959044394559312 0 -0.2097464541822805 -0.33582260124732738 0 -0.21026925672920721 -0.32756514861737779 0 -0.2097464541822805 -0.33582260124732738 0 -0.21026925672920721 -0.32756514861737779 0 -0.21026925672920721 -0.32756514861737779 0 -0.21134622408423179 -0.310554889255794 0 -0.19267178705524021 -0.30578920503631912 0 -0.21026925672920721 -0.32756514861737779 0 -0.21134622408423179 -0.310554889255794 0 -0.2097464541822805 -0.33582260124732738 0 -0.21026925672920721 -0.32756514861737779 0 -0.19254159852174429 -0.31996122112867409 0 -0.2193464910840433 -0.31976030368968739 0 -0.21026925672920721 -0.32756514861737779 0 -0.21134622408423179 -0.310554889255794 0 -0.2193464910840433 -0.31976030368968739 0 -0.22209033975117781 -0.32887735541776358 0 -0.21026925672920721 -0.32756514861737779 0 -0.2097464541822805 -0.33582260124732738 0 -0.1943588054861482 -0.32297640251143073 0 -0.19254159852174429 -0.31996122112867409 0 -0.21026925672920721 -0.32756514861737779 0 -0.19267178705524021 -0.30578920503631912 0 -0.21026925672920721 -0.32756514861737779 0 -0.19254159852174429 -0.31996122112867409 0 -0.19267178705524021 -0.30578920503631912 0 -0.2097464541822805 -0.33582260124732738 0 -0.19254159852174429 -0.31996122112867409 0 -0.1943588054861482 -0.32297640251143073 0 -0.18737083868624629 -0.33075534874643497 0 -0.18479650728396149 -0.32227615663527998 0 -0.1943588054861482 -0.32297640251143073 0 -0.19254159852174429 -0.31996122112867409 0 -0.1789711567900161 -0.3101302037755338 0 -0.2097464541822805 -0.33582260124732738 0 -0.19466829689393059 -0.33824472710720138 0 -0.19565175395430129 -0.3512554891803924 0 -0.2097464541822805 -0.33582260124732738 0 -0.1943588054861482 -0.32297640251143073 0 -0.19466829689393059 -0.33824472710720138 0 -0.2097464541822805 -0.33582260124732738 0 -0.1943588054861482 -0.32297640251143073 0 -0.1943588054861482 -0.32297640251143073 0 -0.19466829689393059 -0.33824472710720138 0 -0.18737083868624629 -0.33075534874643497 0 -0.19466829689393059 -0.33824472710720138 0 -0.18164424501215659 -0.34621916084723381 0 -0.18737083868624629 -0.33075534874643497 0 -0.19466829689393059 -0.33824472710720138 0 -0.19565175395430129 -0.3512554891803924 0 -0.18164424501215659 -0.34621916084723381 0 -0.20800359978069241 -0.36335027445133922 0 -0.18480326185087809 -0.36719565018674682 0 -0.19565175395430129 -0.3512554891803924 0 -0.20800359978069241 -0.36335027445133922 0 -0.18480326185087809 -0.36719565018674682 0 -0.2014200033848125 -0.37119512976538899 0 -0.18480326185087809 -0.36719565018674682 0 -0.18579747934449059 -0.37379744869579251 0 -0.2014200033848125 -0.37119512976538899 0 -0.20800359978069241 -0.36335027445133922 0 -0.18480326185087809 -0.36719565018674682 0 -0.2014200033848125 -0.37119512976538899 0 -0.20800359978069241 -0.36335027445133922 0 -0.20803809997708481 -0.36661394692190907 0 -0.20800359978069241 -0.36335027445133922 0 -0.20803809997708481 -0.36661394692190907 0 -0.21424807490234879 -0.36231527430669241 0 -0.20800359978069241 -0.36335027445133922 0 -0.20803809997708481 -0.36661394692190907 0 -0.2014200033848125 -0.37119512976538899 0 -0.20803809997708481 -0.36661394692190907 0 -0.21335741342528061 -0.3748607861064962 0 -0.2014200033848125 -0.37119512976538899 0 -0.20803809997708481 -0.36661394692190907 0 -0.20803809997708481 -0.36661394692190907 0 -0.21335741342528061 -0.3748607861064962 0 -0.21424807490234879 -0.36231527430669241 0 -0.22186900287429051 -0.37074082218821958 0 -0.21335741342528061 -0.3748607861064962 0 -0.21424807490234879 -0.36231527430669241 0 -0.20800359978069241 -0.36335027445133922 0 -0.21424807490234879 -0.36231527430669241 0 -0.20803809997708481 -0.36661394692190907 0 -0.21424807490234879 -0.36231527430669241 0 -0.2097464541822805 -0.33582260124732738 0 -0.19565175395430129 -0.3512554891803924 0 -0.20800359978069241 -0.36335027445133922 0 -0.2097464541822805 -0.33582260124732738 0 -0.20800359978069241 -0.36335027445133922 0 -0.2097464541822805 -0.33582260124732738 0 -0.20800359978069241 -0.36335027445133922 0 -0.21424807490234879 -0.36231527430669241 0 -0.22913587473404851 -0.35200963246311751 0 -0.2097464541822805 -0.33582260124732738 0 -0.21424807490234879 -0.36231527430669241 0 -0.2335542019388327 -0.26090262277066528 0 -0.21472073189145299 -0.25725591714607071 0 -0.22837296648480071 -0.23789375384220129 0 -0.2335542019388327 -0.26090262277066528 0 -0.21357196166535461 -0.27540027352014051 0 -0.21472073189145299 -0.25725591714607071 0 -0.25298377122075039 -0.27518622721876451 0 -0.2335542019388327 -0.26090262277066528 0 -0.25431856302814809 -0.24833495949118861 0 -0.25298377122075039 -0.27518622721876451 0 -0.2335542019388327 -0.26090262277066528 0 -0.23093648268818689 -0.28342115129973 0 -0.2335542019388327 -0.26090262277066528 0 -0.23093648268818689 -0.28342115129973 0 -0.21357196166535461 -0.27540027352014051 0 -0.23093648268818689 -0.28342115129973 0 -0.21242319143925911 -0.29354462989421048 0 -0.21357196166535461 -0.27540027352014051 0 -0.23093648268818689 -0.28342115129973 0 -0.2435111179254994 -0.29490773243705071 0 -0.2284599410619414 -0.30268204450860919 0 -0.23093648268818689 -0.28342115129973 0 -0.2284599410619414 -0.30268204450860919 0 -0.21242319143925911 -0.29354462989421048 0 -0.25298377122075039 -0.27518622721876451 0 -0.23093648268818689 -0.28342115129973 0 -0.2435111179254994 -0.29490773243705071 0 -0.2444966906846206 -0.31181945912301329 0 -0.2284599410619414 -0.30268204450860919 0 -0.2435111179254994 -0.29490773243705071 0 -0.2444966906846206 -0.31181945912301329 0 -0.2284599410619414 -0.30268204450860919 0 -0.26057201890547982 -0.29344093798311832 0 -0.2435111179254994 -0.29490773243705071 0 -0.2444966906846206 -0.31181945912301329 0 -0.2279063026952847 -0.3135077128279592 0 -0.2444966906846206 -0.31181945912301329 0 -0.2284599410619414 -0.30268204450860919 0 -0.2284599410619414 -0.30268204450860919 0 -0.21242319143925911 -0.29354462989421048 0 -0.2279063026952847 -0.3135077128279592 0 -0.2284599410619414 -0.30268204450860919 0 -0.21134622408423179 -0.310554889255794 0 -0.2284599410619414 -0.30268204450860919 0 -0.21134622408423179 -0.310554889255794 0 -0.21242319143925911 -0.29354462989421048 0 -0.21134622408423179 -0.310554889255794 0 -0.19267178705524021 -0.30578920503631912 0 -0.21242319143925911 -0.29354462989421048 0 -0.21134622408423179 -0.310554889255794 0 -0.21242319143925911 -0.29354462989421048 0 -0.19267178705524021 -0.30578920503631912 0 -0.19410774352861071 -0.2831088592208712 0 -0.21242319143925911 -0.29354462989421048 0 -0.19410774352861071 -0.2831088592208712 0 -0.21242319143925911 -0.29354462989421048 0 -0.21357196166535461 -0.27540027352014051 0 -0.19410774352861071 -0.2831088592208712 0 -0.21242319143925911 -0.29354462989421048 0 -0.21242319143925911 -0.29354462989421048 0 -0.21357196166535461 -0.27540027352014051 0 -0.21357196166535461 -0.27540027352014051 0 -0.21472073189145299 -0.25725591714607071 0 -0.19410774352861071 -0.2831088592208712 0 -0.21357196166535461 -0.27540027352014051 0 -0.1965391795889786 -0.26204425282134669 0 -0.19410774352861071 -0.2831088592208712 0 -0.1965391795889786 -0.26204425282134669 0 -0.17579229561796161 -0.27267308854753308 0 -0.1965391795889786 -0.26204425282134669 0 -0.20565562739327201 -0.24334207984173631 0 -0.18863044441395099 -0.24733650333174401 0 -0.1965391795889786 -0.26204425282134669 0 -0.18340152769721799 -0.25642831405215172 0 -0.18863044441395099 -0.24733650333174401 0 -0.1965391795889786 -0.26204425282134669 0 -0.21472073189145299 -0.25725591714607071 0 -0.20565562739327201 -0.24334207984173631 0 -0.21357196166535461 -0.27540027352014051 0 -0.1965391795889786 -0.26204425282134669 0 -0.21472073189145299 -0.25725591714607071 0 -0.15747684770731041 -0.26223731787419863 0 -0.16344648285301799 -0.25937253054906129 0 -0.17579229561796161 -0.27267308854753308 0 -0.1593809120407062 -0.25278805690175971 0 -0.16344648285301799 -0.25937253054906129 0 -0.1534429259631987 -0.25724555178864622 0 -0.1593809120407062 -0.25278805690175971 0 -0.16344648285301799 -0.25937253054906129 0 -0.16709258238786229 -0.25188408856254202 0 -0.1593809120407062 -0.25278805690175971 0 -0.16709258238786229 -0.25188408856254202 0 -0.1601832428566283 -0.24550858739866141 0 -0.15747684770731041 -0.26223731787419863 0 -0.16344648285301799 -0.25937253054906129 0 -0.1534429259631987 -0.25724555178864622 0 -0.16344648285301799 -0.25937253054906129 0 -0.1534429259631987 -0.25724555178864622 0 -0.16344648285301799 -0.25937253054906129 0 -0.17379217291466831 -0.25992581321180469 0 -0.17579229561796161 -0.27267308854753308 0 -0.16344648285301799 -0.25937253054906129 0 -0.16709258238786229 -0.25188408856254202 0 -0.17379217291466831 -0.25992581321180469 0 -0.16709258238786229 -0.25188408856254202 0 -0.17679077873490559 -0.25046109420941731 0 -0.17379217291466831 -0.25992581321180469 0 -0.1965391795889786 -0.26204425282134669 0 -0.18340152769721799 -0.25642831405215172 0 -0.17579229561796161 -0.27267308854753308 0 -0.17679077873490559 -0.25046109420941731 0 -0.18340152769721799 -0.25642831405215172 0 -0.17379217291466831 -0.25992581321180469 0 -0.18340152769721799 -0.25642831405215172 0 -0.17379217291466831 -0.25992581321180469 0 -0.17579229561796161 -0.27267308854753308 0 -0.17679077873490559 -0.25046109420941731 0 -0.18340152769721799 -0.25642831405215172 0 -0.18863044441395099 -0.24733650333174401 0 -0.19410774352861071 -0.2831088592208712 0 -0.17579229561796161 -0.27267308854753308 0 -0.17507431738127369 -0.28401326145526029 0 -0.19410774352861071 -0.2831088592208712 0 -0.17579229561796161 -0.27267308854753308 0 -0.15747684770731041 -0.26223731787419863 0 -0.17507431738127369 -0.28401326145526029 0 -0.15747684770731041 -0.26223731787419863 0 -0.17579229561796161 -0.27267308854753308 0 -0.15747684770731041 -0.26223731787419863 0 -0.17579229561796161 -0.27267308854753308 0 -0.17507431738127369 -0.28401326145526029 0 -0.15747684770731041 -0.26223731787419863 0 -0.1596399504195592 -0.27820623095404468 0 -0.17507431738127369 -0.28401326145526029 0 -0.1596399504195592 -0.27820623095404468 0 -0.1624028041075358 -0.29248408411088062 0 -0.1494793968803598 -0.28070198605355251 0 -0.1624028041075358 -0.29248408411088062 0 -0.15973767967650701 -0.30493196891575292 0 -0.15108397830665751 -0.29236825921418419 0 -0.1624028041075358 -0.29248408411088062 0 -0.17507431738127369 -0.28401326145526029 0 -0.17391538329452061 -0.29489800819007239 0 -0.1596399504195592 -0.27820623095404468 0 -0.1624028041075358 -0.29248408411088062 0 -0.17507431738127369 -0.28401326145526029 0 -0.19267178705524021 -0.30578920503631912 0 -0.19410774352861071 -0.2831088592208712 0 -0.17507431738127369 -0.28401326145526029 0 -0.19267178705524021 -0.30578920503631912 0 -0.17507431738127369 -0.28401326145526029 0 -0.17391538329452061 -0.29489800819007239 0 -0.19267178705524021 -0.30578920503631912 0 -0.17507431738127369 -0.28401326145526029 0 -0.17391538329452061 -0.29489800819007239 0 -0.17532621133471249 -0.30426618216820789 0 -0.19254159852174429 -0.31996122112867409 0 -0.19267178705524021 -0.30578920503631912 0 -0.17532621133471249 -0.30426618216820789 0 -0.19267178705524021 -0.30578920503631912 0 -0.17391538329452061 -0.29489800819007239 0 -0.17532621133471249 -0.30426618216820789 0 -0.19254159852174429 -0.31996122112867409 0 -0.17532621133471249 -0.30426618216820789 0 -0.1789711567900161 -0.3101302037755338 0 -0.19254159852174429 -0.31996122112867409 0 -0.17532621133471249 -0.30426618216820789 0 -0.17532621133471249 -0.30426618216820789 0 -0.15973767967650701 -0.30493196891575292 0 -0.16582550601247259 -0.31644195918285489 0 -0.1624028041075358 -0.29248408411088062 0 -0.17532621133471249 -0.30426618216820789 0 -0.15973767967650701 -0.30493196891575292 0 -0.1624028041075358 -0.29248408411088062 0 -0.17532621133471249 -0.30426618216820789 0 -0.1624028041075358 -0.29248408411088062 0 -0.17391538329452061 -0.29489800819007239 0 -0.17532621133471249 -0.30426618216820789 0 -0.144593184228827 -0.30237793828586917 0 -0.15261731536399281 -0.31699983390472031 0 -0.1327552185807534 -0.31482398186879779 0 -0.15973767967650701 -0.30493196891575292 0 -0.144593184228827 -0.30237793828586917 0 -0.15261731536399281 -0.31699983390472031 0 -0.15973767967650701 -0.30493196891575292 0 -0.144593184228827 -0.30237793828586917 0 -0.15108397830665751 -0.29236825921418419 0 -0.144593184228827 -0.30237793828586917 0 -0.1304175251842298 -0.30012492429455973 0 -0.1327552185807534 -0.31482398186879779 0 -0.1304175251842298 -0.30012492429455973 0 -0.1327552185807534 -0.31482398186879779 0 -0.11567190875339491 -0.3081878681979589 0 -0.1304175251842298 -0.30012492429455973 0 -0.13697378053928061 -0.28594316463020741 0 -0.11725087491461519 -0.29108504565108578 0 -0.144593184228827 -0.30237793828586917 0 -0.1304175251842298 -0.30012492429455973 0 -0.13697378053928061 -0.28594316463020741 0 -0.13697378053928061 -0.28594316463020741 0 -0.15108397830665751 -0.29236825921418419 0 -0.1494793968803598 -0.28070198605355251 0 -0.144593184228827 -0.30237793828586917 0 -0.13697378053928061 -0.28594316463020741 0 -0.15108397830665751 -0.29236825921418419 0 -0.1624028041075358 -0.29248408411088062 0 -0.15108397830665751 -0.29236825921418419 0 -0.1494793968803598 -0.28070198605355251 0 -0.1624028041075358 -0.29248408411088062 0 -0.1494793968803598 -0.28070198605355251 0 -0.15747684770731041 -0.26223731787419863 0 -0.1596399504195592 -0.27820623095404468 0 -0.1503927610565664 -0.27179087804580171 0 -0.1596399504195592 -0.27820623095404468 0 -0.1494793968803598 -0.28070198605355251 0 -0.1503927610565664 -0.27179087804580171 0 -0.15747684770731041 -0.26223731787419863 0 -0.1503927610565664 -0.27179087804580171 0 -0.1469785187108 -0.2635474229235048 0 -0.1503927610565664 -0.27179087804580171 0 -0.13966748117377659 -0.26847157538705668 0 -0.1469785187108 -0.2635474229235048 0 -0.1503927610565664 -0.27179087804580171 0 -0.14153524490660671 -0.2763029116229278 0 -0.13966748117377659 -0.26847157538705668 0 -0.1494793968803598 -0.28070198605355251 0 -0.1503927610565664 -0.27179087804580171 0 -0.14153524490660671 -0.2763029116229278 0 -0.13697378053928061 -0.28594316463020741 0 -0.1494793968803598 -0.28070198605355251 0 -0.14153524490660671 -0.2763029116229278 0 -0.13697378053928061 -0.28594316463020741 0 -0.14153524490660671 -0.2763029116229278 0 -0.13219795163187159 -0.27110871778552531 0 -0.13697378053928061 -0.28594316463020741 0 -0.1173011125765811 -0.2721428964285707 0 -0.13697378053928061 -0.28594316463020741 0 -0.13219795163187159 -0.27110871778552531 0 -0.1173011125765811 -0.2721428964285707 0 -0.13219795163187159 -0.27110871778552531 0 -0.1333337708168415 -0.26377523499205202 0 -0.12600056203783161 -0.26301541000095829 0 -0.13219795163187159 -0.27110871778552531 0 -0.12600056203783161 -0.26301541000095829 0 -0.1173011125765811 -0.2721428964285707 0 -0.13219795163187159 -0.27110871778552531 0 -0.13966748117377659 -0.26847157538705668 0 -0.1333337708168415 -0.26377523499205202 0 -0.14153524490660671 -0.2763029116229278 0 -0.13219795163187159 -0.27110871778552531 0 -0.13966748117377659 -0.26847157538705668 0 -0.13966748117377659 -0.26847157538705668 0 -0.13807993829988649 -0.25979154560904222 0 -0.1333337708168415 -0.26377523499205202 0 -0.13807993829988649 -0.25979154560904222 0 -0.1333337708168415 -0.26377523499205202 0 -0.13072292094084129 -0.25648892617767749 0 -0.12600056203783161 -0.26301541000095829 0 -0.13072292094084129 -0.25648892617767749 0 -0.1187556211832122 -0.25814451816493872 0 -0.1333337708168415 -0.26377523499205202 0 -0.12600056203783161 -0.26301541000095829 0 -0.13072292094084129 -0.25648892617767749 0 -0.13072292094084129 -0.25648892617767749 0 -0.13218950310710981 -0.25272660122947088 0 -0.1187556211832122 -0.25814451816493872 0 -0.13072292094084129 -0.25648892617767749 0 -0.13218950310710981 -0.25272660122947088 0 -0.13218950310710981 -0.25272660122947088 0 -0.1459019403517107 -0.25564217047089421 0 -0.13375162957080131 -0.24871916986845621 0 -0.13218950310710981 -0.25272660122947088 0 -0.1459019403517107 -0.25564217047089421 0 -0.13218950310710981 -0.25272660122947088 0 -0.13375162957080131 -0.24871916986845621 0 -0.1459019403517107 -0.25564217047089421 0 -0.13375162957080131 -0.24871916986845621 0 -0.13807993829988649 -0.25979154560904222 0 -0.13218950310710981 -0.25272660122947088 0 -0.1459019403517107 -0.25564217047089421 0 -0.13807993829988649 -0.25979154560904222 0 -0.13072292094084129 -0.25648892617767749 0 -0.13218950310710981 -0.25272660122947088 0 -0.1459019403517107 -0.25564217047089421 0 -0.1534429259631987 -0.25724555178864622 0 -0.1378886282313006 -0.2381062402767252 0 -0.13966748117377659 -0.26847157538705668 0 -0.13807993829988649 -0.25979154560904222 0 -0.1469785187108 -0.2635474229235048 0 -0.13807993829988649 -0.25979154560904222 0 -0.1459019403517107 -0.25564217047089421 0 -0.1469785187108 -0.2635474229235048 0 -0.15747684770731041 -0.26223731787419863 0 -0.1459019403517107 -0.25564217047089421 0 -0.1534429259631987 -0.25724555178864622 0 -0.15747684770731041 -0.26223731787419863 0 -0.1459019403517107 -0.25564217047089421 0 -0.1469785187108 -0.2635474229235048 0 -0.15747684770731041 -0.26223731787419863 0 -0.1459019403517107 -0.25564217047089421 0 -0.15747684770731041 -0.26223731787419863 0 -0.1534429259631987 -0.25724555178864622 0 -0.1593809120407062 -0.25278805690175971 0 -0.1534429259631987 -0.25724555178864622 0 -0.15289321433053751 -0.246830478479277 0 -0.1459019403517107 -0.25564217047089421 0 -0.1534429259631987 -0.25724555178864622 0 -0.17143624801538501 -0.35840063883308271 0 -0.1580141783998408 -0.34710035810185619 0 -0.15489216358121211 -0.36256913283011211 0 -0.17143624801538501 -0.35840063883308271 0 -0.1580141783998408 -0.34710035810185619 0 -0.18164424501215659 -0.34621916084723381 0 -0.17143624801538501 -0.35840063883308271 0 -0.1663610822414904 -0.3702523776444529 0 -0.15489216358121211 -0.36256913283011211 0 -0.15951650330528561 -0.37856285477961621 0 -0.1663610822414904 -0.3702523776444529 0 -0.15489216358121211 -0.36256913283011211 0 -0.17143624801538501 -0.35840063883308271 0 -0.1663610822414904 -0.3702523776444529 0 -0.18480326185087809 -0.36719565018674682 0 -0.1663610822414904 -0.3702523776444529 0 -0.18480326185087809 -0.36719565018674682 0 -0.1663610822414904 -0.3702523776444529 0 -0.18480326185087809 -0.36719565018674682 0 -0.18579747934449059 -0.37379744869579251 0 -0.18480326185087809 -0.36719565018674682 0 -0.18579747934449059 -0.37379744869579251 0 -0.18480326185087809 -0.36719565018674682 0 -0.18164424501215659 -0.34621916084723381 0 -0.19565175395430129 -0.3512554891803924 0 -0.18480326185087809 -0.36719565018674682 0 -0.18164424501215659 -0.34621916084723381 0 -0.17143624801538501 -0.35840063883308271 0 -0.18480326185087809 -0.36719565018674682 0 -0.18164424501215659 -0.34621916084723381 0 -0.18164424501215659 -0.34621916084723381 0 -0.17848522817343529 -0.32524267150772068 0 -0.1629610955137164 -0.33076913941787212 0 -0.18164424501215659 -0.34621916084723381 0 -0.17848522817343529 -0.32524267150772068 0 -0.18164424501215659 -0.34621916084723381 0 -0.18737083868624629 -0.33075534874643497 0 -0.17848522817343529 -0.32524267150772068 0 -0.17532621133471249 -0.30426618216820789 0 -0.17848522817343529 -0.32524267150772068 0 -0.17532621133471249 -0.30426618216820789 0 -0.1789711567900161 -0.3101302037755338 0 -0.17848522817343529 -0.32524267150772068 0 -0.17532621133471249 -0.30426618216820789 0 -0.17848522817343529 -0.32524267150772068 0 -0.16582550601247259 -0.31644195918285489 0 -0.1943588054861482 -0.32297640251143073 0 -0.1789711567900161 -0.3101302037755338 0 -0.18479650728396149 -0.32227615663527998 0 -0.1789711567900161 -0.3101302037755338 0 -0.18479650728396149 -0.32227615663527998 0 -0.17848522817343529 -0.32524267150772068 0 -0.1943588054861482 -0.32297640251143073 0 -0.1789711567900161 -0.3101302037755338 0 -0.18737083868624629 -0.33075534874643497 0 -0.18479650728396149 -0.32227615663527998 0 -0.17848522817343529 -0.32524267150772068 0 -0.17848522817343529 -0.32524267150772068 0 -0.16582550601247259 -0.31644195918285489 0 -0.1629610955137164 -0.33076913941787212 0 -0.16582550601247259 -0.31644195918285489 0 -0.1629610955137164 -0.33076913941787212 0 -0.15261731536399281 -0.31699983390472031 0 -0.15973767967650701 -0.30493196891575292 0 -0.16582550601247259 -0.31644195918285489 0 -0.15261731536399281 -0.31699983390472031 0 -0.1580141783998408 -0.34710035810185619 0 -0.18164424501215659 -0.34621916084723381 0 -0.1629610955137164 -0.33076913941787212 0 -0.1580141783998408 -0.34710035810185619 0 -0.1629610955137164 -0.33076913941787212 0 -0.14559484309128301 -0.3331209990743299 0 -0.14559484309128301 -0.3331209990743299 0 -0.15261731536399281 -0.31699983390472031 0 -0.1327552185807534 -0.31482398186879779 0 -0.1629610955137164 -0.33076913941787212 0 -0.14559484309128301 -0.3331209990743299 0 -0.15261731536399281 -0.31699983390472031 0 -0.14559484309128301 -0.3331209990743299 0 -0.1327552185807534 -0.31482398186879779 0 -0.12678352480283511 -0.3369129194106073 0 -0.14559484309128301 -0.3331209990743299 0 -0.12678352480283511 -0.3369129194106073 0 -0.14043772588655989 -0.35211976174212622 0 -0.12678352480283511 -0.3369129194106073 0 -0.14043772588655989 -0.35211976174212622 0 -0.1203130985899742 -0.35955571918490481 0 -0.1580141783998408 -0.34710035810185619 0 -0.14043772588655989 -0.35211976174212622 0 -0.15489216358121211 -0.36256913283011211 0 -0.1580141783998408 -0.34710035810185619 0 -0.14559484309128301 -0.3331209990743299 0 -0.14043772588655989 -0.35211976174212622 0 -0.14043772588655989 -0.35211976174212622 0 -0.15489216358121211 -0.36256913283011211 0 -0.13959568407155781 -0.37291875636350952 0 -0.15951650330528561 -0.37856285477961621 0 -0.15489216358121211 -0.36256913283011211 0 -0.13959568407155781 -0.37291875636350952 0 -0.12625141541498519 -0.38197991289387551 0 -0.13959568407155781 -0.37291875636350952 0 -0.1203130985899742 -0.35955571918490481 0 -0.14043772588655989 -0.35211976174212622 0 -0.13959568407155781 -0.37291875636350952 0 -0.1203130985899742 -0.35955571918490481 0 -0.1203130985899742 -0.35955571918490481 0 -0.11384267237711319 -0.38219851895920232 0 -0.1203130985899742 -0.35955571918490481 0 -0.10849363524981311 -0.36442991456039969 0 -0.11384267237711319 -0.38219851895920232 0 -0.12625141541498519 -0.38197991289387551 0 -0.1203130985899742 -0.35955571918490481 0 -0.11384267237711319 -0.38219851895920232 0 -0.10849363524981311 -0.36442991456039969 0 -0.096157591159299352 -0.35547454281719221 0 -0.10176491866177829 -0.38015793077534599 0 -0.096157591159299352 -0.35547454281719221 0 -0.10176491866177829 -0.38015793077534599 0 -0.096157591159299352 -0.35547454281719221 0 -0.10176491866177829 -0.38015793077534599 0 -0.085276019388031976 -0.37619188405436782 0 -0.096157591159299352 -0.35547454281719221 0 -0.10964553082547281 -0.34513317088572909 0 -0.090550263656820479 -0.33079115485903843 0 -0.10849363524981311 -0.36442991456039969 0 -0.096157591159299352 -0.35547454281719221 0 -0.10964553082547281 -0.34513317088572909 0 -0.1203130985899742 -0.35955571918490481 0 -0.10849363524981311 -0.36442991456039969 0 -0.10964553082547281 -0.34513317088572909 0 -0.12678352480283511 -0.3369129194106073 0 -0.1203130985899742 -0.35955571918490481 0 -0.10964553082547281 -0.34513317088572909 0 -0.12678352480283511 -0.3369129194106073 0 -0.1203130985899742 -0.35955571918490481 0 -0.12678352480283511 -0.3369129194106073 0 -0.10964553082547281 -0.34513317088572909 0 -0.1112875311940303 -0.32576775904759792 0 -0.1327552185807534 -0.31482398186879779 0 -0.12678352480283511 -0.3369129194106073 0 -0.1112875311940303 -0.32576775904759792 0 -0.1327552185807534 -0.31482398186879779 0 -0.1112875311940303 -0.32576775904759792 0 -0.11567190875339491 -0.3081878681979589 0 -0.1112875311940303 -0.32576775904759792 0 -0.1011365257202933 -0.31403431577096802 0 -0.11567190875339491 -0.3081878681979589 0 -0.1112875311940303 -0.32576775904759792 0 -0.1011365257202933 -0.31403431577096802 0 -0.090550263656820479 -0.33079115485903843 0 -0.10964553082547281 -0.34513317088572909 0 -0.1112875311940303 -0.32576775904759792 0 -0.090550263656820479 -0.33079115485903843 0 -0.096157591159299352 -0.35547454281719221 0 -0.090550263656820479 -0.33079115485903843 0 -0.096157591159299352 -0.35547454281719221 0 -0.090550263656820479 -0.33079115485903843 0 -0.073144777225565616 -0.33606175945158517 0 -0.090550263656820479 -0.33079115485903843 0 -0.084942936154341619 -0.30610776690088481 0 -0.090550263656820479 -0.33079115485903843 0 -0.073144777225565616 -0.33606175945158517 0 -0.084942936154341619 -0.30610776690088481 0 -0.1011365257202933 -0.31403431577096802 0 -0.090550263656820479 -0.33079115485903843 0 -0.084942936154341619 -0.30610776690088481 0 -0.073144777225565616 -0.33606175945158517 0 -0.084942936154341619 -0.30610776690088481 0 -0.060613113796085999 -0.32288269869712272 0 -0.073144777225565616 -0.33606175945158517 0 -0.076755031766953086 -0.35884624094615858 0 -0.063306301319701316 -0.35299520754669739 0 -0.076755031766953086 -0.35884624094615858 0 -0.063306301319701316 -0.35299520754669739 0 -0.065890469742167113 -0.37350781086095058 0 -0.076755031766953086 -0.35884624094615858 0 -0.065890469742167113 -0.37350781086095058 0 -0.085276019388031976 -0.37619188405436782 0 -0.096157591159299352 -0.35547454281719221 0 -0.076755031766953086 -0.35884624094615858 0 -0.085276019388031976 -0.37619188405436782 0 -0.096157591159299352 -0.35547454281719221 0 -0.073144777225565616 -0.33606175945158517 0 -0.076755031766953086 -0.35884624094615858 0 -0.097628444613881649 -0.25834262822693399 0 -0.1173011125765811 -0.2721428964285707 0 -0.097628444613881649 -0.25834262822693399 0 -0.1187556211832122 -0.25814451816493872 0 -0.1098930818979398 -0.24798588601512411 0 -0.13218950310710981 -0.25272660122947088 0 -0.1187556211832122 -0.25814451816493872 0 -0.1098930818979398 -0.24798588601512411 0 -0.097628444613881649 -0.25834262822693399 0 -0.1187556211832122 -0.25814451816493872 0 -0.1173011125765811 -0.2721428964285707 0 -0.13218950310710981 -0.25272660122947088 0 -0.1098930818979398 -0.24798588601512411 0 -0.12600056203783161 -0.26301541000095829 0 -0.1187556211832122 -0.25814451816493872 0 -0.1173011125765811 -0.2721428964285707 0 -0.097628444613881649 -0.25834262822693399 0 -0.1173011125765811 -0.2721428964285707 0 -0.090762408808148426 -0.27102181932101072 0 -0.1173011125765811 -0.2721428964285707 0 -0.096655829275762523 -0.28444542957314378 0 -0.090762408808148426 -0.27102181932101072 0 -0.096655829275762523 -0.28444542957314378 0 -0.10322998884287909 -0.29931702984935987 0 -0.084942936154341619 -0.30610776690088481 0 -0.096655829275762523 -0.28444542957314378 0 -0.11725087491461519 -0.29108504565108578 0 -0.10322998884287909 -0.29931702984935987 0 -0.13697378053928061 -0.28594316463020741 0 -0.1173011125765811 -0.2721428964285707 0 -0.11725087491461519 -0.29108504565108578 0 -0.1173011125765811 -0.2721428964285707 0 -0.096655829275762523 -0.28444542957314378 0 -0.11725087491461519 -0.29108504565108578 0 -0.11725087491461519 -0.29108504565108578 0 -0.11567190875339491 -0.3081878681979589 0 -0.10322998884287909 -0.29931702984935987 0 -0.1304175251842298 -0.30012492429455973 0 -0.11725087491461519 -0.29108504565108578 0 -0.11567190875339491 -0.3081878681979589 0 -0.1011365257202933 -0.31403431577096802 0 -0.10322998884287909 -0.29931702984935987 0 -0.084942936154341619 -0.30610776690088481 0 -0.1011365257202933 -0.31403431577096802 0 -0.11567190875339491 -0.3081878681979589 0 -0.10322998884287909 -0.29931702984935987 0 -0.084942936154341619 -0.30610776690088481 0 -0.066237696895848033 -0.30175990202967712 0 -0.078368201618682937 -0.28822753231137022 0 -0.084942936154341619 -0.30610776690088481 0 -0.066237696895848033 -0.30175990202967712 0 -0.060613113796085999 -0.32288269869712272 0 -0.066237696895848033 -0.30175990202967712 0 -0.078368201618682937 -0.28822753231137022 0 -0.057136779716869042 -0.28712205926022771 0 -0.078368201618682937 -0.28822753231137022 0 -0.072744725061100565 -0.27289296274949931 0 -0.057136779716869042 -0.28712205926022771 0 -0.096655829275762523 -0.28444542957314378 0 -0.084942936154341619 -0.30610776690088481 0 -0.078368201618682937 -0.28822753231137022 0 -0.096655829275762523 -0.28444542957314378 0 -0.078368201618682937 -0.28822753231137022 0 -0.090762408808148426 -0.27102181932101072 0 -0.078368201618682937 -0.28822753231137022 0 -0.090762408808148426 -0.27102181932101072 0 -0.072744725061100565 -0.27289296274949931 0 -0.090762408808148426 -0.27102181932101072 0 -0.072744725061100565 -0.27289296274949931 0 -0.081281336266817772 -0.26097832242812891 0 -0.072744725061100565 -0.27289296274949931 0 -0.067161912638977472 -0.25903173736147111 0 -0.055745381016590281 -0.2682223094504298 0 -0.072744725061100565 -0.27289296274949931 0 -0.067161912638977472 -0.25903173736147111 0 -0.081281336266817772 -0.26097832242812891 0 -0.067161912638977472 -0.25903173736147111 0 -0.081281336266817772 -0.26097832242812891 0 -0.077955776651182085 -0.24454236002529731 0 -0.067161912638977472 -0.25903173736147111 0 -0.056939497423126581 -0.24878681181634871 0 -0.077955776651182085 -0.24454236002529731 0 -0.097628444613881649 -0.25834262822693399 0 -0.081281336266817772 -0.26097832242812891 0 -0.077955776651182085 -0.24454236002529731 0 -0.097628444613881649 -0.25834262822693399 0 -0.090762408808148426 -0.27102181932101072 0 -0.081281336266817772 -0.26097832242812891 0 -0.097628444613881649 -0.25834262822693399 0 -0.077955776651182085 -0.24454236002529731 0 -0.025857267464119819 -0.25506418495113531 0 -0.050191684441297867 -0.2485850187836515 0 -0.034199021844566052 -0.25740496373097072 0 -0.056939497423126581 -0.24878681181634871 0 -0.034199021844566052 -0.25740496373097072 0 -0.041398382443623198 -0.25192549838374201 0 -0.056939497423126581 -0.24878681181634871 0 -0.041398382443623198 -0.25192549838374201 0 -0.025857267464119819 -0.25506418495113531 0 -0.050191684441297867 -0.2485850187836515 0 -0.034199021844566052 -0.25740496373097072 0 -0.048255079716108998 -0.25800015923011232 0 -0.056939497423126581 -0.24878681181634871 0 -0.034199021844566052 -0.25740496373097072 0 -0.041398382443623198 -0.25192549838374201 0 -0.025857267464119819 -0.25506418495113531 0 -0.041398382443623198 -0.25192549838374201 0 -0.025857267464119819 -0.25506418495113531 0 -0.034199021844566052 -0.25740496373097072 0 -0.037307574571523318 -0.26201401924185519 0 -0.024854767991187229 -0.26705994663832661 0 -0.037307574571523318 -0.26201401924185519 0 -0.048255079716108998 -0.25800015923011232 0 -0.046606779304586107 -0.26584835010199509 0 -0.034199021844566052 -0.25740496373097072 0 -0.037307574571523318 -0.26201401924185519 0 -0.048255079716108998 -0.25800015923011232 0 -0.05702546769870083 -0.25851025446459042 0 -0.048255079716108998 -0.25800015923011232 0 -0.056939497423126581 -0.24878681181634871 0 -0.041398382443623198 -0.25192549838374201 0 -0.056939497423126581 -0.24878681181634871 0 -0.067161912638977472 -0.25903173736147111 0 -0.05702546769870083 -0.25851025446459042 0 -0.056939497423126581 -0.24878681181634871 0 -0.067161912638977472 -0.25903173736147111 0 -0.05702546769870083 -0.25851025446459042 0 -0.055745381016590281 -0.2682223094504298 0 -0.05702546769870083 -0.25851025446459042 0 -0.048255079716108998 -0.25800015923011232 0 -0.055745381016590281 -0.2682223094504298 0 -0.048255079716108998 -0.25800015923011232 0 -0.055745381016590281 -0.2682223094504298 0 -0.046606779304586107 -0.26584835010199509 0 -0.055745381016590281 -0.2682223094504298 0 -0.045119081914121867 -0.27515691248558288 0 -0.046606779304586107 -0.26584835010199509 0 -0.055745381016590281 -0.2682223094504298 0 -0.045119081914121867 -0.27515691248558288 0 -0.057136779716869042 -0.28712205926022771 0 -0.072744725061100565 -0.27289296274949931 0 -0.055745381016590281 -0.2682223094504298 0 -0.057136779716869042 -0.28712205926022771 0 -0.037307574571523318 -0.26201401924185519 0 -0.034478529498429812 -0.28951379058442123 0 -0.037307574571523318 -0.26201401924185519 0 -0.034478529498429812 -0.28951379058442123 0 -0.024854767991187229 -0.26705994663832661 0 -0.037307574571523318 -0.26201401924185519 0 -0.045119081914121867 -0.27515691248558288 0 -0.034478529498429812 -0.28951379058442123 0 -0.037307574571523318 -0.26201401924185519 0 -0.045119081914121867 -0.27515691248558288 0 -0.046606779304586107 -0.26584835010199509 0 -0.045119081914121867 -0.27515691248558288 0 -0.034478529498429812 -0.28951379058442123 0 -0.057136779716869042 -0.28712205926022771 0 -0.034478529498429812 -0.28951379058442123 0 -0.057136779716869042 -0.28712205926022771 0 -0.05012745319326059 -0.30445945297878008 0 -0.066237696895848033 -0.30175990202967712 0 -0.05012745319326059 -0.30445945297878008 0 -0.060613113796085999 -0.32288269869712272 0 -0.066237696895848033 -0.30175990202967712 0 -0.057136779716869042 -0.28712205926022771 0 -0.05012745319326059 -0.30445945297878008 0 -0.034478529498429812 -0.28951379058442123 0 -0.05012745319326059 -0.30445945297878008 0 -0.031649484425336299 -0.31701356192698721 0 -0.034478529498429812 -0.28951379058442123 0 -0.031649484425336299 -0.31701356192698721 0 -0.034478529498429812 -0.28951379058442123 0 -0.020284114256294641 -0.29759304008048471 0 -0.031649484425336299 -0.31701356192698721 0 -0.020284114256294641 -0.29759304008048471 0 -0.01007927323019326 -0.3103345258507364 0 -0.031649484425336299 -0.31701356192698721 0 -0.020284114256294641 -0.29759304008048471 0 -0.01007927323019326 -0.3103345258507364 0 -0.0080748459131490501 -0.2914060437848453 0 -0.01007927323019326 -0.3103345258507364 0 -0.0080748459131490501 -0.2914060437848453 0 0.0017563221397047381 -0.2997067901486577 0 -0.020284114256294641 -0.29759304008048471 0 -0.0080748459131490501 -0.2914060437848453 0 -0.017138438214364771 -0.27969727825543328 0 -0.0080748459131490501 -0.2914060437848453 0 -0.002848760243290064 -0.27761611820401882 0 0.0066437179820165657 -0.2861171845936395 0 -0.0080748459131490501 -0.2914060437848453 0 -0.017138438214364771 -0.27969727825543328 0 -0.002848760243290064 -0.27761611820401882 0 -0.034478529498429812 -0.28951379058442123 0 -0.020284114256294641 -0.29759304008048471 0 -0.017138438214364771 -0.27969727825543328 0 -0.034478529498429812 -0.28951379058442123 0 -0.024854767991187229 -0.26705994663832661 0 -0.017138438214364771 -0.27969727825543328 0 -0.024854767991187229 -0.26705994663832661 0 -0.01588915841142927 -0.27169793716392882 0 -0.01145854626600548 -0.26602311564559261 0 -0.024854767991187229 -0.26705994663832661 0 -0.01588915841142927 -0.27169793716392882 0 -0.017138438214364771 -0.27969727825543328 0 -0.017138438214364771 -0.27969727825543328 0 -0.011833725783772399 -0.27375861231724341 0 -0.002848760243290064 -0.27761611820401882 0 -0.01145854626600548 -0.26602311564559261 0 0.01128192931255503 -0.27464126756021451 0 -0.002848760243290064 -0.27761611820401882 0 -0.01145854626600548 -0.26602311564559261 0 0.01128192931255503 -0.27464126756021451 0 -0.01588915841142927 -0.27169793716392882 0 -0.017138438214364771 -0.27969727825543328 0 -0.011833725783772399 -0.27375861231724341 0 -0.011833725783772399 -0.27375861231724341 0 -0.002848760243290064 -0.27761611820401882 0 -0.01145854626600548 -0.26602311564559261 0 -0.01588915841142927 -0.27169793716392882 0 -0.011833725783772399 -0.27375861231724341 0 -0.01145854626600548 -0.26602311564559261 0 -0.01269776775011346 -0.25850600500130039 0 -0.0051360078472848583 -0.25701396995817721 0 0.0057158633005241696 -0.26337829885565528 0 -0.01145854626600548 -0.26602311564559261 0 -0.01269776775011346 -0.25850600500130039 0 0.0057158633005241696 -0.26337829885565528 0 -0.01269776775011346 -0.25850600500130039 0 0.0057158633005241696 -0.26337829885565528 0 -0.0009620894167222515 -0.25496392916579452 0 -0.0051360078472848583 -0.25701396995817721 0 0.0057158633005241696 -0.26337829885565528 0 -0.0071971320314794382 -0.2528457057960789 0 -0.01082738352359053 -0.24876902592697839 0 -0.0029313858115674811 -0.24854412401401971 0 -0.0009620894167222515 -0.25496392916579452 0 -0.0071971320314794382 -0.2528457057960789 0 -0.0029313858115674811 -0.24854412401401971 0 -0.0009620894167222515 -0.25496392916579452 0 -0.0051360078472848583 -0.25701396995817721 0 -0.0071971320314794382 -0.2528457057960789 0 -0.0051360078472848583 -0.25701396995817721 0 -0.0071971320314794382 -0.2528457057960789 0 -0.0094143843739788544 -0.25459574361389747 0 -0.0071971320314794382 -0.2528457057960789 0 -0.0094143843739788544 -0.25459574361389747 0 -0.01082738352359053 -0.24876902592697839 0 -0.01269776775011346 -0.25850600500130039 0 -0.0094143843739788544 -0.25459574361389747 0 -0.01082738352359053 -0.24876902592697839 0 -0.01269776775011346 -0.25850600500130039 0 -0.0051360078472848583 -0.25701396995817721 0 -0.0094143843739788544 -0.25459574361389747 0 -0.01269776775011346 -0.25850600500130039 0 -0.025857267464119819 -0.25506418495113531 0 -0.034199021844566052 -0.25740496373097072 0 -0.01145854626600548 -0.26602311564559261 0 -0.025857267464119819 -0.25506418495113531 0 -0.01269776775011346 -0.25850600500130039 0 -0.025857267464119819 -0.25506418495113531 0 -0.02368513365757598 -0.23851275990414511 0 -0.034199021844566052 -0.25740496373097072 0 -0.024854767991187229 -0.26705994663832661 0 -0.01145854626600548 -0.26602311564559261 0 -0.034199021844566052 -0.25740496373097072 0 -0.01145854626600548 -0.26602311564559261 0 -0.01145854626600548 -0.26602311564559261 0 -0.01269776775011346 -0.25850600500130039 0 -0.025857267464119819 -0.25506418495113531 0 -0.046940286889098168 -0.35955036210978841 0 -0.050269733973634309 -0.3392354021108881 0 -0.02882043935224279 -0.34451333326955308 0 -0.046940286889098168 -0.35955036210978841 0 -0.02882043935224279 -0.34451333326955308 0 -0.026419717968229769 -0.36867473508972981 0 -0.046940286889098168 -0.35955036210978841 0 -0.026419717968229769 -0.36867473508972981 0 -0.046935058978613817 -0.3783756837809118 0 -0.065890469742167113 -0.37350781086095058 0 -0.046940286889098168 -0.35955036210978841 0 -0.046935058978613817 -0.3783756837809118 0 -0.063306301319701316 -0.35299520754669739 0 -0.065890469742167113 -0.37350781086095058 0 -0.046940286889098168 -0.35955036210978841 0 -0.063306301319701316 -0.35299520754669739 0 -0.046940286889098168 -0.35955036210978841 0 -0.050269733973634309 -0.3392354021108881 0 -0.073144777225565616 -0.33606175945158517 0 -0.063306301319701316 -0.35299520754669739 0 -0.050269733973634309 -0.3392354021108881 0 -0.073144777225565616 -0.33606175945158517 0 -0.050269733973634309 -0.3392354021108881 0 -0.060613113796085999 -0.32288269869712272 0 -0.050269733973634309 -0.3392354021108881 0 -0.060613113796085999 -0.32288269869712272 0 -0.031649484425336299 -0.31701356192698721 0 -0.05012745319326059 -0.30445945297878008 0 -0.060613113796085999 -0.32288269869712272 0 -0.031649484425336299 -0.31701356192698721 0 -0.050269733973634309 -0.3392354021108881 0 -0.031649484425336299 -0.31701356192698721 0 -0.02882043935224279 -0.34451333326955308 0 -0.031649484425336299 -0.31701356192698721 0 -0.02882043935224279 -0.34451333326955308 0 -0.031649484425336299 -0.31701356192698721 0 -0.0038616663111063101 -0.33241552487502413 0 -0.02882043935224279 -0.34451333326955308 0 -0.01007927323019326 -0.3103345258507364 0 -0.031649484425336299 -0.31701356192698721 0 -0.0038616663111063101 -0.33241552487502413 0 -0.01007927323019326 -0.3103345258507364 0 -0.0038616663111063101 -0.33241552487502413 0 0.0094652366165251054 -0.31053241408104548 0 -0.0038616663111063101 -0.33241552487502413 0 -0.0043130761299947744 -0.35643483176966217 0 -0.02882043935224279 -0.34451333326955308 0 -0.0043130761299947744 -0.35643483176966217 0 -0.02882043935224279 -0.34451333326955308 0 -0.026419717968229769 -0.36867473508972981 0 -0.0043130761299947744 -0.35643483176966217 0 -0.026419717968229769 -0.36867473508972981 0 -0.0064694903547723136 -0.38059021958606692 0 -0.0064694903547723136 -0.38059021958606692 0 -0.0080625817845775948 -0.40608726553411861 0 -0.026496984295852101 -0.39226102623928111 0 -0.0064694903547723136 -0.38059021958606692 0 -0.0080625817845775948 -0.40608726553411861 0 0.009690974369139977 -0.39295199195252922 0 -0.0080625817845775948 -0.40608726553411861 0 -0.026496984295852101 -0.39226102623928111 0 -0.029852467816379728 -0.41236872525256307 0 -0.026419717968229769 -0.36867473508972981 0 -0.0064694903547723136 -0.38059021958606692 0 -0.026496984295852101 -0.39226102623928111 0 -0.026496984295852101 -0.39226102623928111 0 -0.048213792324517578 -0.39768762776665978 0 -0.046935058978613817 -0.3783756837809118 0 -0.026419717968229769 -0.36867473508972981 0 -0.026496984295852101 -0.39226102623928111 0 -0.046935058978613817 -0.3783756837809118 0 -0.026496984295852101 -0.39226102623928111 0 -0.048213792324517578 -0.39768762776665978 0 -0.029852467816379728 -0.41236872525256307 0 -0.048213792324517578 -0.39768762776665978 0 -0.065379196062645584 -0.39052657147488062 0 -0.06528413140028641 -0.40548789039177052 0 -0.048213792324517578 -0.39768762776665978 0 -0.046935058978613817 -0.3783756837809118 0 -0.065379196062645584 -0.39052657147488062 0 -0.065890469742167113 -0.37350781086095058 0 -0.046935058978613817 -0.3783756837809118 0 -0.065379196062645584 -0.39052657147488062 0 -0.052630130657334448 -0.42871109396582502 0 -0.036803499053157718 -0.43392585985635063 0 -0.055908543568221357 -0.44353945242809251 0 -0.052630130657334448 -0.42871109396582502 0 -0.048282499091199083 -0.41684649723306111 0 -0.065713266975248902 -0.42040157794015642 0 -0.052630130657334448 -0.42871109396582502 0 -0.055908543568221357 -0.44353945242809251 0 -0.077753046024815156 -0.43509142098737241 0 -0.048282499091199083 -0.41684649723306111 0 -0.06528413140028641 -0.40548789039177052 0 -0.065713266975248902 -0.42040157794015642 0 -0.048213792324517578 -0.39768762776665978 0 -0.048282499091199083 -0.41684649723306111 0 -0.06528413140028641 -0.40548789039177052 0 -0.048213792324517578 -0.39768762776665978 0 -0.048282499091199083 -0.41684649723306111 0 -0.029852467816379728 -0.41236872525256307 0 -0.048282499091199083 -0.41684649723306111 0 -0.036803499053157718 -0.43392585985635063 0 -0.029852467816379728 -0.41236872525256307 0 -0.052630130657334448 -0.42871109396582502 0 -0.048282499091199083 -0.41684649723306111 0 -0.036803499053157718 -0.43392585985635063 0 -0.036803499053157718 -0.43392585985635063 0 -0.01686747062211669 -0.42668809062348251 0 -0.022482277956740859 -0.44034230556013138 0 -0.036803499053157718 -0.43392585985635063 0 -0.01686747062211669 -0.42668809062348251 0 -0.029852467816379728 -0.41236872525256307 0 -0.0080625817845775948 -0.40608726553411861 0 -0.01686747062211669 -0.42668809062348251 0 -0.029852467816379728 -0.41236872525256307 0 -0.0080625817845775948 -0.40608726553411861 0 -0.01686747062211669 -0.42668809062348251 0 0.01224976062295041 -0.42183763890738629 0 -0.01686747062211669 -0.42668809062348251 0 -0.008216644178786571 -0.4466179140804285 0 0.01224976062295041 -0.42183763890738629 0 -0.008216644178786571 -0.4466179140804285 0 -0.0021957942935651631 -0.46571035637089769 0 -0.016151777162071251 -0.46269316979172348 0 -0.0021957942935651631 -0.46571035637089769 0 -0.016151777162071251 -0.46269316979172348 0 -0.01292321871024151 -0.47600360382280887 0 -0.008216644178786571 -0.4466179140804285 0 -0.016151777162071251 -0.46269316979172348 0 -0.028753682251359231 -0.45370767630375852 0 -0.016151777162071251 -0.46269316979172348 0 -0.030722049445265721 -0.46513815794063051 0 -0.025757536927686689 -0.47561542944709773 0 -0.016151777162071251 -0.46269316979172348 0 -0.030722049445265721 -0.46513815794063051 0 -0.028753682251359231 -0.45370767630375852 0 -0.036803499053157718 -0.43392585985635063 0 -0.028753682251359231 -0.45370767630375852 0 -0.022482277956740859 -0.44034230556013138 0 -0.01686747062211669 -0.42668809062348251 0 -0.008216644178786571 -0.4466179140804285 0 -0.022482277956740859 -0.44034230556013138 0 -0.008216644178786571 -0.4466179140804285 0 -0.028753682251359231 -0.45370767630375852 0 -0.022482277956740859 -0.44034230556013138 0 -0.011489863113854141 -0.5 0 -0.010144146689038991 -0.48941639725935437 0 0.012735562036971701 -0.48508522326900949 0 -0.010144146689038991 -0.48941639725935437 0 -0.00065605929082254884 -0.47874224407546379 0 -0.01292321871024151 -0.47600360382280887 0 -0.010144146689038991 -0.48941639725935437 0 -0.01292321871024151 -0.47600360382280887 0 -0.022633997898264431 -0.48384402599231691 0 -0.0021957942935651631 -0.46571035637089769 0 -0.00065605929082254884 -0.47874224407546379 0 -0.01292321871024151 -0.47600360382280887 0 -0.016151777162071251 -0.46269316979172348 0 -0.01292321871024151 -0.47600360382280887 0 -0.025757536927686689 -0.47561542944709773 0 -0.025757536927686689 -0.47561542944709773 0 -0.022633997898264431 -0.48384402599231691 0 -0.032724513000240443 -0.48384135401243772 0 -0.01292321871024151 -0.47600360382280887 0 -0.025757536927686689 -0.47561542944709773 0 -0.022633997898264431 -0.48384402599231691 0 -0.011489863113854141 -0.5 0 -0.010144146689038991 -0.48941639725935437 0 -0.033023855415049652 -0.49374757124969931 0 -0.010144146689038991 -0.48941639725935437 0 -0.022633997898264431 -0.48384402599231691 0 -0.033023855415049652 -0.49374757124969931 0 -0.011489863113854141 -0.5 0 -0.041002190054857779 -0.5 0 -0.033023855415049652 -0.49374757124969931 0 -0.010144146689038991 -0.48941639725935437 0 -0.033023855415049652 -0.49374757124969931 0 -0.022633997898264431 -0.48384402599231691 0 -0.033023855415049652 -0.49374757124969931 0 -0.032724513000240443 -0.48384135401243772 0 -0.041002190054857779 -0.5 0 -0.040644419244316249 -0.48874723383863622 0 -0.055758353525359711 -0.48944453406372251 0 -0.041002190054857779 -0.5 0 -0.033023855415049652 -0.49374757124969931 0 -0.040644419244316249 -0.48874723383863622 0 -0.033023855415049652 -0.49374757124969931 0 -0.040644419244316249 -0.48874723383863622 0 -0.032724513000240443 -0.48384135401243772 0 -0.040644419244316249 -0.48874723383863622 0 -0.040713184226073652 -0.47670270986732172 0 -0.055758353525359711 -0.48944453406372251 0 -0.040644419244316249 -0.48874723383863622 0 -0.040713184226073652 -0.47670270986732172 0 -0.032724513000240443 -0.48384135401243772 0 -0.025757536927686689 -0.47561542944709773 0 -0.040713184226073652 -0.47670270986732172 0 -0.032724513000240443 -0.48384135401243772 0 -0.030722049445265721 -0.46513815794063051 0 -0.025757536927686689 -0.47561542944709773 0 -0.040713184226073652 -0.47670270986732172 0 -0.040713184226073652 -0.47670270986732172 0 -0.05604151524233808 -0.47085547185542692 0 -0.042137987481662489 -0.46199998676314519 0 -0.040713184226073652 -0.47670270986732172 0 -0.05604151524233808 -0.47085547185542692 0 -0.055758353525359711 -0.48944453406372251 0 -0.05604151524233808 -0.47085547185542692 0 -0.055758353525359711 -0.48944453406372251 0 -0.068357021366280857 -0.47830767763467641 0 -0.041002190054857779 -0.5 0 -0.055758353525359711 -0.48944453406372251 0 -0.070514516995861642 -0.5 0 -0.036803499053157718 -0.43392585985635063 0 -0.028753682251359231 -0.45370767630375852 0 -0.042591220718736618 -0.44931976272637059 0 -0.036803499053157718 -0.43392585985635063 0 -0.042591220718736618 -0.44931976272637059 0 -0.055908543568221357 -0.44353945242809251 0 -0.028753682251359231 -0.45370767630375852 0 -0.042591220718736618 -0.44931976272637059 0 -0.042137987481662489 -0.46199998676314519 0 -0.030722049445265721 -0.46513815794063051 0 -0.028753682251359231 -0.45370767630375852 0 -0.042137987481662489 -0.46199998676314519 0 -0.030722049445265721 -0.46513815794063051 0 -0.040713184226073652 -0.47670270986732172 0 -0.042137987481662489 -0.46199998676314519 0 -0.042591220718736618 -0.44931976272637059 0 -0.042137987481662489 -0.46199998676314519 0 -0.054601469153056192 -0.45704509188174619 0 -0.05604151524233808 -0.47085547185542692 0 -0.054601469153056192 -0.45704509188174619 0 -0.071896784036839162 -0.45711427830285839 0 -0.05604151524233808 -0.47085547185542692 0 -0.042137987481662489 -0.46199998676314519 0 -0.054601469153056192 -0.45704509188174619 0 -0.054601469153056192 -0.45704509188174619 0 -0.055908543568221357 -0.44353945242809251 0 -0.071896784036839162 -0.45711427830285839 0 -0.042591220718736618 -0.44931976272637059 0 -0.054601469153056192 -0.45704509188174619 0 -0.055908543568221357 -0.44353945242809251 0 -0.055908543568221357 -0.44353945242809251 0 -0.071896784036839162 -0.45711427830285839 0 -0.077753046024815156 -0.43509142098737241 0 -0.071896784036839162 -0.45711427830285839 0 -0.087573937031005744 -0.47412410395137422 0 -0.093954286744555499 -0.45179652052777369 0 -0.087573937031005744 -0.47412410395137422 0 -0.093954286744555499 -0.45179652052777369 0 -0.071896784036839162 -0.45711427830285839 0 -0.093954286744555499 -0.45179652052777369 0 -0.077753046024815156 -0.43509142098737241 0 -0.093954286744555499 -0.45179652052777369 0 -0.10033463645810529 -0.42946893710417328 0 -0.077753046024815156 -0.43509142098737241 0 -0.055758353525359711 -0.48944453406372251 0 -0.070514516995861642 -0.5 0 -0.068357021366280857 -0.47830767763467641 0 -0.05604151524233808 -0.47085547185542692 0 -0.071896784036839162 -0.45711427830285839 0 -0.068357021366280857 -0.47830767763467641 0 -0.071896784036839162 -0.45711427830285839 0 -0.068357021366280857 -0.47830767763467641 0 -0.087573937031005744 -0.47412410395137422 0 -0.070514516995861642 -0.5 0 -0.068357021366280857 -0.47830767763467641 0 -0.087573937031005744 -0.47412410395137422 0 -0.070514516995861642 -0.5 0 -0.087573937031005744 -0.47412410395137422 0 -0.10002684393686551 -0.5 0 -0.087573937031005744 -0.47412410395137422 0 -0.10002684393686551 -0.5 0 -0.10780494223314389 -0.47765854937150709 0 -0.087573937031005744 -0.47412410395137422 0 -0.10780494223314389 -0.47765854937150709 0 -0.1029954147344513 -0.46359439800738522 0 -0.12605423818426559 -0.48707922202292669 0 -0.10780494223314389 -0.47765854937150709 0 -0.1201929706126502 -0.46127799294672761 0 -0.12605423818426559 -0.48707922202292669 0 -0.1201929706126502 -0.46127799294672761 0 -0.12605423818426559 -0.48707922202292669 0 -0.10002684393686551 -0.5 0 -0.10780494223314389 -0.47765854937150709 0 -0.1295391708778694 -0.5 0 -0.12605423818426559 -0.48707922202292669 0 -0.10002684393686551 -0.5 0 -0.093954286744555499 -0.45179652052777369 0 -0.10033463645810529 -0.42946893710417328 0 -0.10636180231815941 -0.44832292249131772 0 -0.11433170304103479 -0.43547676387052858 0 -0.10033463645810529 -0.42946893710417328 0 -0.10636180231815941 -0.44832292249131772 0 -0.093954286744555499 -0.45179652052777369 0 -0.10033463645810529 -0.42946893710417328 0 -0.087573937031005744 -0.47412410395137422 0 -0.093954286744555499 -0.45179652052777369 0 -0.1029954147344513 -0.46359439800738522 0 -0.10636180231815941 -0.44832292249131772 0 -0.093954286744555499 -0.45179652052777369 0 -0.1029954147344513 -0.46359439800738522 0 -0.10780494223314389 -0.47765854937150709 0 -0.1029954147344513 -0.46359439800738522 0 -0.1201929706126502 -0.46127799294672761 0 -0.10636180231815941 -0.44832292249131772 0 -0.1029954147344513 -0.46359439800738522 0 -0.1201929706126502 -0.46127799294672761 0 -0.13671083813600751 -0.45044361347006462 0 -0.1201929706126502 -0.46127799294672761 0 -0.11433170304103479 -0.43547676387052858 0 -0.10636180231815941 -0.44832292249131772 0 -0.1201929706126502 -0.46127799294672761 0 -0.11433170304103479 -0.43547676387052858 0 -0.13671083813600751 -0.45044361347006462 0 -0.1225906368027144 -0.43005957413219659 0 -0.11433170304103479 -0.43547676387052858 0 -0.1201929706126502 -0.46127799294672761 0 -0.11433170304103479 -0.43547676387052858 0 -0.1225906368027144 -0.43005957413219659 0 -0.11433170304103479 -0.43547676387052858 0 -0.10847043546942051 -0.40967553479432928 0 -0.11433170304103479 -0.43547676387052858 0 -0.10847043546942051 -0.40967553479432928 0 -0.12908399078123631 -0.42243277819987513 0 -0.1225906368027144 -0.43005957413219659 0 -0.12315425937001 -0.41747458531602638 0 -0.11433170304103479 -0.43547676387052858 0 -0.10033463645810529 -0.42946893710417328 0 -0.10847043546942051 -0.40967553479432928 0 -0.10033463645810529 -0.42946893710417328 0 -0.094107383989168333 -0.41562629379671062 0 -0.1067149861716557 -0.40714135368057303 0 -0.10033463645810529 -0.42946893710417328 0 -0.1067149861716557 -0.40714135368057303 0 -0.10847043546942051 -0.40967553479432928 0 -0.10033463645810529 -0.42946893710417328 0 -0.1067149861716557 -0.40714135368057303 0 -0.094107383989168333 -0.41562629379671062 0 -0.1067149861716557 -0.40714135368057303 0 -0.093615658715422545 -0.40476526464288082 0 -0.10847043546942051 -0.40967553479432928 0 -0.1105756132387118 -0.40676785322215941 0 -0.1073722461642546 -0.40484131873350049 0 -0.10847043546942051 -0.40967553479432928 0 -0.1073722461642546 -0.40484131873350049 0 -0.1067149861716557 -0.40714135368057303 0 -0.10847043546942051 -0.40967553479432928 0 -0.1073722461642546 -0.40484131873350049 0 -0.1067149861716557 -0.40714135368057303 0 -0.10847043546942051 -0.40967553479432928 0 -0.1225906368027144 -0.43005957413219659 0 -0.1163272184937543 -0.41351727508190028 0 -0.12315425937001 -0.41747458531602638 0 -0.10847043546942051 -0.40967553479432928 0 -0.1125412123036873 -0.40894162881917728 0 -0.1163272184937543 -0.41351727508190028 0 -0.1125412123036873 -0.40894162881917728 0 -0.1105756132387118 -0.40676785322215941 0 -0.1147915820128618 -0.40580585217832088 0 -0.1225906368027144 -0.43005957413219659 0 -0.10847043546942051 -0.40967553479432928 0 -0.1163272184937543 -0.41351727508190028 0 -0.10847043546942051 -0.40967553479432928 0 -0.1125412123036873 -0.40894162881917728 0 -0.1105756132387118 -0.40676785322215941 0 -0.1225906368027144 -0.43005957413219659 0 -0.10847043546942051 -0.40967553479432928 0 -0.1125412123036873 -0.40894162881917728 0 -0.1163272184937543 -0.41351727508190028 0 -0.1147915820128618 -0.40580585217832088 0 -0.1225700411049412 -0.40994677461386392 0 -0.1219584454402414 -0.40406961642135292 0 -0.1147915820128618 -0.40580585217832088 0 -0.1163272184937543 -0.41351727508190028 0 -0.1225700411049412 -0.40994677461386392 0 -0.1147915820128618 -0.40580585217832088 0 -0.1163272184937543 -0.41351727508190028 0 -0.12315425937001 -0.41747458531602638 0 -0.1225700411049412 -0.40994677461386392 0 -0.1273295258527142 -0.39594401256049883 0 -0.1219584454402414 -0.40406961642135292 0 -0.1190781430676657 -0.39944145851713192 0 -0.11305295545189779 -0.39895005080087959 0 -0.11384267237711319 -0.38219851895920232 0 -0.1073722461642546 -0.40484131873350049 0 -0.1295768038857959 -0.40463739140698729 0 -0.1225700411049412 -0.40994677461386392 0 -0.1219584454402414 -0.40406961642135292 0 -0.1182582065806136 -0.392437760624607 0 -0.11305295545189779 -0.39895005080087959 0 -0.11384267237711319 -0.38219851895920232 0 -0.11384267237711319 -0.38219851895920232 0 -0.1073722461642546 -0.40484131873350049 0 -0.1219584454402414 -0.40406961642135292 0 -0.1190781430676657 -0.39944145851713192 0 -0.1147915820128618 -0.40580585217832088 0 -0.1273295258527142 -0.39594401256049883 0 -0.1190781430676657 -0.39944145851713192 0 -0.1182582065806136 -0.392437760624607 0 -0.1190781430676657 -0.39944145851713192 0 -0.1182582065806136 -0.392437760624607 0 -0.11305295545189779 -0.39895005080087959 0 -0.1105756132387118 -0.40676785322215941 0 -0.1114480992169309 -0.40409126873371493 0 -0.1073722461642546 -0.40484131873350049 0 -0.1105756132387118 -0.40676785322215941 0 -0.1114480992169309 -0.40409126873371493 0 -0.1147915820128618 -0.40580585217832088 0 -0.11305295545189779 -0.39895005080087959 0 -0.1114480992169309 -0.40409126873371493 0 -0.1147915820128618 -0.40580585217832088 0 -0.11305295545189779 -0.39895005080087959 0 -0.1114480992169309 -0.40409126873371493 0 -0.1073722461642546 -0.40484131873350049 0 -0.1190781430676657 -0.39944145851713192 0 -0.11305295545189779 -0.39895005080087959 0 -0.1147915820128618 -0.40580585217832088 0 -0.12625141541498519 -0.38197991289387551 0 -0.1182582065806136 -0.392437760624607 0 -0.11384267237711319 -0.38219851895920232 0 -0.12625141541498519 -0.38197991289387551 0 -0.1273295258527142 -0.39594401256049883 0 -0.1182582065806136 -0.392437760624607 0 -0.11384267237711319 -0.38219851895920232 0 -0.10176491866177829 -0.38015793077534599 0 -0.1073722461642546 -0.40484131873350049 0 -0.10176491866177829 -0.38015793077534599 0 -0.095995502779844255 -0.39166661886747001 0 -0.085276019388031976 -0.37619188405436782 0 -0.10849363524981311 -0.36442991456039969 0 -0.11384267237711319 -0.38219851895920232 0 -0.10176491866177829 -0.38015793077534599 0 -0.10176491866177829 -0.38015793077534599 0 -0.1073722461642546 -0.40484131873350049 0 -0.095995502779844255 -0.39166661886747001 0 -0.10176491866177829 -0.38015793077534599 0 -0.1073722461642546 -0.40484131873350049 0 -0.1067149861716557 -0.40714135368057303 0 -0.1073722461642546 -0.40484131873350049 0 -0.095995502779844255 -0.39166661886747001 0 -0.1067149861716557 -0.40714135368057303 0 -0.1073722461642546 -0.40484131873350049 0 -0.1067149861716557 -0.40714135368057303 0 -0.095995502779844255 -0.39166661886747001 0 -0.1067149861716557 -0.40714135368057303 0 -0.095995502779844255 -0.39166661886747001 0 -0.093615658715422545 -0.40476526464288082 0 -0.093615658715422545 -0.40476526464288082 0 -0.081664681120336771 -0.39582842074610342 0 -0.082451352827770552 -0.41163664718976212 0 -0.095995502779844255 -0.39166661886747001 0 -0.093615658715422545 -0.40476526464288082 0 -0.081664681120336771 -0.39582842074610342 0 -0.095995502779844255 -0.39166661886747001 0 -0.081664681120336771 -0.39582842074610342 0 -0.085276019388031976 -0.37619188405436782 0 -0.081664681120336771 -0.39582842074610342 0 -0.085276019388031976 -0.37619188405436782 0 -0.074552591578295357 -0.38401367178407558 0 -0.095995502779844255 -0.39166661886747001 0 -0.085276019388031976 -0.37619188405436782 0 -0.081664681120336771 -0.39582842074610342 0 -0.065379196062645584 -0.39052657147488062 0 -0.074552591578295357 -0.38401367178407558 0 -0.065890469742167113 -0.37350781086095058 0 -0.085276019388031976 -0.37619188405436782 0 -0.074552591578295357 -0.38401367178407558 0 -0.065890469742167113 -0.37350781086095058 0 -0.065379196062645584 -0.39052657147488062 0 -0.074552591578295357 -0.38401367178407558 0 -0.081664681120336771 -0.39582842074610342 0 -0.06528413140028641 -0.40548789039177052 0 -0.082451352827770552 -0.41163664718976212 0 -0.081664681120336771 -0.39582842074610342 0 -0.065379196062645584 -0.39052657147488062 0 -0.06528413140028641 -0.40548789039177052 0 -0.065713266975248902 -0.42040157794015642 0 -0.085028608260126398 -0.42320905853578622 0 -0.082451352827770552 -0.41163664718976212 0 -0.06528413140028641 -0.40548789039177052 0 -0.065713266975248902 -0.42040157794015642 0 -0.082451352827770552 -0.41163664718976212 0 -0.065713266975248902 -0.42040157794015642 0 -0.077753046024815156 -0.43509142098737241 0 -0.085028608260126398 -0.42320905853578622 0 -0.052630130657334448 -0.42871109396582502 0 -0.065713266975248902 -0.42040157794015642 0 -0.077753046024815156 -0.43509142098737241 0 -0.10033463645810529 -0.42946893710417328 0 -0.077753046024815156 -0.43509142098737241 0 -0.085028608260126398 -0.42320905853578622 0 -0.10033463645810529 -0.42946893710417328 0 -0.094107383989168333 -0.41562629379671062 0 -0.085028608260126398 -0.42320905853578622 0 -0.094107383989168333 -0.41562629379671062 0 -0.085028608260126398 -0.42320905853578622 0 -0.082451352827770552 -0.41163664718976212 0 -0.094107383989168333 -0.41562629379671062 0 -0.093615658715422545 -0.40476526464288082 0 -0.082451352827770552 -0.41163664718976212 0 -0.080832567710134945 -0.085265223789800185 0 -0.09573268077664969 -0.090624673380050064 0 -0.094924188455715333 -0.074372309221374736 0 -0.080832567710134945 -0.085265223789800185 0 -0.0944050220014645 -0.1050702242089397 0 -0.09573268077664969 -0.090624673380050064 0 -0.094924188455715333 -0.074372309221374736 0 -0.077079431972146645 -0.050953682142663811 0 -0.080832567710134945 -0.085265223789800185 0 -0.077460787511610923 -0.070469280456870842 0 -0.094924188455715333 -0.074372309221374736 0 -0.077460787511610923 -0.070469280456870842 0 -0.094924188455715333 -0.074372309221374736 0 -0.078535685693175539 -0.061573663464548622 0 -0.080832567710134945 -0.085265223789800185 0 -0.072736864716213656 -0.076885636419884412 0 -0.077460787511610923 -0.070469280456870842 0 -0.072736864716213656 -0.076885636419884412 0 -0.077460787511610923 -0.070469280456870842 0 -0.067174029152377468 -0.071022972744677337 0 -0.077460787511610923 -0.070469280456870842 0 -0.067174029152377468 -0.071022972744677337 0 -0.070308423821052124 -0.061023041189074957 0 -0.077460787511610923 -0.070469280456870842 0 -0.078535685693175539 -0.061573663464548622 0 -0.070308423821052124 -0.061023041189074957 0 -0.067174029152377468 -0.071022972744677337 0 -0.070308423821052124 -0.061023041189074957 0 -0.060830035872249492 -0.064558057335980773 0 -0.072736864716213656 -0.076885636419884412 0 -0.067174029152377468 -0.071022972744677337 0 -0.063732237529271596 -0.080733089011810297 0 -0.067174029152377468 -0.071022972744677337 0 -0.063732237529271596 -0.080733089011810297 0 -0.058000192015007383 -0.073011667883306972 0 -0.080832567710134945 -0.085265223789800185 0 -0.063732237529271596 -0.080733089011810297 0 -0.066023591375222151 -0.09957098179305135 0 -0.080832567710134945 -0.085265223789800185 0 -0.072736864716213656 -0.076885636419884412 0 -0.063732237529271596 -0.080733089011810297 0 -0.066023591375222151 -0.09957098179305135 0 -0.069466171350113709 -0.1135628440840601 0 -0.0944050220014645 -0.1050702242089397 0 -0.066023591375222151 -0.09957098179305135 0 -0.069466171350113709 -0.1135628440840601 0 -0.054384952187449757 -0.110609208962567 0 -0.077516787342341589 -0.1242022911324857 0 -0.069466171350113709 -0.1135628440840601 0 -0.059238207921678762 -0.13024384051707169 0 -0.077516787342341589 -0.1242022911324857 0 -0.093262550211769629 -0.1231040070079162 0 -0.0944050220014645 -0.1050702242089397 0 -0.077516787342341589 -0.1242022911324857 0 -0.069466171350113709 -0.1135628440840601 0 -0.0944050220014645 -0.1050702242089397 0 -0.066023591375222151 -0.09957098179305135 0 -0.0944050220014645 -0.1050702242089397 0 -0.080832567710134945 -0.085265223789800185 0 -0.066023591375222151 -0.09957098179305135 0 -0.0944050220014645 -0.1050702242089397 0 -0.0944050220014645 -0.1050702242089397 0 -0.1071147179002416 -0.1244919901550422 0 -0.11276894493928399 -0.097790936300085646 0 -0.0944050220014645 -0.1050702242089397 0 -0.11276894493928399 -0.097790936300085646 0 -0.09573268077664969 -0.090624673380050064 0 -0.093262550211769629 -0.1231040070079162 0 -0.0944050220014645 -0.1050702242089397 0 -0.1071147179002416 -0.1244919901550422 0 -0.1071147179002416 -0.1244919901550422 0 -0.11276894493928399 -0.097790936300085646 0 -0.1306137014228527 -0.1212095633787966 0 -0.11276894493928399 -0.097790936300085646 0 -0.1306137014228527 -0.1212095633787966 0 -0.112702195828283 -0.076339248342475546 0 -0.13438499311011279 -0.096174695905308166 0 -0.11276894493928399 -0.097790936300085646 0 -0.112702195828283 -0.076339248342475546 0 -0.13438499311011279 -0.096174695905308166 0 -0.11276894493928399 -0.097790936300085646 0 -0.094924188455715333 -0.074372309221374736 0 -0.112702195828283 -0.076339248342475546 0 -0.11276894493928399 -0.097790936300085646 0 -0.094924188455715333 -0.074372309221374736 0 -0.11276894493928399 -0.097790936300085646 0 -0.09573268077664969 -0.090624673380050064 0 -0.094924188455715333 -0.074372309221374736 0 -0.094924188455715333 -0.074372309221374736 0 -0.1026030192468113 -0.064894788769428779 0 -0.112702195828283 -0.076339248342475546 0 -0.094924188455715333 -0.074372309221374736 0 -0.1026030192468113 -0.064894788769428779 0 -0.090333769324138391 -0.059362086744932152 0 -0.1026030192468113 -0.064894788769428779 0 -0.112702195828283 -0.076339248342475546 0 -0.1158705629695205 -0.060236298698018297 0 -0.112702195828283 -0.076339248342475546 0 -0.1158705629695205 -0.060236298698018297 0 -0.13497135686491851 -0.078315161523928284 0 -0.1158705629695205 -0.060236298698018297 0 -0.1150956899200111 -0.045830426672337207 0 -0.1070798181065768 -0.041876824406217303 0 -0.1158705629695205 -0.060236298698018297 0 -0.1150956899200111 -0.045830426672337207 0 -0.12809376798702951 -0.047905065599393698 0 -0.1163329610324388 -0.034474533447810513 0 -0.12530131535501859 -0.034952786400489197 0 -0.12809376798702951 -0.047905065599393698 0 -0.11023593420079281 -0.033339602888773932 0 -0.1150956899200111 -0.045830426672337207 0 -0.12809376798702951 -0.047905065599393698 0 -0.11023593420079281 -0.033339602888773932 0 -0.1163329610324388 -0.034474533447810513 0 -0.12809376798702951 -0.047905065599393698 0 -0.11023593420079281 -0.033339602888773932 0 -0.12809376798702951 -0.047905065599393698 0 -0.1163329610324388 -0.034474533447810513 0 -0.1221370268088495 -0.025998648103035 0 -0.12530131535501859 -0.034952786400489197 0 -0.11023593420079281 -0.033339602888773932 0 -0.1150956899200111 -0.045830426672337207 0 -0.1070798181065768 -0.041876824406217303 0 -0.11023593420079281 -0.033339602888773932 0 -0.1163329610324388 -0.034474533447810513 0 -0.097427134368436918 -0.027820357899848831 0 -0.11023593420079281 -0.033339602888773932 0 -0.1070798181065768 -0.041876824406217303 0 -0.097427134368436918 -0.027820357899848831 0 -0.1070798181065768 -0.041876824406217303 0 -0.096769769074122519 -0.04215743587210824 0 -0.097427134368436918 -0.027820357899848831 0 -0.1158705629695205 -0.060236298698018297 0 -0.1070798181065768 -0.041876824406217303 0 -0.096769769074122519 -0.04215743587210824 0 -0.1026030192468113 -0.064894788769428779 0 -0.1158705629695205 -0.060236298698018297 0 -0.099264754381345577 -0.055060356505970513 0 -0.1158705629695205 -0.060236298698018297 0 -0.096769769074122519 -0.04215743587210824 0 -0.099264754381345577 -0.055060356505970513 0 -0.096769769074122519 -0.04215743587210824 0 -0.099264754381345577 -0.055060356505970513 0 -0.090746651292135133 -0.048651172445365112 0 -0.1158705629695205 -0.060236298698018297 0 -0.096769769074122519 -0.04215743587210824 0 -0.1026030192468113 -0.064894788769428779 0 -0.099264754381345577 -0.055060356505970513 0 -0.090333769324138391 -0.059362086744932152 0 -0.1029392013539359 -0.0085751277431150782 0 -0.12735709500343681 0.004015926865657337 0 -0.1236693299605585 -0.0137973575501921 0 -0.1110604598185659 -0.0207882196779367 0 -0.1029392013539359 -0.0085751277431150782 0 -0.1236693299605585 -0.0137973575501921 0 -0.1029392013539359 -0.0085751277431150782 0 -0.12735709500343681 0.004015926865657337 0 -0.1236693299605585 -0.0137973575501921 0 -0.1110604598185659 -0.0207882196779367 0 -0.1221370268088495 -0.025998648103035 0 -0.1163329610324388 -0.034474533447810513 0 -0.1221370268088495 -0.025998648103035 0 -0.11173939550707281 -0.027270439782157759 0 -0.1110604598185659 -0.0207882196779367 0 -0.1221370268088495 -0.025998648103035 0 -0.11173939550707281 -0.027270439782157759 0 -0.1163329610324388 -0.034474533447810513 0 -0.097427134368436918 -0.027820357899848831 0 -0.1110604598185659 -0.0207882196779367 0 -0.097427134368436918 -0.027820357899848831 0 -0.1029392013539359 -0.0085751277431150782 0 -0.1163329610324388 -0.034474533447810513 0 -0.11173939550707281 -0.027270439782157759 0 -0.097427134368436918 -0.027820357899848831 0 -0.1110604598185659 -0.0207882196779367 0 -0.11173939550707281 -0.027270439782157759 0 -0.097427134368436918 -0.027820357899848831 0 -0.1029392013539359 -0.0085751277431150782 0 -0.086097875964997059 -0.0058870606910941042 0 -0.078521307704434995 -0.021166182351887271 0 -0.1029392013539359 -0.0085751277431150782 0 -0.078521307704434995 -0.021166182351887271 0 -0.1029392013539359 -0.0085751277431150782 0 -0.086097875964997059 -0.0058870606910941042 0 -0.091682611010439896 0.0063963380850077774 0 -0.086097875964997059 -0.0058870606910941042 0 -0.073830544796709738 -0.0078542708917730738 0 -0.078933949510919491 0.00072378658541613432 0 -0.086097875964997059 -0.0058870606910941042 0 -0.078521307704434995 -0.021166182351887271 0 -0.073830544796709738 -0.0078542708917730738 0 -0.097427134368436918 -0.027820357899848831 0 -0.078521307704434995 -0.021166182351887271 0 -0.097427134368436918 -0.027820357899848831 0 -0.078521307704434995 -0.021166182351887271 0 -0.077668975178724509 -0.024078573046198169 0 -0.097427134368436918 -0.027820357899848831 0 -0.1029392013539359 -0.0085751277431150782 0 -0.078521307704434995 -0.021166182351887271 0 -0.078521307704434995 -0.021166182351887271 0 -0.055132092173872667 -0.033226800447327051 0 -0.05822397002114936 -0.01402224463886402 0 -0.078521307704434995 -0.021166182351887271 0 -0.055132092173872667 -0.033226800447327051 0 -0.077668975178724509 -0.024078573046198169 0 -0.075465350998538308 -0.032772608828030472 0 -0.055132092173872667 -0.033226800447327051 0 -0.078521307704434995 -0.021166182351887271 0 -0.077668975178724509 -0.024078573046198169 0 -0.055132092173872667 -0.033226800447327051 0 -0.078521307704434995 -0.021166182351887271 0 -0.05822397002114936 -0.01402224463886402 0 -0.078521307704434995 -0.021166182351887271 0 -0.073830544796709738 -0.0078542708917730738 0 -0.05822397002114936 -0.01402224463886402 0 -0.073830544796709738 -0.0078542708917730738 0 -0.05822397002114936 -0.01402224463886402 0 -0.068462160169621672 0.0025537029525893409 0 -0.073830544796709738 -0.0078542708917730738 0 -0.078933949510919491 0.00072378658541613432 0 -0.068462160169621672 0.0025537029525893409 0 -0.094924188455715333 -0.074372309221374736 0 -0.090333769324138391 -0.059362086744932152 0 -0.077079431972146645 -0.050953682142663811 0 -0.094924188455715333 -0.074372309221374736 0 -0.078535685693175539 -0.061573663464548622 0 -0.077079431972146645 -0.050953682142663811 0 -0.084868245962835154 -0.053326759561897898 0 -0.090333769324138391 -0.059362086744932152 0 -0.077079431972146645 -0.050953682142663811 0 -0.084868245962835154 -0.053326759561897898 0 -0.080876314157704687 -0.04955372347343575 0 -0.082849096915408454 -0.045583035938281863 0 -0.080876314157704687 -0.04955372347343575 0 -0.078708481780428496 -0.048351416250899462 0 -0.082849096915408454 -0.045583035938281863 0 -0.080876314157704687 -0.04955372347343575 0 -0.078708481780428496 -0.048351416250899462 0 -0.077079431972146645 -0.050953682142663811 0 -0.084868245962835154 -0.053326759561897898 0 -0.080876314157704687 -0.04955372347343575 0 -0.077079431972146645 -0.050953682142663811 0 -0.084868245962835154 -0.053326759561897898 0 -0.090746651292135133 -0.048651172445365112 0 -0.082849096915408454 -0.045583035938281863 0 -0.084868245962835154 -0.053326759561897898 0 -0.090333769324138391 -0.059362086744932152 0 -0.090746651292135133 -0.048651172445365112 0 -0.099264754381345577 -0.055060356505970513 0 -0.090333769324138391 -0.059362086744932152 0 -0.090746651292135133 -0.048651172445365112 0 -0.096769769074122519 -0.04215743587210824 0 -0.088481073739883592 -0.043344290748051233 0 -0.083558777677868248 -0.036985518736449702 0 -0.096769769074122519 -0.04215743587210824 0 -0.097427134368436918 -0.027820357899848831 0 -0.077668975178724509 -0.024078573046198169 0 -0.096769769074122519 -0.04215743587210824 0 -0.077668975178724509 -0.024078573046198169 0 -0.083558777677868248 -0.036985518736449702 0 -0.096769769074122519 -0.04215743587210824 0 -0.077668975178724509 -0.024078573046198169 0 -0.090746651292135133 -0.048651172445365112 0 -0.088481073739883592 -0.043344290748051233 0 -0.082849096915408454 -0.045583035938281863 0 -0.096769769074122519 -0.04215743587210824 0 -0.090746651292135133 -0.048651172445365112 0 -0.088481073739883592 -0.043344290748051233 0 -0.077668975178724509 -0.024078573046198169 0 -0.083558777677868248 -0.036985518736449702 0 -0.075465350998538308 -0.032772608828030472 0 -0.083558777677868248 -0.036985518736449702 0 -0.082849096915408454 -0.045583035938281863 0 -0.075062618692292638 -0.040325846155841297 0 -0.088481073739883592 -0.043344290748051233 0 -0.083558777677868248 -0.036985518736449702 0 -0.082849096915408454 -0.045583035938281863 0 -0.082849096915408454 -0.045583035938281863 0 -0.078067002861142085 -0.04575568247049161 0 -0.075062618692292638 -0.040325846155841297 0 -0.078708481780428496 -0.048351416250899462 0 -0.082849096915408454 -0.045583035938281863 0 -0.078067002861142085 -0.04575568247049161 0 -0.075647814056438792 -0.048762431536943832 0 -0.055132092173872667 -0.033226800447327051 0 -0.078067002861142085 -0.04575568247049161 0 -0.075062618692292638 -0.040325846155841297 0 -0.075647814056438792 -0.048762431536943832 0 -0.075062618692292638 -0.040325846155841297 0 -0.075465350998538308 -0.032772608828030472 0 -0.055132092173872667 -0.033226800447327051 0 -0.075647814056438792 -0.048762431536943832 0 -0.061428605263776047 -0.046553119166432878 0 -0.055132092173872667 -0.033226800447327051 0 -0.075062618692292638 -0.040325846155841297 0 -0.075647814056438792 -0.048762431536943832 0 -0.055132092173872667 -0.033226800447327051 0 -0.083558777677868248 -0.036985518736449702 0 -0.075062618692292638 -0.040325846155841297 0 -0.075465350998538308 -0.032772608828030472 0 -0.065722760200719738 -0.052253177456942877 0 -0.075647814056438792 -0.048762431536943832 0 -0.061428605263776047 -0.046553119166432878 0 -0.065722760200719738 -0.052253177456942877 0 -0.07269306068786438 -0.052406879740114577 0 -0.069833853901725543 -0.055329661047837618 0 -0.065722760200719738 -0.052253177456942877 0 -0.07269306068786438 -0.052406879740114577 0 -0.075647814056438792 -0.048762431536943832 0 -0.07269306068786438 -0.052406879740114577 0 -0.073703714626092445 -0.056102563442451223 0 -0.069833853901725543 -0.055329661047837618 0 -0.07269306068786438 -0.052406879740114577 0 -0.077079431972146645 -0.050953682142663811 0 -0.073703714626092445 -0.056102563442451223 0 -0.078708481780428496 -0.048351416250899462 0 -0.077079431972146645 -0.050953682142663811 0 -0.075647814056438792 -0.048762431536943832 0 -0.07269306068786438 -0.052406879740114577 0 -0.077079431972146645 -0.050953682142663811 0 -0.075647814056438792 -0.048762431536943832 0 -0.078708481780428496 -0.048351416250899462 0 -0.078067002861142085 -0.04575568247049161 0 -0.075647814056438792 -0.048762431536943832 0 -0.078535685693175539 -0.061573663464548622 0 -0.073703714626092445 -0.056102563442451223 0 -0.070308423821052124 -0.061023041189074957 0 -0.078535685693175539 -0.061573663464548622 0 -0.077079431972146645 -0.050953682142663811 0 -0.073703714626092445 -0.056102563442451223 0 -0.073703714626092445 -0.056102563442451223 0 -0.070308423821052124 -0.061023041189074957 0 -0.069833853901725543 -0.055329661047837618 0 -0.070308423821052124 -0.061023041189074957 0 -0.064391701294429504 -0.057679717025484439 0 -0.060830035872249492 -0.064558057335980773 0 -0.070308423821052124 -0.061023041189074957 0 -0.069833853901725543 -0.055329661047837618 0 -0.064391701294429504 -0.057679717025484439 0 -0.065722760200719738 -0.052253177456942877 0 -0.069833853901725543 -0.055329661047837618 0 -0.064391701294429504 -0.057679717025484439 0 -0.064391701294429504 -0.057679717025484439 0 -0.055978059279945473 -0.056388284161067823 0 -0.060830035872249492 -0.064558057335980773 0 -0.065722760200719738 -0.052253177456942877 0 -0.064391701294429504 -0.057679717025484439 0 -0.055978059279945473 -0.056388284161067823 0 -0.055978059279945473 -0.056388284161067823 0 -0.041230103293456458 -0.058058117591144771 0 -0.049479852383656611 -0.067543566470139038 0 -0.055978059279945473 -0.056388284161067823 0 -0.049741921456861897 -0.048697412542500033 0 -0.041230103293456458 -0.058058117591144771 0 -0.055978059279945473 -0.056388284161067823 0 -0.049741921456861897 -0.048697412542500033 0 -0.061428605263776047 -0.046553119166432878 0 -0.065722760200719738 -0.052253177456942877 0 -0.055978059279945473 -0.056388284161067823 0 -0.061428605263776047 -0.046553119166432878 0 -0.049741921456861897 -0.048697412542500033 0 -0.061428605263776047 -0.046553119166432878 0 -0.055132092173872667 -0.033226800447327051 0 -0.049741921456861897 -0.048697412542500033 0 -0.055132092173872667 -0.033226800447327051 0 -0.032367863380537598 -0.044965144957206583 0 -0.055132092173872667 -0.033226800447327051 0 -0.032367863380537598 -0.044965144957206583 0 -0.055132092173872667 -0.033226800447327051 0 -0.032367863380537598 -0.044965144957206583 0 -0.031233838643279398 -0.031193199633022049 0 -0.049741921456861897 -0.048697412542500033 0 -0.032367863380537598 -0.044965144957206583 0 -0.041230103293456458 -0.058058117591144771 0 -0.032367863380537598 -0.044965144957206583 0 -0.041230103293456458 -0.058058117591144771 0 -0.026902341230915561 -0.060374551747501753 0 -0.05822397002114936 -0.01402224463886402 0 -0.057836245250817257 0.0062936453779614283 0 -0.044352522143416888 0.0050416822031405977 0 -0.05822397002114936 -0.01402224463886402 0 -0.037926632337863607 -0.0068783069258408786 0 -0.05822397002114936 -0.01402224463886402 0 -0.068462160169621672 0.0025537029525893409 0 -0.057836245250817257 0.0062936453779614283 0 -0.055132092173872667 -0.033226800447327051 0 -0.05822397002114936 -0.01402224463886402 0 -0.036243114184870161 -0.018923029155399909 0 -0.055132092173872667 -0.033226800447327051 0 -0.036243114184870161 -0.018923029155399909 0 -0.031233838643279398 -0.031193199633022049 0 -0.055132092173872667 -0.033226800447327051 0 -0.036243114184870161 -0.018923029155399909 0 -0.05822397002114936 -0.01402224463886402 0 -0.036243114184870161 -0.018923029155399909 0 -0.037926632337863607 -0.0068783069258408786 0 -0.05822397002114936 -0.01402224463886402 0 -0.037926632337863607 -0.0068783069258408786 0 -0.044352522143416888 0.0050416822031405977 0 -0.036243114184870161 -0.018923029155399909 0 -0.037926632337863607 -0.0068783069258408786 0 -0.029121832422534862 -0.0067169982391169078 0 -0.037926632337863607 -0.0068783069258408786 0 -0.029539197120254941 -0.00051038393964639519 0 -0.029121832422534862 -0.0067169982391169078 0 -0.037926632337863607 -0.0068783069258408786 0 -0.029539197120254941 -0.00051038393964639519 0 -0.03614709390981162 0.0015378833132510439 0 -0.037926632337863607 -0.0068783069258408786 0 -0.03614709390981162 0.0015378833132510439 0 -0.044352522143416888 0.0050416822031405977 0 -0.036243114184870161 -0.018923029155399909 0 -0.017354136195868258 -0.0046192578634720229 0 -0.01819617019275287 -0.0061732580868559192 0 -0.036243114184870161 -0.018923029155399909 0 -0.017354136195868258 -0.0046192578634720229 0 -0.029121832422534862 -0.0067169982391169078 0 -0.036243114184870161 -0.018923029155399909 0 -0.01819617019275287 -0.0061732580868559192 0 -0.019637671972121611 -0.02148729346067638 0 -0.036243114184870161 -0.018923029155399909 0 -0.017354136195868258 -0.0046192578634720229 0 -0.017354136195868258 -0.0046192578634720229 0 -0.01819617019275287 -0.0061732580868559192 0 -0.013500839782477779 -0.0058155532537883976 0 -0.017354136195868258 -0.0046192578634720229 0 -0.01819617019275287 -0.0061732580868559192 0 -0.017354136195868258 -0.0046192578634720229 0 -0.024546082273817361 -0.00265401331122534 0 -0.02112675760807068 0.0030512678310729521 0 -0.024546082273817361 -0.00265401331122534 0 -0.029539197120254941 -0.00051038393964639519 0 -0.02112675760807068 0.0030512678310729521 0 -0.017354136195868258 -0.0046192578634720229 0 -0.024546082273817361 -0.00265401331122534 0 -0.029121832422534862 -0.0067169982391169078 0 -0.024546082273817361 -0.00265401331122534 0 -0.029539197120254941 -0.00051038393964639519 0 -0.029121832422534862 -0.0067169982391169078 0 -0.01819617019275287 -0.0061732580868559192 0 -0.019637671972121611 -0.02148729346067638 0 -0.011008321991883009 -0.01057962122923565 0 -0.036243114184870161 -0.018923029155399909 0 -0.019637671972121611 -0.02148729346067638 0 -0.031233838643279398 -0.031193199633022049 0 -0.019637671972121611 -0.02148729346067638 0 -0.031233838643279398 -0.031193199633022049 0 -0.016064986363794779 -0.036441041599790329 0 -0.0077215053668332834 -0.022860670268973711 0 -0.00118246574067416 -0.01324232368796026 0 0.0015263381015913891 -0.033415212413580753 0 -0.0077215053668332834 -0.022860670268973711 0 -0.016064986363794779 -0.036441041599790329 0 0.0015263381015913891 -0.033415212413580753 0 -0.019637671972121611 -0.02148729346067638 0 -0.0077215053668332834 -0.022860670268973711 0 -0.016064986363794779 -0.036441041599790329 0 -0.019637671972121611 -0.02148729346067638 0 -0.0077215053668332834 -0.022860670268973711 0 -0.011008321991883009 -0.01057962122923565 0 -0.011008321991883009 -0.01057962122923565 0 -0.00118246574067416 -0.01324232368796026 0 -0.0072764121498596901 -0.0036325873431357339 0 -0.0077215053668332834 -0.022860670268973711 0 -0.011008321991883009 -0.01057962122923565 0 -0.00118246574067416 -0.01324232368796026 0 -0.00118246574067416 -0.01324232368796026 0 -0.0072764121498596901 -0.0036325873431357339 0 0.0012074066645448821 -0.00065723147797176382 0 -0.0072764121498596901 -0.0036325873431357339 0 -0.013500839782477779 -0.0058155532537883976 0 -0.013607688627124061 -0.00178224205395049 0 -0.011008321991883009 -0.01057962122923565 0 -0.0072764121498596901 -0.0036325873431357339 0 -0.013500839782477779 -0.0058155532537883976 0 -0.01819617019275287 -0.0061732580868559192 0 -0.011008321991883009 -0.01057962122923565 0 -0.013500839782477779 -0.0058155532537883976 0 -0.017354136195868258 -0.0046192578634720229 0 -0.013500839782477779 -0.0058155532537883976 0 -0.013607688627124061 -0.00178224205395049 0 -0.017354136195868258 -0.0046192578634720229 0 -0.013607688627124061 -0.00178224205395049 0 -0.032367863380537598 -0.044965144957206583 0 -0.0096036345872028556 -0.056703489467087059 0 -0.032367863380537598 -0.044965144957206583 0 -0.026902341230915561 -0.060374551747501753 0 -0.0096036345872028556 -0.056703489467087059 0 -0.032367863380537598 -0.044965144957206583 0 -0.031233838643279398 -0.031193199633022049 0 -0.016064986363794779 -0.036441041599790329 0 -0.032367863380537598 -0.044965144957206583 0 -0.016064986363794779 -0.036441041599790329 0 -0.0096036345872028556 -0.056703489467087059 0 -0.0096036345872028556 -0.056703489467087059 0 0.0015263381015913891 -0.033415212413580753 0 -0.016064986363794779 -0.036441041599790329 0 -0.0096036345872028556 -0.056703489467087059 0 0.0015263381015913891 -0.033415212413580753 0 -0.0096036345872028556 -0.056703489467087059 0 0.0015263381015913891 -0.033415212413580753 0 0.007298405735321048 -0.051477207310420908 0 -0.0096036345872028556 -0.056703489467087059 0 0.0052181775422467033 -0.064346337314722044 0 -0.0096036345872028556 -0.056703489467087059 0 -0.0043762627118289626 -0.071729097412358583 0 0.0052181775422467033 -0.064346337314722044 0 -0.0043762627118289626 -0.071729097412358583 0 -0.0092607301227374331 -0.088572496961274561 0 -0.01646375475339092 -0.071057556949349329 0 -0.0096036345872028556 -0.056703489467087059 0 -0.01646375475339092 -0.071057556949349329 0 -0.0096036345872028556 -0.056703489467087059 0 -0.0043762627118289626 -0.071729097412358583 0 -0.01646375475339092 -0.071057556949349329 0 -0.0092607301227374331 -0.088572496961274561 0 -0.00044729776891663488 -0.1011528385718463 0 0.0042106568376920582 -0.081118225430045127 0 -0.0043762627118289626 -0.071729097412358583 0 -0.0092607301227374331 -0.088572496961274561 0 0.0042106568376920582 -0.081118225430045127 0 -0.0092607301227374331 -0.088572496961274561 0 -0.037642160748979789 -0.094071739377162955 0 -0.0092607301227374331 -0.088572496961274561 0 -0.023323874919582349 -0.085411624431610003 0 -0.01646375475339092 -0.071057556949349329 0 -0.0092607301227374331 -0.088572496961274561 0 -0.023323874919582349 -0.085411624431610003 0 -0.037642160748979789 -0.094071739377162955 0 -0.023323874919582349 -0.085411624431610003 0 -0.01646375475339092 -0.071057556949349329 0 -0.023323874919582349 -0.085411624431610003 0 -0.01646375475339092 -0.071057556949349329 0 -0.034846350139989962 -0.07108844977272101 0 -0.026902341230915561 -0.060374551747501753 0 -0.01646375475339092 -0.071057556949349329 0 -0.034846350139989962 -0.07108844977272101 0 -0.026902341230915561 -0.060374551747501753 0 -0.0096036345872028556 -0.056703489467087059 0 -0.01646375475339092 -0.071057556949349329 0 -0.041230103293456458 -0.058058117591144771 0 -0.026902341230915561 -0.060374551747501753 0 -0.034846350139989962 -0.07108844977272101 0 -0.041230103293456458 -0.058058117591144771 0 -0.034846350139989962 -0.07108844977272101 0 -0.049479852383656611 -0.067543566470139038 0 -0.034846350139989962 -0.07108844977272101 0 -0.048784805137481749 -0.081200653853927454 0 -0.049479852383656611 -0.067543566470139038 0 -0.023323874919582349 -0.085411624431610003 0 -0.034846350139989962 -0.07108844977272101 0 -0.036149297736508462 -0.082943116858855345 0 -0.023323874919582349 -0.085411624431610003 0 -0.036149297736508462 -0.082943116858855345 0 -0.037642160748979789 -0.094071739377162955 0 -0.036149297736508462 -0.082943116858855345 0 -0.048784805137481749 -0.081200653853927454 0 -0.037642160748979789 -0.094071739377162955 0 -0.034846350139989962 -0.07108844977272101 0 -0.036149297736508462 -0.082943116858855345 0 -0.048784805137481749 -0.081200653853927454 0 -0.063732237529271596 -0.080733089011810297 0 -0.066023591375222151 -0.09957098179305135 0 -0.048784805137481749 -0.081200653853927454 0 -0.066023591375222151 -0.09957098179305135 0 -0.048784805137481749 -0.081200653853927454 0 -0.037642160748979789 -0.094071739377162955 0 -0.063732237529271596 -0.080733089011810297 0 -0.048784805137481749 -0.081200653853927454 0 -0.058000192015007383 -0.073011667883306972 0 -0.055978059279945473 -0.056388284161067823 0 -0.060830035872249492 -0.064558057335980773 0 -0.049479852383656611 -0.067543566470139038 0 -0.058000192015007383 -0.073011667883306972 0 -0.060830035872249492 -0.064558057335980773 0 -0.049479852383656611 -0.067543566470139038 0 -0.067174029152377468 -0.071022972744677337 0 -0.058000192015007383 -0.073011667883306972 0 -0.060830035872249492 -0.064558057335980773 0 -0.048784805137481749 -0.081200653853927454 0 -0.058000192015007383 -0.073011667883306972 0 -0.049479852383656611 -0.067543566470139038 0 -0.069466171350113709 -0.1135628440840601 0 -0.054384952187449757 -0.110609208962567 0 -0.059238207921678762 -0.13024384051707169 0 -0.054384952187449757 -0.110609208962567 0 -0.059238207921678762 -0.13024384051707169 0 -0.032945469352336033 -0.1293562392835419 0 -0.066023591375222151 -0.09957098179305135 0 -0.054384952187449757 -0.110609208962567 0 -0.037642160748979789 -0.094071739377162955 0 -0.066023591375222151 -0.09957098179305135 0 -0.037642160748979789 -0.094071739377162955 0 -0.054384952187449757 -0.110609208962567 0 -0.037642160748979789 -0.094071739377162955 0 -0.035661083064217503 -0.11124856921529409 0 -0.054384952187449757 -0.110609208962567 0 -0.032945469352336033 -0.1293562392835419 0 -0.054384952187449757 -0.110609208962567 0 -0.035661083064217503 -0.11124856921529409 0 -0.032945469352336033 -0.1293562392835419 0 -0.01767174996810443 -0.1109570892379047 0 -0.012892303975098539 -0.12786221844410239 0 -0.032945469352336033 -0.1293562392835419 0 -0.035661083064217503 -0.11124856921529409 0 -0.01767174996810443 -0.1109570892379047 0 -0.032945469352336033 -0.1293562392835419 0 -0.0092607301227374331 -0.088572496961274561 0 -0.037642160748979789 -0.094071739377162955 0 -0.01767174996810443 -0.1109570892379047 0 -0.037642160748979789 -0.094071739377162955 0 -0.035661083064217503 -0.11124856921529409 0 -0.01767174996810443 -0.1109570892379047 0 -0.01767174996810443 -0.1109570892379047 0 -0.00044729776891663488 -0.1011528385718463 0 0.005085065621477718 -0.1151057880332567 0 -0.0092607301227374331 -0.088572496961274561 0 -0.01767174996810443 -0.1109570892379047 0 -0.00044729776891663488 -0.1011528385718463 0 -0.01767174996810443 -0.1109570892379047 0 -0.012892303975098539 -0.12786221844410239 0 0.005085065621477718 -0.1151057880332567 0 -0.012892303975098539 -0.12786221844410239 0 0.0027021066240326768 -0.1317064378292063 0 0.005085065621477718 -0.1151057880332567 0 -0.011505986517222349 -0.14810326960451681 0 -0.033736789854580403 -0.16402697950055581 0 -0.032945469352336033 -0.1293562392835419 0 -0.012892303975098539 -0.12786221844410239 0 -0.011505986517222349 -0.14810326960451681 0 0.0027021066240326768 -0.1317064378292063 0 -0.011505986517222349 -0.14810326960451681 0 -0.032945469352336033 -0.1293562392835419 0 -0.012892303975098539 -0.12786221844410239 0 -0.011505986517222349 -0.14810326960451681 0 -0.032945469352336033 -0.1293562392835419 0 -0.011505986517222349 -0.14810326960451681 0 0.009933496317892726 -0.16685029992549011 0 -0.011505986517222349 -0.14810326960451681 0 -0.0085976242789068957 -0.177408956520272 0 0.009933496317892726 -0.16685029992549011 0 -0.0085976242789068957 -0.177408956520272 0 -0.003739977245034012 -0.19168309442994089 0 -0.02712874487570623 -0.18796761311505439 0 -0.0085976242789068957 -0.177408956520272 0 -0.003739977245034012 -0.19168309442994089 0 0.0034571977838801569 -0.17702496179755631 0 -0.0085976242789068957 -0.177408956520272 0 -0.02712874487570623 -0.18796761311505439 0 -0.0085976242789068957 -0.177408956520272 0 -0.033736789854580403 -0.16402697950055581 0 -0.02712874487570623 -0.18796761311505439 0 -0.011505986517222349 -0.14810326960451681 0 -0.0085976242789068957 -0.177408956520272 0 -0.033736789854580403 -0.16402697950055581 0 -0.033736789854580403 -0.16402697950055581 0 -0.041678182321736049 -0.18065303021324261 0 -0.02712874487570623 -0.18796761311505439 0 -0.033736789854580403 -0.16402697950055581 0 -0.041678182321736049 -0.18065303021324261 0 -0.060187329084152079 -0.17209125852752319 0 -0.041678182321736049 -0.18065303021324261 0 -0.060187329084152079 -0.17209125852752319 0 -0.045659865472505487 -0.198526269709837 0 -0.060187329084152079 -0.17209125852752319 0 -0.045659865472505487 -0.198526269709837 0 -0.033736789854580403 -0.16402697950055581 0 -0.060187329084152079 -0.17209125852752319 0 -0.051699405537506939 -0.14899167338562519 0 -0.060187329084152079 -0.17209125852752319 0 -0.051699405537506939 -0.14899167338562519 0 -0.072389231474787458 -0.1492400490994332 0 -0.051699405537506939 -0.14899167338562519 0 -0.059238207921678762 -0.13024384051707169 0 -0.072389231474787458 -0.1492400490994332 0 -0.033736789854580403 -0.16402697950055581 0 -0.051699405537506939 -0.14899167338562519 0 -0.032945469352336033 -0.1293562392835419 0 -0.051699405537506939 -0.14899167338562519 0 -0.059238207921678762 -0.13024384051707169 0 -0.032945469352336033 -0.1293562392835419 0 -0.025857267464119819 -0.25506418495113531 0 -0.02368513365757598 -0.23851275990414511 0 -0.036167443228362108 -0.24337299090061551 0 -0.01269776775011346 -0.25850600500130039 0 -0.02368513365757598 -0.23851275990414511 0 -0.01269776775011346 -0.25850600500130039 0 -0.02368513365757598 -0.23851275990414511 0 -0.01082738352359053 -0.24876902592697839 0 -0.02368513365757598 -0.23851275990414511 0 -0.0067432183097289999 -0.239968376336817 0 -0.0090267388034834407 -0.23007068799598671 0 -0.02368513365757598 -0.23851275990414511 0 -0.01082738352359053 -0.24876902592697839 0 -0.0067432183097289999 -0.239968376336817 0 -0.01082738352359053 -0.24876902592697839 0 -0.0029313858115674811 -0.24854412401401971 0 -0.0067432183097289999 -0.239968376336817 0 -0.0029313858115674811 -0.24854412401401971 0 -0.0067432183097289999 -0.239968376336817 0 0.0026199421412959989 -0.2430643023623929 0 -0.0067432183097289999 -0.239968376336817 0 0.0026199421412959989 -0.2430643023623929 0 0.0017465435191736189 -0.23378549097037141 0 -0.0067432183097289999 -0.239968376336817 0 -0.0090267388034834407 -0.23007068799598671 0 0.0017465435191736189 -0.23378549097037141 0 -0.0090267388034834407 -0.23007068799598671 0 -0.00080535468136348092 -0.21995366459000901 0 -0.01839049427805331 -0.2195873775130934 0 -0.0090267388034834407 -0.23007068799598671 0 -0.00080535468136348092 -0.21995366459000901 0 0.0017465435191736189 -0.23378549097037141 0 -0.02368513365757598 -0.23851275990414511 0 -0.0090267388034834407 -0.23007068799598671 0 -0.01839049427805331 -0.2195873775130934 0 -0.02368513365757598 -0.23851275990414511 0 -0.01839049427805331 -0.2195873775130934 0 -0.034672499565036527 -0.2185195148069887 0 -0.02368513365757598 -0.23851275990414511 0 -0.034672499565036527 -0.2185195148069887 0 -0.01839049427805331 -0.2195873775130934 0 -0.027127261386640289 -0.20489204062456881 0 -0.034672499565036527 -0.2185195148069887 0 -0.01839049427805331 -0.2195873775130934 0 -0.027127261386640289 -0.20489204062456881 0 -0.01084996336714465 -0.20584666152463099 0 -0.00080535468136348092 -0.21995366459000901 0 -0.01839049427805331 -0.2195873775130934 0 -0.01084996336714465 -0.20584666152463099 0 -0.00080535468136348092 -0.21995366459000901 0 -0.01084996336714465 -0.20584666152463099 0 0.01016515501406726 -0.20926501301563591 0 -0.01084996336714465 -0.20584666152463099 0 -0.003739977245034012 -0.19168309442994089 0 0.01016515501406726 -0.20926501301563591 0 -0.01084996336714465 -0.20584666152463099 0 -0.003739977245034012 -0.19168309442994089 0 -0.02712874487570623 -0.18796761311505439 0 -0.027127261386640289 -0.20489204062456881 0 -0.01084996336714465 -0.20584666152463099 0 -0.02712874487570623 -0.18796761311505439 0 -0.041678182321736049 -0.18065303021324261 0 -0.02712874487570623 -0.18796761311505439 0 -0.045659865472505487 -0.198526269709837 0 -0.02712874487570623 -0.18796761311505439 0 -0.045659865472505487 -0.198526269709837 0 -0.027127261386640289 -0.20489204062456881 0 -0.02712874487570623 -0.18796761311505439 0 -0.045659865472505487 -0.198526269709837 0 -0.045659865472505487 -0.198526269709837 0 -0.067682806497079445 -0.21107449474949169 0 -0.062708331551170268 -0.19442045911658551 0 -0.060187329084152079 -0.17209125852752319 0 -0.045659865472505487 -0.198526269709837 0 -0.062708331551170268 -0.19442045911658551 0 -0.045659865472505487 -0.198526269709837 0 -0.067682806497079445 -0.21107449474949169 0 -0.045659865472505487 -0.198526269709837 0 -0.054546183461555722 -0.22015285450131489 0 -0.067682806497079445 -0.21107449474949169 0 -0.045659865472505487 -0.198526269709837 0 -0.034672499565036527 -0.2185195148069887 0 -0.054546183461555722 -0.22015285450131489 0 -0.045659865472505487 -0.198526269709837 0 -0.034672499565036527 -0.2185195148069887 0 -0.027127261386640289 -0.20489204062456881 0 -0.045659865472505487 -0.198526269709837 0 -0.034672499565036527 -0.2185195148069887 0 -0.034672499565036527 -0.2185195148069887 0 -0.044145410485190079 -0.23242073182379891 0 -0.054546183461555722 -0.22015285450131489 0 -0.02368513365757598 -0.23851275990414511 0 -0.034672499565036527 -0.2185195148069887 0 -0.044145410485190079 -0.23242073182379891 0 -0.044145410485190079 -0.23242073182379891 0 -0.054546183461555722 -0.22015285450131489 0 -0.061280333386656921 -0.23284462843810469 0 -0.061280333386656921 -0.23284462843810469 0 -0.050191684441297867 -0.2485850187836515 0 -0.071591358857016049 -0.2429226102204386 0 -0.050191684441297867 -0.2485850187836515 0 -0.071591358857016049 -0.2429226102204386 0 -0.056939497423126581 -0.24878681181634871 0 -0.050191684441297867 -0.2485850187836515 0 -0.071591358857016049 -0.2429226102204386 0 -0.044145410485190079 -0.23242073182379891 0 -0.061280333386656921 -0.23284462843810469 0 -0.050191684441297867 -0.2485850187836515 0 -0.041398382443623198 -0.25192549838374201 0 -0.056939497423126581 -0.24878681181634871 0 -0.050191684441297867 -0.2485850187836515 0 -0.044145410485190079 -0.23242073182379891 0 -0.050191684441297867 -0.2485850187836515 0 -0.036167443228362108 -0.24337299090061551 0 -0.02368513365757598 -0.23851275990414511 0 -0.044145410485190079 -0.23242073182379891 0 -0.036167443228362108 -0.24337299090061551 0 -0.025857267464119819 -0.25506418495113531 0 -0.050191684441297867 -0.2485850187836515 0 -0.036167443228362108 -0.24337299090061551 0 -0.097628444613881649 -0.25834262822693399 0 -0.087470553331264578 -0.24262075389877999 0 -0.077955776651182085 -0.24454236002529731 0 -0.087470553331264578 -0.24262075389877999 0 -0.087928467376508473 -0.23859976953689591 0 -0.1005617376665941 -0.23997685579502359 0 -0.087928467376508473 -0.23859976953689591 0 -0.07453604668454375 -0.2421434382925548 0 -0.07383618536286593 -0.22753148747966839 0 -0.087928467376508473 -0.23859976953689591 0 -0.07453604668454375 -0.2421434382925548 0 -0.087928467376508473 -0.23859976953689591 0 -0.077955776651182085 -0.24454236002529731 0 -0.07453604668454375 -0.2421434382925548 0 -0.087470553331264578 -0.24262075389877999 0 -0.087928467376508473 -0.23859976953689591 0 -0.077955776651182085 -0.24454236002529731 0 -0.087470553331264578 -0.24262075389877999 0 -0.077955776651182085 -0.24454236002529731 0 -0.056939497423126581 -0.24878681181634871 0 -0.077955776651182085 -0.24454236002529731 0 -0.071591358857016049 -0.2429226102204386 0 -0.056939497423126581 -0.24878681181634871 0 -0.077955776651182085 -0.24454236002529731 0 -0.077955776651182085 -0.24454236002529731 0 -0.071591358857016049 -0.2429226102204386 0 -0.07453604668454375 -0.2421434382925548 0 -0.077955776651182085 -0.24454236002529731 0 -0.07453604668454375 -0.2421434382925548 0 -0.071591358857016049 -0.2429226102204386 0 -0.07453604668454375 -0.2421434382925548 0 -0.056939497423126581 -0.24878681181634871 0 -0.071591358857016049 -0.2429226102204386 0 -0.061280333386656921 -0.23284462843810469 0 -0.071591358857016049 -0.2429226102204386 0 -0.07453604668454375 -0.2421434382925548 0 -0.061280333386656921 -0.23284462843810469 0 -0.07453604668454375 -0.2421434382925548 0 -0.07383618536286593 -0.22753148747966839 0 -0.089705747521653334 -0.22362271978914661 0 -0.067682806497079445 -0.21107449474949169 0 -0.054546183461555722 -0.22015285450131489 0 -0.061280333386656921 -0.23284462843810469 0 -0.07383618536286593 -0.22753148747966839 0 -0.054546183461555722 -0.22015285450131489 0 -0.07383618536286593 -0.22753148747966839 0 -0.067682806497079445 -0.21107449474949169 0 -0.061280333386656921 -0.23284462843810469 0 -0.07453604668454375 -0.2421434382925548 0 -0.07383618536286593 -0.22753148747966839 0 -0.087928467376508473 -0.23859976953689591 0 -0.07383618536286593 -0.22753148747966839 0 -0.089705747521653334 -0.22362271978914661 0 -0.087928467376508473 -0.23859976953689591 0 -0.089705747521653334 -0.22362271978914661 0 -0.1005617376665941 -0.23997685579502359 0 -0.089705747521653334 -0.22362271978914661 0 -0.067682806497079445 -0.21107449474949169 0 -0.089705747521653334 -0.22362271978914661 0 -0.084027466008495671 -0.20735524824550181 0 -0.09921486728828334 -0.20109800384388701 0 -0.089705747521653334 -0.22362271978914661 0 -0.084027466008495671 -0.20735524824550181 0 -0.067682806497079445 -0.21107449474949169 0 -0.084027466008495671 -0.20735524824550181 0 -0.067682806497079445 -0.21107449474949169 0 -0.079506442726966622 -0.19362577459948219 0 -0.067682806497079445 -0.21107449474949169 0 -0.062708331551170268 -0.19442045911658551 0 -0.079506442726966622 -0.19362577459948219 0 -0.079506442726966622 -0.19362577459948219 0 -0.09921486728828334 -0.20109800384388701 0 -0.089369030920126963 -0.1732707743578942 0 -0.084027466008495671 -0.20735524824550181 0 -0.079506442726966622 -0.19362577459948219 0 -0.09921486728828334 -0.20109800384388701 0 -0.09921486728828334 -0.20109800384388701 0 -0.1156293974943295 -0.1822747327150937 0 -0.1210853022939376 -0.205467400633562 0 -0.1156293974943295 -0.1822747327150937 0 -0.13505851963374399 -0.18906788910329131 0 -0.09921486728828334 -0.20109800384388701 0 -0.1210853022939376 -0.205467400633562 0 -0.1156293974943295 -0.1822747327150937 0 -0.1210853022939376 -0.205467400633562 0 -0.10755849924533691 -0.2178899443088799 0 -0.11989889803527461 -0.22145143588075511 0 -0.1210853022939376 -0.205467400633562 0 -0.11989889803527461 -0.22145143588075511 0 -0.13086176299679239 -0.21746526838305219 0 -0.089705747521653334 -0.22362271978914661 0 -0.09921486728828334 -0.20109800384388701 0 -0.10755849924533691 -0.2178899443088799 0 -0.09921486728828334 -0.20109800384388701 0 -0.1210853022939376 -0.205467400633562 0 -0.10755849924533691 -0.2178899443088799 0 -0.089705747521653334 -0.22362271978914661 0 -0.11172868854622731 -0.23617094482880149 0 -0.1005617376665941 -0.23997685579502359 0 -0.089705747521653334 -0.22362271978914661 0 -0.11172868854622731 -0.23617094482880149 0 -0.089705747521653334 -0.22362271978914661 0 -0.10755849924533691 -0.2178899443088799 0 -0.11172868854622731 -0.23617094482880149 0 -0.11989889803527461 -0.22145143588075511 0 -0.11172868854622731 -0.23617094482880149 0 -0.127825895831608 -0.22987551408160201 0 -0.10755849924533691 -0.2178899443088799 0 -0.11989889803527461 -0.22145143588075511 0 -0.11172868854622731 -0.23617094482880149 0 -0.13218950310710981 -0.25272660122947088 0 -0.1218823470606431 -0.24640061544388489 0 -0.1098930818979398 -0.24798588601512411 0 -0.11172868854622731 -0.23617094482880149 0 -0.13375162957080131 -0.24871916986845621 0 -0.11172868854622731 -0.23617094482880149 0 -0.1218823470606431 -0.24640061544388489 0 -0.13375162957080131 -0.24871916986845621 0 -0.11172868854622731 -0.23617094482880149 0 -0.13375162957080131 -0.24871916986845621 0 -0.127825895831608 -0.22987551408160201 0 -0.11172868854622731 -0.23617094482880149 0 -0.1218823470606431 -0.24640061544388489 0 -0.1098930818979398 -0.24798588601512411 0 -0.097628444613881649 -0.25834262822693399 0 -0.087470553331264578 -0.24262075389877999 0 -0.1098930818979398 -0.24798588601512411 0 -0.087470553331264578 -0.24262075389877999 0 -0.1098930818979398 -0.24798588601512411 0 -0.1005617376665941 -0.23997685579502359 0 -0.087470553331264578 -0.24262075389877999 0 -0.1098930818979398 -0.24798588601512411 0 -0.11172868854622731 -0.23617094482880149 0 -0.1098930818979398 -0.24798588601512411 0 -0.1005617376665941 -0.23997685579502359 0 -0.087470553331264578 -0.24262075389877999 0 -0.1005617376665941 -0.23997685579502359 0 -0.072389231474787458 -0.1492400490994332 0 -0.089369030920126963 -0.1732707743578942 0 -0.096011965921864201 -0.14265464397282879 0 -0.077516787342341589 -0.1242022911324857 0 -0.093262550211769629 -0.1231040070079162 0 -0.096011965921864201 -0.14265464397282879 0 -0.077516787342341589 -0.1242022911324857 0 -0.072389231474787458 -0.1492400490994332 0 -0.096011965921864201 -0.14265464397282879 0 -0.077516787342341589 -0.1242022911324857 0 -0.059238207921678762 -0.13024384051707169 0 -0.072389231474787458 -0.1492400490994332 0 -0.060187329084152079 -0.17209125852752319 0 -0.072389231474787458 -0.1492400490994332 0 -0.089369030920126963 -0.1732707743578942 0 -0.060187329084152079 -0.17209125852752319 0 -0.079506442726966622 -0.19362577459948219 0 -0.089369030920126963 -0.1732707743578942 0 -0.060187329084152079 -0.17209125852752319 0 -0.062708331551170268 -0.19442045911658551 0 -0.079506442726966622 -0.19362577459948219 0 -0.089369030920126963 -0.1732707743578942 0 -0.1107512355661594 -0.16096683979900789 0 -0.096011965921864201 -0.14265464397282879 0 -0.09921486728828334 -0.20109800384388701 0 -0.089369030920126963 -0.1732707743578942 0 -0.1156293974943295 -0.1822747327150937 0 -0.089369030920126963 -0.1732707743578942 0 -0.1156293974943295 -0.1822747327150937 0 -0.1107512355661594 -0.16096683979900789 0 -0.1156293974943295 -0.1822747327150937 0 -0.13204392770037571 -0.1634514615863005 0 -0.1156293974943295 -0.1822747327150937 0 -0.1107512355661594 -0.16096683979900789 0 -0.13204392770037571 -0.1634514615863005 0 -0.1107512355661594 -0.16096683979900789 0 -0.12070185579410091 -0.1431825863629223 0 -0.13204392770037571 -0.1634514615863005 0 -0.1107512355661594 -0.16096683979900789 0 -0.12070185579410091 -0.1431825863629223 0 -0.096011965921864201 -0.14265464397282879 0 -0.1071147179002416 -0.1244919901550422 0 -0.12070185579410091 -0.1431825863629223 0 -0.096011965921864201 -0.14265464397282879 0 -0.093262550211769629 -0.1231040070079162 0 -0.1071147179002416 -0.1244919901550422 0 -0.096011965921864201 -0.14265464397282879 0 -0.1071147179002416 -0.1244919901550422 0 -0.12070185579410091 -0.1431825863629223 0 -0.1306137014228527 -0.1212095633787966 0 -0.12070185579410091 -0.1431825863629223 0 -0.14845845790642179 -0.14462819045750719 0 -0.1306137014228527 -0.1212095633787966 0 -0.14845845790642179 -0.14462819045750719 0 -0.1306137014228527 -0.1212095633787966 0 -0.15036797716661271 -0.14243845987679379 0 -0.14845845790642179 -0.14462819045750719 0 -0.1306137014228527 -0.1212095633787966 0 -0.15406265534163929 -0.1294064941378926 0 -0.15036797716661271 -0.14243845987679379 0 -0.1306137014228527 -0.1212095633787966 0 -0.15406265534163929 -0.1294064941378926 0 -0.15036797716661271 -0.14243845987679379 0 -0.1564494690737798 -0.13971242061594299 0 -0.1543278084257422 -0.1453912472931165 0 -0.14845845790642179 -0.14462819045750719 0 -0.15894149653025619 -0.15184230729274609 0 -0.15519343748037609 -0.14309809199123349 0 -0.15036797716661271 -0.14243845987679379 0 -0.1564494690737798 -0.13971242061594299 0 -0.1543278084257422 -0.1453912472931165 0 -0.15519343748037609 -0.14309809199123349 0 -0.15036797716661271 -0.14243845987679379 0 -0.1543278084257422 -0.1453912472931165 0 -0.15036797716661271 -0.14243845987679379 0 -0.14845845790642179 -0.14462819045750719 0 -0.15036797716661271 -0.14243845987679379 0 -0.14845845790642179 -0.14462819045750719 0 -0.12070185579410091 -0.1431825863629223 0 -0.14845845790642179 -0.14462819045750719 0 -0.13204392770037571 -0.1634514615863005 0 -0.14845845790642179 -0.14462819045750719 0 -0.13204392770037571 -0.1634514615863005 0 -0.13204392770037571 -0.1634514615863005 0 -0.1475860696211248 -0.17640031700015249 0 -0.13505851963374399 -0.18906788910329131 0 -0.1156293974943295 -0.1822747327150937 0 -0.13204392770037571 -0.1634514615863005 0 -0.13505851963374399 -0.18906788910329131 0 -0.1475860696211248 -0.17640031700015249 0 -0.1655722477793394 -0.1670875310098065 0 -0.15496537504316019 -0.19429807729602311 0 -0.1475860696211248 -0.17640031700015249 0 -0.13505851963374399 -0.18906788910329131 0 -0.15496537504316019 -0.19429807729602311 0 -0.1475860696211248 -0.17640031700015249 0 -0.14862352044039201 -0.16347018067920821 0 -0.1655722477793394 -0.1670875310098065 0 -0.14845845790642179 -0.14462819045750719 0 -0.13204392770037571 -0.1634514615863005 0 -0.14862352044039201 -0.16347018067920821 0 -0.14845845790642179 -0.14462819045750719 0 -0.14862352044039201 -0.16347018067920821 0 -0.1655722477793394 -0.1670875310098065 0 -0.13204392770037571 -0.1634514615863005 0 -0.1475860696211248 -0.17640031700015249 0 -0.14862352044039201 -0.16347018067920821 0 -0.1655722477793394 -0.1670875310098065 0 -0.1716614177265566 -0.15146656102038991 0 -0.1655722477793394 -0.1670875310098065 0 -0.15894149653025619 -0.15184230729274609 0 -0.1716614177265566 -0.15146656102038991 0 -0.1655722477793394 -0.1670875310098065 0 -0.17557921295501691 -0.18022020591375351 0 -0.1689483943248192 -0.19264195369377959 0 -0.1655722477793394 -0.1670875310098065 0 -0.15496537504316019 -0.19429807729602311 0 -0.1689483943248192 -0.19264195369377959 0 -0.1655722477793394 -0.1670875310098065 0 -0.15496537504316019 -0.19429807729602311 0 -0.1655722477793394 -0.1670875310098065 0 -0.17557921295501691 -0.18022020591375351 0 -0.17557921295501691 -0.18022020591375351 0 -0.18239484980351819 -0.16464781923938721 0 -0.1907059301477185 -0.18468107337543721 0 -0.1655722477793394 -0.1670875310098065 0 -0.17557921295501691 -0.18022020591375351 0 -0.18239484980351819 -0.16464781923938721 0 -0.1655722477793394 -0.1670875310098065 0 -0.18239484980351819 -0.16464781923938721 0 -0.1716614177265566 -0.15146656102038991 0 -0.18239484980351819 -0.16464781923938721 0 -0.1716614177265566 -0.15146656102038991 0 -0.1894311146879058 -0.1465309504005988 0 -0.17775058767377289 -0.13584559103097291 0 -0.1716614177265566 -0.15146656102038991 0 -0.1894311146879058 -0.1465309504005988 0 -0.17775058767377289 -0.13584559103097291 0 -0.1716614177265566 -0.15146656102038991 0 -0.17775058767377289 -0.13584559103097291 0 -0.1894311146879058 -0.1465309504005988 0 -0.17775058767377289 -0.13584559103097291 0 -0.19823449762692411 -0.13229999761030051 0 -0.18534812722118199 -0.1163550958908785 0 -0.17775058767377289 -0.13584559103097291 0 -0.18534812722118199 -0.1163550958908785 0 -0.15406265534163929 -0.1294064941378926 0 -0.16394560233522651 -0.1386698702264933 0 -0.15606779039194271 -0.1160101434681408 0 -0.17775058767377289 -0.13584559103097291 0 -0.16394560233522651 -0.1386698702264933 0 -0.15606779039194271 -0.1160101434681408 0 -0.17775058767377289 -0.13584559103097291 0 -0.15606779039194271 -0.1160101434681408 0 -0.15406265534163929 -0.1294064941378926 0 -0.16394560233522651 -0.1386698702264933 0 -0.1564494690737798 -0.13971242061594299 0 -0.16394560233522651 -0.1386698702264933 0 -0.1564494690737798 -0.13971242061594299 0 -0.15962849525536979 -0.1448502401790808 0 -0.14845845790642179 -0.14462819045750719 0 -0.1655722477793394 -0.1670875310098065 0 -0.14845845790642179 -0.14462819045750719 0 -0.1655722477793394 -0.1670875310098065 0 -0.15894149653025619 -0.15184230729274609 0 -0.15519343748037609 -0.14309809199123349 0 -0.1564494690737798 -0.13971242061594299 0 -0.15962849525536979 -0.1448502401790808 0 -0.1543278084257422 -0.1453912472931165 0 -0.15519343748037609 -0.14309809199123349 0 -0.15962849525536979 -0.1448502401790808 0 -0.1543278084257422 -0.1453912472931165 0 -0.15962849525536979 -0.1448502401790808 0 -0.15894149653025619 -0.15184230729274609 0 -0.15962849525536979 -0.1448502401790808 0 -0.15894149653025619 -0.15184230729274609 0 -0.1716614177265566 -0.15146656102038991 0 -0.17775058767377289 -0.13584559103097291 0 -0.16394560233522651 -0.1386698702264933 0 -0.1716614177265566 -0.15146656102038991 0 -0.16394560233522651 -0.1386698702264933 0 -0.15962849525536979 -0.1448502401790808 0 -0.1716614177265566 -0.15146656102038991 0 -0.1534429259631987 -0.25724555178864622 0 -0.15289321433053751 -0.246830478479277 0 -0.1378886282313006 -0.2381062402767252 0 -0.1534429259631987 -0.25724555178864622 0 -0.1378886282313006 -0.2381062402767252 0 -0.15348527020851541 -0.23913552791147211 0 -0.1378886282313006 -0.2381062402767252 0 -0.15430752157141919 -0.22794821467022949 0 -0.15289321433053751 -0.246830478479277 0 -0.15348527020851541 -0.23913552791147211 0 -0.1601832428566283 -0.24550858739866141 0 -0.15289321433053751 -0.246830478479277 0 -0.15348527020851541 -0.23913552791147211 0 -0.1378886282313006 -0.2381062402767252 0 -0.1459019403517107 -0.25564217047089421 0 -0.13375162957080131 -0.24871916986845621 0 -0.1378886282313006 -0.2381062402767252 0 -0.13375162957080131 -0.24871916986845621 0 -0.1378886282313006 -0.2381062402767252 0 -0.127825895831608 -0.22987551408160201 0 -0.13375162957080131 -0.24871916986845621 0 -0.1378886282313006 -0.2381062402767252 0 -0.13218950310710981 -0.25272660122947088 0 -0.1218823470606431 -0.24640061544388489 0 -0.13375162957080131 -0.24871916986845621 0 -0.127825895831608 -0.22987551408160201 0 -0.14435850230698141 -0.22150862358223991 0 -0.13086176299679239 -0.21746526838305219 0 -0.1378886282313006 -0.2381062402767252 0 -0.127825895831608 -0.22987551408160201 0 -0.14435850230698141 -0.22150862358223991 0 -0.11989889803527461 -0.22145143588075511 0 -0.127825895831608 -0.22987551408160201 0 -0.13086176299679239 -0.21746526838305219 0 -0.1378886282313006 -0.2381062402767252 0 -0.14435850230698141 -0.22150862358223991 0 -0.14435850230698141 -0.22150862358223991 0 -0.15430752157141919 -0.22794821467022949 0 -0.16410544360365359 -0.21493654602220469 0 -0.1378886282313006 -0.2381062402767252 0 -0.14435850230698141 -0.22150862358223991 0 -0.15430752157141919 -0.22794821467022949 0 -0.14435850230698141 -0.22150862358223991 0 -0.15496537504316019 -0.19429807729602311 0 -0.14435850230698141 -0.22150862358223991 0 -0.1373527607074172 -0.20563907323320921 0 -0.15496537504316019 -0.19429807729602311 0 -0.14435850230698141 -0.22150862358223991 0 -0.15496537504316019 -0.19429807729602311 0 -0.16410544360365359 -0.21493654602220469 0 -0.14435850230698141 -0.22150862358223991 0 -0.1373527607074172 -0.20563907323320921 0 -0.13086176299679239 -0.21746526838305219 0 -0.1210853022939376 -0.205467400633562 0 -0.1373527607074172 -0.20563907323320921 0 -0.13086176299679239 -0.21746526838305219 0 -0.1210853022939376 -0.205467400633562 0 -0.1373527607074172 -0.20563907323320921 0 -0.13505851963374399 -0.18906788910329131 0 -0.1373527607074172 -0.20563907323320921 0 -0.13505851963374399 -0.18906788910329131 0 -0.15496537504316019 -0.19429807729602311 0 -0.1689483943248192 -0.19264195369377959 0 -0.17994482166635981 -0.2014366202218163 0 -0.16410544360365359 -0.21493654602220469 0 -0.15496537504316019 -0.19429807729602311 0 -0.1689483943248192 -0.19264195369377959 0 -0.16410544360365359 -0.21493654602220469 0 -0.17557921295501691 -0.18022020591375351 0 -0.1689483943248192 -0.19264195369377959 0 -0.17994482166635981 -0.2014366202218163 0 -0.17557921295501691 -0.18022020591375351 0 -0.17994482166635981 -0.2014366202218163 0 -0.1907059301477185 -0.18468107337543721 0 -0.17994482166635981 -0.2014366202218163 0 -0.1784102433228649 -0.21681777692650089 0 -0.16410544360365359 -0.21493654602220469 0 -0.17994482166635981 -0.2014366202218163 0 -0.18904495760185211 -0.20873870471059999 0 -0.19252771524915421 -0.19930647688205899 0 -0.17994482166635981 -0.2014366202218163 0 -0.1784102433228649 -0.21681777692650089 0 -0.18904495760185211 -0.20873870471059999 0 -0.1784102433228649 -0.21681777692650089 0 -0.19175951728552271 -0.21959172261586679 0 -0.18904495760185211 -0.20873870471059999 0 -0.15430752157141919 -0.22794821467022949 0 -0.16410544360365359 -0.21493654602220469 0 -0.16877954452522659 -0.2255120540677526 0 -0.15430752157141919 -0.22794821467022949 0 -0.16877954452522659 -0.2255120540677526 0 -0.16324537569009509 -0.2357306359809743 0 -0.15348527020851541 -0.23913552791147211 0 -0.15430752157141919 -0.22794821467022949 0 -0.16324537569009509 -0.2357306359809743 0 -0.16877954452522659 -0.2255120540677526 0 -0.17781387366555559 -0.23090770197000129 0 -0.16324537569009509 -0.2357306359809743 0 -0.1784102433228649 -0.21681777692650089 0 -0.16410544360365359 -0.21493654602220469 0 -0.16877954452522659 -0.2255120540677526 0 -0.1784102433228649 -0.21681777692650089 0 -0.16877954452522659 -0.2255120540677526 0 -0.17781387366555559 -0.23090770197000129 0 -0.1784102433228649 -0.21681777692650089 0 -0.17781387366555559 -0.23090770197000129 0 -0.19175951728552271 -0.21959172261586679 0 -0.17781387366555559 -0.23090770197000129 0 -0.1805311654956796 -0.2411950136452527 0 -0.19410287643929239 -0.23312434657521411 0 -0.17781387366555559 -0.23090770197000129 0 -0.1805311654956796 -0.2411950136452527 0 -0.16955513552828311 -0.24305067226283769 0 -0.17679077873490559 -0.25046109420941731 0 -0.1805311654956796 -0.2411950136452527 0 -0.18863044441395099 -0.24733650333174401 0 -0.17679077873490559 -0.25046109420941731 0 -0.1805311654956796 -0.2411950136452527 0 -0.16955513552828311 -0.24305067226283769 0 -0.16709258238786229 -0.25188408856254202 0 -0.17679077873490559 -0.25046109420941731 0 -0.16955513552828311 -0.24305067226283769 0 -0.16709258238786229 -0.25188408856254202 0 -0.16955513552828311 -0.24305067226283769 0 -0.1601832428566283 -0.24550858739866141 0 -0.17781387366555559 -0.23090770197000129 0 -0.16955513552828311 -0.24305067226283769 0 -0.16324537569009509 -0.2357306359809743 0 -0.16955513552828311 -0.24305067226283769 0 -0.16324537569009509 -0.2357306359809743 0 -0.1601832428566283 -0.24550858739866141 0 -0.15348527020851541 -0.23913552791147211 0 -0.16324537569009509 -0.2357306359809743 0 -0.1601832428566283 -0.24550858739866141 0 -0.1593809120407062 -0.25278805690175971 0 -0.15289321433053751 -0.246830478479277 0 -0.1601832428566283 -0.24550858739866141 0 -0.20565562739327201 -0.24334207984173631 0 -0.19410287643929239 -0.23312434657521411 0 -0.21201774175915139 -0.2290986139018284 0 -0.21472073189145299 -0.25725591714607071 0 -0.20565562739327201 -0.24334207984173631 0 -0.22837296648480071 -0.23789375384220129 0 -0.20565562739327201 -0.24334207984173631 0 -0.21201774175915139 -0.2290986139018284 0 -0.22837296648480071 -0.23789375384220129 0 -0.20565562739327201 -0.24334207984173631 0 -0.18863044441395099 -0.24733650333174401 0 -0.19410287643929239 -0.23312434657521411 0 -0.1805311654956796 -0.2411950136452527 0 -0.18863044441395099 -0.24733650333174401 0 -0.19410287643929239 -0.23312434657521411 0 -0.17781387366555559 -0.23090770197000129 0 -0.19410287643929239 -0.23312434657521411 0 -0.19175951728552271 -0.21959172261586679 0 -0.19410287643929239 -0.23312434657521411 0 -0.19175951728552271 -0.21959172261586679 0 -0.20443040571370949 -0.21985141578154491 0 -0.21201774175915139 -0.2290986139018284 0 -0.20443040571370949 -0.21985141578154491 0 -0.22630383013383959 -0.21240708539258099 0 -0.19410287643929239 -0.23312434657521411 0 -0.21201774175915139 -0.2290986139018284 0 -0.20443040571370949 -0.21985141578154491 0 -0.20157622681128409 -0.2075672839719423 0 -0.21557055542943429 -0.1904257004922347 0 -0.22630383013383959 -0.21240708539258099 0 -0.20157622681128409 -0.2075672839719423 0 -0.22630383013383959 -0.21240708539258099 0 -0.20443040571370949 -0.21985141578154491 0 -0.20157622681128409 -0.2075672839719423 0 -0.22630383013383959 -0.21240708539258099 0 -0.19175951728552271 -0.21959172261586679 0 -0.20443040571370949 -0.21985141578154491 0 -0.20157622681128409 -0.2075672839719423 0 -0.19175951728552271 -0.21959172261586679 0 -0.20157622681128409 -0.2075672839719423 0 -0.19175951728552271 -0.21959172261586679 0 -0.18904495760185211 -0.20873870471059999 0 -0.20157622681128409 -0.2075672839719423 0 -0.18904495760185211 -0.20873870471059999 0 -0.20157622681128409 -0.2075672839719423 0 -0.19252771524915421 -0.19930647688205899 0 -0.17994482166635981 -0.2014366202218163 0 -0.19252771524915421 -0.19930647688205899 0 -0.1907059301477185 -0.18468107337543721 0 -0.20157622681128409 -0.2075672839719423 0 -0.19252771524915421 -0.19930647688205899 0 -0.20187756758401409 -0.19506767240709361 0 -0.19252771524915421 -0.19930647688205899 0 -0.20187756758401409 -0.19506767240709361 0 -0.1907059301477185 -0.18468107337543721 0 -0.20157622681128409 -0.2075672839719423 0 -0.21557055542943429 -0.1904257004922347 0 -0.20187756758401409 -0.19506767240709361 0 -0.21557055542943429 -0.1904257004922347 0 -0.2038146335316797 -0.1820121315948606 0 -0.20157622681128409 -0.2075672839719423 0 -0.20187756758401409 -0.19506767240709361 0 -0.21557055542943429 -0.1904257004922347 0 -0.21557055542943429 -0.1904257004922347 0 -0.23533053747689989 -0.1962925907305976 0 -0.22630383013383959 -0.21240708539258099 0 -0.23533053747689989 -0.1962925907305976 0 -0.25103143345639523 -0.21724688681321891 0 -0.25418198431724581 -0.18809916394242601 0 -0.22630383013383959 -0.21240708539258099 0 -0.25103143345639523 -0.21724688681321891 0 -0.23533053747689989 -0.1962925907305976 0 -0.22630383013383959 -0.21240708539258099 0 -0.25103143345639523 -0.21724688681321891 0 -0.21201774175915139 -0.2290986139018284 0 -0.22630383013383959 -0.21240708539258099 0 -0.22837296648480071 -0.23789375384220129 0 -0.22630383013383959 -0.21240708539258099 0 -0.22837296648480071 -0.23789375384220129 0 -0.25103143345639523 -0.21724688681321891 0 -0.22837296648480071 -0.23789375384220129 0 -0.25431856302814809 -0.24833495949118861 0 -0.25103143345639523 -0.21724688681321891 0 -0.2335542019388327 -0.26090262277066528 0 -0.22837296648480071 -0.23789375384220129 0 -0.25431856302814809 -0.24833495949118861 0 -0.20708483324238849 -0.15128624944667929 0 -0.22647357207813959 -0.15205360930679629 0 -0.2195633859389316 -0.1340578990397249 0 -0.20708483324238849 -0.15128624944667929 0 -0.19823449762692411 -0.13229999761030051 0 -0.2195633859389316 -0.1340578990397249 0 -0.19823449762692411 -0.13229999761030051 0 -0.2195633859389316 -0.1340578990397249 0 -0.21022893699736381 -0.1097241998529486 0 -0.17775058767377289 -0.13584559103097291 0 -0.19823449762692411 -0.13229999761030051 0 -0.1894311146879058 -0.1465309504005988 0 -0.20708483324238849 -0.15128624944667929 0 -0.1894311146879058 -0.1465309504005988 0 -0.19351686899232889 -0.15854259719770419 0 -0.20708483324238849 -0.15128624944667929 0 -0.19823449762692411 -0.13229999761030051 0 -0.1894311146879058 -0.1465309504005988 0 -0.20708483324238849 -0.15128624944667929 0 -0.19351686899232889 -0.15854259719770419 0 -0.19880271024428661 -0.17007658736909009 0 -0.18239484980351819 -0.16464781923938721 0 -0.1894311146879058 -0.1465309504005988 0 -0.19351686899232889 -0.15854259719770419 0 -0.18239484980351819 -0.16464781923938721 0 -0.19351686899232889 -0.15854259719770419 0 -0.19880271024428661 -0.17007658736909009 0 -0.18239484980351819 -0.16464781923938721 0 -0.19880271024428661 -0.17007658736909009 0 -0.1907059301477185 -0.18468107337543721 0 -0.19880271024428661 -0.17007658736909009 0 -0.1907059301477185 -0.18468107337543721 0 -0.2038146335316797 -0.1820121315948606 0 -0.20187756758401409 -0.19506767240709361 0 -0.1907059301477185 -0.18468107337543721 0 -0.2038146335316797 -0.1820121315948606 0 -0.21557055542943429 -0.1904257004922347 0 -0.2038146335316797 -0.1820121315948606 0 -0.21355186476225221 -0.16985639920369799 0 -0.19880271024428661 -0.17007658736909009 0 -0.2038146335316797 -0.1820121315948606 0 -0.21355186476225221 -0.16985639920369799 0 -0.20708483324238849 -0.15128624944667929 0 -0.21355186476225221 -0.16985639920369799 0 -0.22647357207813959 -0.15205360930679629 0 -0.20708483324238849 -0.15128624944667929 0 -0.19880271024428661 -0.17007658736909009 0 -0.21355186476225221 -0.16985639920369799 0 -0.22956488404758479 -0.1732841170125273 0 -0.2435592126657353 -0.1561425335328199 0 -0.22647357207813959 -0.15205360930679629 0 -0.21355186476225221 -0.16985639920369799 0 -0.22956488404758479 -0.1732841170125273 0 -0.22647357207813959 -0.15205360930679629 0 -0.21557055542943429 -0.1904257004922347 0 -0.21355186476225221 -0.16985639920369799 0 -0.22956488404758479 -0.1732841170125273 0 -0.21557055542943429 -0.1904257004922347 0 -0.22956488404758479 -0.1732841170125273 0 -0.21557055542943429 -0.1904257004922347 0 -0.23533053747689989 -0.1962925907305976 0 -0.22956488404758479 -0.1732841170125273 0 -0.23533053747689989 -0.1962925907305976 0 -0.22956488404758479 -0.1732841170125273 0 -0.25418198431724581 -0.18809916394242601 0 -0.22956488404758479 -0.1732841170125273 0 -0.25418198431724581 -0.18809916394242601 0 -0.2565438833259911 -0.1687602707777138 0 -0.22956488404758479 -0.1732841170125273 0 -0.2435592126657353 -0.1561425335328199 0 -0.22956488404758479 -0.1732841170125273 0 -0.2435592126657353 -0.1561425335328199 0 -0.2565438833259911 -0.1687602707777138 0 -0.2435592126657353 -0.1561425335328199 0 -0.22647357207813959 -0.15205360930679629 0 -0.2432602079730701 -0.13485583854350039 0 -0.22647357207813959 -0.15205360930679629 0 -0.2195633859389316 -0.1340578990397249 0 -0.2432602079730701 -0.13485583854350039 0 -0.2195633859389316 -0.1340578990397249 0 -0.2432602079730701 -0.13485583854350039 0 -0.23065476516460279 -0.11957242830579699 0 -0.2432602079730701 -0.13485583854350039 0 -0.2499653418643101 -0.1102460646797562 0 -0.23065476516460279 -0.11957242830579699 0 -0.2499653418643101 -0.1102460646797562 0 -0.2308399038819596 -0.1034577205422559 0 -0.23065476516460279 -0.11957242830579699 0 -0.2308399038819596 -0.1034577205422559 0 -0.25308440776240432 -0.086371671251396109 0 -0.2499653418643101 -0.1102460646797562 0 -0.2308399038819596 -0.1034577205422559 0 -0.25308440776240432 -0.086371671251396109 0 -0.2308399038819596 -0.1034577205422559 0 -0.21022893699736381 -0.1097241998529486 0 -0.21520721362926831 -0.098298511723915558 0 -0.2308399038819596 -0.1034577205422559 0 -0.22013457808717909 -0.089221868029860679 0 -0.21520721362926831 -0.098298511723915558 0 -0.2308399038819596 -0.1034577205422559 0 -0.23065476516460279 -0.11957242830579699 0 -0.21022893699736381 -0.1097241998529486 0 -0.2195633859389316 -0.1340578990397249 0 -0.23065476516460279 -0.11957242830579699 0 -0.21022893699736381 -0.1097241998529486 0 -0.2335598957907816 -0.079883889973887123 0 -0.24475965461883589 -0.059498385283178377 0 -0.2582325144520296 -0.070050845257802419 0 -0.2335598957907816 -0.079883889973887123 0 -0.2582325144520296 -0.070050845257802419 0 -0.25308440776240432 -0.086371671251396109 0 -0.2308399038819596 -0.1034577205422559 0 -0.2335598957907816 -0.079883889973887123 0 -0.25308440776240432 -0.086371671251396109 0 -0.2308399038819596 -0.1034577205422559 0 -0.22013457808717909 -0.089221868029860679 0 -0.2335598957907816 -0.079883889973887123 0 -0.22013457808717909 -0.089221868029860679 0 -0.2335598957907816 -0.079883889973887123 0 -0.21963876375789801 -0.077814354495200549 0 -0.2335598957907816 -0.079883889973887123 0 -0.21595644614104051 -0.065738508165203102 0 -0.24475965461883589 -0.059498385283178377 0 -0.21595644614104051 -0.065738508165203102 0 -0.24475965461883589 -0.059498385283178377 0 -0.2335598957907816 -0.079883889973887123 0 -0.21963876375789801 -0.077814354495200549 0 -0.21595644614104051 -0.065738508165203102 0 -0.20438945881064449 -0.068244458930106389 0 -0.21100771399754009 -0.086966924160961745 0 -0.21595644614104051 -0.065738508165203102 0 -0.21100771399754009 -0.086966924160961745 0 -0.20438945881064449 -0.068244458930106389 0 -0.21595644614104051 -0.065738508165203102 0 -0.21100771399754009 -0.086966924160961745 0 -0.21963876375789801 -0.077814354495200549 0 -0.21595644614104051 -0.065738508165203102 0 -0.21100771399754009 -0.086966924160961745 0 -0.20438945881064449 -0.068244458930106389 0 -0.21595644614104051 -0.065738508165203102 0 -0.20438945881064449 -0.068244458930106389 0 -0.21595644614104051 -0.065738508165203102 0 -0.20711132549122371 -0.057203435059411119 0 -0.20438945881064449 -0.068244458930106389 0 -0.21100771399754009 -0.086966924160961745 0 -0.19851231957361129 -0.085310821531315487 0 -0.22013457808717909 -0.089221868029860679 0 -0.21963876375789801 -0.077814354495200549 0 -0.21100771399754009 -0.086966924160961745 0 -0.22013457808717909 -0.089221868029860679 0 -0.21100771399754009 -0.086966924160961745 0 -0.21520721362926831 -0.098298511723915558 0 -0.21100771399754009 -0.086966924160961745 0 -0.19851231957361129 -0.085310821531315487 0 -0.20550431009004061 -0.095676697317907802 0 -0.21100771399754009 -0.086966924160961745 0 -0.21520721362926831 -0.098298511723915558 0 -0.20550431009004061 -0.095676697317907802 0 -0.19851231957361129 -0.085310821531315487 0 -0.18118326058104209 -0.08825419183970401 0 -0.18409944718507371 -0.07264022497537044 0 -0.19851231957361129 -0.085310821531315487 0 -0.19294566676858971 -0.096864600750783431 0 -0.18118326058104209 -0.08825419183970401 0 -0.19851231957361129 -0.085310821531315487 0 -0.20550431009004061 -0.095676697317907802 0 -0.19294566676858971 -0.096864600750783431 0 -0.20438945881064449 -0.068244458930106389 0 -0.19851231957361129 -0.085310821531315487 0 -0.18409944718507371 -0.07264022497537044 0 -0.20438945881064449 -0.068244458930106389 0 -0.18409944718507371 -0.07264022497537044 0 -0.18769526278089041 -0.057829612445021099 0 -0.20438945881064449 -0.068244458930106389 0 -0.18409944718507371 -0.07264022497537044 0 -0.21022893699736381 -0.1097241998529486 0 -0.21520721362926831 -0.098298511723915558 0 -0.20550431009004061 -0.095676697317907802 0 -0.21022893699736381 -0.1097241998529486 0 -0.20550431009004061 -0.095676697317907802 0 -0.19294566676858971 -0.096864600750783431 0 -0.19294566676858971 -0.096864600750783431 0 -0.18534812722118199 -0.1163550958908785 0 -0.21022893699736381 -0.1097241998529486 0 -0.19294566676858971 -0.096864600750783431 0 -0.18534812722118199 -0.1163550958908785 0 -0.19823449762692411 -0.13229999761030051 0 -0.21022893699736381 -0.1097241998529486 0 -0.18534812722118199 -0.1163550958908785 0 -0.18534812722118199 -0.1163550958908785 0 -0.17423934197139679 -0.1017815859784342 0 -0.15606779039194271 -0.1160101434681408 0 -0.17775058767377289 -0.13584559103097291 0 -0.18534812722118199 -0.1163550958908785 0 -0.15606779039194271 -0.1160101434681408 0 -0.16057304666404501 -0.10079887419961479 0 -0.17423934197139679 -0.1017815859784342 0 -0.15606779039194271 -0.1160101434681408 0 -0.16057304666404501 -0.10079887419961479 0 -0.16746185343044401 -0.091445336260546128 0 -0.1570966781871318 -0.090327755750333361 0 -0.16057304666404501 -0.10079887419961479 0 -0.17423934197139679 -0.1017815859784342 0 -0.16746185343044401 -0.091445336260546128 0 -0.17423934197139679 -0.1017815859784342 0 -0.18118326058104209 -0.08825419183970401 0 -0.16746185343044401 -0.091445336260546128 0 -0.19294566676858971 -0.096864600750783431 0 -0.18534812722118199 -0.1163550958908785 0 -0.17423934197139679 -0.1017815859784342 0 -0.19294566676858971 -0.096864600750783431 0 -0.17423934197139679 -0.1017815859784342 0 -0.18118326058104209 -0.08825419183970401 0 -0.18118326058104209 -0.08825419183970401 0 -0.18409944718507371 -0.07264022497537044 0 -0.16915717098214109 -0.081397787743409861 0 -0.18118326058104209 -0.08825419183970401 0 -0.16746185343044401 -0.091445336260546128 0 -0.16915717098214109 -0.081397787743409861 0 -0.18409944718507371 -0.07264022497537044 0 -0.1702117591297739 -0.06777753321031553 0 -0.16380943555950259 -0.077035991020633382 0 -0.18409944718507371 -0.07264022497537044 0 -0.16380943555950259 -0.077035991020633382 0 -0.16915717098214109 -0.081397787743409861 0 -0.18409944718507371 -0.07264022497537044 0 -0.17187825396406881 -0.057945450019426657 0 -0.18769526278089041 -0.057829612445021099 0 -0.18409944718507371 -0.07264022497537044 0 -0.16380943555950259 -0.077035991020633382 0 -0.18409944718507371 -0.07264022497537044 0 -0.1702117591297739 -0.06777753321031553 0 -0.17187825396406881 -0.057945450019426657 0 -0.16380943555950259 -0.077035991020633382 0 -0.16105989981045041 -0.063488466825831633 0 -0.14595160177326619 -0.062470528310013429 0 -0.1702117591297739 -0.06777753321031553 0 -0.16105989981045041 -0.063488466825831633 0 -0.17187825396406881 -0.057945450019426657 0 -0.1702117591297739 -0.06777753321031553 0 -0.16380943555950259 -0.077035991020633382 0 -0.16105989981045041 -0.063488466825831633 0 -0.16380943555950259 -0.077035991020633382 0 -0.16109871639751261 -0.084134952385501949 0 -0.14796844382834351 -0.080467891152587012 0 -0.16746185343044401 -0.091445336260546128 0 -0.16915717098214109 -0.081397787743409861 0 -0.16109871639751261 -0.084134952385501949 0 -0.16380943555950259 -0.077035991020633382 0 -0.16915717098214109 -0.081397787743409861 0 -0.16109871639751261 -0.084134952385501949 0 -0.16380943555950259 -0.077035991020633382 0 -0.16915717098214109 -0.081397787743409861 0 -0.16746185343044401 -0.091445336260546128 0 -0.16109871639751261 -0.084134952385501949 0 -0.1570966781871318 -0.090327755750333361 0 -0.16380943555950259 -0.077035991020633382 0 -0.14796844382834351 -0.080467891152587012 0 -0.14796844382834351 -0.080467891152587012 0 -0.13497135686491851 -0.078315161523928284 0 -0.1484932433812913 -0.094043062253026791 0 -0.1570966781871318 -0.090327755750333361 0 -0.14796844382834351 -0.080467891152587012 0 -0.1484932433812913 -0.094043062253026791 0 -0.16109871639751261 -0.084134952385501949 0 -0.1570966781871318 -0.090327755750333361 0 -0.14796844382834351 -0.080467891152587012 0 -0.16380943555950259 -0.077035991020633382 0 -0.14796844382834351 -0.080467891152587012 0 -0.14595160177326619 -0.062470528310013429 0 -0.16380943555950259 -0.077035991020633382 0 -0.14595160177326619 -0.062470528310013429 0 -0.14796844382834351 -0.080467891152587012 0 -0.13497135686491851 -0.078315161523928284 0 -0.14595160177326619 -0.062470528310013429 0 -0.1158705629695205 -0.060236298698018297 0 -0.13497135686491851 -0.078315161523928284 0 -0.1158705629695205 -0.060236298698018297 0 -0.13497135686491851 -0.078315161523928284 0 -0.13122182239868371 -0.062231763532838429 0 -0.13497135686491851 -0.078315161523928284 0 -0.13122182239868371 -0.062231763532838429 0 -0.14595160177326619 -0.062470528310013429 0 -0.112702195828283 -0.076339248342475546 0 -0.13497135686491851 -0.078315161523928284 0 -0.13438499311011279 -0.096174695905308166 0 -0.13497135686491851 -0.078315161523928284 0 -0.13438499311011279 -0.096174695905308166 0 -0.1484932433812913 -0.094043062253026791 0 -0.11276894493928399 -0.097790936300085646 0 -0.13438499311011279 -0.096174695905308166 0 -0.1306137014228527 -0.1212095633787966 0 -0.13438499311011279 -0.096174695905308166 0 -0.1306137014228527 -0.1212095633787966 0 -0.15606779039194271 -0.1160101434681408 0 -0.15406265534163929 -0.1294064941378926 0 -0.1306137014228527 -0.1212095633787966 0 -0.15606779039194271 -0.1160101434681408 0 -0.13438499311011279 -0.096174695905308166 0 -0.15606779039194271 -0.1160101434681408 0 -0.1484932433812913 -0.094043062253026791 0 -0.16057304666404501 -0.10079887419961479 0 -0.15606779039194271 -0.1160101434681408 0 -0.1484932433812913 -0.094043062253026791 0 -0.13438499311011279 -0.096174695905308166 0 -0.15606779039194271 -0.1160101434681408 0 -0.16057304666404501 -0.10079887419961479 0 -0.1570966781871318 -0.090327755750333361 0 -0.1484932433812913 -0.094043062253026791 0 -0.14513665439653431 -0.02122229521611602 0 -0.15148395360685291 -0.031475856168514699 0 -0.16129500549156001 -0.024264335985147129 0 -0.14513665439653431 -0.02122229521611602 0 -0.1346415055917565 -0.031432898451717602 0 -0.15148395360685291 -0.031475856168514699 0 -0.14513665439653431 -0.02122229521611602 0 -0.15327979458335059 -0.01391829646419882 0 -0.16129500549156001 -0.024264335985147129 0 -0.1412848112475209 -0.008091449167619497 0 -0.15773416148281841 -0.0035868741371463562 0 -0.14801408494475049 0.0031182785745780331 0 -0.15327979458335059 -0.01391829646419882 0 -0.1412848112475209 -0.008091449167619497 0 -0.15773416148281841 -0.0035868741371463562 0 -0.14513665439653431 -0.02122229521611602 0 -0.15327979458335059 -0.01391829646419882 0 -0.1412848112475209 -0.008091449167619497 0 -0.1236693299605585 -0.0137973575501921 0 -0.1412848112475209 -0.008091449167619497 0 -0.12735709500343681 0.004015926865657337 0 -0.1412848112475209 -0.008091449167619497 0 -0.12735709500343681 0.004015926865657337 0 -0.14801408494475049 0.0031182785745780331 0 -0.1236693299605585 -0.0137973575501921 0 -0.1412848112475209 -0.008091449167619497 0 -0.13426109495296229 -0.02049569832685658 0 -0.1236693299605585 -0.0137973575501921 0 -0.1221370268088495 -0.025998648103035 0 -0.13426109495296229 -0.02049569832685658 0 -0.14513665439653431 -0.02122229521611602 0 -0.1412848112475209 -0.008091449167619497 0 -0.13426109495296229 -0.02049569832685658 0 -0.14513665439653431 -0.02122229521611602 0 -0.13426109495296229 -0.02049569832685658 0 -0.1346415055917565 -0.031432898451717602 0 -0.1221370268088495 -0.025998648103035 0 -0.12530131535501859 -0.034952786400489197 0 -0.1346415055917565 -0.031432898451717602 0 -0.1221370268088495 -0.025998648103035 0 -0.13426109495296229 -0.02049569832685658 0 -0.1346415055917565 -0.031432898451717602 0 -0.12530131535501859 -0.034952786400489197 0 -0.1346415055917565 -0.031432898451717602 0 -0.12809376798702951 -0.047905065599393698 0 -0.1346415055917565 -0.031432898451717602 0 -0.12809376798702951 -0.047905065599393698 0 -0.14629371500633531 -0.042796653234188263 0 -0.12809376798702951 -0.047905065599393698 0 -0.14595160177326619 -0.062470528310013429 0 -0.12809376798702951 -0.047905065599393698 0 -0.14595160177326619 -0.062470528310013429 0 -0.14629371500633531 -0.042796653234188263 0 -0.13122182239868371 -0.062231763532838429 0 -0.12809376798702951 -0.047905065599393698 0 -0.14595160177326619 -0.062470528310013429 0 -0.1158705629695205 -0.060236298698018297 0 -0.13122182239868371 -0.062231763532838429 0 -0.12809376798702951 -0.047905065599393698 0 -0.14595160177326619 -0.062470528310013429 0 -0.14629371500633531 -0.042796653234188263 0 -0.15696853651444401 -0.052603520026387289 0 -0.16105989981045041 -0.063488466825831633 0 -0.14595160177326619 -0.062470528310013429 0 -0.15696853651444401 -0.052603520026387289 0 -0.15148395360685291 -0.031475856168514699 0 -0.14629371500633531 -0.042796653234188263 0 -0.16402488563849801 -0.041062174760887443 0 -0.1346415055917565 -0.031432898451717602 0 -0.15148395360685291 -0.031475856168514699 0 -0.14629371500633531 -0.042796653234188263 0 -0.14629371500633531 -0.042796653234188263 0 -0.16402488563849801 -0.041062174760887443 0 -0.15696853651444401 -0.052603520026387289 0 -0.15148395360685291 -0.031475856168514699 0 -0.16402488563849801 -0.041062174760887443 0 -0.16129500549156001 -0.024264335985147129 0 -0.16402488563849801 -0.041062174760887443 0 -0.17409393016306191 -0.030370879776367592 0 -0.16129500549156001 -0.024264335985147129 0 -0.16402488563849801 -0.041062174760887443 0 -0.15696853651444401 -0.052603520026387289 0 -0.17187825396406881 -0.057945450019426657 0 -0.16105989981045041 -0.063488466825831633 0 -0.15696853651444401 -0.052603520026387289 0 -0.17187825396406881 -0.057945450019426657 0 -0.16402488563849801 -0.041062174760887443 0 -0.17187825396406881 -0.057945450019426657 0 -0.18133558272394029 -0.043618149437272283 0 -0.17187825396406881 -0.057945450019426657 0 -0.18133558272394029 -0.043618149437272283 0 -0.18769526278089041 -0.057829612445021099 0 -0.18133558272394029 -0.043618149437272283 0 -0.17409393016306191 -0.030370879776367592 0 -0.18915768363079971 -0.025155098795753519 0 -0.16402488563849801 -0.041062174760887443 0 -0.18133558272394029 -0.043618149437272283 0 -0.17409393016306191 -0.030370879776367592 0 -0.17409393016306191 -0.030370879776367592 0 -0.17549551533112251 -0.014893414490097231 0 -0.18915768363079971 -0.025155098795753519 0 -0.16129500549156001 -0.024264335985147129 0 -0.16350931143073591 -0.01273440345064396 0 -0.17549551533112251 -0.014893414490097231 0 -0.17409393016306191 -0.030370879776367592 0 -0.16129500549156001 -0.024264335985147129 0 -0.17549551533112251 -0.014893414490097231 0 -0.15327979458335059 -0.01391829646419882 0 -0.16129500549156001 -0.024264335985147129 0 -0.16350931143073591 -0.01273440345064396 0 -0.15773416148281841 -0.0035868741371463562 0 -0.16716832075785379 -0.0032078365625175 0 -0.1619193683370386 0.0066468078375689294 0 -0.15773416148281841 -0.0035868741371463562 0 -0.16350931143073591 -0.01273440345064396 0 -0.16716832075785379 -0.0032078365625175 0 -0.15327979458335059 -0.01391829646419882 0 -0.15773416148281841 -0.0035868741371463562 0 -0.16350931143073591 -0.01273440345064396 0 -0.16350931143073591 -0.01273440345064396 0 -0.16716832075785379 -0.0032078365625175 0 -0.17549551533112251 -0.014893414490097231 0 -0.17549551533112251 -0.014893414490097231 0 -0.18154179604087481 -0.0036104187285780349 0 -0.18915768363079971 -0.025155098795753519 0 -0.18154179604087481 -0.0036104187285780349 0 -0.18915768363079971 -0.025155098795753519 0 -0.17549551533112251 -0.014893414490097231 0 -0.17584419881677341 0.0071523107965592754 0 -0.17549551533112251 -0.014893414490097231 0 -0.18154179604087481 -0.0036104187285780349 0 -0.17584419881677341 0.0071523107965592754 0 -0.16716832075785379 -0.0032078365625175 0 -0.17549551533112251 -0.014893414490097231 0 -0.17584419881677341 0.0071523107965592754 0 -0.18154179604087481 -0.0036104187285780349 0 -0.19066530249761049 -0.0041303576494283751 0 -0.18915768363079971 -0.025155098795753519 0 -0.18154179604087481 -0.0036104187285780349 0 -0.19066530249761049 -0.0041303576494283751 0 -0.18717715497560061 0.0062623078557712403 0 -0.19066530249761049 -0.0041303576494283751 0 -0.1989264366345522 -0.0080023544535597537 0 -0.18915768363079971 -0.025155098795753519 0 -0.19066530249761049 -0.0041303576494283751 0 -0.1989264366345522 -0.0080023544535597537 0 -0.1965234412062255 0.0098537758749781944 0 -0.1989264366345522 -0.0080023544535597537 0 -0.2007918169376324 -0.0191738513677071 0 -0.20680177871376751 -0.0119671669755851 0 -0.18915768363079971 -0.025155098795753519 0 -0.2007918169376324 -0.0191738513677071 0 -0.21013076049929519 -0.028334228638799381 0 -0.1989264366345522 -0.0080023544535597537 0 -0.18915768363079971 -0.025155098795753519 0 -0.2007918169376324 -0.0191738513677071 0 -0.2007918169376324 -0.0191738513677071 0 -0.21013076049929519 -0.028334228638799381 0 -0.20680177871376751 -0.0119671669755851 0 -0.21013076049929519 -0.028334228638799381 0 -0.21702438745170211 -0.0043907958627755336 0 -0.21921501925093501 -0.017985606360015789 0 -0.21013076049929519 -0.028334228638799381 0 -0.21702438745170211 -0.0043907958627755336 0 -0.21013076049929519 -0.028334228638799381 0 -0.22271521407306469 -0.037269361340154371 0 -0.21921501925093501 -0.017985606360015789 0 -0.21013076049929519 -0.028334228638799381 0 -0.21702438745170211 -0.0043907958627755336 0 -0.20680177871376751 -0.0119671669755851 0 -0.1989264366345522 -0.0080023544535597537 0 -0.20680177871376751 -0.0119671669755851 0 -0.20713549204565579 6.5395444916274768e-05 0 -0.21702438745170211 -0.0043907958627755336 0 -0.20680177871376751 -0.0119671669755851 0 -0.20713549204565579 6.5395444916274768e-05 0 -0.20438945881064449 -0.068244458930106389 0 -0.1967735712207245 -0.046699778862929052 0 -0.20438945881064449 -0.068244458930106389 0 -0.18769526278089041 -0.057829612445021099 0 -0.1967735712207245 -0.046699778862929052 0 -0.20438945881064449 -0.068244458930106389 0 -0.1967735712207245 -0.046699778862929052 0 -0.20711132549122371 -0.057203435059411119 0 -0.18133558272394029 -0.043618149437272283 0 -0.18769526278089041 -0.057829612445021099 0 -0.1967735712207245 -0.046699778862929052 0 -0.18133558272394029 -0.043618149437272283 0 -0.18915768363079971 -0.025155098795753519 0 -0.1967735712207245 -0.046699778862929052 0 -0.18915768363079971 -0.025155098795753519 0 -0.1967735712207245 -0.046699778862929052 0 -0.18915768363079971 -0.025155098795753519 0 -0.21013076049929519 -0.028334228638799381 0 -0.1967735712207245 -0.046699778862929052 0 -0.21013076049929519 -0.028334228638799381 0 -0.21132582579248671 -0.048130994279405613 0 -0.22271521407306469 -0.037269361340154371 0 -0.21013076049929519 -0.028334228638799381 0 -0.1967735712207245 -0.046699778862929052 0 -0.21132582579248671 -0.048130994279405613 0 -0.21595644614104051 -0.065738508165203102 0 -0.21132582579248671 -0.048130994279405613 0 -0.22271521407306469 -0.037269361340154371 0 -0.21595644614104051 -0.065738508165203102 0 -0.21132582579248671 -0.048130994279405613 0 -0.20711132549122371 -0.057203435059411119 0 -0.1967735712207245 -0.046699778862929052 0 -0.21132582579248671 -0.048130994279405613 0 -0.20711132549122371 -0.057203435059411119 0 -0.21595644614104051 -0.065738508165203102 0 -0.2284172135094342 -0.053659916570315727 0 -0.24475965461883589 -0.059498385283178377 0 -0.21595644614104051 -0.065738508165203102 0 -0.2284172135094342 -0.053659916570315727 0 -0.22271521407306469 -0.037269361340154371 0 -0.21595644614104051 -0.065738508165203102 0 -0.22271521407306469 -0.037269361340154371 0 -0.2284172135094342 -0.053659916570315727 0 -0.22271521407306469 -0.037269361340154371 0 -0.23903543051913109 -0.043198085603962481 0 -0.22271521407306469 -0.037269361340154371 0 -0.23903543051913109 -0.043198085603962481 0 -0.24161885061771041 -0.026720350447010301 0 -0.23903543051913109 -0.043198085603962481 0 -0.24161885061771041 -0.026720350447010301 0 -0.25766621977661042 -0.038842414379153638 0 -0.23903543051913109 -0.043198085603962481 0 -0.24475965461883589 -0.059498385283178377 0 -0.25766621977661042 -0.038842414379153638 0 -0.2284172135094342 -0.053659916570315727 0 -0.23903543051913109 -0.043198085603962481 0 -0.24475965461883589 -0.059498385283178377 0 -0.22947398200509031 -0.0088002145151058891 0 -0.22867745033346079 0.0038692188645070222 0 -0.2401015516947359 0.00075261550232862703 0 -0.21702438745170211 -0.0043907958627755336 0 -0.22947398200509031 -0.0088002145151058891 0 -0.22867745033346079 0.0038692188645070222 0 -0.21702438745170211 -0.0043907958627755336 0 -0.22947398200509031 -0.0088002145151058891 0 -0.21921501925093501 -0.017985606360015789 0 -0.22271521407306469 -0.037269361340154371 0 -0.22947398200509031 -0.0088002145151058891 0 -0.21921501925093501 -0.017985606360015789 0 -0.22271521407306469 -0.037269361340154371 0 -0.22947398200509031 -0.0088002145151058891 0 -0.22271521407306469 -0.037269361340154371 0 -0.22947398200509031 -0.0088002145151058891 0 -0.24161885061771041 -0.026720350447010301 0 -0.22947398200509031 -0.0088002145151058891 0 -0.24161885061771041 -0.026720350447010301 0 -0.2437457614006571 -0.011962382738850049 0 -0.24161885061771041 -0.026720350447010301 0 -0.2437457614006571 -0.011962382738850049 0 -0.2598032925822476 -0.0188915667982569 0 -0.22947398200509031 -0.0088002145151058891 0 -0.2437457614006571 -0.011962382738850049 0 -0.2401015516947359 0.00075261550232862703 0 -0.2437457614006571 -0.011962382738850049 0 -0.25267499080189931 -0.0034516002120552492 0 -0.2401015516947359 0.00075261550232862703 0 -0.25267499080189931 -0.0034516002120552492 0 -0.2598032925822476 -0.0188915667982569 0 -0.26909988492935111 -0.0018655285383734981 0 -0.2437457614006571 -0.011962382738850049 0 -0.25267499080189931 -0.0034516002120552492 0 -0.2598032925822476 -0.0188915667982569 0 -0.2598032925822476 -0.0188915667982569 0 -0.27267419604841259 -0.026924212746328481 0 -0.25766621977661042 -0.038842414379153638 0 -0.24161885061771041 -0.026720350447010301 0 -0.2598032925822476 -0.0188915667982569 0 -0.25766621977661042 -0.038842414379153638 0 -0.2598032925822476 -0.0188915667982569 0 -0.27267419604841259 -0.026924212746328481 0 -0.27804425228895369 -0.016131696666228459 0 -0.27267419604841259 -0.026924212746328481 0 -0.27804425228895369 -0.016131696666228459 0 -0.28378415359151371 -0.031280105512012511 0 -0.27804425228895369 -0.016131696666228459 0 -0.26909988492935111 -0.0018655285383734981 0 -0.2917254884257266 -0.0017566381736345419 0 -0.2598032925822476 -0.0188915667982569 0 -0.27804425228895369 -0.016131696666228459 0 -0.26909988492935111 -0.0018655285383734981 0 -0.27804425228895369 -0.016131696666228459 0 -0.2917254884257266 -0.0017566381736345419 0 -0.2928870998243559 -0.020527937726781 0 -0.27804425228895369 -0.016131696666228459 0 -0.2928870998243559 -0.020527937726781 0 -0.28378415359151371 -0.031280105512012511 0 -0.2928870998243559 -0.020527937726781 0 -0.29943422057661201 -0.032203920876667472 0 -0.28378415359151371 -0.031280105512012511 0 -0.2928870998243559 -0.020527937726781 0 -0.31144738423897378 -0.02126732740536201 0 -0.29943422057661201 -0.032203920876667472 0 -0.31144738423897378 -0.02126732740536201 0 -0.31110423911055801 -0.035316851109560482 0 -0.29943422057661201 -0.032203920876667472 0 -0.2917254884257266 -0.0017566381736345419 0 -0.31144738423897378 -0.02126732740536201 0 -0.31177688145040278 0.0050359958776742568 0 -0.2917254884257266 -0.0017566381736345419 0 -0.2928870998243559 -0.020527937726781 0 -0.31144738423897378 -0.02126732740536201 0 -0.2917254884257266 -0.0017566381736345419 0 -0.31144738423897378 -0.02126732740536201 0 -0.30323190850646392 -0.052883144282766713 0 -0.3023660715744253 -0.047018139519123002 0 -0.29757341552329353 -0.05219957266967655 0 -0.29931176789370939 -0.061629941742321552 0 -0.30659897303184058 -0.057135789817405573 0 -0.30728911182784302 -0.064893595009923935 0 -0.30323190850646392 -0.052883144282766713 0 -0.29931176789370939 -0.061629941742321552 0 -0.30659897303184058 -0.057135789817405573 0 -0.30323190850646392 -0.052883144282766713 0 -0.29757341552329353 -0.05219957266967655 0 -0.29931176789370939 -0.061629941742321552 0 -0.30659897303184058 -0.057135789817405573 0 -0.30728911182784302 -0.064893595009923935 0 -0.31405483352543062 -0.056831087900065053 0 -0.30323190850646392 -0.052883144282766713 0 -0.3023660715744253 -0.047018139519123002 0 -0.31025625293594222 -0.050033124508212908 0 -0.30659897303184058 -0.057135789817405573 0 -0.31025625293594222 -0.050033124508212908 0 -0.31405483352543062 -0.056831087900065053 0 -0.30323190850646392 -0.052883144282766713 0 -0.30659897303184058 -0.057135789817405573 0 -0.31025625293594222 -0.050033124508212908 0 -0.3023660715744253 -0.047018139519123002 0 -0.31110423911055801 -0.035316851109560482 0 -0.29943422057661201 -0.032203920876667472 0 -0.3023660715744253 -0.047018139519123002 0 -0.29943422057661201 -0.032203920876667472 0 -0.29166722635019171 -0.038853801873014321 0 -0.29943422057661201 -0.032203920876667472 0 -0.29166722635019171 -0.038853801873014321 0 -0.28378415359151371 -0.031280105512012511 0 -0.3023660715744253 -0.047018139519123002 0 -0.29166722635019171 -0.038853801873014321 0 -0.28390051605192418 -0.042754285685484159 0 -0.29166722635019171 -0.038853801873014321 0 -0.28378415359151371 -0.031280105512012511 0 -0.28390051605192418 -0.042754285685484159 0 -0.3023660715744253 -0.047018139519123002 0 -0.28390051605192418 -0.042754285685484159 0 -0.27356286309663053 -0.053258262401150697 0 -0.3023660715744253 -0.047018139519123002 0 -0.27356286309663053 -0.053258262401150697 0 -0.29757341552329353 -0.05219957266967655 0 -0.27356286309663053 -0.053258262401150697 0 -0.27532891164284878 -0.069285621960536392 0 -0.29757341552329353 -0.05219957266967655 0 -0.27532891164284878 -0.069285621960536392 0 -0.3023660715744253 -0.047018139519123002 0 -0.29757341552329353 -0.05219957266967655 0 -0.27356286309663053 -0.053258262401150697 0 -0.29757341552329353 -0.05219957266967655 0 -0.29931176789370939 -0.061629941742321552 0 -0.27532891164284878 -0.069285621960536392 0 -0.27267419604841259 -0.026924212746328481 0 -0.27375437843427658 -0.039043607324579933 0 -0.25766621977661042 -0.038842414379153638 0 -0.27356286309663053 -0.053258262401150697 0 -0.27375437843427658 -0.039043607324579933 0 -0.25766621977661042 -0.038842414379153638 0 -0.28378415359151371 -0.031280105512012511 0 -0.28390051605192418 -0.042754285685484159 0 -0.27375437843427658 -0.039043607324579933 0 -0.27267419604841259 -0.026924212746328481 0 -0.28378415359151371 -0.031280105512012511 0 -0.27375437843427658 -0.039043607324579933 0 -0.28390051605192418 -0.042754285685484159 0 -0.27356286309663053 -0.053258262401150697 0 -0.27375437843427658 -0.039043607324579933 0 -0.24475965461883589 -0.059498385283178377 0 -0.27356286309663053 -0.053258262401150697 0 -0.2582325144520296 -0.070050845257802419 0 -0.24475965461883589 -0.059498385283178377 0 -0.27356286309663053 -0.053258262401150697 0 -0.24475965461883589 -0.059498385283178377 0 -0.27356286309663053 -0.053258262401150697 0 -0.25766621977661042 -0.038842414379153638 0 -0.2582325144520296 -0.070050845257802419 0 -0.25308440776240432 -0.086371671251396109 0 -0.27532891164284878 -0.069285621960536392 0 -0.25308440776240432 -0.086371671251396109 0 -0.27532891164284878 -0.069285621960536392 0 -0.25308440776240432 -0.086371671251396109 0 -0.27361062541114611 -0.085405998149086934 0 -0.26907394573302829 -0.10103393024372311 0 -0.27361062541114611 -0.085405998149086934 0 -0.26907394573302829 -0.10103393024372311 0 -0.28494676303449051 -0.09097811142482605 0 -0.25308440776240432 -0.086371671251396109 0 -0.27361062541114611 -0.085405998149086934 0 -0.27532891164284878 -0.069285621960536392 0 -0.27356286309663053 -0.053258262401150697 0 -0.2582325144520296 -0.070050845257802419 0 -0.27532891164284878 -0.069285621960536392 0 -0.27361062541114611 -0.085405998149086934 0 -0.27532891164284878 -0.069285621960536392 0 -0.28561909888295839 -0.079360655864953042 0 -0.2432602079730701 -0.13485583854350039 0 -0.2499653418643101 -0.1102460646797562 0 -0.26490928006600228 -0.12397715003998409 0 -0.2499653418643101 -0.1102460646797562 0 -0.26490928006600228 -0.12397715003998409 0 -0.26907394573302829 -0.10103393024372311 0 -0.2499653418643101 -0.1102460646797562 0 -0.25308440776240432 -0.086371671251396109 0 -0.26907394573302829 -0.10103393024372311 0 -0.26907394573302829 -0.10103393024372311 0 -0.28789548083438649 -0.11161882002010511 0 -0.28494676303449051 -0.09097811142482605 0 -0.26490928006600228 -0.12397715003998409 0 -0.28789548083438649 -0.11161882002010511 0 -0.28428672055728371 -0.13281235115180859 0 -0.26490928006600228 -0.12397715003998409 0 -0.26907394573302829 -0.10103393024372311 0 -0.28789548083438649 -0.11161882002010511 0 -0.28789548083438649 -0.11161882002010511 0 -0.28428672055728371 -0.13281235115180859 0 -0.30877835781368662 -0.12931532841693749 0 -0.28789548083438649 -0.11161882002010511 0 -0.29765529442092259 -0.094840601490837839 0 -0.28494676303449051 -0.09097811142482605 0 -0.30761934067920371 -0.1042503242997595 0 -0.29765529442092259 -0.094840601490837839 0 -0.30832877355579341 -0.086934752854072747 0 -0.30761934067920371 -0.1042503242997595 0 -0.30832877355579341 -0.086934752854072747 0 -0.31968159473222052 -0.091584555267719248 0 -0.28789548083438649 -0.11161882002010511 0 -0.30761934067920371 -0.1042503242997595 0 -0.29765529442092259 -0.094840601490837839 0 -0.28789548083438649 -0.11161882002010511 0 -0.30761934067920371 -0.1042503242997595 0 -0.30877835781368662 -0.12931532841693749 0 -0.29931176789370939 -0.061629941742321552 0 -0.27532891164284878 -0.069285621960536392 0 -0.29568251685582603 -0.071589435967753134 0 -0.27532891164284878 -0.069285621960536392 0 -0.29568251685582603 -0.071589435967753134 0 -0.28561909888295839 -0.079360655864953042 0 -0.29568251685582603 -0.071589435967753134 0 -0.28561909888295839 -0.079360655864953042 0 -0.29849490204505058 -0.081938345925378783 0 -0.27361062541114611 -0.085405998149086934 0 -0.28561909888295839 -0.079360655864953042 0 -0.28494676303449051 -0.09097811142482605 0 -0.29765529442092259 -0.094840601490837839 0 -0.28494676303449051 -0.09097811142482605 0 -0.29849490204505058 -0.081938345925378783 0 -0.28561909888295839 -0.079360655864953042 0 -0.28494676303449051 -0.09097811142482605 0 -0.29849490204505058 -0.081938345925378783 0 -0.29849490204505058 -0.081938345925378783 0 -0.30832877355579341 -0.086934752854072747 0 -0.3066986514807607 -0.074546990101646726 0 -0.29765529442092259 -0.094840601490837839 0 -0.29849490204505058 -0.081938345925378783 0 -0.30832877355579341 -0.086934752854072747 0 -0.30832877355579341 -0.086934752854072747 0 -0.3066986514807607 -0.074546990101646726 0 -0.31636087034116728 -0.076704125898778439 0 -0.3066986514807607 -0.074546990101646726 0 -0.31411021802290889 -0.069356746280106005 0 -0.31636087034116728 -0.076704125898778439 0 -0.29568251685582603 -0.071589435967753134 0 -0.29849490204505058 -0.081938345925378783 0 -0.3066986514807607 -0.074546990101646726 0 -0.29568251685582603 -0.071589435967753134 0 -0.3066986514807607 -0.074546990101646726 0 -0.30728911182784302 -0.064893595009923935 0 -0.29931176789370939 -0.061629941742321552 0 -0.29568251685582603 -0.071589435967753134 0 -0.30728911182784302 -0.064893595009923935 0 -0.3066986514807607 -0.074546990101646726 0 -0.30728911182784302 -0.064893595009923935 0 -0.31411021802290889 -0.069356746280106005 0 -0.30728911182784302 -0.064893595009923935 0 -0.31630436981946819 -0.062936971351065629 0 -0.31411021802290889 -0.069356746280106005 0 -0.31630436981946819 -0.062936971351065629 0 -0.31411021802290889 -0.069356746280106005 0 -0.32389808664530562 -0.067702049039115322 0 -0.31630436981946819 -0.062936971351065629 0 -0.32389808664530562 -0.067702049039115322 0 -0.32481687078849097 -0.058022226865728103 0 -0.32389808664530562 -0.067702049039115322 0 -0.3259684841043719 -0.075020057435826168 0 -0.31636087034116728 -0.076704125898778439 0 -0.31411021802290889 -0.069356746280106005 0 -0.32389808664530562 -0.067702049039115322 0 -0.31636087034116728 -0.076704125898778439 0 -0.30832877355579341 -0.086934752854072747 0 -0.32608803180755441 -0.084321365842938284 0 -0.30832877355579341 -0.086934752854072747 0 -0.31968159473222052 -0.091584555267719248 0 -0.32608803180755441 -0.084321365842938284 0 -0.30832877355579341 -0.086934752854072747 0 -0.31636087034116728 -0.076704125898778439 0 -0.32608803180755441 -0.084321365842938284 0 -0.31968159473222052 -0.091584555267719248 0 -0.32608803180755441 -0.084321365842938284 0 -0.3259684841043719 -0.075020057435826168 0 -0.31636087034116728 -0.076704125898778439 0 -0.32608803180755441 -0.084321365842938284 0 -0.31968159473222052 -0.091584555267719248 0 -0.32608803180755441 -0.084321365842938284 0 -0.34030971713070318 -0.087052614945596102 0 -0.32608803180755441 -0.084321365842938284 0 -0.34030971713070318 -0.087052614945596102 0 -0.34745734249292459 -0.081176736816750444 0 -0.32608803180755441 -0.084321365842938284 0 -0.33752694762346008 -0.07135268896247253 0 -0.34745734249292459 -0.081176736816750444 0 -0.32608803180755441 -0.084321365842938284 0 -0.34745734249292459 -0.081176736816750444 0 -0.33752694762346008 -0.07135268896247253 0 -0.3489658634393657 -0.058384012082006782 0 -0.33645864726091979 -0.05858208772264157 0 -0.33752694762346008 -0.07135268896247253 0 -0.3489658634393657 -0.058384012082006782 0 -0.32389808664530562 -0.067702049039115322 0 -0.33752694762346008 -0.07135268896247253 0 -0.33645864726091979 -0.05858208772264157 0 -0.3259684841043719 -0.075020057435826168 0 -0.32608803180755441 -0.084321365842938284 0 -0.33752694762346008 -0.07135268896247253 0 -0.32608803180755441 -0.084321365842938284 0 -0.33752694762346008 -0.07135268896247253 0 -0.32389808664530562 -0.067702049039115322 0 -0.3259684841043719 -0.075020057435826168 0 -0.33752694762346008 -0.07135268896247253 0 -0.32454403747219479 -0.1081839716812668 0 -0.30877835781368662 -0.12931532841693749 0 -0.30761934067920371 -0.1042503242997595 0 -0.32454403747219479 -0.1081839716812668 0 -0.30877835781368662 -0.12931532841693749 0 -0.32454403747219479 -0.1081839716812668 0 -0.33570809008837621 -0.11845594114356341 0 -0.30877835781368662 -0.12931532841693749 0 -0.30761934067920371 -0.1042503242997595 0 -0.31968159473222052 -0.091584555267719248 0 -0.32454403747219479 -0.1081839716812668 0 -0.34030971713070318 -0.087052614945596102 0 -0.32454403747219479 -0.1081839716812668 0 -0.34278855512837281 -0.1049294584887832 0 -0.31968159473222052 -0.091584555267719248 0 -0.34030971713070318 -0.087052614945596102 0 -0.32454403747219479 -0.1081839716812668 0 -0.34030971713070318 -0.087052614945596102 0 -0.32454403747219479 -0.1081839716812668 0 -0.32454403747219479 -0.1081839716812668 0 -0.34278855512837281 -0.1049294584887832 0 -0.33570809008837621 -0.11845594114356341 0 -0.33570809008837621 -0.11845594114356341 0 -0.35404294059136687 -0.1217835462641018 0 -0.33688620478323589 -0.13358080389391511 0 -0.34278855512837281 -0.1049294584887832 0 -0.35404294059136687 -0.1217835462641018 0 -0.35932798989652742 -0.1047455147758234 0 -0.34278855512837281 -0.1049294584887832 0 -0.33570809008837621 -0.11845594114356341 0 -0.35404294059136687 -0.1217835462641018 0 -0.34278855512837281 -0.1049294584887832 0 -0.35932798989652742 -0.1047455147758234 0 -0.35079718399447979 -0.093651592615473511 0 -0.34030971713070318 -0.087052614945596102 0 -0.34278855512837281 -0.1049294584887832 0 -0.35079718399447979 -0.093651592615473511 0 -0.35932798989652742 -0.1047455147758234 0 -0.35079718399447979 -0.093651592615473511 0 -0.36132419909701757 -0.091459041133748031 0 -0.35932798989652742 -0.1047455147758234 0 -0.37367929427193591 -0.1014825750548952 0 -0.37212838853434238 -0.11808059788504249 0 -0.35932798989652742 -0.1047455147758234 0 -0.37367929427193591 -0.1014825750548952 0 -0.36132419909701757 -0.091459041133748031 0 -0.35404294059136687 -0.1217835462641018 0 -0.37212838853434238 -0.11808059788504249 0 -0.37028068739271691 -0.13083580994494901 0 -0.35404294059136687 -0.1217835462641018 0 -0.35932798989652742 -0.1047455147758234 0 -0.37212838853434238 -0.11808059788504249 0 -0.35069420168351129 -0.07223638641294812 0 -0.34745734249292459 -0.081176736816750444 0 -0.36882665317829499 -0.078032107790563188 0 -0.36882665317829499 -0.078032107790563188 0 -0.3489658634393657 -0.058384012082006782 0 -0.35069420168351129 -0.07223638641294812 0 -0.36882665317829499 -0.078032107790563188 0 -0.3489658634393657 -0.058384012082006782 0 -0.33752694762346008 -0.07135268896247253 0 -0.35069420168351129 -0.07223638641294812 0 -0.3489658634393657 -0.058384012082006782 0 -0.33752694762346008 -0.07135268896247253 0 -0.35069420168351129 -0.07223638641294812 0 -0.34745734249292459 -0.081176736816750444 0 -0.34745734249292459 -0.081176736816750444 0 -0.36882665317829499 -0.078032107790563188 0 -0.34745734249292459 -0.081176736816750444 0 -0.36132419909701757 -0.091459041133748031 0 -0.36882665317829499 -0.078032107790563188 0 -0.34030971713070318 -0.087052614945596102 0 -0.34745734249292459 -0.081176736816750444 0 -0.35079718399447979 -0.093651592615473511 0 -0.34745734249292459 -0.081176736816750444 0 -0.35079718399447979 -0.093651592615473511 0 -0.36132419909701757 -0.091459041133748031 0 -0.37367929427193591 -0.1014825750548952 0 -0.36132419909701757 -0.091459041133748031 0 -0.36882665317829499 -0.078032107790563188 0 -0.36882665317829499 -0.078032107790563188 0 -0.36862349457690058 -0.057461967220355487 0 -0.3489658634393657 -0.058384012082006782 0 -0.36882665317829499 -0.078032107790563188 0 -0.36862349457690058 -0.057461967220355487 0 -0.37947166312044489 -0.067272628224985004 0 -0.36862349457690058 -0.057461967220355487 0 -0.3489658634393657 -0.058384012082006782 0 -0.36066681755822472 -0.045118253717945672 0 -0.36862349457690058 -0.057461967220355487 0 -0.37355784227175309 -0.045246792894939887 0 -0.3815482533063424 -0.052412606119804542 0 -0.36862349457690058 -0.057461967220355487 0 -0.36066681755822472 -0.045118253717945672 0 -0.37355784227175309 -0.045246792894939887 0 -0.3489658634393657 -0.058384012082006782 0 -0.36066681755822472 -0.045118253717945672 0 -0.3489658634393657 -0.058384012082006782 0 -0.34511111307690212 -0.046137334811030092 0 -0.36066681755822472 -0.045118253717945672 0 -0.35304062521722218 -0.036039659744318157 0 -0.3553139768507978 -0.023567241021099371 0 -0.33371347875736079 -0.040226824134751989 0 -0.34511111307690212 -0.046137334811030092 0 -0.35304062521722218 -0.036039659744318157 0 -0.33371347875736079 -0.040226824134751989 0 -0.34511111307690212 -0.046137334811030092 0 -0.35304062521722218 -0.036039659744318157 0 -0.36066681755822472 -0.045118253717945672 0 -0.36066681755822472 -0.045118253717945672 0 -0.37236777167708351 -0.031852495353884333 0 -0.35304062521722218 -0.036039659744318157 0 -0.37236777167708351 -0.031852495353884333 0 -0.35304062521722218 -0.036039659744318157 0 -0.36066681755822472 -0.045118253717945672 0 -0.37236777167708351 -0.031852495353884333 0 -0.36066681755822472 -0.045118253717945672 0 -0.37355784227175309 -0.045246792894939887 0 -0.37236777167708351 -0.031852495353884333 0 -0.37236777167708351 -0.031852495353884333 0 -0.3739022591900184 -0.02415390189740213 0 -0.36770044175442279 -0.02036669541201027 0 -0.37236777167708351 -0.031852495353884333 0 -0.36770044175442279 -0.02036669541201027 0 -0.3553139768507978 -0.023567241021099371 0 -0.36770044175442279 -0.02036669541201027 0 -0.35847393927256738 -0.010652033510738681 0 -0.38297625517291389 -0.017448943304264108 0 -0.35304062521722218 -0.036039659744318157 0 -0.37236777167708351 -0.031852495353884333 0 -0.3553139768507978 -0.023567241021099371 0 -0.3739022591900184 -0.02415390189740213 0 -0.36770044175442279 -0.02036669541201027 0 -0.38297625517291389 -0.017448943304264108 0 -0.36770044175442279 -0.02036669541201027 0 -0.35847393927256738 -0.010652033510738681 0 -0.3553139768507978 -0.023567241021099371 0 -0.35847393927256738 -0.010652033510738681 0 -0.38297625517291389 -0.017448943304264108 0 -0.37278444596104371 -0.0079457960458173115 0 -0.35847393927256738 -0.010652033510738681 0 -0.38297625517291389 -0.017448943304264108 0 -0.37474494217865062 -0.0022388935110706832 0 -0.37278444596104371 -0.0079457960458173115 0 -0.36307869926690151 -0.00068504054922277494 0 -0.37278444596104371 -0.0079457960458173115 0 -0.36307869926690151 -0.00068504054922277494 0 -0.35847393927256738 -0.010652033510738681 0 -0.36307869926690151 -0.00068504054922277494 0 -0.34718119132474479 -0.01384164818341615 0 -0.36064890389212972 0.0125435277679194 0 -0.36307869926690151 -0.00068504054922277494 0 -0.35847393927256738 -0.010652033510738681 0 -0.34718119132474479 -0.01384164818341615 0 -0.34718119132474479 -0.01384164818341615 0 -0.36064890389212972 0.0125435277679194 0 -0.34718119132474479 -0.01384164818341615 0 -0.3553139768507978 -0.023567241021099371 0 -0.33371347875736079 -0.040226824134751989 0 -0.35847393927256738 -0.010652033510738681 0 -0.34718119132474479 -0.01384164818341615 0 -0.3553139768507978 -0.023567241021099371 0 -0.34718119132474479 -0.01384164818341615 0 -0.33035884889608558 -0.02420969997450095 0 -0.33371347875736079 -0.040226824134751989 0 -0.34718119132474479 -0.01384164818341615 0 -0.33371347875736079 -0.040226824134751989 0 -0.34718119132474479 -0.01384164818341615 0 -0.32828291010712762 -0.0049346835118845543 0 -0.34055428987364128 0.0059527955302196532 0 -0.34718119132474479 -0.01384164818341615 0 -0.33035884889608558 -0.02420969997450095 0 -0.32828291010712762 -0.0049346835118845543 0 -0.31144738423897378 -0.02126732740536201 0 -0.32828291010712762 -0.0049346835118845543 0 -0.31177688145040278 0.0050359958776742568 0 -0.31144738423897378 -0.02126732740536201 0 -0.33116928005221918 -0.040778016637091109 0 -0.31144738423897378 -0.02126732740536201 0 -0.33035884889608558 -0.02420969997450095 0 -0.32828291010712762 -0.0049346835118845543 0 -0.31144738423897378 -0.02126732740536201 0 -0.33035884889608558 -0.02420969997450095 0 -0.33116928005221918 -0.040778016637091109 0 -0.3023660715744253 -0.047018139519123002 0 -0.31110423911055801 -0.035316851109560482 0 -0.33116928005221918 -0.040778016637091109 0 -0.3023660715744253 -0.047018139519123002 0 -0.31025625293594222 -0.050033124508212908 0 -0.33116928005221918 -0.040778016637091109 0 -0.3023660715744253 -0.047018139519123002 0 -0.33116928005221918 -0.040778016637091109 0 -0.31144738423897378 -0.02126732740536201 0 -0.31110423911055801 -0.035316851109560482 0 -0.33116928005221918 -0.040778016637091109 0 -0.31025625293594222 -0.050033124508212908 0 -0.31770057673851387 -0.05020147555903863 0 -0.33116928005221918 -0.040778016637091109 0 -0.31025625293594222 -0.050033124508212908 0 -0.31770057673851387 -0.05020147555903863 0 -0.31405483352543062 -0.056831087900065053 0 -0.31770057673851387 -0.05020147555903863 0 -0.31405483352543062 -0.056831087900065053 0 -0.31936567051967829 -0.054711673150449433 0 -0.31630436981946819 -0.062936971351065629 0 -0.31936567051967829 -0.054711673150449433 0 -0.32481687078849097 -0.058022226865728103 0 -0.30728911182784302 -0.064893595009923935 0 -0.31630436981946819 -0.062936971351065629 0 -0.31405483352543062 -0.056831087900065053 0 -0.31630436981946819 -0.062936971351065629 0 -0.31405483352543062 -0.056831087900065053 0 -0.31936567051967829 -0.054711673150449433 0 -0.31770057673851387 -0.05020147555903863 0 -0.32448711316898249 -0.050622394842538963 0 -0.33116928005221918 -0.040778016637091109 0 -0.31936567051967829 -0.054711673150449433 0 -0.32481687078849097 -0.058022226865728103 0 -0.32448711316898249 -0.050622394842538963 0 -0.31770057673851387 -0.05020147555903863 0 -0.31936567051967829 -0.054711673150449433 0 -0.32448711316898249 -0.050622394842538963 0 -0.32481687078849097 -0.058022226865728103 0 -0.32770904195502032 -0.053173566283506987 0 -0.32448711316898249 -0.050622394842538963 0 -0.32770904195502032 -0.053173566283506987 0 -0.32448711316898249 -0.050622394842538963 0 -0.32972533979495861 -0.048040159006195682 0 -0.3489658634393657 -0.058384012082006782 0 -0.34511111307690212 -0.046137334811030092 0 -0.3326728772282519 -0.042265511425067279 0 -0.32972533979495861 -0.048040159006195682 0 -0.33645864726091979 -0.05858208772264157 0 -0.3326728772282519 -0.042265511425067279 0 -0.3489658634393657 -0.058384012082006782 0 -0.3326728772282519 -0.042265511425067279 0 -0.32770904195502032 -0.053173566283506987 0 -0.32972533979495861 -0.048040159006195682 0 -0.33645864726091979 -0.05858208772264157 0 -0.3489658634393657 -0.058384012082006782 0 -0.33645864726091979 -0.05858208772264157 0 -0.3326728772282519 -0.042265511425067279 0 -0.32389808664530562 -0.067702049039115322 0 -0.32481687078849097 -0.058022226865728103 0 -0.33645864726091979 -0.05858208772264157 0 -0.32481687078849097 -0.058022226865728103 0 -0.32770904195502032 -0.053173566283506987 0 -0.33645864726091979 -0.05858208772264157 0 -0.34511111307690212 -0.046137334811030092 0 -0.33371347875736079 -0.040226824134751989 0 -0.3326728772282519 -0.042265511425067279 0 -0.33035884889608558 -0.02420969997450095 0 -0.33116928005221918 -0.040778016637091109 0 -0.33371347875736079 -0.040226824134751989 0 -0.35304062521722218 -0.036039659744318157 0 -0.33371347875736079 -0.040226824134751989 0 -0.32448711316898249 -0.050622394842538963 0 -0.32972533979495861 -0.048040159006195682 0 -0.33116928005221918 -0.040778016637091109 0 -0.33116928005221918 -0.040778016637091109 0 -0.3326728772282519 -0.042265511425067279 0 -0.32972533979495861 -0.048040159006195682 0 -0.3326728772282519 -0.042265511425067279 0 -0.32972533979495861 -0.048040159006195682 0 -0.33116928005221918 -0.040778016637091109 0 -0.3326728772282519 -0.042265511425067279 0 -0.33116928005221918 -0.040778016637091109 0 -0.33371347875736079 -0.040226824134751989 0 -0.33116928005221918 -0.040778016637091109 0 -0.33371347875736079 -0.040226824134751989 0 -0.3326728772282519 -0.042265511425067279 0 -0.33371347875736079 -0.040226824134751989 0 -0.3326728772282519 -0.042265511425067279 0 -0.2907170577323625 -0.25177677077710309 0 -0.30853150187083839 -0.25429835417001312 0 -0.30748271917561598 -0.2431056607245809 0 -0.30748271917561598 -0.2431056607245809 0 -0.3004866401015065 -0.2269264896544945 0 -0.32066485276457768 -0.2334308190911655 0 -0.2907170577323625 -0.25177677077710309 0 -0.30748271917561598 -0.2431056607245809 0 -0.3004866401015065 -0.2269264896544945 0 -0.30853150187083839 -0.25429835417001312 0 -0.30748271917561598 -0.2431056607245809 0 -0.32023222063025569 -0.2489608815952247 0 -0.3004866401015065 -0.2269264896544945 0 -0.27575903677895092 -0.22208668823385669 0 -0.3004866401015065 -0.2269264896544945 0 -0.27309361240676189 -0.24179026653703889 0 -0.27575903677895092 -0.22208668823385669 0 -0.3004866401015065 -0.2269264896544945 0 -0.27575903677895092 -0.22208668823385669 0 -0.29482007196541532 -0.2089319155152673 0 -0.2907170577323625 -0.25177677077710309 0 -0.3004866401015065 -0.2269264896544945 0 -0.27309361240676189 -0.24179026653703889 0 -0.27309361240676189 -0.24179026653703889 0 -0.25431856302814809 -0.24833495949118861 0 -0.25103143345639523 -0.21724688681321891 0 -0.27575903677895092 -0.22208668823385669 0 -0.25103143345639523 -0.21724688681321891 0 -0.27309361240676189 -0.24179026653703889 0 -0.27575903677895092 -0.22208668823385669 0 -0.25103143345639523 -0.21724688681321891 0 -0.27575903677895092 -0.22208668823385669 0 -0.25103143345639523 -0.21724688681321891 0 -0.27708552823660842 -0.19790031786117671 0 -0.25103143345639523 -0.21724688681321891 0 -0.25418198431724581 -0.18809916394242601 0 -0.27708552823660842 -0.19790031786117671 0 -0.27708552823660842 -0.19790031786117671 0 -0.29482007196541532 -0.2089319155152673 0 -0.30195969341908391 -0.19078830755985379 0 -0.29482007196541532 -0.2089319155152673 0 -0.30195969341908391 -0.19078830755985379 0 -0.32674672588845421 -0.2120308859258328 0 -0.3004866401015065 -0.2269264896544945 0 -0.29482007196541532 -0.2089319155152673 0 -0.32674672588845421 -0.2120308859258328 0 -0.27575903677895092 -0.22208668823385669 0 -0.27708552823660842 -0.19790031786117671 0 -0.29482007196541532 -0.2089319155152673 0 -0.30195969341908391 -0.19078830755985379 0 -0.30674796742087651 -0.1684647150882764 0 -0.32123008678095788 -0.18729232698745699 0 -0.30674796742087651 -0.1684647150882764 0 -0.2930126781551784 -0.15044668515260809 0 -0.3206808779707625 -0.15110047818677941 0 -0.27724699849667023 -0.17157804188827869 0 -0.2930126781551784 -0.15044668515260809 0 -0.30674796742087651 -0.1684647150882764 0 -0.27724699849667023 -0.17157804188827869 0 -0.2930126781551784 -0.15044668515260809 0 -0.27708552823660842 -0.19790031786117671 0 -0.30195969341908391 -0.19078830755985379 0 -0.27724699849667023 -0.17157804188827869 0 -0.30195969341908391 -0.19078830755985379 0 -0.30674796742087651 -0.1684647150882764 0 -0.27724699849667023 -0.17157804188827869 0 -0.25418198431724581 -0.18809916394242601 0 -0.27708552823660842 -0.19790031786117671 0 -0.27724699849667023 -0.17157804188827869 0 -0.25418198431724581 -0.18809916394242601 0 -0.2565438833259911 -0.1687602707777138 0 -0.27724699849667023 -0.17157804188827869 0 -0.2435592126657353 -0.1561425335328199 0 -0.2565438833259911 -0.1687602707777138 0 -0.26683780591716472 -0.14870377212940841 0 -0.27724699849667023 -0.17157804188827869 0 -0.26683780591716472 -0.14870377212940841 0 -0.2930126781551784 -0.15044668515260809 0 -0.2565438833259911 -0.1687602707777138 0 -0.27724699849667023 -0.17157804188827869 0 -0.26683780591716472 -0.14870377212940841 0 -0.2435592126657353 -0.1561425335328199 0 -0.2432602079730701 -0.13485583854350039 0 -0.26683780591716472 -0.14870377212940841 0 -0.2432602079730701 -0.13485583854350039 0 -0.26490928006600228 -0.12397715003998409 0 -0.26683780591716472 -0.14870377212940841 0 -0.26490928006600228 -0.12397715003998409 0 -0.26683780591716472 -0.14870377212940841 0 -0.28428672055728371 -0.13281235115180859 0 -0.28428672055728371 -0.13281235115180859 0 -0.2930126781551784 -0.15044668515260809 0 -0.30877835781368662 -0.12931532841693749 0 -0.26683780591716472 -0.14870377212940841 0 -0.28428672055728371 -0.13281235115180859 0 -0.2930126781551784 -0.15044668515260809 0 -0.2930126781551784 -0.15044668515260809 0 -0.30877835781368662 -0.12931532841693749 0 -0.3206808779707625 -0.15110047818677941 0 -0.2930126781551784 -0.15044668515260809 0 -0.30877835781368662 -0.12931532841693749 0 -0.33570809008837621 -0.11845594114356341 0 -0.30877835781368662 -0.12931532841693749 0 -0.33688620478323589 -0.13358080389391511 0 -0.30877835781368662 -0.12931532841693749 0 -0.3206808779707625 -0.15110047818677941 0 -0.33688620478323589 -0.13358080389391511 0 -0.3206808779707625 -0.15110047818677941 0 -0.33688620478323589 -0.13358080389391511 0 -0.34399943231138669 -0.15408109000358611 0 -0.33688620478323589 -0.13358080389391511 0 -0.35929992868189681 -0.1386942596847188 0 -0.35404294059136687 -0.1217835462641018 0 -0.33688620478323589 -0.13358080389391511 0 -0.35929992868189681 -0.1386942596847188 0 -0.35404294059136687 -0.1217835462641018 0 -0.35929992868189681 -0.1386942596847188 0 -0.37028068739271691 -0.13083580994494901 0 -0.35929992868189681 -0.1386942596847188 0 -0.37028068739271691 -0.13083580994494901 0 -0.3804539816512269 -0.14482329966991631 0 -0.35929992868189681 -0.1386942596847188 0 -0.3804539816512269 -0.14482329966991631 0 -0.35929992868189681 -0.1386942596847188 0 -0.3655172116091886 -0.15688196674787641 0 -0.3804539816512269 -0.14482329966991631 0 -0.3655172116091886 -0.15688196674787641 0 -0.3804539816512269 -0.14482329966991631 0 -0.3655172116091886 -0.15688196674787641 0 -0.37839901512320262 -0.15996290040625341 0 -0.3804539816512269 -0.14482329966991631 0 -0.33688620478323589 -0.13358080389391511 0 -0.35929992868189681 -0.1386942596847188 0 -0.34399943231138669 -0.15408109000358611 0 -0.35929992868189681 -0.1386942596847188 0 -0.34399943231138669 -0.15408109000358611 0 -0.3655172116091886 -0.15688196674787641 0 -0.34399943231138669 -0.15408109000358611 0 -0.35323542112630057 -0.1671812377988513 0 -0.3655172116091886 -0.15688196674787641 0 -0.3655172116091886 -0.15688196674787641 0 -0.37378547386561772 -0.17392500984250869 0 -0.37839901512320262 -0.15996290040625341 0 -0.35323542112630057 -0.1671812377988513 0 -0.3655172116091886 -0.15688196674787641 0 -0.37378547386561772 -0.17392500984250869 0 -0.37378547386561772 -0.17392500984250869 0 -0.35240556330307887 -0.18479875362473361 0 -0.36895563931783232 -0.19259611207654981 0 -0.35323542112630057 -0.1671812377988513 0 -0.37378547386561772 -0.17392500984250869 0 -0.35240556330307887 -0.18479875362473361 0 -0.35323542112630057 -0.1671812377988513 0 -0.35240556330307887 -0.18479875362473361 0 -0.33400288196205857 -0.17193246321376471 0 -0.35240556330307887 -0.18479875362473361 0 -0.33400288196205857 -0.17193246321376471 0 -0.33669316521431608 -0.19324526314955739 0 -0.33400288196205857 -0.17193246321376471 0 -0.32123008678095788 -0.18729232698745699 0 -0.33669316521431608 -0.19324526314955739 0 -0.3206808779707625 -0.15110047818677941 0 -0.34399943231138669 -0.15408109000358611 0 -0.33400288196205857 -0.17193246321376471 0 -0.34399943231138669 -0.15408109000358611 0 -0.35323542112630057 -0.1671812377988513 0 -0.33400288196205857 -0.17193246321376471 0 -0.30674796742087651 -0.1684647150882764 0 -0.3206808779707625 -0.15110047818677941 0 -0.33400288196205857 -0.17193246321376471 0 -0.30674796742087651 -0.1684647150882764 0 -0.33400288196205857 -0.17193246321376471 0 -0.32123008678095788 -0.18729232698745699 0 -0.30195969341908391 -0.19078830755985379 0 -0.32123008678095788 -0.18729232698745699 0 -0.32674672588845421 -0.2120308859258328 0 -0.32674672588845421 -0.2120308859258328 0 -0.35024140450074381 -0.20994798342056251 0 -0.32674672588845421 -0.2120308859258328 0 -0.33669316521431608 -0.19324526314955739 0 -0.35024140450074381 -0.20994798342056251 0 -0.32674672588845421 -0.2120308859258328 0 -0.35024140450074381 -0.20994798342056251 0 -0.3377174746324717 -0.2284461722996495 0 -0.32123008678095788 -0.18729232698745699 0 -0.32674672588845421 -0.2120308859258328 0 -0.33669316521431608 -0.19324526314955739 0 -0.35240556330307887 -0.18479875362473361 0 -0.36895563931783232 -0.19259611207654981 0 -0.35024140450074381 -0.20994798342056251 0 -0.35240556330307887 -0.18479875362473361 0 -0.33669316521431608 -0.19324526314955739 0 -0.35024140450074381 -0.20994798342056251 0 -0.36895563931783232 -0.19259611207654981 0 -0.37373608311303341 -0.20786508091529229 0 -0.35024140450074381 -0.20994798342056251 0 -0.37373608311303341 -0.20786508091529229 0 -0.35024140450074381 -0.20994798342056251 0 -0.37373608311303341 -0.20786508091529229 0 -0.35024140450074381 -0.20994798342056251 0 -0.36602803805366552 -0.21914337572849349 0 -0.37373608311303341 -0.20786508091529229 0 -0.36602803805366552 -0.21914337572849349 0 -0.37785639846487218 -0.21906994256996459 0 -0.35024140450074381 -0.20994798342056251 0 -0.357966965356528 -0.23170644806675769 0 -0.3377174746324717 -0.2284461722996495 0 -0.35024140450074381 -0.20994798342056251 0 -0.357966965356528 -0.23170644806675769 0 -0.36602803805366552 -0.21914337572849349 0 -0.357966965356528 -0.23170644806675769 0 -0.36602803805366552 -0.21914337572849349 0 -0.36983275924353248 -0.22875232439276311 0 -0.36602803805366552 -0.21914337572849349 0 -0.36983275924353248 -0.22875232439276311 0 -0.37785639846487218 -0.21906994256996459 0 -0.357966965356528 -0.23170644806675769 0 -0.36983275924353248 -0.22875232439276311 0 -0.37747963509906429 -0.24508953120583671 0 -0.35872453044413888 -0.25078889886649508 0 -0.357966965356528 -0.23170644806675769 0 -0.37747963509906429 -0.24508953120583671 0 -0.357966965356528 -0.23170644806675769 0 -0.34395992200845399 -0.24382677409400949 0 -0.3377174746324717 -0.2284461722996495 0 -0.35872453044413888 -0.25078889886649508 0 -0.357966965356528 -0.23170644806675769 0 -0.34395992200845399 -0.24382677409400949 0 -0.33345250408021371 -0.25331871279766999 0 -0.34395992200845399 -0.24382677409400949 0 -0.33132333615916232 -0.2411148243472106 0 -0.33345250408021371 -0.25331871279766999 0 -0.33132333615916232 -0.2411148243472106 0 -0.32023222063025569 -0.2489608815952247 0 -0.34395992200845399 -0.24382677409400949 0 -0.33132333615916232 -0.2411148243472106 0 -0.3377174746324717 -0.2284461722996495 0 -0.32674672588845421 -0.2120308859258328 0 -0.3377174746324717 -0.2284461722996495 0 -0.32066485276457768 -0.2334308190911655 0 -0.33132333615916232 -0.2411148243472106 0 -0.3377174746324717 -0.2284461722996495 0 -0.32066485276457768 -0.2334308190911655 0 -0.3004866401015065 -0.2269264896544945 0 -0.32674672588845421 -0.2120308859258328 0 -0.32066485276457768 -0.2334308190911655 0 -0.30748271917561598 -0.2431056607245809 0 -0.32066485276457768 -0.2334308190911655 0 -0.32023222063025569 -0.2489608815952247 0 -0.33132333615916232 -0.2411148243472106 0 -0.32066485276457768 -0.2334308190911655 0 -0.32023222063025569 -0.2489608815952247 0 -0.43445882011373449 -0.25478651907497341 0 -0.43806130733353449 -0.23541812032183559 0 -0.43445882011373449 -0.25478651907497341 0 -0.4258852610480256 -0.24284815888716721 0 -0.43806130733353449 -0.23541812032183559 0 -0.4258852610480256 -0.24284815888716721 0 -0.42538833238501789 -0.2333934851751748 0 -0.41698539980062188 -0.23875950084572559 0 -0.43445882011373449 -0.25478651907497341 0 -0.4258852610480256 -0.24284815888716721 0 -0.42335340856967768 -0.24893549408922019 0 -0.4258852610480256 -0.24284815888716721 0 -0.42538833238501789 -0.2333934851751748 0 -0.43806130733353449 -0.23541812032183559 0 -0.43091611572645672 -0.22699763907763329 0 -0.42538833238501789 -0.2333934851751748 0 -0.43806130733353449 -0.23541812032183559 0 -0.43091611572645672 -0.22699763907763329 0 -0.44166379455333399 -0.21604972156869759 0 -0.43806130733353449 -0.23541812032183559 0 -0.43091611572645672 -0.22699763907763329 0 -0.43133498143110582 -0.21921018883561361 0 -0.44166379455333399 -0.21604972156869759 0 -0.43133498143110582 -0.21921018883561361 0 -0.4232485836513401 -0.22477446532261011 0 -0.4232102070061276 -0.21869015764887889 0 -0.43091611572645672 -0.22699763907763329 0 -0.43133498143110582 -0.21921018883561361 0 -0.4232485836513401 -0.22477446532261011 0 -0.43091611572645672 -0.22699763907763329 0 -0.4232485836513401 -0.22477446532261011 0 -0.42538833238501789 -0.2333934851751748 0 -0.4232485836513401 -0.22477446532261011 0 -0.42538833238501789 -0.2333934851751748 0 -0.41731365953457839 -0.2310953018814938 0 -0.4232485836513401 -0.22477446532261011 0 -0.41731365953457839 -0.2310953018814938 0 -0.4121948509493269 -0.2247325638453028 0 -0.41731365953457839 -0.2310953018814938 0 -0.4080561583250083 -0.23272886934204159 0 -0.41698539980062188 -0.23875950084572559 0 -0.4232485836513401 -0.22477446532261011 0 -0.4121948509493269 -0.2247325638453028 0 -0.41685681033243982 -0.21746512418924929 0 -0.4232485836513401 -0.22477446532261011 0 -0.41685681033243982 -0.21746512418924929 0 -0.4232102070061276 -0.21869015764887889 0 -0.4121948509493269 -0.2247325638453028 0 -0.4080561583250083 -0.23272886934204159 0 -0.39971520205611372 -0.2221352637332015 0 -0.4121948509493269 -0.2247325638453028 0 -0.40807454407470489 -0.21592977391801271 0 -0.41685681033243982 -0.21746512418924929 0 -0.4121948509493269 -0.2247325638453028 0 -0.39971520205611372 -0.2221352637332015 0 -0.40807454407470489 -0.21592977391801271 0 -0.41731365953457839 -0.2310953018814938 0 -0.4121948509493269 -0.2247325638453028 0 -0.4080561583250083 -0.23272886934204159 0 -0.4080561583250083 -0.23272886934204159 0 -0.40983148527785651 -0.24118391776602099 0 -0.41698539980062188 -0.23875950084572559 0 -0.42538833238501789 -0.2333934851751748 0 -0.41731365953457839 -0.2310953018814938 0 -0.41698539980062188 -0.23875950084572559 0 -0.40983148527785651 -0.24118391776602099 0 -0.41698539980062188 -0.23875950084572559 0 -0.41627810448972868 -0.24641300060905449 0 -0.4258852610480256 -0.24284815888716721 0 -0.42335340856967768 -0.24893549408922019 0 -0.41627810448972868 -0.24641300060905449 0 -0.4258852610480256 -0.24284815888716721 0 -0.41698539980062188 -0.23875950084572559 0 -0.41627810448972868 -0.24641300060905449 0 -0.41679144862722167 -0.25169429778568547 0 -0.42335340856967768 -0.24893549408922019 0 -0.41627810448972868 -0.24641300060905449 0 -0.41385673751816382 -0.25312989710486528 0 -0.41627810448972868 -0.24641300060905449 0 -0.4086566941719203 -0.24778871483445111 0 -0.40983148527785651 -0.24118391776602099 0 -0.41627810448972868 -0.24641300060905449 0 -0.4086566941719203 -0.24778871483445111 0 -0.40282532782868952 -0.25224285689579767 0 -0.4086566941719203 -0.24778871483445111 0 -0.40022281387448849 -0.24084313907701979 0 -0.40983148527785651 -0.24118391776602099 0 -0.4086566941719203 -0.24778871483445111 0 -0.40022281387448849 -0.24084313907701979 0 -0.4080561583250083 -0.23272886934204159 0 -0.40983148527785651 -0.24118391776602099 0 -0.40022281387448849 -0.24084313907701979 0 -0.40022281387448849 -0.24084313907701979 0 -0.3903832871219331 -0.2411545733314838 0 -0.38772777019650018 -0.2315142496456449 0 -0.3938256931015453 -0.25037754026629511 0 -0.40022281387448849 -0.24084313907701979 0 -0.3903832871219331 -0.2411545733314838 0 -0.3938256931015453 -0.25037754026629511 0 -0.3903832871219331 -0.2411545733314838 0 -0.37747963509906429 -0.24508953120583671 0 -0.3903832871219331 -0.2411545733314838 0 -0.37747963509906429 -0.24508953120583671 0 -0.38772777019650018 -0.2315142496456449 0 -0.37747963509906429 -0.24508953120583671 0 -0.37785639846487218 -0.21906994256996459 0 -0.37747963509906429 -0.24508953120583671 0 -0.37785639846487218 -0.21906994256996459 0 -0.38772777019650018 -0.2315142496456449 0 -0.36983275924353248 -0.22875232439276311 0 -0.37747963509906429 -0.24508953120583671 0 -0.37785639846487218 -0.21906994256996459 0 -0.37785639846487218 -0.21906994256996459 0 -0.38772777019650018 -0.2315142496456449 0 -0.38790285805175961 -0.2167146319195192 0 -0.4080561583250083 -0.23272886934204159 0 -0.40022281387448849 -0.24084313907701979 0 -0.39971520205611372 -0.2221352637332015 0 -0.40022281387448849 -0.24084313907701979 0 -0.39971520205611372 -0.2221352637332015 0 -0.38772777019650018 -0.2315142496456449 0 -0.39971520205611372 -0.2221352637332015 0 -0.38790285805175961 -0.2167146319195192 0 -0.40022281387448849 -0.24084313907701979 0 -0.38772777019650018 -0.2315142496456449 0 -0.39971520205611372 -0.2221352637332015 0 -0.39971520205611372 -0.2221352637332015 0 -0.39723076172532301 -0.205782178410022 0 -0.40807454407470489 -0.21592977391801271 0 -0.39971520205611372 -0.2221352637332015 0 -0.39723076172532301 -0.205782178410022 0 -0.38790285805175961 -0.2167146319195192 0 -0.39723076172532301 -0.205782178410022 0 -0.41303892827123678 -0.21093405469715851 0 -0.40807454407470489 -0.21592977391801271 0 -0.37373608311303341 -0.20786508091529229 0 -0.39723076172532301 -0.205782178410022 0 -0.38370630256805799 -0.1971119561512929 0 -0.37373608311303341 -0.20786508091529229 0 -0.39723076172532301 -0.205782178410022 0 -0.38790285805175961 -0.2167146319195192 0 -0.37373608311303341 -0.20786508091529229 0 -0.39723076172532301 -0.205782178410022 0 -0.37373608311303341 -0.20786508091529229 0 -0.37785639846487218 -0.21906994256996459 0 -0.38790285805175961 -0.2167146319195192 0 -0.36895563931783232 -0.19259611207654981 0 -0.38370630256805799 -0.1971119561512929 0 -0.3831693110633177 -0.1873742460103984 0 -0.36895563931783232 -0.19259611207654981 0 -0.37373608311303341 -0.20786508091529229 0 -0.38370630256805799 -0.1971119561512929 0 -0.38370630256805799 -0.1971119561512929 0 -0.39543971762078378 -0.19194216334420211 0 -0.3831693110633177 -0.1873742460103984 0 -0.39723076172532301 -0.205782178410022 0 -0.38370630256805799 -0.1971119561512929 0 -0.39543971762078378 -0.19194216334420211 0 -0.39723076172532301 -0.205782178410022 0 -0.39543971762078378 -0.19194216334420211 0 -0.40534117689708921 -0.19634387975323889 0 -0.39543971762078378 -0.19194216334420211 0 -0.40534117689708921 -0.19634387975323889 0 -0.40730162077548249 -0.18407395049314179 0 -0.39723076172532301 -0.205782178410022 0 -0.40534117689708921 -0.19634387975323889 0 -0.42072544033761272 -0.20369927590475301 0 -0.42032122747045741 -0.1927313373696285 0 -0.42072544033761272 -0.20369927590475301 0 -0.40730162077548249 -0.18407395049314179 0 -0.42072544033761272 -0.20369927590475301 0 -0.40730162077548249 -0.18407395049314179 0 -0.40534117689708921 -0.19634387975323889 0 -0.42072544033761272 -0.20369927590475301 0 -0.40730162077548249 -0.18407395049314179 0 -0.39723076172532301 -0.205782178410022 0 -0.41303892827123678 -0.21093405469715851 0 -0.42072544033761272 -0.20369927590475301 0 -0.39723076172532301 -0.205782178410022 0 -0.42072544033761272 -0.20369927590475301 0 -0.41303892827123678 -0.21093405469715851 0 -0.40807454407470489 -0.21592977391801271 0 -0.41685681033243982 -0.21746512418924929 0 -0.41303892827123678 -0.21093405469715851 0 -0.41685681033243982 -0.21746512418924929 0 -0.42140045260962489 -0.21331085224804261 0 -0.41685681033243982 -0.21746512418924929 0 -0.42140045260962489 -0.21331085224804261 0 -0.4232102070061276 -0.21869015764887889 0 -0.41303892827123678 -0.21093405469715851 0 -0.42140045260962489 -0.21331085224804261 0 -0.42072544033761272 -0.20369927590475301 0 -0.42512182626149492 -0.2033095177213731 0 -0.43378961613155448 -0.20908682079381441 0 -0.44184138868315109 -0.20247798044170351 0 -0.42072544033761272 -0.20369927590475301 0 -0.42512182626149492 -0.2033095177213731 0 -0.43133498143110582 -0.21921018883561361 0 -0.42072544033761272 -0.20369927590475301 0 -0.42512182626149492 -0.2033095177213731 0 -0.43133498143110582 -0.21921018883561361 0 -0.42512182626149492 -0.2033095177213731 0 -0.43378961613155448 -0.20908682079381441 0 -0.43133498143110582 -0.21921018883561361 0 -0.42140045260962489 -0.21331085224804261 0 -0.4232102070061276 -0.21869015764887889 0 -0.43133498143110582 -0.21921018883561361 0 -0.42072544033761272 -0.20369927590475301 0 -0.43133498143110582 -0.21921018883561361 0 -0.42140045260962489 -0.21331085224804261 0 -0.42072544033761272 -0.20369927590475301 0 -0.43133498143110582 -0.21921018883561361 0 -0.43378961613155448 -0.20908682079381441 0 -0.44166379455333399 -0.21604972156869759 0 -0.42032122747045741 -0.1927313373696285 0 -0.44184138868315109 -0.20247798044170351 0 -0.42032122747045741 -0.1927313373696285 0 -0.43099962817645188 -0.18319011649723049 0 -0.43833565968517207 -0.19112957676178299 0 -0.42032122747045741 -0.1927313373696285 0 -0.42512182626149492 -0.2033095177213731 0 -0.44184138868315109 -0.20247798044170351 0 -0.42032122747045741 -0.1927313373696285 0 -0.43833565968517207 -0.19112957676178299 0 -0.44184138868315109 -0.20247798044170351 0 -0.42032122747045741 -0.1927313373696285 0 -0.42072544033761272 -0.20369927590475301 0 -0.42512182626149492 -0.2033095177213731 0 -0.42549584187692119 -0.17333418479170171 0 -0.43099962817645188 -0.18319011649723049 0 -0.41834400919125792 -0.18158621355319651 0 -0.42032122747045741 -0.1927313373696285 0 -0.43099962817645188 -0.18319011649723049 0 -0.41834400919125792 -0.18158621355319651 0 -0.43099962817645188 -0.18319011649723049 0 -0.43495901877196291 -0.17485617288990979 0 -0.44455133712372419 -0.18300714728765441 0 -0.42549584187692119 -0.17333418479170171 0 -0.43099962817645188 -0.18319011649723049 0 -0.43495901877196291 -0.17485617288990979 0 -0.42549584187692119 -0.17333418479170171 0 -0.43495901877196291 -0.17485617288990979 0 -0.43155613508544272 -0.1669321437644439 0 -0.43495901877196291 -0.17485617288990979 0 -0.43155613508544272 -0.1669321437644439 0 -0.44219215159727421 -0.16781727210851849 0 -0.43155613508544272 -0.1669321437644439 0 -0.43166640735559808 -0.1552039120346444 0 -0.44219215159727421 -0.16781727210851849 0 -0.43155613508544272 -0.1669321437644439 0 -0.4214232379976206 -0.16216052115063159 0 -0.43166640735559808 -0.1552039120346444 0 -0.42549584187692119 -0.17333418479170171 0 -0.43155613508544272 -0.1669321437644439 0 -0.4214232379976206 -0.16216052115063159 0 -0.42549584187692119 -0.17333418479170171 0 -0.4214232379976206 -0.16216052115063159 0 -0.41110577652129249 -0.1670682470007229 0 -0.4214232379976206 -0.16216052115063159 0 -0.41110577652129249 -0.1670682470007229 0 -0.40669002996807779 -0.1495058137550834 0 -0.41110577652129249 -0.1670682470007229 0 -0.41834400919125792 -0.18158621355319651 0 -0.40730162077548249 -0.18407395049314179 0 -0.42549584187692119 -0.17333418479170171 0 -0.41110577652129249 -0.1670682470007229 0 -0.41834400919125792 -0.18158621355319651 0 -0.42032122747045741 -0.1927313373696285 0 -0.41834400919125792 -0.18158621355319651 0 -0.40730162077548249 -0.18407395049314179 0 -0.39543971762078378 -0.19194216334420211 0 -0.40730162077548249 -0.18407395049314179 0 -0.39267839793348491 -0.17927693187167279 0 -0.40730162077548249 -0.18407395049314179 0 -0.39267839793348491 -0.17927693187167279 0 -0.39387780121335469 -0.16444862508152899 0 -0.40730162077548249 -0.18407395049314179 0 -0.39387780121335469 -0.16444862508152899 0 -0.37378547386561772 -0.17392500984250869 0 -0.36895563931783232 -0.19259611207654981 0 -0.3831693110633177 -0.1873742460103984 0 -0.37378547386561772 -0.17392500984250869 0 -0.39267839793348491 -0.17927693187167279 0 -0.3831693110633177 -0.1873742460103984 0 -0.37378547386561772 -0.17392500984250869 0 -0.39267839793348491 -0.17927693187167279 0 -0.39387780121335469 -0.16444862508152899 0 -0.39543971762078378 -0.19194216334420211 0 -0.39267839793348491 -0.17927693187167279 0 -0.3831693110633177 -0.1873742460103984 0 -0.37378547386561772 -0.17392500984250869 0 -0.37839901512320262 -0.15996290040625341 0 -0.39387780121335469 -0.16444862508152899 0 -0.37839901512320262 -0.15996290040625341 0 -0.39387780121335469 -0.16444862508152899 0 -0.3804539816512269 -0.14482329966991631 0 -0.41110577652129249 -0.1670682470007229 0 -0.39387780121335469 -0.16444862508152899 0 -0.40669002996807779 -0.1495058137550834 0 -0.41110577652129249 -0.1670682470007229 0 -0.40730162077548249 -0.18407395049314179 0 -0.39387780121335469 -0.16444862508152899 0 -0.39387780121335469 -0.16444862508152899 0 -0.3804539816512269 -0.14482329966991631 0 -0.40669002996807779 -0.1495058137550834 0 -0.3804539816512269 -0.14482329966991631 0 -0.39647179587780151 -0.13189450107720049 0 -0.40669002996807779 -0.1495058137550834 0 -0.3804539816512269 -0.14482329966991631 0 -0.40669002996807779 -0.1495058137550834 0 -0.39387780121335469 -0.16444862508152899 0 -0.3804539816512269 -0.14482329966991631 0 -0.3804539816512269 -0.14482329966991631 0 -0.38278168804071749 -0.12940228238898679 0 -0.39647179587780151 -0.13189450107720049 0 -0.3804539816512269 -0.14482329966991631 0 -0.39647179587780151 -0.13189450107720049 0 -0.37212838853434238 -0.11808059788504249 0 -0.37028068739271691 -0.13083580994494901 0 -0.38278168804071749 -0.12940228238898679 0 -0.37028068739271691 -0.13083580994494901 0 -0.3804539816512269 -0.14482329966991631 0 -0.38278168804071749 -0.12940228238898679 0 -0.38278168804071749 -0.12940228238898679 0 -0.39647179587780151 -0.13189450107720049 0 -0.39044023874876249 -0.11757149150947201 0 -0.39647179587780151 -0.13189450107720049 0 -0.40828286160401828 -0.1310364195873514 0 -0.40669002996807779 -0.1495058137550834 0 -0.39647179587780151 -0.13189450107720049 0 -0.40828286160401828 -0.1310364195873514 0 -0.41122993917504558 -0.1199812866788818 0 -0.39647179587780151 -0.13189450107720049 0 -0.41122993917504558 -0.1199812866788818 0 -0.40828286160401828 -0.1310364195873514 0 -0.41930562378398423 -0.12797048681614909 0 -0.41122993917504558 -0.1199812866788818 0 -0.41930562378398423 -0.12797048681614909 0 -0.41533589961201212 -0.13938201891822019 0 -0.4273858072007774 -0.14414008567558009 0 -0.40828286160401828 -0.1310364195873514 0 -0.41533589961201212 -0.13938201891822019 0 -0.40669002996807779 -0.1495058137550834 0 -0.40828286160401828 -0.1310364195873514 0 -0.41930562378398423 -0.12797048681614909 0 -0.41533589961201212 -0.13938201891822019 0 -0.40669002996807779 -0.1495058137550834 0 -0.43166640735559808 -0.1552039120346444 0 -0.4214232379976206 -0.16216052115063159 0 -0.40669002996807779 -0.1495058137550834 0 -0.43166640735559808 -0.1552039120346444 0 -0.41533589961201212 -0.13938201891822019 0 -0.40669002996807779 -0.1495058137550834 0 -0.4273858072007774 -0.14414008567558009 0 -0.40669002996807779 -0.1495058137550834 0 -0.4273858072007774 -0.14414008567558009 0 -0.43166640735559808 -0.1552039120346444 0 -0.43166640735559808 -0.1552039120346444 0 -0.43525592456887258 -0.14374997194848471 0 -0.44410307239699631 -0.15282998285397989 0 -0.4273858072007774 -0.14414008567558009 0 -0.43166640735559808 -0.1552039120346444 0 -0.43525592456887258 -0.14374997194848471 0 -0.41930562378398423 -0.12797048681614909 0 -0.43525592456887258 -0.14374997194848471 0 -0.41930562378398423 -0.12797048681614909 0 -0.4273858072007774 -0.14414008567558009 0 -0.43525592456887258 -0.14374997194848471 0 -0.41930562378398423 -0.12797048681614909 0 -0.4273858072007774 -0.14414008567558009 0 -0.41930562378398423 -0.12797048681614909 0 -0.43525592456887258 -0.14374997194848471 0 -0.43389101300267191 -0.13422730327376839 0 -0.41930562378398423 -0.12797048681614909 0 -0.43389101300267191 -0.13422730327376839 0 -0.4149348530849476 -0.1169905694289516 0 -0.43389101300267191 -0.13422730327376839 0 -0.4149348530849476 -0.1169905694289516 0 -0.43389101300267191 -0.13422730327376839 0 -0.43160182387889101 -0.1187955019330571 0 -0.44085253015216358 -0.1237950587173612 0 -0.43389101300267191 -0.13422730327376839 0 -0.44872577578551592 -0.13320174295465559 0 -0.452847172920396 -0.1514640371185853 0 -0.44872577578551592 -0.13320174295465559 0 -0.45896755277767909 -0.12575633132281341 0 -0.45000974795797011 -0.119430952696417 0 -0.44872577578551592 -0.13320174295465559 0 -0.45000974795797011 -0.119430952696417 0 -0.44085253015216358 -0.1237950587173612 0 -0.43389101300267191 -0.13422730327376839 0 -0.44872577578551592 -0.13320174295465559 0 -0.44085253015216358 -0.1237950587173612 0 -0.43525592456887258 -0.14374997194848471 0 -0.43389101300267191 -0.13422730327376839 0 -0.452847172920396 -0.1514640371185853 0 -0.43525592456887258 -0.14374997194848471 0 -0.44410307239699631 -0.15282998285397989 0 -0.452847172920396 -0.1514640371185853 0 -0.44872577578551592 -0.13320174295465559 0 -0.452847172920396 -0.1514640371185853 0 -0.456386085566235 -0.14096643446963419 0 -0.43389101300267191 -0.13422730327376839 0 -0.452847172920396 -0.1514640371185853 0 -0.44410307239699631 -0.15282998285397989 0 -0.452847172920396 -0.1514640371185853 0 -0.45664278474311831 -0.16090201031420531 0 -0.452847172920396 -0.1514640371185853 0 -0.456386085566235 -0.14096643446963419 0 -0.46738274896045578 -0.15003021006820461 0 -0.452847172920396 -0.1514640371185853 0 -0.46738274896045578 -0.15003021006820461 0 -0.45664278474311831 -0.16090201031420531 0 -0.456386085566235 -0.14096643446963419 0 -0.46738274896045578 -0.15003021006820461 0 -0.47200539146090159 -0.13839174763128981 0 -0.456386085566235 -0.14096643446963419 0 -0.47200539146090159 -0.13839174763128981 0 -0.47750202174635031 -0.1215216316744509 0 -0.456386085566235 -0.14096643446963419 0 -0.45896755277767909 -0.12575633132281341 0 -0.47750202174635031 -0.1215216316744509 0 -0.456386085566235 -0.14096643446963419 0 -0.47750202174635031 -0.1215216316744509 0 -0.44872577578551592 -0.13320174295465559 0 -0.456386085566235 -0.14096643446963419 0 -0.45896755277767909 -0.12575633132281341 0 -0.47200539146090159 -0.13839174763128981 0 -0.48675070957056549 -0.14104871431286931 0 -0.47750202174635031 -0.1215216316744509 0 -0.50000000000000011 -0.12648838757554831 0 -0.48675070957056549 -0.14104871431286931 0 -0.5 -0.15043640832747529 0 -0.50000000000000011 -0.12648838757554831 0 -0.48675070957056549 -0.14104871431286931 0 -0.47750202174635031 -0.1215216316744509 0 -0.48675070957056549 -0.14104871431286931 0 -0.5 -0.15043640832747529 0 -0.48062174440056549 -0.15969986187448909 0 -0.46738274896045578 -0.15003021006820461 0 -0.47200539146090159 -0.13839174763128981 0 -0.48675070957056549 -0.14104871431286931 0 -0.48675070957056549 -0.14104871431286931 0 -0.48062174440056549 -0.15969986187448909 0 -0.46738274896045578 -0.15003021006820461 0 -0.48675070957056549 -0.14104871431286931 0 -0.48062174440056549 -0.15969986187448909 0 -0.48062174440056549 -0.15969986187448909 0 -0.46548313673471758 -0.16971310035941381 0 -0.46753260370971428 -0.1600862956540782 0 -0.46738274896045578 -0.15003021006820461 0 -0.48062174440056549 -0.15969986187448909 0 -0.46753260370971428 -0.1600862956540782 0 -0.48062174440056549 -0.15969986187448909 0 -0.47449277923056221 -0.17835100943610771 0 -0.46548313673471758 -0.16971310035941381 0 -0.48062174440056549 -0.15969986187448909 0 -0.47449277923056221 -0.17835100943610771 0 -0.5 -0.15043640832747529 0 -0.48062174440056549 -0.15969986187448909 0 -0.49999999999999828 -0.17438442907940241 0 -0.48062174440056549 -0.15969986187448909 0 -0.49999999999999828 -0.17438442907940241 0 -0.47449277923056221 -0.17835100943610771 0 -0.49999999999999828 -0.17438442907940241 0 -0.47449277923056221 -0.17835100943610771 0 -0.49999999999999828 -0.17438442907940241 0 -0.47449277923056221 -0.17835100943610771 0 -0.48549376880548989 -0.19132810400505559 0 -0.47449277923056221 -0.17835100943610771 0 -0.46892716456320649 -0.19528781647494389 0 -0.47449277923056221 -0.17835100943610771 0 -0.45952205817714309 -0.18067907836188021 0 -0.46892716456320649 -0.19528781647494389 0 -0.45952205817714309 -0.18067907836188021 0 -0.46548313673471758 -0.16971310035941381 0 -0.45289664290439807 -0.17180374819378549 0 -0.47449277923056221 -0.17835100943610771 0 -0.45952205817714309 -0.18067907836188021 0 -0.47449277923056221 -0.17835100943610771 0 -0.45952205817714309 -0.18067907836188021 0 -0.46548313673471758 -0.16971310035941381 0 -0.46548313673471758 -0.16971310035941381 0 -0.46753260370971428 -0.1600862956540782 0 -0.45664278474311831 -0.16090201031420531 0 -0.46738274896045578 -0.15003021006820461 0 -0.46753260370971428 -0.1600862956540782 0 -0.45664278474311831 -0.16090201031420531 0 -0.46548313673471758 -0.16971310035941381 0 -0.45664278474311831 -0.16090201031420531 0 -0.45289664290439807 -0.17180374819378549 0 -0.45664278474311831 -0.16090201031420531 0 -0.45289664290439807 -0.17180374819378549 0 -0.44219215159727421 -0.16781727210851849 0 -0.43166640735559808 -0.1552039120346444 0 -0.45664278474311831 -0.16090201031420531 0 -0.44219215159727421 -0.16781727210851849 0 -0.43166640735559808 -0.1552039120346444 0 -0.45664278474311831 -0.16090201031420531 0 -0.43166640735559808 -0.1552039120346444 0 -0.44410307239699631 -0.15282998285397989 0 -0.45664278474311831 -0.16090201031420531 0 -0.43495901877196291 -0.17485617288990979 0 -0.44219215159727421 -0.16781727210851849 0 -0.44455133712372419 -0.18300714728765441 0 -0.43099962817645188 -0.18319011649723049 0 -0.44455133712372419 -0.18300714728765441 0 -0.43833565968517207 -0.19112957676178299 0 -0.45952205817714309 -0.18067907836188021 0 -0.44455133712372419 -0.18300714728765441 0 -0.45396471697207569 -0.194241302212698 0 -0.45952205817714309 -0.18067907836188021 0 -0.44455133712372419 -0.18300714728765441 0 -0.45952205817714309 -0.18067907836188021 0 -0.45289664290439807 -0.17180374819378549 0 -0.44455133712372419 -0.18300714728765441 0 -0.45289664290439807 -0.17180374819378549 0 -0.44219215159727421 -0.16781727210851849 0 -0.44455133712372419 -0.18300714728765441 0 -0.44455133712372419 -0.18300714728765441 0 -0.43833565968517207 -0.19112957676178299 0 -0.45396471697207569 -0.194241302212698 0 -0.43833565968517207 -0.19112957676178299 0 -0.44184138868315109 -0.20247798044170351 0 -0.45396471697207569 -0.194241302212698 0 -0.44184138868315109 -0.20247798044170351 0 -0.46336154989584488 -0.2122246235137781 0 -0.45396471697207569 -0.194241302212698 0 -0.44184138868315109 -0.20247798044170351 0 -0.46336154989584488 -0.2122246235137781 0 -0.45338394269579491 -0.2190794284651259 0 -0.43378961613155448 -0.20908682079381441 0 -0.44184138868315109 -0.20247798044170351 0 -0.44166379455333399 -0.21604972156869759 0 -0.44184138868315109 -0.20247798044170351 0 -0.44166379455333399 -0.21604972156869759 0 -0.45338394269579491 -0.2190794284651259 0 -0.44184138868315109 -0.20247798044170351 0 -0.46336154989584488 -0.2122246235137781 0 -0.46336154989584488 -0.2122246235137781 0 -0.46892716456320649 -0.19528781647494389 0 -0.46336154989584488 -0.2122246235137781 0 -0.45396471697207569 -0.194241302212698 0 -0.46892716456320649 -0.19528781647494389 0 -0.45952205817714309 -0.18067907836188021 0 -0.45396471697207569 -0.194241302212698 0 -0.46892716456320649 -0.19528781647494389 0 -0.47449277923056221 -0.17835100943610771 0 -0.46892716456320649 -0.19528781647494389 0 -0.48549376880548989 -0.19132810400505559 0 -0.46892716456320649 -0.19528781647494389 0 -0.48549376880548989 -0.19132810400505559 0 -0.47978640147694102 -0.20418872613165631 0 -0.5 -0.20182215567114031 0 -0.48549376880548989 -0.19132810400505559 0 -0.47978640147694102 -0.20418872613165631 0 -0.49999999999999828 -0.17438442907940241 0 -0.5 -0.20182215567114031 0 -0.48549376880548989 -0.19132810400505559 0 -0.5 -0.20182215567114031 0 -0.48114952412016337 -0.22028093099336349 0 -0.49893749834448198 -0.22833723847294871 0 -0.5 -0.20182215567114031 0 -0.47978640147694102 -0.20418872613165631 0 -0.48114952412016337 -0.22028093099336349 0 -0.46336154989584488 -0.2122246235137781 0 -0.48114952412016337 -0.22028093099336349 0 -0.46336154989584488 -0.2122246235137781 0 -0.47978640147694102 -0.20418872613165631 0 -0.48114952412016337 -0.22028093099336349 0 -0.46336154989584488 -0.2122246235137781 0 -0.46892716456320649 -0.19528781647494389 0 -0.47978640147694102 -0.20418872613165631 0 -0.46336154989584488 -0.2122246235137781 0 -0.48114952412016337 -0.22028093099336349 0 -0.46857810181099829 -0.22486784275082261 0 -0.48114952412016337 -0.22028093099336349 0 -0.48798868478634799 -0.231470988200419 0 -0.47142395938804471 -0.23802335247430181 0 -0.48114952412016337 -0.22028093099336349 0 -0.47142395938804471 -0.23802335247430181 0 -0.46857810181099829 -0.22486784275082261 0 -0.48114952412016337 -0.22028093099336349 0 -0.48798868478634799 -0.231470988200419 0 -0.49893749834448198 -0.22833723847294871 0 -0.48114952412016337 -0.22028093099336349 0 -0.49893749834448198 -0.22833723847294871 0 -0.48798868478634799 -0.231470988200419 0 -0.49893749834448198 -0.22833723847294871 0 -0.4875835208682564 -0.24248539692068891 0 -0.5 -0.25669760885461612 0 -0.49893749834448198 -0.22833723847294871 0 -0.4875835208682564 -0.24248539692068891 0 -0.48798868478634799 -0.231470988200419 0 -0.4875835208682564 -0.24248539692068891 0 -0.47142395938804471 -0.23802335247430181 0 -0.47878778985378329 -0.25835102983948688 0 -0.4875835208682564 -0.24248539692068891 0 -0.47142395938804471 -0.23802335247430181 0 -0.45662330498375908 -0.25656877445722759 0 -0.47142395938804471 -0.23802335247430181 0 -0.45034617445999431 -0.24335722649563979 0 -0.47142395938804471 -0.23802335247430181 0 -0.45735065046854989 -0.23051648340969341 0 -0.45034617445999431 -0.24335722649563979 0 -0.46336154989584488 -0.2122246235137781 0 -0.46857810181099829 -0.22486784275082261 0 -0.45735065046854989 -0.23051648340969341 0 -0.46336154989584488 -0.2122246235137781 0 -0.45735065046854989 -0.23051648340969341 0 -0.47142395938804471 -0.23802335247430181 0 -0.46857810181099829 -0.22486784275082261 0 -0.45735065046854989 -0.23051648340969341 0 -0.46336154989584488 -0.2122246235137781 0 -0.45338394269579491 -0.2190794284651259 0 -0.45735065046854989 -0.23051648340969341 0 -0.45338394269579491 -0.2190794284651259 0 -0.45735065046854989 -0.23051648340969341 0 -0.43806130733353449 -0.23541812032183559 0 -0.44166379455333399 -0.21604972156869759 0 -0.43806130733353449 -0.23541812032183559 0 -0.44166379455333399 -0.21604972156869759 0 -0.45338394269579491 -0.2190794284651259 0 -0.43806130733353449 -0.23541812032183559 0 -0.45735065046854989 -0.23051648340969341 0 -0.45034617445999431 -0.24335722649563979 0 -0.43806130733353449 -0.23541812032183559 0 -0.43445882011373449 -0.25478651907497341 0 -0.45034617445999431 -0.24335722649563979 0 -0.43806130733353449 -0.23541812032183559 0 -0.41324955929443102 -0.038374170610562031 0 -0.41005136228565903 -0.05540387285823338 0 -0.42435348212729052 -0.04457483879584373 0 -0.41324955929443102 -0.038374170610562031 0 -0.41005136228565903 -0.05540387285823338 0 -0.39900851660089293 -0.046429079601448257 0 -0.41324955929443102 -0.038374170610562031 0 -0.40747857107326091 -0.02424585309778798 0 -0.40045416304880688 -0.034240371911693122 0 -0.41005136228565903 -0.05540387285823338 0 -0.4246600563061857 -0.059067830999859447 0 -0.41422906440869389 -0.068128229862373102 0 -0.41005136228565903 -0.05540387285823338 0 -0.4246600563061857 -0.059067830999859447 0 -0.42435348212729052 -0.04457483879584373 0 -0.4246600563061857 -0.059067830999859447 0 -0.42435348212729052 -0.04457483879584373 0 -0.43957367317472601 -0.045089571971719818 0 -0.4246600563061857 -0.059067830999859447 0 -0.43957367317472601 -0.045089571971719818 0 -0.44544580640037118 -0.056213229689383748 0 -0.41324955929443102 -0.038374170610562031 0 -0.42435348212729052 -0.04457483879584373 0 -0.42981912379901888 -0.030443092666165631 0 -0.42435348212729052 -0.04457483879584373 0 -0.42981912379901888 -0.030443092666165631 0 -0.43957367317472601 -0.045089571971719818 0 -0.41302196833726168 -0.01226972299954816 0 -0.4392085005598273 -0.024676348383282701 0 -0.42659341977192161 -0.010103830507352861 0 -0.41302196833726168 -0.01226972299954816 0 -0.4392085005598273 -0.024676348383282701 0 -0.42981912379901888 -0.030443092666165631 0 -0.41673372021425997 -0.022240754673565791 0 -0.4392085005598273 -0.024676348383282701 0 -0.41302196833726168 -0.01226972299954816 0 -0.41673372021425997 -0.022240754673565791 0 -0.4392085005598273 -0.024676348383282701 0 -0.43741768347029059 -0.01288367903972009 0 -0.42659341977192161 -0.010103830507352861 0 -0.4392085005598273 -0.024676348383282701 0 -0.4441818909265971 -0.00998157505946092 0 -0.42578104856505677 0.0031949168855625672 0 -0.43741768347029059 -0.01288367903972009 0 -0.4441818909265971 -0.00998157505946092 0 -0.42578104856505677 0.0031949168855625672 0 -0.43741768347029059 -0.01288367903972009 0 -0.42659341977192161 -0.010103830507352861 0 -0.42578104856505677 0.0031949168855625672 0 -0.43741768347029059 -0.01288367903972009 0 -0.42578104856505677 0.0031949168855625672 0 -0.42659341977192161 -0.010103830507352861 0 -0.41753789792717189 -0.0038843189997757009 0 -0.42578104856505677 0.0031949168855625672 0 -0.42659341977192161 -0.010103830507352861 0 -0.41753789792717189 -0.0038843189997757009 0 -0.41302196833726168 -0.01226972299954816 0 -0.41753789792717189 -0.0038843189997757009 0 -0.41302196833726168 -0.01226972299954816 0 -0.40771050441737638 -0.0035262849216432719 0 -0.41753789792717189 -0.0038843189997757009 0 -0.40771050441737638 -0.0035262849216432719 0 -0.41105156913745711 0.0034129409419674369 0 -0.42981912379901888 -0.030443092666165631 0 -0.40747857107326091 -0.02424585309778798 0 -0.41324955929443102 -0.038374170610562031 0 -0.42981912379901888 -0.030443092666165631 0 -0.40747857107326091 -0.02424585309778798 0 -0.42981912379901888 -0.030443092666165631 0 -0.41673372021425997 -0.022240754673565791 0 -0.40747857107326091 -0.02424585309778798 0 -0.41302196833726168 -0.01226972299954816 0 -0.41673372021425997 -0.022240754673565791 0 -0.40747857107326091 -0.02424585309778798 0 -0.41673372021425997 -0.022240754673565791 0 -0.40747857107326091 -0.02424585309778798 0 -0.40747857107326091 -0.02424585309778798 0 -0.38992317137517202 -0.02804917422583518 0 -0.40747857107326091 -0.02424585309778798 0 -0.38992317137517202 -0.02804917422583518 0 -0.38297625517291389 -0.017448943304264108 0 -0.40747857107326091 -0.02424585309778798 0 -0.38992317137517202 -0.02804917422583518 0 -0.40045416304880688 -0.034240371911693122 0 -0.40747857107326091 -0.02424585309778798 0 -0.39567459441968961 -0.012635194689989219 0 -0.38297625517291389 -0.017448943304264108 0 -0.40747857107326091 -0.02424585309778798 0 -0.38297625517291389 -0.017448943304264108 0 -0.41302196833726168 -0.01226972299954816 0 -0.40747857107326091 -0.02424585309778798 0 -0.39567459441968961 -0.012635194689989219 0 -0.41302196833726168 -0.01226972299954816 0 -0.40771050441737638 -0.0035262849216432719 0 -0.38683543611469601 0.0001369023841863784 0 -0.41302196833726168 -0.01226972299954816 0 -0.39567459441968961 -0.012635194689989219 0 -0.38683543611469601 0.0001369023841863784 0 -0.41302196833726168 -0.01226972299954816 0 -0.38683543611469601 0.0001369023841863784 0 -0.40771050441737638 -0.0035262849216432719 0 -0.38683543611469601 0.0001369023841863784 0 -0.40226596945639398 0.0014711925349297271 0 -0.39567459441968961 -0.012635194689989219 0 -0.38502252263107412 -0.0084426060797158468 0 -0.38683543611469601 0.0001369023841863784 0 -0.39567459441968961 -0.012635194689989219 0 -0.38502252263107412 -0.0084426060797158468 0 -0.38297625517291389 -0.017448943304264108 0 -0.38502252263107412 -0.0084426060797158468 0 -0.38009964520605882 -0.0090403485437739461 0 -0.38297625517291389 -0.017448943304264108 0 -0.37278444596104371 -0.0079457960458173115 0 -0.38009964520605882 -0.0090403485437739461 0 -0.38297625517291389 -0.017448943304264108 0 -0.37474494217865062 -0.0022388935110706832 0 -0.38502252263107412 -0.0084426060797158468 0 -0.38683543611469601 0.0001369023841863784 0 -0.37474494217865062 -0.0022388935110706832 0 -0.38502252263107412 -0.0084426060797158468 0 -0.38009964520605882 -0.0090403485437739461 0 -0.37474494217865062 -0.0022388935110706832 0 -0.37278444596104371 -0.0079457960458173115 0 -0.38009964520605882 -0.0090403485437739461 0 -0.37236777167708351 -0.031852495353884333 0 -0.38992317137517202 -0.02804917422583518 0 -0.37990921189048049 -0.023302515363219579 0 -0.37236777167708351 -0.031852495353884333 0 -0.38992317137517202 -0.02804917422583518 0 -0.38992317137517202 -0.02804917422583518 0 -0.38297625517291389 -0.017448943304264108 0 -0.37990921189048049 -0.023302515363219579 0 -0.3739022591900184 -0.02415390189740213 0 -0.38297625517291389 -0.017448943304264108 0 -0.37990921189048049 -0.023302515363219579 0 -0.37236777167708351 -0.031852495353884333 0 -0.3739022591900184 -0.02415390189740213 0 -0.37990921189048049 -0.023302515363219579 0 -0.37236777167708351 -0.031852495353884333 0 -0.37990921189048049 -0.023302515363219579 0 -0.38458287424021398 -0.039388642062709187 0 -0.39900851660089293 -0.046429079601448257 0 -0.3815482533063424 -0.052412606119804542 0 -0.37355784227175309 -0.045246792894939887 0 -0.37236777167708351 -0.031852495353884333 0 -0.38458287424021398 -0.039388642062709187 0 -0.37236777167708351 -0.031852495353884333 0 -0.38992317137517202 -0.02804917422583518 0 -0.38458287424021398 -0.039388642062709187 0 -0.37355784227175309 -0.045246792894939887 0 -0.38458287424021398 -0.039388642062709187 0 -0.3815482533063424 -0.052412606119804542 0 -0.38458287424021398 -0.039388642062709187 0 -0.39900851660089293 -0.046429079601448257 0 -0.40045416304880688 -0.034240371911693122 0 -0.38992317137517202 -0.02804917422583518 0 -0.38458287424021398 -0.039388642062709187 0 -0.40045416304880688 -0.034240371911693122 0 -0.41324955929443102 -0.038374170610562031 0 -0.39900851660089293 -0.046429079601448257 0 -0.40045416304880688 -0.034240371911693122 0 -0.39900851660089293 -0.046429079601448257 0 -0.39626447370361728 -0.06091275685647668 0 -0.3815482533063424 -0.052412606119804542 0 -0.41005136228565903 -0.05540387285823338 0 -0.39626447370361728 -0.06091275685647668 0 -0.40517181862379281 -0.066558370858305557 0 -0.41005136228565903 -0.05540387285823338 0 -0.39900851660089293 -0.046429079601448257 0 -0.39626447370361728 -0.06091275685647668 0 -0.36862349457690058 -0.057461967220355487 0 -0.3815482533063424 -0.052412606119804542 0 -0.37947166312044489 -0.067272628224985004 0 -0.3815482533063424 -0.052412606119804542 0 -0.37947166312044489 -0.067272628224985004 0 -0.39260231949431601 -0.074533368335879327 0 -0.36882665317829499 -0.078032107790563188 0 -0.39260231949431601 -0.074533368335879327 0 -0.39626447370361728 -0.06091275685647668 0 -0.3815482533063424 -0.052412606119804542 0 -0.39260231949431601 -0.074533368335879327 0 -0.3815482533063424 -0.052412606119804542 0 -0.39260231949431601 -0.074533368335879327 0 -0.36882665317829499 -0.078032107790563188 0 -0.37947166312044489 -0.067272628224985004 0 -0.39260231949431601 -0.074533368335879327 0 -0.36882665317829499 -0.078032107790563188 0 -0.39260231949431601 -0.074533368335879327 0 -0.39002829617667018 -0.099006697234722524 0 -0.36882665317829499 -0.078032107790563188 0 -0.39002829617667018 -0.099006697234722524 0 -0.37367929427193591 -0.1014825750548952 0 -0.36882665317829499 -0.078032107790563188 0 -0.39002829617667018 -0.099006697234722524 0 -0.39260231949431601 -0.074533368335879327 0 -0.39002829617667018 -0.099006697234722524 0 -0.39510370691593599 -0.098958215311000047 0 -0.39260231949431601 -0.074533368335879327 0 -0.40274583300482147 -0.094831984843681591 0 -0.39260231949431601 -0.074533368335879327 0 -0.39510370691593599 -0.098958215311000047 0 -0.40274583300482147 -0.094831984843681591 0 -0.40361170428446441 -0.083317353290434007 0 -0.39260231949431601 -0.074533368335879327 0 -0.40274583300482147 -0.094831984843681591 0 -0.40361170428446441 -0.083317353290434007 0 -0.39867569396630093 -0.073639632925658519 0 -0.40696916935602839 -0.074517235882718885 0 -0.39867569396630093 -0.073639632925658519 0 -0.40517181862379281 -0.066558370858305557 0 -0.40696916935602839 -0.074517235882718885 0 -0.39626447370361728 -0.06091275685647668 0 -0.39867569396630093 -0.073639632925658519 0 -0.40517181862379281 -0.066558370858305557 0 -0.39626447370361728 -0.06091275685647668 0 -0.39867569396630093 -0.073639632925658519 0 -0.39260231949431601 -0.074533368335879327 0 -0.40361170428446441 -0.083317353290434007 0 -0.39867569396630093 -0.073639632925658519 0 -0.39260231949431601 -0.074533368335879327 0 -0.39867569396630093 -0.073639632925658519 0 -0.39260231949431601 -0.074533368335879327 0 -0.37212838853434238 -0.11808059788504249 0 -0.38278168804071749 -0.12940228238898679 0 -0.39044023874876249 -0.11757149150947201 0 -0.37367929427193591 -0.1014825750548952 0 -0.37212838853434238 -0.11808059788504249 0 -0.39044023874876249 -0.11757149150947201 0 -0.37367929427193591 -0.1014825750548952 0 -0.39044023874876249 -0.11757149150947201 0 -0.39002829617667018 -0.099006697234722524 0 -0.39510370691593599 -0.098958215311000047 0 -0.40274583300482147 -0.094831984843681591 0 -0.41288934651532883 -0.11513060135148299 0 -0.39002829617667018 -0.099006697234722524 0 -0.39510370691593599 -0.098958215311000047 0 -0.41122993917504558 -0.1199812866788818 0 -0.39510370691593599 -0.098958215311000047 0 -0.41288934651532883 -0.11513060135148299 0 -0.39647179587780151 -0.13189450107720049 0 -0.39044023874876249 -0.11757149150947201 0 -0.41122993917504558 -0.1199812866788818 0 -0.39002829617667018 -0.099006697234722524 0 -0.41122993917504558 -0.1199812866788818 0 -0.39044023874876249 -0.11757149150947201 0 -0.39002829617667018 -0.099006697234722524 0 -0.41122993917504558 -0.1199812866788818 0 -0.39510370691593599 -0.098958215311000047 0 -0.41122993917504558 -0.1199812866788818 0 -0.41288934651532883 -0.11513060135148299 0 -0.41930562378398423 -0.12797048681614909 0 -0.41122993917504558 -0.1199812866788818 0 -0.4149348530849476 -0.1169905694289516 0 -0.41930562378398423 -0.12797048681614909 0 -0.41122993917504558 -0.1199812866788818 0 -0.41930562378398423 -0.12797048681614909 0 -0.4149348530849476 -0.1169905694289516 0 -0.41122993917504558 -0.1199812866788818 0 -0.41288934651532883 -0.11513060135148299 0 -0.4149348530849476 -0.1169905694289516 0 -0.41122993917504558 -0.1199812866788818 0 -0.4149348530849476 -0.1169905694289516 0 -0.41288934651532883 -0.11513060135148299 0 -0.4149348530849476 -0.1169905694289516 0 -0.41288934651532883 -0.11513060135148299 0 -0.4149348530849476 -0.1169905694289516 0 -0.41458672172207622 -0.10427776634057311 0 -0.40274583300482147 -0.094831984843681591 0 -0.41288934651532883 -0.11513060135148299 0 -0.4149348530849476 -0.1169905694289516 0 -0.41458672172207622 -0.10427776634057311 0 -0.43059848591229039 -0.1043464168163742 0 -0.40274583300482147 -0.094831984843681591 0 -0.41288934651532883 -0.11513060135148299 0 -0.41458672172207622 -0.10427776634057311 0 -0.41458672172207622 -0.10427776634057311 0 -0.41348552386521947 -0.090840815536544176 0 -0.43025813067654672 -0.08737754853092726 0 -0.40274583300482147 -0.094831984843681591 0 -0.41458672172207622 -0.10427776634057311 0 -0.41348552386521947 -0.090840815536544176 0 -0.43059848591229039 -0.1043464168163742 0 -0.43025813067654672 -0.08737754853092726 0 -0.44626211873963212 -0.091702264203795431 0 -0.41458672172207622 -0.10427776634057311 0 -0.43059848591229039 -0.1043464168163742 0 -0.43025813067654672 -0.08737754853092726 0 -0.41458672172207622 -0.10427776634057311 0 -0.43025813067654672 -0.08737754853092726 0 -0.4149348530849476 -0.1169905694289516 0 -0.43059848591229039 -0.1043464168163742 0 -0.43160182387889101 -0.1187955019330571 0 -0.4149348530849476 -0.1169905694289516 0 -0.43059848591229039 -0.1043464168163742 0 -0.43389101300267191 -0.13422730327376839 0 -0.4149348530849476 -0.1169905694289516 0 -0.43160182387889101 -0.1187955019330571 0 -0.43059848591229039 -0.1043464168163742 0 -0.43160182387889101 -0.1187955019330571 0 -0.44003429013576911 -0.11331979272890801 0 -0.43160182387889101 -0.1187955019330571 0 -0.44085253015216358 -0.1237950587173612 0 -0.44003429013576911 -0.11331979272890801 0 -0.41422906440869389 -0.068128229862373102 0 -0.41539885585273961 -0.080089681603359497 0 -0.42594434486026628 -0.073522222089585226 0 -0.4246600563061857 -0.059067830999859447 0 -0.41422906440869389 -0.068128229862373102 0 -0.42594434486026628 -0.073522222089585226 0 -0.41005136228565903 -0.05540387285823338 0 -0.40517181862379281 -0.066558370858305557 0 -0.41422906440869389 -0.068128229862373102 0 -0.40517181862379281 -0.066558370858305557 0 -0.41422906440869389 -0.068128229862373102 0 -0.40696916935602839 -0.074517235882718885 0 -0.41422906440869389 -0.068128229862373102 0 -0.40696916935602839 -0.074517235882718885 0 -0.41539885585273961 -0.080089681603359497 0 -0.41348552386521947 -0.090840815536544176 0 -0.41539885585273961 -0.080089681603359497 0 -0.43025813067654672 -0.08737754853092726 0 -0.40361170428446441 -0.083317353290434007 0 -0.41348552386521947 -0.090840815536544176 0 -0.41539885585273961 -0.080089681603359497 0 -0.40361170428446441 -0.083317353290434007 0 -0.40696916935602839 -0.074517235882718885 0 -0.41539885585273961 -0.080089681603359497 0 -0.40361170428446441 -0.083317353290434007 0 -0.40274583300482147 -0.094831984843681591 0 -0.41348552386521947 -0.090840815536544176 0 -0.41539885585273961 -0.080089681603359497 0 -0.43025813067654672 -0.08737754853092726 0 -0.42594434486026628 -0.073522222089585226 0 -0.4246600563061857 -0.059067830999859447 0 -0.44592953963101739 -0.07047733072128165 0 -0.43025813067654672 -0.08737754853092726 0 -0.42594434486026628 -0.073522222089585226 0 -0.44592953963101739 -0.07047733072128165 0 -0.4246600563061857 -0.059067830999859447 0 -0.42594434486026628 -0.073522222089585226 0 -0.44592953963101739 -0.07047733072128165 0 -0.44592953963101739 -0.07047733072128165 0 -0.45893666683642192 -0.056450303318209168 0 -0.44592953963101739 -0.07047733072128165 0 -0.44626211873963212 -0.091702264203795431 0 -0.46192575156697407 -0.079058111591217034 0 -0.43025813067654672 -0.08737754853092726 0 -0.44592953963101739 -0.07047733072128165 0 -0.43025813067654672 -0.08737754853092726 0 -0.44592953963101739 -0.07047733072128165 0 -0.44626211873963212 -0.091702264203795431 0 -0.44626211873963212 -0.091702264203795431 0 -0.46631049206888459 -0.091444160656324658 0 -0.46192575156697407 -0.079058111591217034 0 -0.44626211873963212 -0.091702264203795431 0 -0.46192575156697407 -0.079058111591217034 0 -0.46631049206888459 -0.091444160656324658 0 -0.46192575156697407 -0.079058111591217034 0 -0.47702460168979111 -0.087157524427869615 0 -0.44592953963101739 -0.07047733072128165 0 -0.46192575156697407 -0.079058111591217034 0 -0.45893666683642192 -0.056450303318209168 0 -0.46192575156697407 -0.079058111591217034 0 -0.47491389520024407 -0.068573693827893439 0 -0.45893666683642192 -0.056450303318209168 0 -0.46192575156697407 -0.079058111591217034 0 -0.47491389520024407 -0.068573693827893439 0 -0.44592953963101739 -0.07047733072128165 0 -0.46192575156697407 -0.079058111591217034 0 -0.45000974795797011 -0.119430952696417 0 -0.44085253015216358 -0.1237950587173612 0 -0.44003429013576911 -0.11331979272890801 0 -0.45000974795797011 -0.119430952696417 0 -0.44003429013576911 -0.11331979272890801 0 -0.44926481423485548 -0.10476542824413421 0 -0.43059848591229039 -0.1043464168163742 0 -0.44626211873963212 -0.091702264203795431 0 -0.43059848591229039 -0.1043464168163742 0 -0.44626211873963212 -0.091702264203795431 0 -0.44926481423485548 -0.10476542824413421 0 -0.43059848591229039 -0.1043464168163742 0 -0.44003429013576911 -0.11331979272890801 0 -0.44926481423485548 -0.10476542824413421 0 -0.44626211873963212 -0.091702264203795431 0 -0.44926481423485548 -0.10476542824413421 0 -0.46153012095291662 -0.1019472767233552 0 -0.44626211873963212 -0.091702264203795431 0 -0.46631049206888459 -0.091444160656324658 0 -0.46153012095291662 -0.1019472767233552 0 -0.46631049206888459 -0.091444160656324658 0 -0.46153012095291662 -0.1019472767233552 0 -0.4710589232177344 -0.098453604121520433 0 -0.46153012095291662 -0.1019472767233552 0 -0.46221413283232399 -0.11366089481890911 0 -0.47430793409480421 -0.10627177682285049 0 -0.44926481423485548 -0.10476542824413421 0 -0.46153012095291662 -0.1019472767233552 0 -0.46221413283232399 -0.11366089481890911 0 -0.45896755277767909 -0.12575633132281341 0 -0.46221413283232399 -0.11366089481890911 0 -0.47750202174635031 -0.1215216316744509 0 -0.45000974795797011 -0.119430952696417 0 -0.44926481423485548 -0.10476542824413421 0 -0.46221413283232399 -0.11366089481890911 0 -0.45896755277767909 -0.12575633132281341 0 -0.45000974795797011 -0.119430952696417 0 -0.46221413283232399 -0.11366089481890911 0 -0.47750202174635031 -0.1215216316744509 0 -0.47430793409480421 -0.10627177682285049 0 -0.48673501487359588 -0.1010237797652184 0 -0.46221413283232399 -0.11366089481890911 0 -0.47750202174635031 -0.1215216316744509 0 -0.47430793409480421 -0.10627177682285049 0 -0.47430793409480421 -0.10627177682285049 0 -0.47745372589702628 -0.099742000537211661 0 -0.48673501487359588 -0.1010237797652184 0 -0.46153012095291662 -0.1019472767233552 0 -0.47430793409480421 -0.10627177682285049 0 -0.4710589232177344 -0.098453604121520433 0 -0.46631049206888459 -0.091444160656324658 0 -0.4710589232177344 -0.098453604121520433 0 -0.47771303140197108 -0.093218841439257433 0 -0.47430793409480421 -0.10627177682285049 0 -0.4710589232177344 -0.098453604121520433 0 -0.47745372589702628 -0.099742000537211661 0 -0.4710589232177344 -0.098453604121520433 0 -0.47745372589702628 -0.099742000537211661 0 -0.47771303140197108 -0.093218841439257433 0 -0.47745372589702628 -0.099742000537211661 0 -0.48673501487359588 -0.1010237797652184 0 -0.47771303140197108 -0.093218841439257433 0 -0.48673501487359588 -0.1010237797652184 0 -0.47771303140197108 -0.093218841439257433 0 -0.47702460168979111 -0.087157524427869615 0 -0.47750202174635031 -0.1215216316744509 0 -0.48673501487359588 -0.1010237797652184 0 -0.4986179579264654 -0.1020768288792674 0 -0.48673501487359588 -0.1010237797652184 0 -0.49842317329231273 -0.098636270432611556 0 -0.47702460168979111 -0.087157524427869615 0 -0.48673501487359588 -0.1010237797652184 0 -0.49842317329231273 -0.098636270432611556 0 -0.4986179579264654 -0.1020768288792674 0 -0.49999999999999939 -0.099482120969144883 0 -0.49842317329231273 -0.098636270432611556 0 -0.4986179579264654 -0.1020768288792674 0 -0.49842317329231273 -0.098636270432611556 0 -0.4986179579264654 -0.1020768288792674 0 -0.49999999999999939 -0.099482120969144883 0 -0.49842317329231273 -0.098636270432611556 0 -0.50000000000000011 -0.12648838757554831 0 -0.47750202174635031 -0.1215216316744509 0 -0.4986179579264654 -0.1020768288792674 0 -0.47750202174635031 -0.1215216316744509 0 -0.4986179579264654 -0.1020768288792674 0 -0.47491389520024407 -0.068573693827893439 0 -0.47702460168979111 -0.087157524427869615 0 -0.4847984782487687 -0.075944598732494498 0 -0.47491389520024407 -0.068573693827893439 0 -0.47702460168979111 -0.087157524427869615 0 -0.47967839073812912 -0.064727650616396362 0 -0.4847984782487687 -0.075944598732494498 0 -0.48794163871831331 -0.064119883023254248 0 -0.47967839073812912 -0.064727650616396362 0 -0.47491389520024407 -0.068573693827893439 0 -0.4847984782487687 -0.075944598732494498 0 -0.47967839073812912 -0.064727650616396362 0 -0.47491389520024407 -0.068573693827893439 0 -0.46192575156697407 -0.079058111591217034 0 -0.47702460168979111 -0.087157524427869615 0 -0.46192575156697407 -0.079058111591217034 0 -0.47491389520024407 -0.068573693827893439 0 -0.47702460168979111 -0.087157524427869615 0 -0.46631049206888459 -0.091444160656324658 0 -0.47771303140197108 -0.093218841439257433 0 -0.47702460168979111 -0.087157524427869615 0 -0.47771303140197108 -0.093218841439257433 0 -0.47702460168979111 -0.087157524427869615 0 -0.49842317329231273 -0.098636270432611556 0 -0.49712708577170861 -0.075742961183477536 0 -0.4847984782487687 -0.075944598732494498 0 -0.49999999999999939 -0.099482120969144883 0 -0.49842317329231273 -0.098636270432611556 0 -0.5 -0.078030389970551228 0 -0.49842317329231273 -0.098636270432611556 0 -0.49712708577170861 -0.075742961183477536 0 -0.49842317329231273 -0.098636270432611556 0 -0.5 -0.078030389970551228 0 -0.49712708577170861 -0.075742961183477536 0 -0.49842317329231273 -0.098636270432611556 0 -0.47702460168979111 -0.087157524427869615 0 -0.4847984782487687 -0.075944598732494498 0 -0.49842317329231273 -0.098636270432611556 0 -0.47702460168979111 -0.087157524427869615 0 -0.5 -0.078030389970551228 0 -0.49712708577170861 -0.075742961183477536 0 -0.49999999999999928 -0.056578658971957581 0 -0.49712708577170861 -0.075742961183477536 0 -0.49583099825110311 -0.052849651934343489 0 -0.49712708577170861 -0.075742961183477536 0 -0.48794163871831331 -0.064119883023254248 0 -0.49583099825110311 -0.052849651934343489 0 -0.49712708577170861 -0.075742961183477536 0 -0.4847984782487687 -0.075944598732494498 0 -0.48794163871831331 -0.064119883023254248 0 -0.49712708577170861 -0.075742961183477536 0 -0.49999999999999928 -0.056578658971957581 0 -0.49583099825110311 -0.052849651934343489 0 -0.49583099825110311 -0.052849651934343489 0 -0.47748890114140963 -0.036443372127734748 0 -0.48227324058185622 -0.051334552649559453 0 -0.49999999999999928 -0.056578658971957581 0 -0.49583099825110311 -0.052849651934343489 0 -0.49999999999999928 -0.056578658971957581 0 -0.50000000000000144 -0.053559852644015388 0 -0.49583099825110311 -0.052849651934343489 0 -0.48794163871831331 -0.064119883023254248 0 -0.49583099825110311 -0.052849651934343489 0 -0.48227324058185622 -0.051334552649559453 0 -0.50000000000000144 -0.053559852644015388 0 -0.49583099825110311 -0.052849651934343489 0 -0.48598145264485831 -0.02728491224803695 0 -0.49583099825110311 -0.052849651934343489 0 -0.47748890114140963 -0.036443372127734748 0 -0.48598145264485831 -0.02728491224803695 0 -0.50000000000000144 -0.053559852644015388 0 -0.48598145264485831 -0.02728491224803695 0 -0.50000000000000144 -0.053559852644015388 0 -0.48598145264485831 -0.02728491224803695 0 -0.5 -0.025161366008633609 0 -0.49583099825110311 -0.052849651934343489 0 -0.47748890114140963 -0.036443372127734748 0 -0.47748890114140963 -0.036443372127734748 0 -0.48598145264485831 -0.02728491224803695 0 -0.47748890114140963 -0.036443372127734748 0 -0.47194379404182718 -0.042423275915137587 0 -0.48227324058185622 -0.051334552649559453 0 -0.47748890114140963 -0.036443372127734748 0 -0.47194379404182718 -0.042423275915137587 0 -0.47748890114140963 -0.036443372127734748 0 -0.47194379404182718 -0.042423275915137587 0 -0.47056077858213702 -0.03024644074295027 0 -0.47194379404182718 -0.042423275915137587 0 -0.46539503278239303 -0.037082973767017267 0 -0.47056077858213702 -0.03024644074295027 0 -0.47194379404182718 -0.042423275915137587 0 -0.47056077858213702 -0.03024644074295027 0 -0.47748890114140963 -0.036443372127734748 0 -0.47056077858213702 -0.03024644074295027 0 -0.47748890114140963 -0.036443372127734748 0 -0.47056077858213702 -0.03024644074295027 0 -0.47745882259212458 -0.028728106929589409 0 -0.47967839073812912 -0.064727650616396362 0 -0.47491389520024407 -0.068573693827893439 0 -0.47194379404182718 -0.042423275915137587 0 -0.47967839073812912 -0.064727650616396362 0 -0.47194379404182718 -0.042423275915137587 0 -0.48227324058185622 -0.051334552649559453 0 -0.47491389520024407 -0.068573693827893439 0 -0.47194379404182718 -0.042423275915137587 0 -0.47967839073812912 -0.064727650616396362 0 -0.48794163871831331 -0.064119883023254248 0 -0.48227324058185622 -0.051334552649559453 0 -0.47491389520024407 -0.068573693827893439 0 -0.47194379404182718 -0.042423275915137587 0 -0.45893666683642192 -0.056450303318209168 0 -0.45893666683642192 -0.056450303318209168 0 -0.45743491846808387 -0.04563500224908737 0 -0.44544580640037118 -0.056213229689383748 0 -0.47194379404182718 -0.042423275915137587 0 -0.45893666683642192 -0.056450303318209168 0 -0.45743491846808387 -0.04563500224908737 0 -0.47194379404182718 -0.042423275915137587 0 -0.45893666683642192 -0.056450303318209168 0 -0.46539503278239303 -0.037082973767017267 0 -0.44890774518284438 -0.02927164544362729 0 -0.46539503278239303 -0.037082973767017267 0 -0.45215967652477718 -0.036640332234541717 0 -0.44890774518284438 -0.02927164544362729 0 -0.46539503278239303 -0.037082973767017267 0 -0.44890774518284438 -0.02927164544362729 0 -0.46189821575704781 -0.02986243911986371 0 -0.47194379404182718 -0.042423275915137587 0 -0.46539503278239303 -0.037082973767017267 0 -0.45743491846808387 -0.04563500224908737 0 -0.46539503278239303 -0.037082973767017267 0 -0.46189821575704781 -0.02986243911986371 0 -0.47056077858213702 -0.03024644074295027 0 -0.46539503278239303 -0.037082973767017267 0 -0.45743491846808387 -0.04563500224908737 0 -0.45215967652477718 -0.036640332234541717 0 -0.42981912379901888 -0.030443092666165631 0 -0.45215967652477718 -0.036640332234541717 0 -0.45743491846808387 -0.04563500224908737 0 -0.45215967652477718 -0.036640332234541717 0 -0.43957367317472601 -0.045089571971719818 0 -0.42981912379901888 -0.030443092666165631 0 -0.45215967652477718 -0.036640332234541717 0 -0.43957367317472601 -0.045089571971719818 0 -0.45743491846808387 -0.04563500224908737 0 -0.43957367317472601 -0.045089571971719818 0 -0.44544580640037118 -0.056213229689383748 0 -0.4246600563061857 -0.059067830999859447 0 -0.44592953963101739 -0.07047733072128165 0 -0.44544580640037118 -0.056213229689383748 0 -0.44592953963101739 -0.07047733072128165 0 -0.45893666683642192 -0.056450303318209168 0 -0.44544580640037118 -0.056213229689383748 0 -0.4441818909265971 -0.00998157505946092 0 -0.45588653083934588 0.00041698580085632909 0 -0.44737850259376799 0.0077656591989471307 0 -0.4441818909265971 -0.00998157505946092 0 -0.4570262928383732 -0.018140378997512391 0 -0.45633913854906122 -0.0094275687658610888 0 -0.4441818909265971 -0.00998157505946092 0 -0.45633913854906122 -0.0094275687658610888 0 -0.45588653083934588 0.00041698580085632909 0 -0.43741768347029059 -0.01288367903972009 0 -0.4441818909265971 -0.00998157505946092 0 -0.44890774518284438 -0.02927164544362729 0 -0.42981912379901888 -0.030443092666165631 0 -0.45215967652477718 -0.036640332234541717 0 -0.4392085005598273 -0.024676348383282701 0 -0.4441818909265971 -0.00998157505946092 0 -0.44890774518284438 -0.02927164544362729 0 -0.46258273328813732 -0.023158067004484729 0 -0.43741768347029059 -0.01288367903972009 0 -0.44890774518284438 -0.02927164544362729 0 -0.43741768347029059 -0.01288367903972009 0 -0.4392085005598273 -0.024676348383282701 0 -0.44890774518284438 -0.02927164544362729 0 -0.4392085005598273 -0.024676348383282701 0 -0.44890774518284438 -0.02927164544362729 0 -0.45215967652477718 -0.036640332234541717 0 -0.4392085005598273 -0.024676348383282701 0 -0.44890774518284438 -0.02927164544362729 0 -0.4441818909265971 -0.00998157505946092 0 -0.46258273328813732 -0.023158067004484729 0 -0.46258273328813732 -0.023158067004484729 0 -0.46826183959192841 -0.01000530680732737 0 -0.47056077858213702 -0.03024644074295027 0 -0.4441818909265971 -0.00998157505946092 0 -0.4570262928383732 -0.018140378997512391 0 -0.46258273328813732 -0.023158067004484729 0 -0.4570262928383732 -0.018140378997512391 0 -0.46258273328813732 -0.023158067004484729 0 -0.44890774518284438 -0.02927164544362729 0 -0.46189821575704781 -0.02986243911986371 0 -0.46258273328813732 -0.023158067004484729 0 -0.46258273328813732 -0.023158067004484729 0 -0.47056077858213702 -0.03024644074295027 0 -0.46189821575704781 -0.02986243911986371 0 -0.46258273328813732 -0.023158067004484729 0 -0.47056077858213702 -0.03024644074295027 0 -0.4570262928383732 -0.018140378997512391 0 -0.46258273328813732 -0.023158067004484729 0 -0.46826183959192841 -0.01000530680732737 0 -0.4570262928383732 -0.018140378997512391 0 -0.46826183959192841 -0.01000530680732737 0 -0.45633913854906122 -0.0094275687658610888 0 -0.46826183959192841 -0.01000530680732737 0 -0.45633913854906122 -0.0094275687658610888 0 -0.45588653083934588 0.00041698580085632909 0 -0.46826183959192841 -0.01000530680732737 0 -0.47597217662329228 -0.0085245425598697612 0 -0.4659629006017233 0.010235827128295859 0 -0.46826183959192841 -0.01000530680732737 0 -0.47597217662329228 -0.0085245425598697612 0 -0.47580415800009379 -0.02093770259963601 0 -0.47597217662329228 -0.0085245425598697612 0 -0.48922725890134677 -0.010453537226696331 0 -0.48082517856277007 0.001845263919603602 0 -0.47597217662329228 -0.0085245425598697612 0 -0.47580415800009379 -0.02093770259963601 0 -0.48598145264485831 -0.02728491224803695 0 -0.47597217662329228 -0.0085245425598697612 0 -0.48598145264485831 -0.02728491224803695 0 -0.46826183959192841 -0.01000530680732737 0 -0.47056077858213702 -0.03024644074295027 0 -0.47580415800009379 -0.02093770259963601 0 -0.47597217662329228 -0.0085245425598697612 0 -0.48598145264485831 -0.02728491224803695 0 -0.4893389393206713 -0.02366416211133009 0 -0.46826183959192841 -0.01000530680732737 0 -0.47056077858213702 -0.03024644074295027 0 -0.47056077858213702 -0.03024644074295027 0 -0.47580415800009379 -0.02093770259963601 0 -0.47745882259212458 -0.028728106929589409 0 -0.47580415800009379 -0.02093770259963601 0 -0.47745882259212458 -0.028728106929589409 0 -0.48598145264485831 -0.02728491224803695 0 -0.47748890114140963 -0.036443372127734748 0 -0.47745882259212458 -0.028728106929589409 0 -0.48598145264485831 -0.02728491224803695 0 -0.48598145264485831 -0.02728491224803695 0 -0.4893389393206713 -0.02366416211133009 0 -0.5 -0.025161366008633609 0 -0.48598145264485831 -0.02728491224803695 0 -0.4893389393206713 -0.02366416211133009 0 -0.4893389393206713 -0.02366416211133009 0 -0.5 -0.025161366008633609 0 -0.48922725890134677 -0.010453537226696331 0 -0.48922725890134677 -0.010453537226696331 0 -0.5 0.0032371206267481911 0 -0.48082517856277007 0.001845263919603602 0 -0.5 -0.025161366008633609 0 -0.48922725890134677 -0.010453537226696331 0 -0.5 0.0032371206267481911 0 -0.47597217662329228 -0.0085245425598697612 0 -0.4893389393206713 -0.02366416211133009 0 -0.48922725890134677 -0.010453537226696331 0 -0.5 0.0032371206267481911 0 -0.48596576445654982 0.01457961489688041 0 -0.48082517856277007 0.001845263919603602 0 -0.48596576445654982 0.01457961489688041 0 -0.47541999506787802 0.025418180444172121 0 -0.5 0.031635607262129987 0 -0.5 0.0032371206267481911 0 -0.48596576445654982 0.01457961489688041 0 -0.5 0.031635607262129987 0 -0.48596576445654982 0.01457961489688041 0 -0.47541999506787802 0.025418180444172121 0 -0.47401658579892991 0.013489912392399149 0 -0.47541999506787802 0.025418180444172121 0 -0.46963945276383978 0.01793989872667965 0 -0.47401658579892991 0.013489912392399149 0 -0.47597217662329228 -0.0085245425598697612 0 -0.48082517856277007 0.001845263919603602 0 -0.4659629006017233 0.010235827128295859 0 -0.47401658579892991 0.013489912392399149 0 -0.48082517856277007 0.001845263919603602 0 -0.4659629006017233 0.010235827128295859 0 -0.46963945276383978 0.01793989872667965 0 -0.47401658579892991 0.013489912392399149 0 -0.4659629006017233 0.010235827128295859 0 -0.47597217662329228 -0.0085245425598697612 0 -0.4659629006017233 0.010235827128295859 0 -0.48596576445654982 0.01457961489688041 0 -0.47401658579892991 0.013489912392399149 0 -0.48082517856277007 0.001845263919603602 0 -0.5 0.060034093897511798 0 -0.47816362815030861 0.043832779932641487 0 -0.48068047186290208 0.063626500276227002 0 -0.47541999506787802 0.025418180444172121 0 -0.5 0.031635607262129987 0 -0.47816362815030861 0.043832779932641487 0 -0.5 0.060034093897511798 0 -0.5 0.031635607262129987 0 -0.47816362815030861 0.043832779932641487 0 -0.47541999506787802 0.025418180444172121 0 -0.47816362815030861 0.043832779932641487 0 -0.46442391639916691 0.036471327701905212 0 -0.47816362815030861 0.043832779932641487 0 -0.46119618507356652 0.049359273152949731 0 -0.48068047186290208 0.063626500276227002 0 -0.46119618507356652 0.049359273152949731 0 -0.46103932749027238 0.064238871702306077 0 -0.48068047186290208 0.063626500276227002 0 -0.46119618507356652 0.049359273152949731 0 -0.44286953411296898 0.045255716157198693 0 -0.46103932749027238 0.064238871702306077 0 -0.47816362815030861 0.043832779932641487 0 -0.46119618507356652 0.049359273152949731 0 -0.46442391639916691 0.036471327701905212 0 -0.46119618507356652 0.049359273152949731 0 -0.46442391639916691 0.036471327701905212 0 -0.45082509298125129 0.038608595210277222 0 -0.46442391639916691 0.036471327701905212 0 -0.45082509298125129 0.038608595210277222 0 -0.4583939967914884 0.024422211169287101 0 -0.45082509298125129 0.038608595210277222 0 -0.4583939967914884 0.024422211169287101 0 -0.46119618507356652 0.049359273152949731 0 -0.45082509298125129 0.038608595210277222 0 -0.44286953411296898 0.045255716157198693 0 -0.45082509298125129 0.038608595210277222 0 -0.4405409619944019 0.035432846457562263 0 -0.4458839614772655 0.023387518650519249 0 -0.45082509298125129 0.038608595210277222 0 -0.4405409619944019 0.035432846457562263 0 -0.44286953411296898 0.045255716157198693 0 -0.4405409619944019 0.035432846457562263 0 -0.44286953411296898 0.045255716157198693 0 -0.43229092530358848 0.04451632412921195 0 -0.44286953411296898 0.045255716157198693 0 -0.44282721760043869 0.062046251170956107 0 -0.46103932749027238 0.064238871702306077 0 -0.44286953411296898 0.045255716157198693 0 -0.44282721760043869 0.062046251170956107 0 -0.43188097302969042 0.056955122555226501 0 -0.44286953411296898 0.045255716157198693 0 -0.46103932749027238 0.064238871702306077 0 -0.46826183959192841 -0.01000530680732737 0 -0.45588653083934588 0.00041698580085632909 0 -0.4659629006017233 0.010235827128295859 0 -0.46826183959192841 -0.01000530680732737 0 -0.4659629006017233 0.010235827128295859 0 -0.45609316173783881 0.014082317838893479 0 -0.45588653083934588 0.00041698580085632909 0 -0.4659629006017233 0.010235827128295859 0 -0.46963945276383978 0.01793989872667965 0 -0.4659629006017233 0.010235827128295859 0 -0.4583939967914884 0.024422211169287101 0 -0.4659629006017233 0.010235827128295859 0 -0.4583939967914884 0.024422211169287101 0 -0.47541999506787802 0.025418180444172121 0 -0.46963945276383978 0.01793989872667965 0 -0.4583939967914884 0.024422211169287101 0 -0.47541999506787802 0.025418180444172121 0 -0.46442391639916691 0.036471327701905212 0 -0.4583939967914884 0.024422211169287101 0 -0.45609316173783881 0.014082317838893479 0 -0.4659629006017233 0.010235827128295859 0 -0.4583939967914884 0.024422211169287101 0 -0.45609316173783881 0.014082317838893479 0 -0.4583939967914884 0.024422211169287101 0 -0.4458839614772655 0.023387518650519249 0 -0.45082509298125129 0.038608595210277222 0 -0.4583939967914884 0.024422211169287101 0 -0.4458839614772655 0.023387518650519249 0 -0.4405409619944019 0.035432846457562263 0 -0.4458839614772655 0.023387518650519249 0 -0.43566193494816191 0.02574822372494872 0 -0.4458839614772655 0.023387518650519249 0 -0.4359559447540089 0.01018896392150693 0 -0.43566193494816191 0.02574822372494872 0 -0.4441818909265971 -0.00998157505946092 0 -0.44737850259376799 0.0077656591989471307 0 -0.4359559447540089 0.01018896392150693 0 -0.4458839614772655 0.023387518650519249 0 -0.44737850259376799 0.0077656591989471307 0 -0.4359559447540089 0.01018896392150693 0 -0.45609316173783881 0.014082317838893479 0 -0.4458839614772655 0.023387518650519249 0 -0.44737850259376799 0.0077656591989471307 0 -0.45609316173783881 0.014082317838893479 0 -0.45588653083934588 0.00041698580085632909 0 -0.44737850259376799 0.0077656591989471307 0 -0.4441818909265971 -0.00998157505946092 0 -0.4359559447540089 0.01018896392150693 0 -0.42578104856505677 0.0031949168855625672 0 -0.42578104856505677 0.0031949168855625672 0 -0.41622595309658328 0.016397403714119251 0 -0.42870406893849561 0.019163111370922251 0 -0.4359559447540089 0.01018896392150693 0 -0.42578104856505677 0.0031949168855625672 0 -0.42870406893849561 0.019163111370922251 0 -0.41753789792717189 -0.0038843189997757009 0 -0.42578104856505677 0.0031949168855625672 0 -0.41105156913745711 0.0034129409419674369 0 -0.42578104856505677 0.0031949168855625672 0 -0.40852807671777941 0.0155494406680463 0 -0.41622595309658328 0.016397403714119251 0 -0.42578104856505677 0.0031949168855625672 0 -0.40852807671777941 0.0155494406680463 0 -0.41105156913745711 0.0034129409419674369 0 -0.42578104856505677 0.0031949168855625672 0 -0.40852807671777941 0.0155494406680463 0 -0.42578104856505677 0.0031949168855625672 0 -0.41622595309658328 0.016397403714119251 0 -0.40852807671777941 0.0155494406680463 0 -0.41105156913745711 0.0034129409419674369 0 -0.40262572535869262 0.0089097845909437267 0 -0.40771050441737638 -0.0035262849216432719 0 -0.41105156913745711 0.0034129409419674369 0 -0.40226596945639398 0.0014711925349297271 0 -0.40667085762811028 0.029599890542676258 0 -0.41622595309658328 0.016397403714119251 0 -0.42870406893849561 0.019163111370922251 0 -0.40667085762811028 0.029599890542676258 0 -0.42870406893849561 0.019163111370922251 0 -0.40667085762811028 0.029599890542676258 0 -0.41990433555607742 0.03061685230769556 0 -0.42870406893849561 0.019163111370922251 0 -0.40852807671777941 0.0155494406680463 0 -0.40667085762811028 0.029599890542676258 0 -0.41622595309658328 0.016397403714119251 0 -0.40667085762811028 0.029599890542676258 0 -0.41622595309658328 0.016397403714119251 0 -0.41990433555607742 0.03061685230769556 0 -0.4284463216954002 0.029357354603554459 0 -0.42870406893849561 0.019163111370922251 0 -0.4359559447540089 0.01018896392150693 0 -0.42870406893849561 0.019163111370922251 0 -0.43566193494816191 0.02574822372494872 0 -0.4284463216954002 0.029357354603554459 0 -0.42870406893849561 0.019163111370922251 0 -0.43566193494816191 0.02574822372494872 0 -0.4284463216954002 0.029357354603554459 0 -0.43566193494816191 0.02574822372494872 0 -0.43264023121812112 0.033917661463996759 0 -0.4405409619944019 0.035432846457562263 0 -0.43264023121812112 0.033917661463996759 0 -0.43229092530358848 0.04451632412921195 0 -0.43264023121812112 0.033917661463996759 0 -0.43229092530358848 0.04451632412921195 0 -0.42532103781614489 0.037340924150209003 0 -0.4405409619944019 0.035432846457562263 0 -0.43566193494816191 0.02574822372494872 0 -0.43264023121812112 0.033917661463996759 0 -0.43229092530358848 0.04451632412921195 0 -0.42532103781614489 0.037340924150209003 0 -0.42042490988599091 0.046091327469671317 0 -0.4284463216954002 0.029357354603554459 0 -0.43264023121812112 0.033917661463996759 0 -0.42532103781614489 0.037340924150209003 0 -0.41990433555607742 0.03061685230769556 0 -0.4284463216954002 0.029357354603554459 0 -0.42532103781614489 0.037340924150209003 0 -0.43229092530358848 0.04451632412921195 0 -0.43188097302969042 0.056955122555226501 0 -0.42585725303016408 0.051510102087770737 0 -0.44286953411296898 0.045255716157198693 0 -0.43229092530358848 0.04451632412921195 0 -0.43188097302969042 0.056955122555226501 0 -0.43229092530358848 0.04451632412921195 0 -0.42585725303016408 0.051510102087770737 0 -0.42042490988599091 0.046091327469671317 0 -0.43188097302969042 0.056955122555226501 0 -0.41883220390138681 0.058477634196973202 0 -0.43131469147834472 0.070632617455275076 0 -0.43188097302969042 0.056955122555226501 0 -0.42585725303016408 0.051510102087770737 0 -0.41883220390138681 0.058477634196973202 0 -0.41883220390138681 0.058477634196973202 0 -0.40840220717331749 0.048304634434869917 0 -0.39985653820026013 0.060860810446949978 0 -0.42585725303016408 0.051510102087770737 0 -0.41883220390138681 0.058477634196973202 0 -0.42042490988599091 0.046091327469671317 0 -0.41883220390138681 0.058477634196973202 0 -0.40840220717331749 0.048304634434869917 0 -0.42042490988599091 0.046091327469671317 0 -0.41990433555607742 0.03061685230769556 0 -0.42532103781614489 0.037340924150209003 0 -0.4122967326089878 0.037821593301397609 0 -0.42532103781614489 0.037340924150209003 0 -0.42042490988599091 0.046091327469671317 0 -0.4122967326089878 0.037821593301397609 0 -0.40840220717331749 0.048304634434869917 0 -0.4122967326089878 0.037821593301397609 0 -0.40579981868685489 0.041495006097714962 0 -0.40840220717331749 0.048304634434869917 0 -0.42042490988599091 0.046091327469671317 0 -0.4122967326089878 0.037821593301397609 0 -0.4122967326089878 0.037821593301397609 0 -0.40278544391907911 0.034968452634622761 0 -0.40579981868685489 0.041495006097714962 0 -0.40667085762811028 0.029599890542676258 0 -0.4122967326089878 0.037821593301397609 0 -0.40278544391907911 0.034968452634622761 0 -0.40667085762811028 0.029599890542676258 0 -0.41990433555607742 0.03061685230769556 0 -0.4122967326089878 0.037821593301397609 0 -0.40667085762811028 0.029599890542676258 0 -0.40278544391907911 0.034968452634622761 0 -0.40667085762811028 0.029599890542676258 0 -0.38856614517843069 0.038175802748282091 0 -0.40667085762811028 0.029599890542676258 0 -0.38856614517843069 0.038175802748282091 0 -0.39127510487050182 0.027903964450529759 0 -0.40667085762811028 0.029599890542676258 0 -0.40278544391907911 0.034968452634622761 0 -0.38856614517843069 0.038175802748282091 0 -0.40278544391907911 0.034968452634622761 0 -0.40579981868685489 0.041495006097714962 0 -0.3977250587697031 0.045015474274426849 0 -0.40840220717331749 0.048304634434869917 0 -0.40579981868685489 0.041495006097714962 0 -0.3977250587697031 0.045015474274426849 0 -0.40278544391907911 0.034968452634622761 0 -0.3977250587697031 0.045015474274426849 0 -0.38856614517843069 0.038175802748282091 0 -0.40840220717331749 0.048304634434869917 0 -0.3977250587697031 0.045015474274426849 0 -0.39985653820026013 0.060860810446949978 0 -0.3977250587697031 0.045015474274426849 0 -0.39985653820026013 0.060860810446949978 0 -0.38472691017257071 0.052921849058569698 0 -0.39985653820026013 0.060860810446949978 0 -0.38472691017257071 0.052921849058569698 0 -0.38510762700538009 0.066428587654483159 0 -0.38472691017257071 0.052921849058569698 0 -0.37046143272875132 0.04675171495388801 0 -0.37000681959492809 0.05831264468359916 0 -0.38472691017257071 0.052921849058569698 0 -0.38510762700538009 0.066428587654483159 0 -0.37000681959492809 0.05831264468359916 0 -0.38856614517843069 0.038175802748282091 0 -0.37871402691879819 0.03757115751491092 0 -0.37046143272875132 0.04675171495388801 0 -0.38856614517843069 0.038175802748282091 0 -0.37046143272875132 0.04675171495388801 0 -0.38472691017257071 0.052921849058569698 0 -0.38856614517843069 0.038175802748282091 0 -0.37046143272875132 0.04675171495388801 0 -0.38856614517843069 0.038175802748282091 0 -0.38315308642314733 0.033917821982192238 0 -0.39127510487050182 0.027903964450529759 0 -0.38856614517843069 0.038175802748282091 0 -0.38315308642314733 0.033917821982192238 0 -0.37871402691879819 0.03757115751491092 0 -0.3977250587697031 0.045015474274426849 0 -0.38472691017257071 0.052921849058569698 0 -0.38856614517843069 0.038175802748282091 0 -0.37871402691879819 0.03757115751491092 0 -0.3764786745208083 0.032098692741998169 0 -0.37046143272875132 0.04675171495388801 0 -0.38315308642314733 0.033917821982192238 0 -0.3764786745208083 0.032098692741998169 0 -0.38155727091044611 0.028316364585127811 0 -0.38315308642314733 0.033917821982192238 0 -0.37871402691879819 0.03757115751491092 0 -0.3764786745208083 0.032098692741998169 0 -0.3764786745208083 0.032098692741998169 0 -0.38155727091044611 0.028316364585127811 0 -0.37960108001976323 0.022263106047543741 0 -0.37960108001976323 0.022263106047543741 0 -0.37998819155715241 0.0057865511937031933 0 -0.37123175334181557 0.027162262264614271 0 -0.3764786745208083 0.032098692741998169 0 -0.37960108001976323 0.022263106047543741 0 -0.37123175334181557 0.027162262264614271 0 -0.38155727091044611 0.028316364585127811 0 -0.38533699425949169 0.022674384769296389 0 -0.37960108001976323 0.022263106047543741 0 -0.38155727091044611 0.028316364585127811 0 -0.38533699425949169 0.022674384769296389 0 -0.39127510487050182 0.027903964450529759 0 -0.38315308642314733 0.033917821982192238 0 -0.38155727091044611 0.028316364585127811 0 -0.39127510487050182 0.027903964450529759 0 -0.39054146691731162 0.018060194648231769 0 -0.38533699425949169 0.022674384769296389 0 -0.39127510487050182 0.027903964450529759 0 -0.38533699425949169 0.022674384769296389 0 -0.3837100485794358 0.01682829411504885 0 -0.37960108001976323 0.022263106047543741 0 -0.39054146691731162 0.018060194648231769 0 -0.38533699425949169 0.022674384769296389 0 -0.3837100485794358 0.01682829411504885 0 -0.3837100485794358 0.01682829411504885 0 -0.37960108001976323 0.022263106047543741 0 -0.37998819155715241 0.0057865511937031933 0 -0.37998819155715241 0.0057865511937031933 0 -0.38683543611469601 0.0001369023841863784 0 -0.36064890389212972 0.0125435277679194 0 -0.37998819155715241 0.0057865511937031933 0 -0.38683543611469601 0.0001369023841863784 0 -0.38901012294298121 0.0062908016400105649 0 -0.38683543611469601 0.0001369023841863784 0 -0.38901012294298121 0.0062908016400105649 0 -0.39501457079486157 0.0055715078560810288 0 -0.37998819155715241 0.0057865511937031933 0 -0.38901012294298121 0.0062908016400105649 0 -0.38744744785130802 0.01185902438546781 0 -0.3837100485794358 0.01682829411504885 0 -0.37998819155715241 0.0057865511937031933 0 -0.38744744785130802 0.01185902438546781 0 -0.38901012294298121 0.0062908016400105649 0 -0.38744744785130802 0.01185902438546781 0 -0.39422738021243581 0.01127211946813913 0 -0.39054146691731162 0.018060194648231769 0 -0.3837100485794358 0.01682829411504885 0 -0.38744744785130802 0.01185902438546781 0 -0.39054146691731162 0.018060194648231769 0 -0.39422738021243581 0.01127211946813913 0 -0.39743955081534421 0.016339100765178138 0 -0.39054146691731162 0.018060194648231769 0 -0.38744744785130802 0.01185902438546781 0 -0.39422738021243581 0.01127211946813913 0 -0.39422738021243581 0.01127211946813913 0 -0.39501457079486157 0.0055715078560810288 0 -0.40262572535869262 0.0089097845909437267 0 -0.39422738021243581 0.01127211946813913 0 -0.40262572535869262 0.0089097845909437267 0 -0.39743955081534421 0.016339100765178138 0 -0.38683543611469601 0.0001369023841863784 0 -0.39501457079486157 0.0055715078560810288 0 -0.40226596945639398 0.0014711925349297271 0 -0.38901012294298121 0.0062908016400105649 0 -0.39422738021243581 0.01127211946813913 0 -0.39501457079486157 0.0055715078560810288 0 -0.41105156913745711 0.0034129409419674369 0 -0.40226596945639398 0.0014711925349297271 0 -0.40262572535869262 0.0089097845909437267 0 -0.39501457079486157 0.0055715078560810288 0 -0.40226596945639398 0.0014711925349297271 0 -0.40262572535869262 0.0089097845909437267 0 -0.40852807671777941 0.0155494406680463 0 -0.40262572535869262 0.0089097845909437267 0 -0.39743955081534421 0.016339100765178138 0 -0.40852807671777941 0.0155494406680463 0 -0.39127510487050182 0.027903964450529759 0 -0.40852807671777941 0.0155494406680463 0 -0.40667085762811028 0.029599890542676258 0 -0.39127510487050182 0.027903964450529759 0 -0.40852807671777941 0.0155494406680463 0 -0.39127510487050182 0.027903964450529759 0 -0.39743955081534421 0.016339100765178138 0 -0.39054146691731162 0.018060194648231769 0 -0.39127510487050182 0.027903964450529759 0 -0.39743955081534421 0.016339100765178138 0 -0.39792088922733271 0.1160922105611595 0 -0.40104213778508202 0.092866093853817611 0 -0.41467909406405851 0.1139188519362445 0 -0.39792088922733271 0.1160922105611595 0 -0.3782625711058698 0.101617738696854 0 -0.40104213778508202 0.092866093853817611 0 -0.3782625711058698 0.101617738696854 0 -0.38372255811484618 0.13025780258704611 0 -0.3782625711058698 0.101617738696854 0 -0.38372255811484618 0.13025780258704611 0 -0.36747352968705388 0.12273486311700831 0 -0.39792088922733271 0.1160922105611595 0 -0.3782625711058698 0.101617738696854 0 -0.38372255811484618 0.13025780258704611 0 -0.39792088922733271 0.1160922105611595 0 -0.3782625711058698 0.101617738696854 0 -0.3782625711058698 0.101617738696854 0 -0.40104213778508202 0.092866093853817611 0 -0.37470600383380392 0.082961959162170973 0 -0.39520328107527708 0.075997639864115257 0 -0.40104213778508202 0.092866093853817611 0 -0.37470600383380392 0.082961959162170973 0 -0.3782625711058698 0.101617738696854 0 -0.37470600383380392 0.082961959162170973 0 -0.40104213778508202 0.092866093853817611 0 -0.37470600383380392 0.082961959162170973 0 -0.38510762700538009 0.066428587654483159 0 -0.37000681959492809 0.05831264468359916 0 -0.37470600383380392 0.082961959162170973 0 -0.38510762700538009 0.066428587654483159 0 -0.39520328107527708 0.075997639864115257 0 -0.37470600383380392 0.082961959162170973 0 -0.39985653820026013 0.060860810446949978 0 -0.39520328107527708 0.075997639864115257 0 -0.41322693425173768 0.074694678089132868 0 -0.39985653820026013 0.060860810446949978 0 -0.38510762700538009 0.066428587654483159 0 -0.39520328107527708 0.075997639864115257 0 -0.39520328107527708 0.075997639864115257 0 -0.40104213778508202 0.092866093853817611 0 -0.41322693425173768 0.074694678089132868 0 -0.40104213778508202 0.092866093853817611 0 -0.41322693425173768 0.074694678089132868 0 -0.42957324029363853 0.085693113452461764 0 -0.41883220390138681 0.058477634196973202 0 -0.41322693425173768 0.074694678089132868 0 -0.43131469147834472 0.070632617455275076 0 -0.41883220390138681 0.058477634196973202 0 -0.39985653820026013 0.060860810446949978 0 -0.41322693425173768 0.074694678089132868 0 -0.43131469147834472 0.070632617455275076 0 -0.42957324029363853 0.085693113452461764 0 -0.4470315618909167 0.073148927984774167 0 -0.41322693425173768 0.074694678089132868 0 -0.43131469147834472 0.070632617455275076 0 -0.42957324029363853 0.085693113452461764 0 -0.44282721760043869 0.062046251170956107 0 -0.43188097302969042 0.056955122555226501 0 -0.43131469147834472 0.070632617455275076 0 -0.42957324029363853 0.085693113452461764 0 -0.42737827173636012 0.1027702285454639 0 -0.44343173260412461 0.097571970950778963 0 -0.40104213778508202 0.092866093853817611 0 -0.42737827173636012 0.1027702285454639 0 -0.41467909406405851 0.1139188519362445 0 -0.40104213778508202 0.092866093853817611 0 -0.42737827173636012 0.1027702285454639 0 -0.40104213778508202 0.092866093853817611 0 -0.42957324029363853 0.085693113452461764 0 -0.42737827173636012 0.1027702285454639 0 -0.39792088922733271 0.1160922105611595 0 -0.41467909406405851 0.1139188519362445 0 -0.417579207348795 0.13056668242546571 0 -0.39792088922733271 0.1160922105611595 0 -0.417579207348795 0.13056668242546571 0 -0.41467909406405851 0.1139188519362445 0 -0.42608096723388439 0.1205091241492761 0 -0.417579207348795 0.13056668242546571 0 -0.42737827173636012 0.1027702285454639 0 -0.41467909406405851 0.1139188519362445 0 -0.42608096723388439 0.1205091241492761 0 -0.42737827173636012 0.1027702285454639 0 -0.42608096723388439 0.1205091241492761 0 -0.43826405507869293 0.1195835460605416 0 -0.42608096723388439 0.1205091241492761 0 -0.43826405507869293 0.1195835460605416 0 -0.43293323699752101 0.1317554923945817 0 -0.43826405507869293 0.1195835460605416 0 -0.45371440568763749 0.1126743632371118 0 -0.44901593584904892 0.12912088192892021 0 -0.42737827173636012 0.1027702285454639 0 -0.43826405507869293 0.1195835460605416 0 -0.45371440568763749 0.1126743632371118 0 -0.4523882543875366 0.10983005993361 0 -0.45371440568763749 0.1126743632371118 0 -0.42737827173636012 0.1027702285454639 0 -0.4523882543875366 0.10983005993361 0 -0.44343173260412461 0.097571970950778963 0 -0.42737827173636012 0.1027702285454639 0 -0.4523882543875366 0.10983005993361 0 -0.45371440568763749 0.1126743632371118 0 -0.42737827173636012 0.1027702285454639 0 -0.45371440568763749 0.1126743632371118 0 -0.44343173260412461 0.097571970950778963 0 -0.45084974973894648 0.096020795281878568 0 -0.45306155814551219 0.1028275296158008 0 -0.44343173260412461 0.097571970950778963 0 -0.45084974973894648 0.096020795281878568 0 -0.44733932132275389 0.088290098875458828 0 -0.4523882543875366 0.10983005993361 0 -0.44343173260412461 0.097571970950778963 0 -0.45306155814551219 0.1028275296158008 0 -0.4523882543875366 0.10983005993361 0 -0.45306155814551219 0.1028275296158008 0 -0.45661100561120399 0.109540819014999 0 -0.45306155814551219 0.1028275296158008 0 -0.46084618436187341 0.10490351706993729 0 -0.45661100561120399 0.109540819014999 0 -0.45306155814551219 0.1028275296158008 0 -0.46084618436187341 0.10490351706993729 0 -0.45799439118323759 0.099220837031069903 0 -0.46084618436187341 0.10490351706993729 0 -0.4635407771028337 0.1124237257980706 0 -0.45661100561120399 0.109540819014999 0 -0.45799439118323759 0.099220837031069903 0 -0.46723244863383712 0.097971273043108306 0 -0.45594156200913483 0.091684632610025046 0 -0.45084974973894648 0.096020795281878568 0 -0.45799439118323759 0.099220837031069903 0 -0.45594156200913483 0.091684632610025046 0 -0.45084974973894648 0.096020795281878568 0 -0.45306155814551219 0.1028275296158008 0 -0.45799439118323759 0.099220837031069903 0 -0.46084618436187341 0.10490351706993729 0 -0.45799439118323759 0.099220837031069903 0 -0.46723244863383712 0.097971273043108306 0 -0.46084618436187341 0.10490351706993729 0 -0.46723244863383712 0.097971273043108306 0 -0.46686982756835349 0.1074114054382402 0 -0.46084618436187341 0.10490351706993729 0 -0.46686982756835349 0.1074114054382402 0 -0.4635407771028337 0.1124237257980706 0 -0.45371440568763749 0.1126743632371118 0 -0.46425598871103851 0.13528374379222011 0 -0.4635407771028337 0.1124237257980706 0 -0.45674497769142258 0.1138140594952527 0 -0.46958882025875243 0.12035793204680111 0 -0.46686982756835349 0.1074114054382402 0 -0.4635407771028337 0.1124237257980706 0 -0.47044075898603932 0.11380610730348489 0 -0.4635407771028337 0.1124237257980706 0 -0.46958882025875243 0.12035793204680111 0 -0.47044075898603932 0.11380610730348489 0 -0.45674497769142258 0.1138140594952527 0 -0.45371440568763749 0.1126743632371118 0 -0.46425598871103851 0.13528374379222011 0 -0.45674497769142258 0.1138140594952527 0 -0.46958882025875243 0.12035793204680111 0 -0.46425598871103851 0.13528374379222011 0 -0.4523882543875366 0.10983005993361 0 -0.45661100561120399 0.109540819014999 0 -0.45371440568763749 0.1126743632371118 0 -0.45674497769142258 0.1138140594952527 0 -0.45661100561120399 0.109540819014999 0 -0.45371440568763749 0.1126743632371118 0 -0.45674497769142258 0.1138140594952527 0 -0.45371440568763749 0.1126743632371118 0 -0.4635407771028337 0.1124237257980706 0 -0.45674497769142258 0.1138140594952527 0 -0.45661100561120399 0.109540819014999 0 -0.44282721760043869 0.062046251170956107 0 -0.4470315618909167 0.073148927984774167 0 -0.46103932749027238 0.064238871702306077 0 -0.44282721760043869 0.062046251170956107 0 -0.43131469147834472 0.070632617455275076 0 -0.4470315618909167 0.073148927984774167 0 -0.42957324029363853 0.085693113452461764 0 -0.44343173260412461 0.097571970950778963 0 -0.44733932132275389 0.088290098875458828 0 -0.42957324029363853 0.085693113452461764 0 -0.4470315618909167 0.073148927984774167 0 -0.44733932132275389 0.088290098875458828 0 -0.4470315618909167 0.073148927984774167 0 -0.44733932132275389 0.088290098875458828 0 -0.46047789149500767 0.082617330138573752 0 -0.45084974973894648 0.096020795281878568 0 -0.44733932132275389 0.088290098875458828 0 -0.45594156200913483 0.091684632610025046 0 -0.44733932132275389 0.088290098875458828 0 -0.45594156200913483 0.091684632610025046 0 -0.46047789149500767 0.082617330138573752 0 -0.46723244863383712 0.097971273043108306 0 -0.45594156200913483 0.091684632610025046 0 -0.46047789149500767 0.082617330138573752 0 -0.46047789149500767 0.082617330138573752 0 -0.46103932749027238 0.064238871702306077 0 -0.47920912086757578 0.083222027247413538 0 -0.4470315618909167 0.073148927984774167 0 -0.46047789149500767 0.082617330138573752 0 -0.46103932749027238 0.064238871702306077 0 -0.46103932749027238 0.064238871702306077 0 -0.48068047186290208 0.063626500276227002 0 -0.47920912086757578 0.083222027247413538 0 -0.46103932749027238 0.064238871702306077 0 -0.47920912086757578 0.083222027247413538 0 -0.46723244863383712 0.097971273043108306 0 -0.46047789149500767 0.082617330138573752 0 -0.47920912086757578 0.083222027247413538 0 -0.48068047186290208 0.063626500276227002 0 -0.47920912086757578 0.083222027247413538 0 -0.5 0.088432580532893601 0 -0.47920912086757578 0.083222027247413538 0 -0.49737891424487929 0.102205182792521 0 -0.47920912086757578 0.083222027247413538 0 -0.5 0.088432580532893601 0 -0.49737891424487929 0.102205182792521 0 -0.5 0.060034093897511798 0 -0.48068047186290208 0.063626500276227002 0 -0.5 0.088432580532893601 0 -0.47827810320487629 0.116675775998883 0 -0.48837893466537508 0.1117690854599766 0 -0.4842723158563047 0.1301441798928954 0 -0.47827810320487629 0.116675775998883 0 -0.47512549980118862 0.10796659812409699 0 -0.48837893466537508 0.1117690854599766 0 -0.47827810320487629 0.116675775998883 0 -0.46958882025875243 0.12035793204680111 0 -0.4842723158563047 0.1301441798928954 0 -0.47827810320487629 0.116675775998883 0 -0.47044075898603932 0.11380610730348489 0 -0.47512549980118862 0.10796659812409699 0 -0.46686982756835349 0.1074114054382402 0 -0.47044075898603932 0.11380610730348489 0 -0.47512549980118862 0.10796659812409699 0 -0.47827810320487629 0.116675775998883 0 -0.46958882025875243 0.12035793204680111 0 -0.47044075898603932 0.11380610730348489 0 -0.46723244863383712 0.097971273043108306 0 -0.47512549980118862 0.10796659812409699 0 -0.48162445158666772 0.1005823670901454 0 -0.46723244863383712 0.097971273043108306 0 -0.47920912086757578 0.083222027247413538 0 -0.48162445158666772 0.1005823670901454 0 -0.46723244863383712 0.097971273043108306 0 -0.46686982756835349 0.1074114054382402 0 -0.47512549980118862 0.10796659812409699 0 -0.47512549980118862 0.10796659812409699 0 -0.48162445158666772 0.1005823670901454 0 -0.48837893466537508 0.1117690854599766 0 -0.48162445158666772 0.1005823670901454 0 -0.49737891424487929 0.102205182792521 0 -0.48837893466537508 0.1117690854599766 0 -0.47920912086757578 0.083222027247413538 0 -0.48162445158666772 0.1005823670901454 0 -0.49737891424487929 0.102205182792521 0 -0.5 0.088432580532893601 0 -0.49737891424487929 0.102205182792521 0 -0.5 0.1168310671682755 0 -0.49737891424487929 0.102205182792521 0 -0.5 0.1168310671682755 0 -0.48837893466537508 0.1117690854599766 0 -0.5 0.1168310671682755 0 -0.48837893466537508 0.1117690854599766 0 -0.4842723158563047 0.1301441798928954 0 -0.5 0.1168310671682755 0 -0.4842723158563047 0.1301441798928954 0 -0.5 0.14522955380365729 0 -0.46958882025875243 0.12035793204680111 0 -0.4842723158563047 0.1301441798928954 0 -0.46425598871103851 0.13528374379222011 0 -0.4842723158563047 0.1301441798928954 0 -0.47479757173443998 0.15789312434732811 0 -0.46425598871103851 0.13528374379222011 0 -0.47479757173443998 0.15789312434732811 0 -0.46425598871103851 0.13528374379222011 0 -0.4842723158563047 0.1301441798928954 0 -0.5 0.14522955380365729 0 -0.47479757173443998 0.15789312434732811 0 -0.5 0.14522955380365729 0 -0.49999999999999972 0.17362804043903909 0 -0.47479757173443998 0.15789312434732811 0 -0.49999999999999972 0.17362804043903909 0 -0.47479757173443998 0.15789312434732811 0 -0.49999999999999972 0.17362804043903909 0 -0.49200992699072321 0.1743962810239672 0 -0.47479757173443998 0.15789312434732811 0 -0.48341269367675271 0.17637066895233999 0 -0.49170634683837577 0.1941587336203292 0 -0.49368671912131301 0.1828531969182482 0 -0.49999999999999972 0.17362804043903909 0 -0.5 0.19278741936367841 0 -0.49368671912131301 0.1828531969182482 0 -0.48341269367675271 0.17637066895233999 0 -0.49170634683837577 0.1941587336203292 0 -0.49368671912131301 0.1828531969182482 0 -0.49999999999999972 0.17362804043903909 0 -0.49200992699072321 0.1743962810239672 0 -0.49200992699072321 0.1743962810239672 0 -0.48341269367675271 0.17637066895233999 0 -0.49368671912131301 0.1828531969182482 0 -0.49200992699072321 0.1743962810239672 0 -0.48341269367675271 0.17637066895233999 0 -0.48341269367675271 0.17637066895233999 0 -0.45591042926964898 0.18268667049205081 0 -0.47274380268756999 0.19288508587190861 0 -0.48341269367675271 0.17637066895233999 0 -0.45591042926964898 0.18268667049205081 0 -0.49200992699072321 0.1743962810239672 0 -0.48341269367675271 0.17637066895233999 0 -0.47479757173443998 0.15789312434732811 0 -0.48341269367675271 0.17637066895233999 0 -0.47479757173443998 0.15789312434732811 0 -0.48341269367675271 0.17637066895233999 0 -0.47479757173443998 0.15789312434732811 0 -0.45723956394668003 0.16387676974864759 0 -0.48341269367675271 0.17637066895233999 0 -0.45723956394668003 0.16387676974864759 0 -0.45591042926964898 0.18268667049205081 0 -0.45591042926964898 0.18268667049205081 0 -0.43992511097516529 0.17411109905454999 0 -0.4284081648625454 0.1890026720317621 0 -0.45591042926964898 0.18268667049205081 0 -0.4284081648625454 0.1890026720317621 0 -0.45723956394668003 0.16387676974864759 0 -0.45591042926964898 0.18268667049205081 0 -0.43992511097516529 0.17411109905454999 0 -0.45723956394668003 0.16387676974864759 0 -0.43992511097516529 0.17411109905454999 0 -0.43892522612619872 0.15930650560997939 0 -0.43892522612619872 0.15930650560997939 0 -0.43796764784210812 0.14528805014891141 0 -0.45386540436598038 0.14482430837095511 0 -0.45723956394668003 0.16387676974864759 0 -0.43892522612619872 0.15930650560997939 0 -0.45386540436598038 0.14482430837095511 0 -0.45386540436598038 0.14482430837095511 0 -0.43293323699752101 0.1317554923945817 0 -0.43826405507869293 0.1195835460605416 0 -0.44901593584904892 0.12912088192892021 0 -0.43293323699752101 0.1317554923945817 0 -0.43796764784210812 0.14528805014891141 0 -0.45386540436598038 0.14482430837095511 0 -0.43293323699752101 0.1317554923945817 0 -0.44901593584904892 0.12912088192892021 0 -0.45386540436598038 0.14482430837095511 0 -0.43293323699752101 0.1317554923945817 0 -0.45371440568763749 0.1126743632371118 0 -0.44901593584904892 0.12912088192892021 0 -0.46425598871103851 0.13528374379222011 0 -0.44901593584904892 0.12912088192892021 0 -0.46425598871103851 0.13528374379222011 0 -0.45386540436598038 0.14482430837095511 0 -0.47479757173443998 0.15789312434732811 0 -0.45723956394668003 0.16387676974864759 0 -0.45386540436598038 0.14482430837095511 0 -0.47479757173443998 0.15789312434732811 0 -0.46425598871103851 0.13528374379222011 0 -0.45386540436598038 0.14482430837095511 0 -0.47479757173443998 0.15789312434732811 0 -0.45386540436598038 0.14482430837095511 0 -0.48226153920099157 0.23766317590200001 0 -0.47864167104372218 0.246590621409366 0 -0.48932095354102823 0.25454658797793611 0 -0.47315400564016008 0.2364435414805684 0 -0.47864167104372218 0.246590621409366 0 -0.46938038244821267 0.25133041049185839 0 -0.47315400564016008 0.2364435414805684 0 -0.48226153920099157 0.23766317590200001 0 -0.47864167104372218 0.246590621409366 0 -0.49106398183666961 0.22759324404760359 0 -0.48932095354102823 0.25454658797793611 0 -0.5 0.23810140997737081 0 -0.49106398183666961 0.22759324404760359 0 -0.48932095354102823 0.25454658797793611 0 -0.48226153920099157 0.23766317590200001 0 -0.49106398183666961 0.22759324404760359 0 -0.48932095354102823 0.25454658797793611 0 -0.5 0.23810140997737081 0 -0.49106398183666961 0.22759324404760359 0 -0.50000000000000022 0.21194679828831781 0 -0.49106398183666961 0.22759324404760359 0 -0.47912708394337772 0.2231418845945258 0 -0.48726644121087642 0.21298690825741631 0 -0.48226153920099157 0.23766317590200001 0 -0.49106398183666961 0.22759324404760359 0 -0.47912708394337772 0.2231418845945258 0 -0.47315400564016008 0.2364435414805684 0 -0.48226153920099157 0.23766317590200001 0 -0.47912708394337772 0.2231418845945258 0 -0.47315400564016008 0.2364435414805684 0 -0.47912708394337772 0.2231418845945258 0 -0.46764368341616458 0.22415830119077751 0 -0.47912708394337772 0.2231418845945258 0 -0.47360767850491831 0.20951316246361981 0 -0.46764368341616458 0.22415830119077751 0 -0.47360767850491831 0.20951316246361981 0 -0.48726644121087642 0.21298690825741631 0 -0.49170634683837577 0.1941587336203292 0 -0.47912708394337772 0.2231418845945258 0 -0.47360767850491831 0.20951316246361981 0 -0.48726644121087642 0.21298690825741631 0 -0.49106398183666961 0.22759324404760359 0 -0.50000000000000022 0.21194679828831781 0 -0.48726644121087642 0.21298690825741631 0 -0.50000000000000022 0.21194679828831781 0 -0.48726644121087642 0.21298690825741631 0 -0.49170634683837577 0.1941587336203292 0 -0.50000000000000022 0.21194679828831781 0 -0.49170634683837577 0.1941587336203292 0 -0.50000000000000022 0.21194679828831781 0 -0.5 0.19278741936367841 0 -0.49170634683837577 0.1941587336203292 0 -0.49368671912131301 0.1828531969182482 0 -0.5 0.19278741936367841 0 -0.49170634683837577 0.1941587336203292 0 -0.48341269367675271 0.17637066895233999 0 -0.49170634683837577 0.1941587336203292 0 -0.47274380268756999 0.19288508587190861 0 -0.47360767850491831 0.20951316246361981 0 -0.49170634683837577 0.1941587336203292 0 -0.47274380268756999 0.19288508587190861 0 -0.47360767850491831 0.20951316246361981 0 -0.47274380268756999 0.19288508587190861 0 -0.45820261548712909 0.20353130823034371 0 -0.45591042926964898 0.18268667049205081 0 -0.47274380268756999 0.19288508587190861 0 -0.45820261548712909 0.20353130823034371 0 -0.45591042926964898 0.18268667049205081 0 -0.43516662619925378 0.20614333559983469 0 -0.4284081648625454 0.1890026720317621 0 -0.45591042926964898 0.18268667049205081 0 -0.45820261548712909 0.20353130823034371 0 -0.43516662619925378 0.20614333559983469 0 -0.44192508753596349 0.22328399916790689 0 -0.43516662619925378 0.20614333559983469 0 -0.45032248765871591 0.2151961798839368 0 -0.44192508753596349 0.22328399916790689 0 -0.43516662619925378 0.20614333559983469 0 -0.45032248765871591 0.2151961798839368 0 -0.45820261548712909 0.20353130823034371 0 -0.43516662619925378 0.20614333559983469 0 -0.45032248765871591 0.2151961798839368 0 -0.46109406183397039 0.21551848415653921 0 -0.45620465585954723 0.2251951411450015 0 -0.45032248765871591 0.2151961798839368 0 -0.45820261548712909 0.20353130823034371 0 -0.46109406183397039 0.21551848415653921 0 -0.47360767850491831 0.20951316246361981 0 -0.45820261548712909 0.20353130823034371 0 -0.46109406183397039 0.21551848415653921 0 -0.47360767850491831 0.20951316246361981 0 -0.46109406183397039 0.21551848415653921 0 -0.46764368341616458 0.22415830119077751 0 -0.47315400564016008 0.2364435414805684 0 -0.46764368341616458 0.22415830119077751 0 -0.45925329591452863 0.2407771106774913 0 -0.46764368341616458 0.22415830119077751 0 -0.45620465585954723 0.2251951411450015 0 -0.45925329591452863 0.2407771106774913 0 -0.46109406183397039 0.21551848415653921 0 -0.46764368341616458 0.22415830119077751 0 -0.45620465585954723 0.2251951411450015 0 -0.45032248765871591 0.2151961798839368 0 -0.45620465585954723 0.2251951411450015 0 -0.44192508753596349 0.22328399916790689 0 -0.44192508753596349 0.22328399916790689 0 -0.44062222049055039 0.24203477259657111 0 -0.43146145522804691 0.2313120115293863 0 -0.45620465585954723 0.2251951411450015 0 -0.44062222049055039 0.24203477259657111 0 -0.45620465585954723 0.2251951411450015 0 -0.44192508753596349 0.22328399916790689 0 -0.44062222049055039 0.24203477259657111 0 -0.44062222049055039 0.24203477259657111 0 -0.45046339488490522 0.249057113070103 0 -0.44442574262614493 0.25832327296872359 0 -0.44062222049055039 0.24203477259657111 0 -0.45046339488490522 0.249057113070103 0 -0.45925329591452863 0.2407771106774913 0 -0.45620465585954723 0.2251951411450015 0 -0.44062222049055039 0.24203477259657111 0 -0.45925329591452863 0.2407771106774913 0 -0.45046339488490522 0.249057113070103 0 -0.45925329591452863 0.2407771106774913 0 -0.45807104112411212 0.25534721177055669 0 -0.45925329591452863 0.2407771106774913 0 -0.46938038244821267 0.25133041049185839 0 -0.45807104112411212 0.25534721177055669 0 -0.47315400564016008 0.2364435414805684 0 -0.45925329591452863 0.2407771106774913 0 -0.46938038244821267 0.25133041049185839 0 -0.4198454647722451 0.23985190764030939 0 -0.40081965837488509 0.24074316727492401 0 -0.40585136056822319 0.25674789398696107 0 -0.4198454647722451 0.23985190764030939 0 -0.405480724964072 0.22581663549259839 0 -0.40081965837488509 0.24074316727492401 0 -0.44062222049055039 0.24203477259657111 0 -0.4198454647722451 0.23985190764030939 0 -0.42503978512155383 0.25887440404814072 0 -0.44062222049055039 0.24203477259657111 0 -0.4198454647722451 0.23985190764030939 0 -0.43146145522804691 0.2313120115293863 0 -0.4198454647722451 0.23985190764030939 0 -0.43146145522804691 0.2313120115293863 0 -0.42370673975344808 0.22056464269113771 0 -0.44192508753596349 0.22328399916790689 0 -0.43146145522804691 0.2313120115293863 0 -0.42370673975344808 0.22056464269113771 0 -0.4198454647722451 0.23985190764030939 0 -0.42370673975344808 0.22056464269113771 0 -0.405480724964072 0.22581663549259839 0 -0.42370673975344808 0.22056464269113771 0 -0.40708390191205951 0.20882890034131879 0 -0.405480724964072 0.22581663549259839 0 -0.42370673975344808 0.22056464269113771 0 -0.40708390191205951 0.20882890034131879 0 -0.42107335870595469 0.2022269477122331 0 -0.44192508753596349 0.22328399916790689 0 -0.42370673975344808 0.22056464269113771 0 -0.43516662619925378 0.20614333559983469 0 -0.42370673975344808 0.22056464269113771 0 -0.43516662619925378 0.20614333559983469 0 -0.42107335870595469 0.2022269477122331 0 -0.43516662619925378 0.20614333559983469 0 -0.4284081648625454 0.1890026720317621 0 -0.42107335870595469 0.2022269477122331 0 -0.43516662619925378 0.20614333559983469 0 -0.4284081648625454 0.1890026720317621 0 -0.4284081648625454 0.1890026720317621 0 -0.40915969581062839 0.19342315750049971 0 -0.4284081648625454 0.1890026720317621 0 -0.42107335870595469 0.2022269477122331 0 -0.40915969581062839 0.19342315750049971 0 -0.40708390191205951 0.20882890034131879 0 -0.42107335870595469 0.2022269477122331 0 -0.40915969581062839 0.19342315750049971 0 -0.40708390191205951 0.20882890034131879 0 -0.40915969581062839 0.19342315750049971 0 -0.38991122675871148 0.19784364296923759 0 -0.40915969581062839 0.19342315750049971 0 -0.38991122675871148 0.19784364296923759 0 -0.40915969581062839 0.19342315750049971 0 -0.38991122675871148 0.19784364296923759 0 -0.39569501158598158 0.17813944679546001 0 -0.39158905321283283 0.2136173787495643 0 -0.38435338999826391 0.22831720607051781 0 -0.36414166766971379 0.2074649771098355 0 -0.38991122675871148 0.19784364296923759 0 -0.39158905321283283 0.2136173787495643 0 -0.36414166766971379 0.2074649771098355 0 -0.40708390191205951 0.20882890034131879 0 -0.39158905321283283 0.2136173787495643 0 -0.405480724964072 0.22581663549259839 0 -0.40708390191205951 0.20882890034131879 0 -0.38991122675871148 0.19784364296923759 0 -0.39158905321283283 0.2136173787495643 0 -0.405480724964072 0.22581663549259839 0 -0.38435338999826391 0.22831720607051781 0 -0.40081965837488509 0.24074316727492401 0 -0.39158905321283283 0.2136173787495643 0 -0.405480724964072 0.22581663549259839 0 -0.38435338999826391 0.22831720607051781 0 -0.37619177155740557 0.24036243622333081 0 -0.38790582398472923 0.24962922847932231 0 -0.36318679658289171 0.25196182354824148 0 -0.38435338999826391 0.22831720607051781 0 -0.37619177155740557 0.24036243622333081 0 -0.38790582398472923 0.24962922847932231 0 -0.38435338999826391 0.22831720607051781 0 -0.38790582398472923 0.24962922847932231 0 -0.40081965837488509 0.24074316727492401 0 -0.38790582398472923 0.24962922847932231 0 -0.40081965837488509 0.24074316727492401 0 -0.40585136056822319 0.25674789398696107 0 -0.40926453963391513 0.14045102348790381 0 -0.42614672387873248 0.14526589422012931 0 -0.41883635224822963 0.16472684775983329 0 -0.40926453963391513 0.14045102348790381 0 -0.41883635224822963 0.16472684775983329 0 -0.40926453963391513 0.14045102348790381 0 -0.41883635224822963 0.16472684775983329 0 -0.40029434983296169 0.15790366282291429 0 -0.40926453963391513 0.14045102348790381 0 -0.417579207348795 0.13056668242546571 0 -0.40026410281127539 0.13237877311027449 0 -0.40926453963391513 0.14045102348790381 0 -0.417579207348795 0.13056668242546571 0 -0.42614672387873248 0.14526589422012931 0 -0.417579207348795 0.13056668242546571 0 -0.43293323699752101 0.1317554923945817 0 -0.42614672387873248 0.14526589422012931 0 -0.42608096723388439 0.1205091241492761 0 -0.417579207348795 0.13056668242546571 0 -0.43293323699752101 0.1317554923945817 0 -0.43796764784210812 0.14528805014891141 0 -0.43293323699752101 0.1317554923945817 0 -0.42614672387873248 0.14526589422012931 0 -0.43892522612619872 0.15930650560997939 0 -0.43796764784210812 0.14528805014891141 0 -0.42614672387873248 0.14526589422012931 0 -0.43892522612619872 0.15930650560997939 0 -0.42614672387873248 0.14526589422012931 0 -0.41883635224822963 0.16472684775983329 0 -0.43992511097516529 0.17411109905454999 0 -0.43892522612619872 0.15930650560997939 0 -0.41883635224822963 0.16472684775983329 0 -0.4284081648625454 0.1890026720317621 0 -0.41883635224822963 0.16472684775983329 0 -0.43992511097516529 0.17411109905454999 0 -0.4284081648625454 0.1890026720317621 0 -0.41883635224822963 0.16472684775983329 0 -0.40915969581062839 0.19342315750049971 0 -0.41883635224822963 0.16472684775983329 0 -0.39569501158598158 0.17813944679546001 0 -0.4284081648625454 0.1890026720317621 0 -0.40915969581062839 0.19342315750049971 0 -0.41883635224822963 0.16472684775983329 0 -0.40029434983296169 0.15790366282291429 0 -0.39569501158598158 0.17813944679546001 0 -0.38484252596519369 0.16167484958157691 0 -0.41883635224822963 0.16472684775983329 0 -0.40029434983296169 0.15790366282291429 0 -0.39569501158598158 0.17813944679546001 0 -0.39569501158598158 0.17813944679546001 0 -0.38484252596519369 0.16167484958157691 0 -0.36525228834216061 0.17922160577889321 0 -0.38991122675871148 0.19784364296923759 0 -0.39569501158598158 0.17813944679546001 0 -0.36525228834216061 0.17922160577889321 0 -0.39283331973148827 0.14452614648979731 0 -0.38372255811484618 0.13025780258704611 0 -0.36636290901460722 0.1509782344479508 0 -0.38484252596519369 0.16167484958157691 0 -0.39283331973148827 0.14452614648979731 0 -0.36636290901460722 0.1509782344479508 0 -0.40029434983296169 0.15790366282291429 0 -0.38484252596519369 0.16167484958157691 0 -0.39283331973148827 0.14452614648979731 0 -0.40926453963391513 0.14045102348790381 0 -0.40029434983296169 0.15790366282291429 0 -0.39283331973148827 0.14452614648979731 0 -0.39283331973148827 0.14452614648979731 0 -0.40026410281127539 0.13237877311027449 0 -0.38372255811484618 0.13025780258704611 0 -0.39792088922733271 0.1160922105611595 0 -0.417579207348795 0.13056668242546571 0 -0.40026410281127539 0.13237877311027449 0 -0.39792088922733271 0.1160922105611595 0 -0.40026410281127539 0.13237877311027449 0 -0.38372255811484618 0.13025780258704611 0 -0.40926453963391513 0.14045102348790381 0 -0.39283331973148827 0.14452614648979731 0 -0.40026410281127539 0.13237877311027449 0 -0.38372255811484618 0.13025780258704611 0 -0.36636290901460722 0.1509782344479508 0 -0.36747352968705388 0.12273486311700831 0 -0.36636290901460722 0.1509782344479508 0 -0.36747352968705388 0.12273486311700831 0 -0.35528769071996391 0.12689780186549679 0 -0.36636290901460722 0.1509782344479508 0 -0.36747352968705388 0.12273486311700831 0 -0.35528769071996391 0.12689780186549679 0 -0.33512599087492562 0.1447950320020088 0 -0.35528769071996391 0.12689780186549679 0 -0.35168351666373848 0.14314256241625531 0 -0.33512599087492562 0.1447950320020088 0 -0.35528769071996391 0.12689780186549679 0 -0.33512599087492562 0.1447950320020088 0 -0.34115039425197219 0.12498493974687711 0 -0.35528769071996391 0.12689780186549679 0 -0.35168351666373848 0.14314256241625531 0 -0.36636290901460722 0.1509782344479508 0 -0.35168351666373848 0.14314256241625531 0 -0.36636290901460722 0.1509782344479508 0 -0.34333519974196419 0.16612441953572921 0 -0.38484252596519369 0.16167484958157691 0 -0.36636290901460722 0.1509782344479508 0 -0.36525228834216061 0.17922160577889321 0 -0.36636290901460722 0.1509782344479508 0 -0.36525228834216061 0.17922160577889321 0 -0.36525228834216061 0.17922160577889321 0 -0.34333519974196419 0.16612441953572921 0 -0.34654591437965571 0.19533490523866279 0 -0.36636290901460722 0.1509782344479508 0 -0.36525228834216061 0.17922160577889321 0 -0.34333519974196419 0.16612441953572921 0 -0.34333519974196419 0.16612441953572921 0 -0.31496429102988749 0.16269226213852109 0 -0.33512599087492562 0.1447950320020088 0 -0.34333519974196419 0.16612441953572921 0 -0.34654591437965571 0.19533490523866279 0 -0.32412519241006588 0.1878495682783011 0 -0.31496429102988749 0.16269226213852109 0 -0.32412519241006588 0.1878495682783011 0 -0.34333519974196419 0.16612441953572921 0 -0.31496429102988749 0.16269226213852109 0 -0.32412519241006588 0.1878495682783011 0 -0.31303823693556859 0.17707572181323081 0 -0.31496429102988749 0.16269226213852109 0 -0.32412519241006588 0.1878495682783011 0 -0.31303823693556859 0.17707572181323081 0 -0.32412519241006588 0.1878495682783011 0 -0.3108046026399135 0.18379038091696129 0 -0.31496429102988749 0.16269226213852109 0 -0.31353256245119709 0.1587605055712967 0 -0.31354631638020197 0.13395604467094269 0 -0.33512599087492562 0.1447950320020088 0 -0.3122891553291075 0.14635758184588041 0 -0.31353256245119709 0.1587605055712967 0 -0.33512599087492562 0.1447950320020088 0 -0.3122891553291075 0.14635758184588041 0 -0.31496429102988749 0.16269226213852109 0 -0.31353256245119709 0.1587605055712967 0 -0.33512599087492562 0.1447950320020088 0 -0.31496429102988749 0.16269226213852109 0 -0.33512599087492562 0.1447950320020088 0 -0.31354631638020197 0.13395604467094269 0 -0.32917568526667751 0.12578156900391591 0 -0.33512599087492562 0.1447950320020088 0 -0.31354631638020197 0.13395604467094269 0 -0.32917568526667751 0.12578156900391591 0 -0.32114709127587232 0.11611322513389059 0 -0.32917568526667751 0.12578156900391591 0 -0.33512599087492562 0.1447950320020088 0 -0.34115039425197219 0.12498493974687711 0 -0.35168351666373848 0.14314256241625531 0 -0.34333519974196419 0.16612441953572921 0 -0.33512599087492562 0.1447950320020088 0 -0.36303104699726713 0.23570834844077809 0 -0.34244699517042121 0.23816418055786151 0 -0.36318679658289171 0.25196182354824148 0 -0.34244699517042121 0.23816418055786151 0 -0.36318679658289171 0.25196182354824148 0 -0.33952374355129727 0.25899057541505788 0 -0.37619177155740557 0.24036243622333081 0 -0.36303104699726713 0.23570834844077809 0 -0.36318679658289171 0.25196182354824148 0 -0.38435338999826391 0.22831720607051781 0 -0.37619177155740557 0.24036243622333081 0 -0.36303104699726713 0.23570834844077809 0 -0.38435338999826391 0.22831720607051781 0 -0.36303104699726713 0.23570834844077809 0 -0.36414166766971379 0.2074649771098355 0 -0.36303104699726713 0.23570834844077809 0 -0.36414166766971379 0.2074649771098355 0 -0.36303104699726713 0.23570834844077809 0 -0.35084793517488477 0.2210857468323085 0 -0.34244699517042121 0.23816418055786151 0 -0.36303104699726713 0.23570834844077809 0 -0.35084793517488477 0.2210857468323085 0 -0.36414166766971379 0.2074649771098355 0 -0.35084793517488477 0.2210857468323085 0 -0.36414166766971379 0.2074649771098355 0 -0.34654591437965571 0.19533490523866279 0 -0.36525228834216061 0.17922160577889321 0 -0.36414166766971379 0.2074649771098355 0 -0.38991122675871148 0.19784364296923759 0 -0.36525228834216061 0.17922160577889321 0 -0.36414166766971379 0.2074649771098355 0 -0.36525228834216061 0.17922160577889321 0 -0.36414166766971379 0.2074649771098355 0 -0.34654591437965571 0.19533490523866279 0 -0.32412519241006588 0.1878495682783011 0 -0.33328609379024349 0.2130068744180813 0 -0.34654591437965571 0.19533490523866279 0 -0.32412519241006588 0.1878495682783011 0 -0.33328609379024349 0.2130068744180813 0 -0.32412519241006588 0.1878495682783011 0 -0.33328609379024349 0.2130068744180813 0 -0.31080006153106382 0.20197173666100501 0 -0.32412519241006588 0.1878495682783011 0 -0.31080006153106382 0.20197173666100501 0 -0.3108046026399135 0.18379038091696129 0 -0.33328609379024349 0.2130068744180813 0 -0.31873218963182409 0.22654972870499029 0 -0.31080006153106382 0.20197173666100501 0 -0.35084793517488477 0.2210857468323085 0 -0.34654591437965571 0.19533490523866279 0 -0.33328609379024349 0.2130068744180813 0 -0.35084793517488477 0.2210857468323085 0 -0.33328609379024349 0.2130068744180813 0 -0.34244699517042121 0.23816418055786151 0 -0.33328609379024349 0.2130068744180813 0 -0.34244699517042121 0.23816418055786151 0 -0.33328609379024349 0.2130068744180813 0 -0.31873218963182409 0.22654972870499029 0 -0.34244699517042121 0.23816418055786151 0 -0.31873218963182409 0.22654972870499029 0 -0.32200613725511351 0.24850726385495631 0 -0.34244699517042121 0.23816418055786151 0 -0.31873218963182409 0.22654972870499029 0 -0.32200613725511351 0.24850726385495631 0 -0.30672251365844311 0.23743048015470111 0 -0.32200613725511351 0.24850726385495631 0 -0.34244699517042121 0.23816418055786151 0 -0.33952374355129727 0.25899057541505788 0 -0.29125564533142001 0.24067530578368901 0 -0.30672251365844311 0.23743048015470111 0 -0.30640548876467488 0.25787073169030861 0 -0.32200613725511351 0.24850726385495631 0 -0.30672251365844311 0.23743048015470111 0 -0.30640548876467488 0.25787073169030861 0 -0.29125564533142001 0.24067530578368901 0 -0.30672251365844311 0.23743048015470111 0 -0.29521310730918271 0.21354937073956171 0 -0.31873218963182409 0.22654972870499029 0 -0.30672251365844311 0.23743048015470111 0 -0.29521310730918271 0.21354937073956171 0 -0.29125564533142001 0.24067530578368901 0 -0.29521310730918271 0.21354937073956171 0 -0.29125564533142001 0.24067530578368901 0 -0.29521310730918271 0.21354937073956171 0 -0.27258595833473342 0.22149207507906341 0 -0.29521310730918271 0.21354937073956171 0 -0.28878760701375322 0.1984352968903606 0 -0.27490594785389072 0.20112241201531189 0 -0.31873218963182409 0.22654972870499029 0 -0.29521310730918271 0.21354937073956171 0 -0.31080006153106382 0.20197173666100501 0 -0.29521310730918271 0.21354937073956171 0 -0.29917056928694541 0.1864234356954344 0 -0.29521310730918271 0.21354937073956171 0 -0.31080006153106382 0.20197173666100501 0 -0.29917056928694541 0.1864234356954344 0 -0.31080006153106382 0.20197173666100501 0 -0.3108046026399135 0.18379038091696129 0 -0.29917056928694541 0.1864234356954344 0 -0.28878760701375322 0.1984352968903606 0 -0.29917056928694541 0.1864234356954344 0 -0.28955343229492791 0.1852490896997587 0 -0.29521310730918271 0.21354937073956171 0 -0.28878760701375322 0.1984352968903606 0 -0.29917056928694541 0.1864234356954344 0 -0.28878760701375322 0.1984352968903606 0 -0.27938784373491388 0.18917199981814359 0 -0.28955343229492791 0.1852490896997587 0 -0.27938784373491388 0.18917199981814359 0 -0.27490594785389072 0.20112241201531189 0 -0.26439180367967152 0.18225540552070321 0 -0.28878760701375322 0.1984352968903606 0 -0.27938784373491388 0.18917199981814359 0 -0.27490594785389072 0.20112241201531189 0 -0.27490594785389072 0.20112241201531189 0 -0.25370102580463139 0.2052288024824625 0 -0.26439180367967152 0.18225540552070321 0 -0.25370102580463139 0.2052288024824625 0 -0.26439180367967152 0.18225540552070321 0 -0.23359887481107691 0.1809086922627815 0 -0.27490594785389072 0.20112241201531189 0 -0.25370102580463139 0.2052288024824625 0 -0.27258595833473342 0.22149207507906341 0 -0.29521310730918271 0.21354937073956171 0 -0.27490594785389072 0.20112241201531189 0 -0.27258595833473342 0.22149207507906341 0 -0.29125564533142001 0.24067530578368901 0 -0.27258595833473342 0.22149207507906341 0 -0.26834113505385238 0.23837358332174549 0 -0.27258595833473342 0.22149207507906341 0 -0.25272375818517617 0.22994970808158929 0 -0.26834113505385238 0.23837358332174549 0 -0.25370102580463139 0.2052288024824625 0 -0.27258595833473342 0.22149207507906341 0 -0.25272375818517617 0.22994970808158929 0 -0.25272375818517617 0.22994970808158929 0 -0.25621817608628389 0.2460965770837312 0 -0.26834113505385238 0.23837358332174549 0 -0.25621817608628389 0.2460965770837312 0 -0.26834113505385238 0.23837358332174549 0 -0.26892213733164849 0.25365425058065472 0 -0.29125564533142001 0.24067530578368901 0 -0.26834113505385238 0.23837358332174549 0 -0.26892213733164849 0.25365425058065472 0 -0.29370567785695612 0.15770531643225719 0 -0.28412418886142132 0.16518528890623771 0 -0.28065913062351988 0.14575155473079041 0 -0.30159211447790629 0.14759241864651959 0 -0.29370567785695612 0.15770531643225719 0 -0.28065913062351988 0.14575155473079041 0 -0.29682817834931757 0.13068013418198679 0 -0.30159211447790629 0.14759241864651959 0 -0.28065913062351988 0.14575155473079041 0 -0.29682817834931757 0.13068013418198679 0 -0.28065913062351988 0.14575155473079041 0 -0.28285123447775751 0.1183560919224374 0 -0.31354631638020197 0.13395604467094269 0 -0.29682817834931757 0.13068013418198679 0 -0.30159211447790629 0.14759241864651959 0 -0.31354631638020197 0.13395604467094269 0 -0.3122891553291075 0.14635758184588041 0 -0.30159211447790629 0.14759241864651959 0 -0.31353256245119709 0.1587605055712967 0 -0.3122891553291075 0.14635758184588041 0 -0.30159211447790629 0.14759241864651959 0 -0.31496429102988749 0.16269226213852109 0 -0.31353256245119709 0.1587605055712967 0 -0.30488677357152572 0.1641353808659653 0 -0.30159211447790629 0.14759241864651959 0 -0.30488677357152572 0.1641353808659653 0 -0.29370567785695612 0.15770531643225719 0 -0.31353256245119709 0.1587605055712967 0 -0.30159211447790629 0.14759241864651959 0 -0.30488677357152572 0.1641353808659653 0 -0.31496429102988749 0.16269226213852109 0 -0.30225886166240762 0.17397067591913981 0 -0.31303823693556859 0.17707572181323081 0 -0.31496429102988749 0.16269226213852109 0 -0.30225886166240762 0.17397067591913981 0 -0.31496429102988749 0.16269226213852109 0 -0.30488677357152572 0.1641353808659653 0 -0.30225886166240762 0.17397067591913981 0 -0.30488677357152572 0.1641353808659653 0 -0.30225886166240762 0.17397067591913981 0 -0.29597535979189887 0.1670989905046398 0 -0.30488677357152572 0.1641353808659653 0 -0.29370567785695612 0.15770531643225719 0 -0.29597535979189887 0.1670989905046398 0 -0.31303823693556859 0.17707572181323081 0 -0.3108046026399135 0.18379038091696129 0 -0.30225886166240762 0.17397067591913981 0 -0.30225886166240762 0.17397067591913981 0 -0.29917056928694541 0.1864234356954344 0 -0.28955343229492791 0.1852490896997587 0 -0.3108046026399135 0.18379038091696129 0 -0.30225886166240762 0.17397067591913981 0 -0.29917056928694541 0.1864234356954344 0 -0.30225886166240762 0.17397067591913981 0 -0.28955343229492791 0.1852490896997587 0 -0.30225886166240762 0.17397067591913981 0 -0.28955343229492791 0.1852490896997587 0 -0.29024545837739651 0.173916500811098 0 -0.28955343229492791 0.1852490896997587 0 -0.29024545837739651 0.173916500811098 0 -0.27889874324695868 0.17762520371433099 0 -0.29024545837739651 0.173916500811098 0 -0.28412418886142132 0.16518528890623771 0 -0.27889874324695868 0.17762520371433099 0 -0.27938784373491388 0.18917199981814359 0 -0.28955343229492791 0.1852490896997587 0 -0.27889874324695868 0.17762520371433099 0 -0.29370567785695612 0.15770531643225719 0 -0.29597535979189887 0.1670989905046398 0 -0.28412418886142132 0.16518528890623771 0 -0.30225886166240762 0.17397067591913981 0 -0.29024545837739651 0.173916500811098 0 -0.29597535979189887 0.1670989905046398 0 -0.29024545837739651 0.173916500811098 0 -0.29597535979189887 0.1670989905046398 0 -0.28412418886142132 0.16518528890623771 0 -0.28412418886142132 0.16518528890623771 0 -0.26844272787379447 0.16268744982768751 0 -0.27889874324695868 0.17762520371433099 0 -0.28412418886142132 0.16518528890623771 0 -0.26844272787379447 0.16268744982768751 0 -0.28065913062351988 0.14575155473079041 0 -0.26844272787379447 0.16268744982768751 0 -0.27889874324695868 0.17762520371433099 0 -0.26439180367967152 0.18225540552070321 0 -0.27938784373491388 0.18917199981814359 0 -0.27889874324695868 0.17762520371433099 0 -0.26439180367967152 0.18225540552070321 0 -0.26844272787379447 0.16268744982768751 0 -0.26439180367967152 0.18225540552070321 0 -0.247018622616726 0.15992587597476091 0 -0.26844272787379447 0.16268744982768751 0 -0.25846103874104392 0.14702121199507179 0 -0.247018622616726 0.15992587597476091 0 -0.26844272787379447 0.16268744982768751 0 -0.25846103874104392 0.14702121199507179 0 -0.28065913062351988 0.14575155473079041 0 -0.25846103874104392 0.14702121199507179 0 -0.28065913062351988 0.14575155473079041 0 -0.25922316449870308 0.12628093809151891 0 -0.28065913062351988 0.14575155473079041 0 -0.25922316449870308 0.12628093809151891 0 -0.28285123447775751 0.1183560919224374 0 -0.25846103874104392 0.14702121199507179 0 -0.25922316449870308 0.12628093809151891 0 -0.2369615480924761 0.1404602413506009 0 -0.25922316449870308 0.12628093809151891 0 -0.25136603029008331 0.1103208693098497 0 -0.26687835675477128 0.1014348965859585 0 -0.25136603029008331 0.1103208693098497 0 -0.26687835675477128 0.1014348965859585 0 -0.24377998071086901 0.096378574065869249 0 -0.26687835675477128 0.1014348965859585 0 -0.28737892951993471 0.098967158637655914 0 -0.27569457229827071 0.081243623470509244 0 -0.26687835675477128 0.1014348965859585 0 -0.28285123447775751 0.1183560919224374 0 -0.28737892951993471 0.098967158637655914 0 -0.25922316449870308 0.12628093809151891 0 -0.26687835675477128 0.1014348965859585 0 -0.28285123447775751 0.1183560919224374 0 -0.29682817834931757 0.13068013418198679 0 -0.28285123447775751 0.1183560919224374 0 -0.30549209578720232 0.10774456093924389 0 -0.28285123447775751 0.1183560919224374 0 -0.28737892951993471 0.098967158637655914 0 -0.30549209578720232 0.10774456093924389 0 -0.28737892951993471 0.098967158637655914 0 -0.30549209578720232 0.10774456093924389 0 -0.29743787519420251 0.08153307720754506 0 -0.30549209578720232 0.10774456093924389 0 -0.29743787519420251 0.08153307720754506 0 -0.31354631638020197 0.13395604467094269 0 -0.29682817834931757 0.13068013418198679 0 -0.30549209578720232 0.10774456093924389 0 -0.31354631638020197 0.13395604467094269 0 -0.30549209578720232 0.10774456093924389 0 -0.29926204670725021 0.066629363318123747 0 -0.30931237829482389 0.073252958087475881 0 -0.31697319293959142 0.061410437985649477 0 -0.29926204670725021 0.066629363318123747 0 -0.30931237829482389 0.073252958087475881 0 -0.29743787519420251 0.08153307720754506 0 -0.30549209578720232 0.10774456093924389 0 -0.29743787519420251 0.08153307720754506 0 -0.31312795334666071 0.083579729522452809 0 -0.30931237829482389 0.073252958087475881 0 -0.29743787519420251 0.08153307720754506 0 -0.31312795334666071 0.083579729522452809 0 -0.28737892951993471 0.098967158637655914 0 -0.29743787519420251 0.08153307720754506 0 -0.27569457229827071 0.081243623470509244 0 -0.29743787519420251 0.08153307720754506 0 -0.28743776060402371 0.060458689408765323 0 -0.28938365460120269 0.05532159347584624 0 -0.29743787519420251 0.08153307720754506 0 -0.28938365460120269 0.05532159347584624 0 -0.29926204670725021 0.066629363318123747 0 -0.29743787519420251 0.08153307720754506 0 -0.28938365460120269 0.05532159347584624 0 -0.29743787519420251 0.08153307720754506 0 -0.27569457229827071 0.081243623470509244 0 -0.28743776060402371 0.060458689408765323 0 -0.27569457229827071 0.081243623470509244 0 -0.26257114212692878 0.06573449919026883 0 -0.28743776060402371 0.060458689408765323 0 -0.26257114212692878 0.06573449919026883 0 -0.28743776060402371 0.060458689408765323 0 -0.26687835675477128 0.1014348965859585 0 -0.25261226255175379 0.080423606239198905 0 -0.24377998071086901 0.096378574065869249 0 -0.26687835675477128 0.1014348965859585 0 -0.27569457229827071 0.081243623470509244 0 -0.25261226255175379 0.080423606239198905 0 -0.26257114212692878 0.06573449919026883 0 -0.23770452364983391 0.071010308971772351 0 -0.25261226255175379 0.080423606239198905 0 -0.26257114212692878 0.06573449919026883 0 -0.23770452364983391 0.071010308971772351 0 -0.27569457229827071 0.081243623470509244 0 -0.25261226255175379 0.080423606239198905 0 -0.26257114212692878 0.06573449919026883 0 -0.2522816967992324 0.037264740289820159 0 -0.27263172987273521 0.051913181220590639 0 -0.24906194248509719 0.058488871325365822 0 -0.26257114212692878 0.06573449919026883 0 -0.27263172987273521 0.051913181220590639 0 -0.24906194248509719 0.058488871325365822 0 -0.2522816967992324 0.037264740289820159 0 -0.2684979789729644 0.03593820420606865 0 -0.27263172987273521 0.051913181220590639 0 -0.2684979789729644 0.03593820420606865 0 -0.27263172987273521 0.051913181220590639 0 -0.28132943400820298 0.02911010974414751 0 -0.27263172987273521 0.051913181220590639 0 -0.28132943400820298 0.02911010974414751 0 -0.28938365460120269 0.05532159347584624 0 -0.26257114212692878 0.06573449919026883 0 -0.27263172987273521 0.051913181220590639 0 -0.28743776060402371 0.060458689408765323 0 -0.25267499080189931 -0.0034516002120552492 0 -0.26909988492935111 -0.0018655285383734981 0 -0.25157722050270093 0.012682655753942951 0 -0.26909988492935111 -0.0018655285383734981 0 -0.25157722050270093 0.012682655753942951 0 -0.27200359261247947 0.017754051058092819 0 -0.2522816967992324 0.037264740289820159 0 -0.25157722050270093 0.012682655753942951 0 -0.27200359261247947 0.017754051058092819 0 -0.2522816967992324 0.037264740289820159 0 -0.2684979789729644 0.03593820420606865 0 -0.27200359261247947 0.017754051058092819 0 -0.2522816967992324 0.037264740289820159 0 -0.27200359261247947 0.017754051058092819 0 -0.27200359261247947 0.017754051058092819 0 -0.28831373269731447 0.017122983851404761 0 -0.28132943400820298 0.02911010974414751 0 -0.2684979789729644 0.03593820420606865 0 -0.27200359261247947 0.017754051058092819 0 -0.28132943400820298 0.02911010974414751 0 -0.26909988492935111 -0.0018655285383734981 0 -0.2917254884257266 -0.0017566381736345419 0 -0.27200359261247947 0.017754051058092819 0 -0.2917254884257266 -0.0017566381736345419 0 -0.27200359261247947 0.017754051058092819 0 -0.28831373269731447 0.017122983851404761 0 -0.2917254884257266 -0.0017566381736345419 0 -0.28831373269731447 0.017122983851404761 0 -0.29997880334656019 0.01439552450637107 0 -0.2917254884257266 -0.0017566381736345419 0 -0.27200359261247947 0.017754051058092819 0 -0.28831373269731447 0.017122983851404761 0 -0.29656482898857922 0.02610767777843559 0 -0.29997880334656019 0.01439552450637107 0 -0.28831373269731447 0.017122983851404761 0 -0.28132943400820298 0.02911010974414751 0 -0.29656482898857922 0.02610767777843559 0 -0.28132943400820298 0.02911010974414751 0 -0.29656482898857922 0.02610767777843559 0 -0.29344050585463782 0.03493273697686209 0 -0.29656482898857922 0.02610767777843559 0 -0.31039051656375261 0.022327184027059441 0 -0.30541723396373921 0.038711125382435783 0 -0.31039051656375261 0.022327184027059441 0 -0.30541723396373921 0.038711125382435783 0 -0.32038394146944787 0.031620215762440292 0 -0.29656482898857922 0.02610767777843559 0 -0.31039051656375261 0.022327184027059441 0 -0.29997880334656019 0.01439552450637107 0 -0.31039051656375261 0.022327184027059441 0 -0.31177688145040278 0.0050359958776742568 0 -0.29997880334656019 0.01439552450637107 0 -0.2917254884257266 -0.0017566381736345419 0 -0.31177688145040278 0.0050359958776742568 0 -0.29997880334656019 0.01439552450637107 0 -0.27263172987273521 0.051913181220590639 0 -0.28743776060402371 0.060458689408765323 0 -0.28938365460120269 0.05532159347584624 0 -0.28938365460120269 0.05532159347584624 0 -0.29045052645802971 0.045802035002429492 0 -0.29738278035354182 0.050541329601553678 0 -0.28938365460120269 0.05532159347584624 0 -0.29738278035354182 0.050541329601553678 0 -0.29780899910201009 0.056562827273038227 0 -0.29926204670725021 0.066629363318123747 0 -0.28938365460120269 0.05532159347584624 0 -0.29780899910201009 0.056562827273038227 0 -0.28132943400820298 0.02911010974414751 0 -0.28938365460120269 0.05532159347584624 0 -0.29045052645802971 0.045802035002429492 0 -0.28132943400820298 0.02911010974414751 0 -0.28938365460120269 0.05532159347584624 0 -0.28132943400820298 0.02911010974414751 0 -0.29344050585463782 0.03493273697686209 0 -0.29045052645802971 0.045802035002429492 0 -0.29344050585463782 0.03493273697686209 0 -0.29045052645802971 0.045802035002429492 0 -0.30541723396373921 0.038711125382435783 0 -0.29045052645802971 0.045802035002429492 0 -0.30541723396373921 0.038711125382435783 0 -0.29738278035354182 0.050541329601553678 0 -0.29045052645802971 0.045802035002429492 0 -0.30541723396373921 0.038711125382435783 0 -0.29656482898857922 0.02610767777843559 0 -0.29344050585463782 0.03493273697686209 0 -0.30541723396373921 0.038711125382435783 0 -0.30541723396373921 0.038711125382435783 0 -0.30520751474604563 0.05375902269662923 0 -0.31780711793698518 0.045521831715634557 0 -0.29926204670725021 0.066629363318123747 0 -0.30520751474604563 0.05375902269662923 0 -0.31697319293959142 0.061410437985649477 0 -0.30541723396373921 0.038711125382435783 0 -0.30520751474604563 0.05375902269662923 0 -0.29738278035354182 0.050541329601553678 0 -0.30520751474604563 0.05375902269662923 0 -0.29738278035354182 0.050541329601553678 0 -0.29780899910201009 0.056562827273038227 0 -0.29926204670725021 0.066629363318123747 0 -0.30520751474604563 0.05375902269662923 0 -0.29780899910201009 0.056562827273038227 0 -0.32553678940662539 0.052415823907368687 0 -0.31780711793698518 0.045521831715634557 0 -0.33422422494732851 0.04449049745268327 0 -0.31697319293959142 0.061410437985649477 0 -0.32553678940662539 0.052415823907368687 0 -0.31780711793698518 0.045521831715634557 0 -0.30520751474604563 0.05375902269662923 0 -0.31697319293959142 0.061410437985649477 0 -0.31780711793698518 0.045521831715634557 0 -0.31697319293959142 0.061410437985649477 0 -0.32808937753058609 0.059947696530402161 0 -0.32553678940662539 0.052415823907368687 0 -0.31780711793698518 0.045521831715634557 0 -0.32038394146944787 0.031620215762440292 0 -0.33422422494732851 0.04449049745268327 0 -0.30541723396373921 0.038711125382435783 0 -0.31780711793698518 0.045521831715634557 0 -0.32038394146944787 0.031620215762440292 0 -0.30541723396373921 0.038711125382435783 0 -0.32038394146944787 0.031620215762440292 0 -0.32038394146944787 0.031620215762440292 0 -0.33422422494732851 0.04449049745268327 0 -0.33422422494732851 0.04449049745268327 0 -0.34051642268078958 0.02208187176518148 0 -0.34924074101412461 0.03711639968071382 0 -0.32038394146944787 0.031620215762440292 0 -0.33422422494732851 0.04449049745268327 0 -0.34051642268078958 0.02208187176518148 0 -0.33422422494732851 0.04449049745268327 0 -0.34715076893326918 0.04673829876922056 0 -0.34924074101412461 0.03711639968071382 0 -0.33422422494732851 0.04449049745268327 0 -0.34806450842520742 0.057360779142928031 0 -0.34715076893326918 0.04673829876922056 0 -0.33422422494732851 0.04449049745268327 0 -0.34806450842520742 0.057360779142928031 0 -0.33422422494732851 0.04449049745268327 0 -0.33482930480244999 0.055095026294593591 0 -0.34806450842520742 0.057360779142928031 0 -0.3407399656121517 0.06083029771636933 0 -0.33482930480244999 0.055095026294593591 0 -0.33440717105718593 0.063083878638897639 0 -0.3407399656121517 0.06083029771636933 0 -0.33482930480244999 0.055095026294593591 0 -0.34806450842520742 0.057360779142928031 0 -0.32808937753058609 0.059947696530402161 0 -0.33482930480244999 0.055095026294593591 0 -0.33440717105718593 0.063083878638897639 0 -0.32808937753058609 0.059947696530402161 0 -0.32553678940662539 0.052415823907368687 0 -0.33482930480244999 0.055095026294593591 0 -0.32553678940662539 0.052415823907368687 0 -0.33422422494732851 0.04449049745268327 0 -0.33482930480244999 0.055095026294593591 0 -0.31039051656375261 0.022327184027059441 0 -0.31177688145040278 0.0050359958776742568 0 -0.3261420213634148 0.01391490981329808 0 -0.32828291010712762 -0.0049346835118845543 0 -0.31177688145040278 0.0050359958776742568 0 -0.3261420213634148 0.01391490981329808 0 -0.31039051656375261 0.022327184027059441 0 -0.32038394146944787 0.031620215762440292 0 -0.3261420213634148 0.01391490981329808 0 -0.31039051656375261 0.022327184027059441 0 -0.32038394146944787 0.031620215762440292 0 -0.32038394146944787 0.031620215762440292 0 -0.34051642268078958 0.02208187176518148 0 -0.32038394146944787 0.031620215762440292 0 -0.3261420213634148 0.01391490981329808 0 -0.34051642268078958 0.02208187176518148 0 -0.3261420213634148 0.01391490981329808 0 -0.34051642268078958 0.02208187176518148 0 -0.34055428987364128 0.0059527955302196532 0 -0.32828291010712762 -0.0049346835118845543 0 -0.3261420213634148 0.01391490981329808 0 -0.34055428987364128 0.0059527955302196532 0 -0.34051642268078958 0.02208187176518148 0 -0.34055428987364128 0.0059527955302196532 0 -0.36064890389212972 0.0125435277679194 0 -0.34718119132474479 -0.01384164818341615 0 -0.34055428987364128 0.0059527955302196532 0 -0.36064890389212972 0.0125435277679194 0 -0.34051642268078958 0.02208187176518148 0 -0.36064890389212972 0.0125435277679194 0 -0.34051642268078958 0.02208187176518148 0 -0.35699945364537122 0.027147445145089769 0 -0.34924074101412461 0.03711639968071382 0 -0.34051642268078958 0.02208187176518148 0 -0.35699945364537122 0.027147445145089769 0 -0.36064890389212972 0.0125435277679194 0 -0.35699945364537122 0.027147445145089769 0 -0.36163302121541668 0.029781402687577421 0 -0.35940737946489582 0.035374977024224222 0 -0.37998819155715241 0.0057865511937031933 0 -0.36738966121720701 0.029980518529024301 0 -0.37123175334181557 0.027162262264614271 0 -0.37998819155715241 0.0057865511937031933 0 -0.36738966121720701 0.029980518529024301 0 -0.3645477689834325 0.020181962352102071 0 -0.37998819155715241 0.0057865511937031933 0 -0.36738966121720701 0.029980518529024301 0 -0.36273559053419291 0.026622670051971411 0 -0.36738966121720701 0.029980518529024301 0 -0.3645477689834325 0.020181962352102071 0 -0.35699945364537122 0.027147445145089769 0 -0.36163302121541668 0.029781402687577421 0 -0.36273559053419291 0.026622670051971411 0 -0.35699945364537122 0.027147445145089769 0 -0.36273559053419291 0.026622670051971411 0 -0.3645477689834325 0.020181962352102071 0 -0.36163302121541668 0.029781402687577421 0 -0.36273559053419291 0.026622670051971411 0 -0.36738966121720701 0.029980518529024301 0 -0.35699945364537122 0.027147445145089769 0 -0.3645477689834325 0.020181962352102071 0 -0.36064890389212972 0.0125435277679194 0 -0.3645477689834325 0.020181962352102071 0 -0.36064890389212972 0.0125435277679194 0 -0.37998819155715241 0.0057865511937031933 0 -0.3645477689834325 0.020181962352102071 0 -0.36064890389212972 0.0125435277679194 0 -0.38683543611469601 0.0001369023841863784 0 -0.36064890389212972 0.0125435277679194 0 -0.37474494217865062 -0.0022388935110706832 0 -0.38683543611469601 0.0001369023841863784 0 -0.36064890389212972 0.0125435277679194 0 -0.37474494217865062 -0.0022388935110706832 0 -0.36307869926690151 -0.00068504054922277494 0 -0.36064890389212972 0.0125435277679194 0 -0.35479113087726238 0.05417448586434577 0 -0.34715076893326918 0.04673829876922056 0 -0.35593663516940488 0.04278932274017315 0 -0.35479113087726238 0.05417448586434577 0 -0.35147867423579721 0.06053566178096708 0 -0.3622197730044176 0.060127746183944272 0 -0.35479113087726238 0.05417448586434577 0 -0.35147867423579721 0.06053566178096708 0 -0.35479113087726238 0.05417448586434577 0 -0.34806450842520742 0.057360779142928031 0 -0.35147867423579721 0.06053566178096708 0 -0.35479113087726238 0.05417448586434577 0 -0.34806450842520742 0.057360779142928031 0 -0.34806450842520742 0.057360779142928031 0 -0.35147867423579721 0.06053566178096708 0 -0.3447014191436914 0.063951910484466787 0 -0.34806450842520742 0.057360779142928031 0 -0.35147867423579721 0.06053566178096708 0 -0.3407399656121517 0.06083029771636933 0 -0.34806450842520742 0.057360779142928031 0 -0.3407399656121517 0.06083029771636933 0 -0.34806450842520742 0.057360779142928031 0 -0.3447014191436914 0.063951910484466787 0 -0.35479113087726238 0.05417448586434577 0 -0.34806450842520742 0.057360779142928031 0 -0.34715076893326918 0.04673829876922056 0 -0.34715076893326918 0.04673829876922056 0 -0.34924074101412461 0.03711639968071382 0 -0.35593663516940488 0.04278932274017315 0 -0.36738966121720701 0.029980518529024301 0 -0.35479113087726238 0.05417448586434577 0 -0.35593663516940488 0.04278932274017315 0 -0.35699945364537122 0.027147445145089769 0 -0.34924074101412461 0.03711639968071382 0 -0.35940737946489582 0.035374977024224222 0 -0.34924074101412461 0.03711639968071382 0 -0.35593663516940488 0.04278932274017315 0 -0.35940737946489582 0.035374977024224222 0 -0.36738966121720701 0.029980518529024301 0 -0.35479113087726238 0.05417448586434577 0 -0.36677646394688163 0.041367990420506082 0 -0.37123175334181557 0.027162262264614271 0 -0.37046143272875132 0.04675171495388801 0 -0.36738966121720701 0.029980518529024301 0 -0.35479113087726238 0.05417448586434577 0 -0.37123175334181557 0.027162262264614271 0 -0.36677646394688163 0.041367990420506082 0 -0.37046143272875132 0.04675171495388801 0 -0.3764786745208083 0.032098692741998169 0 -0.37123175334181557 0.027162262264614271 0 -0.37046143272875132 0.04675171495388801 0 -0.36163302121541668 0.029781402687577421 0 -0.36738966121720701 0.029980518529024301 0 -0.35940737946489582 0.035374977024224222 0 -0.36738966121720701 0.029980518529024301 0 -0.35593663516940488 0.04278932274017315 0 -0.35940737946489582 0.035374977024224222 0 -0.36738966121720701 0.029980518529024301 0 -0.37123175334181557 0.027162262264614271 0 -0.36677646394688163 0.041367990420506082 0 -0.36677646394688163 0.041367990420506082 0 -0.37046143272875132 0.04675171495388801 0 -0.36802302346639398 0.047906750352184523 0 -0.36677646394688163 0.041367990420506082 0 -0.36802302346639398 0.047906750352184523 0 -0.37046143272875132 0.04675171495388801 0 -0.37000681959492809 0.05831264468359916 0 -0.36802302346639398 0.047906750352184523 0 -0.37000681959492809 0.05831264468359916 0 -0.37046143272875132 0.04675171495388801 0 -0.36802302346639398 0.047906750352184523 0 -0.37000681959492809 0.05831264468359916 0 -0.37046143272875132 0.04675171495388801 0 -0.36802302346639398 0.047906750352184523 0 -0.35479113087726238 0.05417448586434577 0 -0.36802302346639398 0.047906750352184523 0 -0.35479113087726238 0.05417448586434577 0 -0.36802302346639398 0.047906750352184523 0 -0.3622197730044176 0.060127746183944272 0 -0.35479113087726238 0.05417448586434577 0 -0.36677646394688163 0.041367990420506082 0 -0.36802302346639398 0.047906750352184523 0 -0.36802302346639398 0.047906750352184523 0 -0.3622197730044176 0.060127746183944272 0 -0.37000681959492809 0.05831264468359916 0 -0.35147867423579721 0.06053566178096708 0 -0.36926886504626422 0.077079019973005369 0 -0.3622197730044176 0.060127746183944272 0 -0.37000681959492809 0.05831264468359916 0 -0.36926886504626422 0.077079019973005369 0 -0.37000681959492809 0.05831264468359916 0 -0.36926886504626422 0.077079019973005369 0 -0.37079498002478778 0.078498176574577722 0 -0.36926886504626422 0.077079019973005369 0 -0.34551673285671652 0.071984855543133663 0 -0.36912013352382872 0.080861301107253064 0 -0.37000681959492809 0.05831264468359916 0 -0.37079498002478778 0.078498176574577722 0 -0.37470600383380392 0.082961959162170973 0 -0.35147867423579721 0.06053566178096708 0 -0.3622197730044176 0.060127746183944272 0 -0.36926886504626422 0.077079019973005369 0 -0.37000681959492809 0.05831264468359916 0 -0.37470600383380392 0.082961959162170973 0 -0.37000681959492809 0.05831264468359916 0 -0.36926886504626422 0.077079019973005369 0 -0.36926886504626422 0.077079019973005369 0 -0.37079498002478778 0.078498176574577722 0 -0.34551673285671652 0.071984855543133663 0 -0.34763839367566191 0.079069075487607554 0 -0.36912013352382872 0.080861301107253064 0 -0.34551673285671652 0.071984855543133663 0 -0.36912013352382872 0.080861301107253064 0 -0.35147867423579721 0.06053566178096708 0 -0.36926886504626422 0.077079019973005369 0 -0.34551673285671652 0.071984855543133663 0 -0.34408269824063842 0.074738747125954852 0 -0.34763839367566191 0.079069075487607554 0 -0.34179116264722731 0.080399472229040897 0 -0.34408269824063842 0.074738747125954852 0 -0.34551673285671652 0.071984855543133663 0 -0.34763839367566191 0.079069075487607554 0 -0.34408269824063842 0.074738747125954852 0 -0.34551673285671652 0.071984855543133663 0 -0.35147867423579721 0.06053566178096708 0 -0.34551673285671652 0.071984855543133663 0 -0.3447014191436914 0.063951910484466787 0 -0.35147867423579721 0.06053566178096708 0 -0.34551673285671652 0.071984855543133663 0 -0.34763839367566191 0.079069075487607554 0 -0.36858415035949882 0.094491491786065696 0 -0.34763839367566191 0.079069075487607554 0 -0.36858415035949882 0.094491491786065696 0 -0.35198293914272999 0.094145145766245733 0 -0.34456144318064219 0.08667329674911145 0 -0.34763839367566191 0.079069075487607554 0 -0.35198293914272999 0.094145145766245733 0 -0.34456144318064219 0.08667329674911145 0 -0.35198293914272999 0.094145145766245733 0 -0.34431035454597703 0.093789606507308373 0 -0.34456144318064219 0.08667329674911145 0 -0.34763839367566191 0.079069075487607554 0 -0.34179116264722731 0.080399472229040897 0 -0.3782625711058698 0.101617738696854 0 -0.37470600383380392 0.082961959162170973 0 -0.36858415035949882 0.094491491786065696 0 -0.34763839367566191 0.079069075487607554 0 -0.36912013352382872 0.080861301107253064 0 -0.36858415035949882 0.094491491786065696 0 -0.36926886504626422 0.077079019973005369 0 -0.37079498002478778 0.078498176574577722 0 -0.36912013352382872 0.080861301107253064 0 -0.36926886504626422 0.077079019973005369 0 -0.36912013352382872 0.080861301107253064 0 -0.36912013352382872 0.080861301107253064 0 -0.37470600383380392 0.082961959162170973 0 -0.37079498002478778 0.078498176574577722 0 -0.36912013352382872 0.080861301107253064 0 -0.37470600383380392 0.082961959162170973 0 -0.36912013352382872 0.080861301107253064 0 -0.37470600383380392 0.082961959162170973 0 -0.36858415035949882 0.094491491786065696 0 -0.36912013352382872 0.080861301107253064 0 -0.36858415035949882 0.094491491786065696 0 -0.36858415035949882 0.094491491786065696 0 -0.36747352968705388 0.12273486311700831 0 -0.3782625711058698 0.101617738696854 0 -0.36858415035949882 0.094491491786065696 0 -0.36858415035949882 0.094491491786065696 0 -0.36006702585218792 0.10838608290929221 0 -0.35198293914272999 0.094145145766245733 0 -0.36858415035949882 0.094491491786065696 0 -0.36006702585218792 0.10838608290929221 0 -0.36747352968705388 0.12273486311700831 0 -0.3782625711058698 0.101617738696854 0 -0.36858415035949882 0.094491491786065696 0 -0.36747352968705388 0.12273486311700831 0 -0.36006702585218792 0.10838608290929221 0 -0.36747352968705388 0.12273486311700831 0 -0.35832203275528268 0.1183511860346923 0 -0.35528769071996391 0.12689780186549679 0 -0.36747352968705388 0.12273486311700831 0 -0.35832203275528268 0.1183511860346923 0 -0.35528769071996391 0.12689780186549679 0 -0.35832203275528268 0.1183511860346923 0 -0.35045988476192508 0.115385996246972 0 -0.36006702585218792 0.10838608290929221 0 -0.35832203275528268 0.1183511860346923 0 -0.35045988476192508 0.115385996246972 0 -0.35045988476192508 0.115385996246972 0 -0.34547580274860562 0.10394098399483009 0 -0.33570271963636877 0.11206429961599181 0 -0.35528769071996391 0.12689780186549679 0 -0.35045988476192508 0.115385996246972 0 -0.34115039425197219 0.12498493974687711 0 -0.36006702585218792 0.10838608290929221 0 -0.35198293914272999 0.094145145766245733 0 -0.34547580274860562 0.10394098399483009 0 -0.36006702585218792 0.10838608290929221 0 -0.35045988476192508 0.115385996246972 0 -0.34547580274860562 0.10394098399483009 0 -0.35198293914272999 0.094145145766245733 0 -0.34547580274860562 0.10394098399483009 0 -0.34431035454597703 0.093789606507308373 0 -0.34547580274860562 0.10394098399483009 0 -0.34431035454597703 0.093789606507308373 0 -0.335413749579693 0.097286071719103154 0 -0.34547580274860562 0.10394098399483009 0 -0.335413749579693 0.097286071719103154 0 -0.33570271963636877 0.11206429961599181 0 -0.335413749579693 0.097286071719103154 0 -0.33570271963636877 0.11206429961599181 0 -0.32444247844199348 0.1047035033472971 0 -0.35045988476192508 0.115385996246972 0 -0.34115039425197219 0.12498493974687711 0 -0.33570271963636877 0.11206429961599181 0 -0.32917568526667751 0.12578156900391591 0 -0.33570271963636877 0.11206429961599181 0 -0.32114709127587232 0.11611322513389059 0 -0.32917568526667751 0.12578156900391591 0 -0.34115039425197219 0.12498493974687711 0 -0.33570271963636877 0.11206429961599181 0 -0.31354631638020197 0.13395604467094269 0 -0.30549209578720232 0.10774456093924389 0 -0.32114709127587232 0.11611322513389059 0 -0.30549209578720232 0.10774456093924389 0 -0.32114709127587232 0.11611322513389059 0 -0.32444247844199348 0.1047035033472971 0 -0.33570271963636877 0.11206429961599181 0 -0.32114709127587232 0.11611322513389059 0 -0.32444247844199348 0.1047035033472971 0 -0.30549209578720232 0.10774456093924389 0 -0.32444247844199348 0.1047035033472971 0 -0.32445673593083119 0.090309359328255762 0 -0.30549209578720232 0.10774456093924389 0 -0.32445673593083119 0.090309359328255762 0 -0.31312795334666071 0.083579729522452809 0 -0.335413749579693 0.097286071719103154 0 -0.32444247844199348 0.1047035033472971 0 -0.32445673593083119 0.090309359328255762 0 -0.32445673593083119 0.090309359328255762 0 -0.3275606083710243 0.080211281293741998 0 -0.31312795334666071 0.083579729522452809 0 -0.3275606083710243 0.080211281293741998 0 -0.31312795334666071 0.083579729522452809 0 -0.31976082328641481 0.073112182403608325 0 -0.30931237829482389 0.073252958087475881 0 -0.31312795334666071 0.083579729522452809 0 -0.31976082328641481 0.073112182403608325 0 -0.30931237829482389 0.073252958087475881 0 -0.31697319293959142 0.061410437985649477 0 -0.31976082328641481 0.073112182403608325 0 -0.31697319293959142 0.061410437985649477 0 -0.31976082328641481 0.073112182403608325 0 -0.32886731949388731 0.069155273298144179 0 -0.31697319293959142 0.061410437985649477 0 -0.32808937753058609 0.059947696530402161 0 -0.32886731949388731 0.069155273298144179 0 -0.3275606083710243 0.080211281293741998 0 -0.31976082328641481 0.073112182403608325 0 -0.32886731949388731 0.069155273298144179 0 -0.32886731949388731 0.069155273298144179 0 -0.33770721458858299 0.069047958238937293 0 -0.336378655355973 0.076693290193422539 0 -0.3275606083710243 0.080211281293741998 0 -0.32886731949388731 0.069155273298144179 0 -0.336378655355973 0.076693290193422539 0 -0.33440717105718593 0.063083878638897639 0 -0.32886731949388731 0.069155273298144179 0 -0.33770721458858299 0.069047958238937293 0 -0.32808937753058609 0.059947696530402161 0 -0.33440717105718593 0.063083878638897639 0 -0.32886731949388731 0.069155273298144179 0 -0.3407399656121517 0.06083029771636933 0 -0.33440717105718593 0.063083878638897639 0 -0.33770721458858299 0.069047958238937293 0 -0.3407399656121517 0.06083029771636933 0 -0.3447014191436914 0.063951910484466787 0 -0.33770721458858299 0.069047958238937293 0 -0.34551673285671652 0.071984855543133663 0 -0.3447014191436914 0.063951910484466787 0 -0.33770721458858299 0.069047958238937293 0 -0.34408269824063842 0.074738747125954852 0 -0.33770721458858299 0.069047958238937293 0 -0.336378655355973 0.076693290193422539 0 -0.34408269824063842 0.074738747125954852 0 -0.34551673285671652 0.071984855543133663 0 -0.33770721458858299 0.069047958238937293 0 -0.34551673285671652 0.071984855543133663 0 -0.33770721458858299 0.069047958238937293 0 -0.34408269824063842 0.074738747125954852 0 -0.336378655355973 0.076693290193422539 0 -0.34179116264722731 0.080399472229040897 0 -0.336378655355973 0.076693290193422539 0 -0.34179116264722731 0.080399472229040897 0 -0.33708436589161489 0.085963183755354639 0 -0.34456144318064219 0.08667329674911145 0 -0.34179116264722731 0.080399472229040897 0 -0.33708436589161489 0.085963183755354639 0 -0.34456144318064219 0.08667329674911145 0 -0.34431035454597703 0.093789606507308373 0 -0.33708436589161489 0.085963183755354639 0 -0.34431035454597703 0.093789606507308373 0 -0.335413749579693 0.097286071719103154 0 -0.33708436589161489 0.085963183755354639 0 -0.335413749579693 0.097286071719103154 0 -0.32445673593083119 0.090309359328255762 0 -0.33708436589161489 0.085963183755354639 0 -0.32445673593083119 0.090309359328255762 0 -0.3275606083710243 0.080211281293741998 0 -0.33708436589161489 0.085963183755354639 0 -0.3275606083710243 0.080211281293741998 0 -0.336378655355973 0.076693290193422539 0 -0.33708436589161489 0.085963183755354639 0 -0.38891458820749281 0.47713565504117422 0 -0.42172655890518862 0.5 0 -0.3640375775585698 0.5 0 -0.38891458820749281 0.47713565504117422 0 -0.37103467036260362 0.45695891695805302 0 -0.36943712044780219 0.47475959506207249 0 -0.39694697642853649 0.45370639251272787 0 -0.37103467036260362 0.45695891695805302 0 -0.38891458820749281 0.47713565504117422 0 -0.39694697642853649 0.45370639251272787 0 -0.37103467036260362 0.45695891695805302 0 -0.38249991962136642 0.44345487931465249 0 -0.39694697642853649 0.45370639251272787 0 -0.37103467036260362 0.45695891695805302 0 -0.38249991962136642 0.44345487931465249 0 -0.39694697642853649 0.45370639251272787 0 -0.40464661760035381 0.43350824459614162 0 -0.38891458820749281 0.47713565504117422 0 -0.39694697642853649 0.45370639251272787 0 -0.41631826774707797 0.4711213942969617 0 -0.39694697642853649 0.45370639251272787 0 -0.42285928249446952 0.45045386806740279 0 -0.41631826774707797 0.4711213942969617 0 -0.42285928249446952 0.45045386806740279 0 -0.42501824733507809 0.43459816807542118 0 -0.40464661760035381 0.43350824459614162 0 -0.39694697642853649 0.45370639251272787 0 -0.42285928249446952 0.45045386806740279 0 -0.39694697642853649 0.45370639251272787 0 -0.42285928249446952 0.45045386806740279 0 -0.40464661760035381 0.43350824459614162 0 -0.42285928249446952 0.45045386806740279 0 -0.43521244088076849 0.46107148678855758 0 -0.44877158856040261 0.44720134362207808 0 -0.42285928249446952 0.45045386806740279 0 -0.44877158856040261 0.44720134362207808 0 -0.42285928249446952 0.45045386806740279 0 -0.43592409671607729 0.44045812782560079 0 -0.44877158856040261 0.44720134362207808 0 -0.42285928249446952 0.45045386806740279 0 -0.43592409671607729 0.44045812782560079 0 -0.42501824733507809 0.43459816807542118 0 -0.42285928249446952 0.45045386806740279 0 -0.43521244088076849 0.46107148678855758 0 -0.41631826774707797 0.4711213942969617 0 -0.41631826774707797 0.4711213942969617 0 -0.42172655890518862 0.5 0 -0.43935827984199688 0.47473889959161758 0 -0.43521244088076849 0.46107148678855758 0 -0.41631826774707797 0.4711213942969617 0 -0.43935827984199688 0.47473889959161758 0 -0.38891458820749281 0.47713565504117422 0 -0.41631826774707797 0.4711213942969617 0 -0.42172655890518862 0.5 0 -0.42172655890518862 0.5 0 -0.43935827984199688 0.47473889959161758 0 -0.47784082473980471 0.47626967285504462 0 -0.42172655890518862 0.5 0 -0.5 0.5 0 -0.47784082473980471 0.47626967285504462 0 -0.43935827984199688 0.47473889959161758 0 -0.47784082473980471 0.47626967285504462 0 -0.4487547857598953 0.46184192836472759 0 -0.5 0.5 0 -0.47784082473980471 0.47626967285504462 0 -0.49999999999999589 0.44077113011354369 0 -0.47784082473980471 0.47626967285504462 0 -0.47438579428019922 0.44398623686781052 0 -0.4627013265822788 0.4545376326069438 0 -0.47784082473980471 0.47626967285504462 0 -0.49999999999999589 0.44077113011354369 0 -0.47438579428019922 0.44398623686781052 0 -0.49999999999999589 0.44077113011354369 0 -0.47438579428019922 0.44398623686781052 0 -0.48180565015534738 0.42787197640755792 0 -0.49999999999999589 0.44077113011354369 0 -0.47438579428019922 0.44398623686781052 0 -0.47438579428019922 0.44398623686781052 0 -0.4627013265822788 0.4545376326069438 0 -0.44877158856040261 0.44720134362207808 0 -0.47438579428019922 0.44398623686781052 0 -0.44877158856040261 0.44720134362207808 0 -0.47438579428019922 0.44398623686781052 0 -0.44877158856040261 0.44720134362207808 0 -0.46289485375526918 0.43579199928955081 0 -0.44877158856040261 0.44720134362207808 0 -0.44878504691792248 0.43547483269414872 0 -0.46289485375526918 0.43579199928955081 0 -0.47784082473980471 0.47626967285504462 0 -0.4627013265822788 0.4545376326069438 0 -0.4487547857598953 0.46184192836472759 0 -0.4627013265822788 0.4545376326069438 0 -0.4487547857598953 0.46184192836472759 0 -0.44877158856040261 0.44720134362207808 0 -0.4487547857598953 0.46184192836472759 0 -0.44877158856040261 0.44720134362207808 0 -0.43521244088076849 0.46107148678855758 0 -0.4487547857598953 0.46184192836472759 0 -0.44877158856040261 0.44720134362207808 0 -0.43521244088076849 0.46107148678855758 0 -0.43935827984199688 0.47473889959161758 0 -0.4487547857598953 0.46184192836472759 0 -0.44877158856040261 0.44720134362207808 0 -0.44508566455651338 0.43839632914573512 0 -0.44878504691792248 0.43547483269414872 0 -0.44877158856040261 0.44720134362207808 0 -0.44878504691792248 0.43547483269414872 0 -0.43592409671607729 0.44045812782560079 0 -0.44877158856040261 0.44720134362207808 0 -0.44508566455651338 0.43839632914573512 0 -0.44531233658805403 0.42513554986162888 0 -0.44878504691792248 0.43547483269414872 0 -0.44880957839306629 0.41410011360809668 0 -0.44878504691792248 0.43547483269414872 0 -0.44880957839306629 0.41410011360809668 0 -0.43788570063392329 0.43164093021736671 0 -0.44531233658805403 0.42513554986162888 0 -0.44878504691792248 0.43547483269414872 0 -0.43592409671607729 0.44045812782560079 0 -0.44508566455651338 0.43839632914573512 0 -0.43788570063392329 0.43164093021736671 0 -0.44508566455651338 0.43839632914573512 0 -0.43788570063392329 0.43164093021736671 0 -0.44878504691792248 0.43547483269414872 0 -0.44508566455651338 0.43839632914573512 0 -0.44878504691792248 0.43547483269414872 0 -0.44531233658805403 0.42513554986162888 0 -0.44880957839306629 0.41410011360809668 0 -0.42391867717568832 0.41711337076656618 0 -0.44880957839306629 0.41410011360809668 0 -0.46585669794528167 0.42199291516666237 0 -0.4641229039382897 0.40091036417177778 0 -0.44878504691792248 0.43547483269414872 0 -0.46585669794528167 0.42199291516666237 0 -0.44878504691792248 0.43547483269414872 0 -0.44880957839306629 0.41410011360809668 0 -0.46585669794528167 0.42199291516666237 0 -0.44878504691792248 0.43547483269414872 0 -0.46585669794528167 0.42199291516666237 0 -0.46289485375526918 0.43579199928955081 0 -0.47438579428019922 0.44398623686781052 0 -0.46289485375526918 0.43579199928955081 0 -0.48180565015534738 0.42787197640755792 0 -0.46585669794528167 0.42199291516666237 0 -0.46289485375526918 0.43579199928955081 0 -0.48180565015534738 0.42787197640755792 0 -0.46585669794528167 0.42199291516666237 0 -0.48292834897264081 0.4085109976391762 0 -0.4641229039382897 0.40091036417177778 0 -0.46585669794528167 0.42199291516666237 0 -0.48292834897264081 0.4085109976391762 0 -0.46585669794528167 0.42199291516666237 0 -0.48180565015534738 0.42787197640755792 0 -0.48292834897264081 0.4085109976391762 0 -0.48292834897264081 0.4085109976391762 0 -0.5 0.41790010511261683 0 -0.5 0.39502908011169002 0 -0.48180565015534738 0.42787197640755792 0 -0.48292834897264081 0.4085109976391762 0 -0.5 0.41790010511261683 0 -0.49999999999999589 0.44077113011354369 0 -0.48180565015534738 0.42787197640755792 0 -0.5 0.41790010511261683 0 -0.48850556386005051 0.3766603246979251 0 -0.5 0.39502908011169002 0 -0.47832653283541199 0.38608194873200979 0 -0.48850556386005051 0.3766603246979251 0 -0.5 0.39502908011169002 0 -0.5 0.36887446842263683 0 -0.48292834897264081 0.4085109976391762 0 -0.5 0.39502908011169002 0 -0.47832653283541199 0.38608194873200979 0 -0.48292834897264081 0.4085109976391762 0 -0.5 0.39502908011169002 0 -0.48292834897264081 0.4085109976391762 0 -0.47832653283541199 0.38608194873200979 0 -0.4641229039382897 0.40091036417177778 0 -0.48850556386005051 0.3766603246979251 0 -0.47832653283541199 0.38608194873200979 0 -0.48259334700195489 0.36409898273387958 0 -0.47832653283541199 0.38608194873200979 0 -0.46059005399087027 0.38292215568240928 0 -0.4641229039382897 0.40091036417177778 0 -0.47832653283541199 0.38608194873200979 0 -0.46059005399087027 0.38292215568240928 0 -0.46572599417265398 0.36772482908493609 0 -0.44880957839306629 0.41410011360809668 0 -0.4641229039382897 0.40091036417177778 0 -0.44883410986820999 0.3927253945220448 0 -0.46059005399087027 0.38292215568240928 0 -0.4641229039382897 0.40091036417177778 0 -0.44883410986820999 0.3927253945220448 0 -0.44880957839306629 0.41410011360809668 0 -0.44883410986820999 0.3927253945220448 0 -0.43699833754743561 0.40294499431243458 0 -0.44880957839306629 0.41410011360809668 0 -0.44883410986820999 0.3927253945220448 0 -0.44883410986820999 0.3927253945220448 0 -0.43978391516082421 0.3912231797547942 0 -0.43699833754743561 0.40294499431243458 0 -0.44883410986820999 0.3927253945220448 0 -0.43978391516082421 0.3912231797547942 0 -0.44802713623065987 0.37645115623263098 0 -0.44883410986820999 0.3927253945220448 0 -0.44885864134335329 0.37135067543599282 0 -0.44883410986820999 0.3927253945220448 0 -0.44802713623065987 0.37645115623263098 0 -0.44885864134335329 0.37135067543599282 0 -0.43978391516082421 0.3912231797547942 0 -0.44802713623065987 0.37645115623263098 0 -0.42527607699699133 0.39277117395206662 0 -0.46059005399087027 0.38292215568240928 0 -0.44883410986820999 0.3927253945220448 0 -0.44885864134335329 0.37135067543599282 0 -0.44802713623065987 0.37645115623263098 0 -0.4250431626101242 0.37647010748543319 0 -0.42527607699699133 0.39277117395206662 0 -0.44802713623065987 0.37645115623263098 0 -0.42527607699699133 0.39277117395206662 0 -0.4250431626101242 0.37647010748543319 0 -0.4134887672477453 0.38574914578498593 0 -0.40122768387689522 0.38158953953487368 0 -0.4250431626101242 0.37647010748543319 0 -0.40122768387689522 0.38158953953487368 0 -0.4250431626101242 0.37647010748543319 0 -0.4134887672477453 0.38574914578498593 0 -0.42527607699699133 0.39277117395206662 0 -0.4250431626101242 0.37647010748543319 0 -0.40122768387689522 0.38158953953487368 0 -0.40086489287733429 0.37467411733839928 0 -0.4134887672477453 0.38574914578498593 0 -0.40798835104355652 0.39359067917546098 0 -0.40557429982823212 0.38794008425198068 0 -0.4134887672477453 0.38574914578498593 0 -0.40122768387689522 0.38158953953487368 0 -0.40557429982823212 0.38794008425198068 0 -0.40798835104355652 0.39359067917546098 0 -0.42527607699699133 0.39277117395206662 0 -0.40252501776332311 0.40909119167150271 0 -0.42527607699699133 0.39277117395206662 0 -0.40252501776332311 0.40909119167150271 0 -0.4134887672477453 0.38574914578498593 0 -0.40798835104355652 0.39359067917546098 0 -0.42527607699699133 0.39277117395206662 0 -0.42527607699699133 0.39277117395206662 0 -0.43699833754743561 0.40294499431243458 0 -0.42391867717568832 0.41711337076656618 0 -0.43978391516082421 0.3912231797547942 0 -0.42527607699699133 0.39277117395206662 0 -0.43699833754743561 0.40294499431243458 0 -0.44880957839306629 0.41410011360809668 0 -0.43699833754743561 0.40294499431243458 0 -0.42391867717568832 0.41711337076656618 0 -0.44531233658805403 0.42513554986162888 0 -0.42391867717568832 0.41711337076656618 0 -0.43788570063392329 0.43164093021736671 0 -0.44531233658805403 0.42513554986162888 0 -0.42391867717568832 0.41711337076656618 0 -0.43788570063392329 0.43164093021736671 0 -0.42391867717568832 0.41711337076656618 0 -0.42501824733507809 0.43459816807542118 0 -0.43592409671607729 0.44045812782560079 0 -0.43788570063392329 0.43164093021736671 0 -0.42501824733507809 0.43459816807542118 0 -0.42391867717568832 0.41711337076656618 0 -0.42501824733507809 0.43459816807542118 0 -0.40464661760035381 0.43350824459614162 0 -0.42527607699699133 0.39277117395206662 0 -0.42391867717568832 0.41711337076656618 0 -0.40252501776332311 0.40909119167150271 0 -0.42391867717568832 0.41711337076656618 0 -0.40252501776332311 0.40909119167150271 0 -0.40464661760035381 0.43350824459614162 0 -0.42391867717568832 0.41711337076656618 0 -0.40252501776332311 0.40909119167150271 0 -0.40252501776332311 0.40909119167150271 0 -0.37875820238401509 0.42613984176471847 0 -0.40252501776332311 0.40909119167150271 0 -0.40464661760035381 0.43350824459614162 0 -0.37875820238401509 0.42613984176471847 0 -0.38249991962136642 0.44345487931465249 0 -0.40464661760035381 0.43350824459614162 0 -0.37875820238401509 0.42613984176471847 0 -0.40252501776332311 0.40909119167150271 0 -0.37875820238401509 0.42613984176471847 0 -0.37769092578324193 0.39977892163450779 0 -0.37769092578324193 0.39977892163450779 0 -0.38963770449155072 0.39285491215608792 0 -0.37686086334024771 0.38257038446795849 0 -0.40252501776332311 0.40909119167150271 0 -0.37769092578324193 0.39977892163450779 0 -0.38963770449155072 0.39285491215608792 0 -0.40252501776332311 0.40909119167150271 0 -0.37769092578324193 0.39977892163450779 0 -0.37686086334024771 0.38257038446795849 0 -0.39363670834615189 0.38450398520198442 0 -0.40086489287733429 0.37467411733839928 0 -0.38963770449155072 0.39285491215608792 0 -0.37686086334024771 0.38257038446795849 0 -0.39363670834615189 0.38450398520198442 0 -0.37686086334024771 0.38257038446795849 0 -0.40086489287733429 0.37467411733839928 0 -0.37686086334024771 0.38257038446795849 0 -0.40086489287733429 0.37467411733839928 0 -0.39033592763893787 0.37070590072739279 0 -0.39363670834615189 0.38450398520198442 0 -0.40122768387689522 0.38158953953487368 0 -0.39959239714473138 0.39083097251260251 0 -0.38963770449155072 0.39285491215608792 0 -0.39363670834615189 0.38450398520198442 0 -0.39959239714473138 0.39083097251260251 0 -0.39363670834615189 0.38450398520198442 0 -0.40122768387689522 0.38158953953487368 0 -0.40086489287733429 0.37467411733839928 0 -0.40122768387689522 0.38158953953487368 0 -0.40557429982823212 0.38794008425198068 0 -0.39959239714473138 0.39083097251260251 0 -0.40798835104355652 0.39359067917546098 0 -0.40557429982823212 0.38794008425198068 0 -0.39959239714473138 0.39083097251260251 0 -0.40252501776332311 0.40909119167150271 0 -0.38963770449155072 0.39285491215608792 0 -0.39959239714473138 0.39083097251260251 0 -0.40798835104355652 0.39359067917546098 0 -0.40252501776332311 0.40909119167150271 0 -0.39959239714473138 0.39083097251260251 0 -0.3926828114571661 0.35541775914535301 0 -0.40105078960399698 0.34662517948293931 0 -0.40586906590548888 0.3393029225754271 0 -0.3926828114571661 0.35541775914535301 0 -0.39400561065841477 0.34382680172727831 0 -0.40586906590548888 0.3393029225754271 0 -0.3926828114571661 0.35541775914535301 0 -0.40586906590548888 0.3393029225754271 0 -0.3926828114571661 0.35541775914535301 0 -0.39969836615416421 0.35756427730283669 0 -0.39341808057325789 0.36431669671432632 0 -0.3926828114571661 0.35541775914535301 0 -0.40105078960399698 0.34662517948293931 0 -0.39969836615416421 0.35756427730283669 0 -0.3926828114571661 0.35541775914535301 0 -0.39400561065841477 0.34382680172727831 0 -0.38539473684528258 0.34837828204789067 0 -0.40105078960399698 0.34662517948293931 0 -0.40525205349158999 0.35429039595711992 0 -0.40888688292129022 0.34941903462410451 0 -0.40105078960399698 0.34662517948293931 0 -0.4080564418273247 0.34368885170405422 0 -0.40888688292129022 0.34941903462410451 0 -0.40105078960399698 0.34662517948293931 0 -0.40525205349158999 0.35429039595711992 0 -0.39969836615416421 0.35756427730283669 0 -0.40525205349158999 0.35429039595711992 0 -0.39969836615416421 0.35756427730283669 0 -0.40553625032349627 0.36037170931698131 0 -0.40553625032349627 0.36037170931698131 0 -0.40544017780568847 0.3661562974108753 0 -0.40025021147547779 0.36436392320030081 0 -0.40544017780568847 0.3661562974108753 0 -0.40025021147547779 0.36436392320030081 0 -0.397742957241214 0.36844985128713797 0 -0.39969836615416421 0.35756427730283669 0 -0.40553625032349627 0.36037170931698131 0 -0.40025021147547779 0.36436392320030081 0 -0.40544017780568847 0.3661562974108753 0 -0.40086489287733429 0.37467411733839928 0 -0.397742957241214 0.36844985128713797 0 -0.40086489287733429 0.37467411733839928 0 -0.397742957241214 0.36844985128713797 0 -0.39033592763893787 0.37070590072739279 0 -0.397742957241214 0.36844985128713797 0 -0.39341808057325789 0.36431669671432632 0 -0.39033592763893787 0.37070590072739279 0 -0.39969836615416421 0.35756427730283669 0 -0.40025021147547779 0.36436392320030081 0 -0.39341808057325789 0.36431669671432632 0 -0.40025021147547779 0.36436392320030081 0 -0.397742957241214 0.36844985128713797 0 -0.39341808057325789 0.36431669671432632 0 -0.3926828114571661 0.35541775914535301 0 -0.39341808057325789 0.36431669671432632 0 -0.37949655700884349 0.37153259571527891 0 -0.37949655700884349 0.37153259571527891 0 -0.37823932191431281 0.35548757599615399 0 -0.37024808467873749 0.36543132639488701 0 -0.3926828114571661 0.35541775914535301 0 -0.37949655700884349 0.37153259571527891 0 -0.37823932191431281 0.35548757599615399 0 -0.3926828114571661 0.35541775914535301 0 -0.37949655700884349 0.37153259571527891 0 -0.39341808057325789 0.36431669671432632 0 -0.39033592763893787 0.37070590072739279 0 -0.37949655700884349 0.37153259571527891 0 -0.37686086334024771 0.38257038446795849 0 -0.39033592763893787 0.37070590072739279 0 -0.37949655700884349 0.37153259571527891 0 -0.37823932191431281 0.35548757599615399 0 -0.38539473684528258 0.34837828204789067 0 -0.3787015959315434 0.33902802614693439 0 -0.3926828114571661 0.35541775914535301 0 -0.37823932191431281 0.35548757599615399 0 -0.38539473684528258 0.34837828204789067 0 -0.3787015959315434 0.33902802614693439 0 -0.37816355277066899 0.32985684687273281 0 -0.39158393304450312 0.32769252248945308 0 -0.39400561065841477 0.34382680172727831 0 -0.38539473684528258 0.34837828204789067 0 -0.3787015959315434 0.33902802614693439 0 -0.39158393304450312 0.32769252248945308 0 -0.37442838800096029 0.32044424157556423 0 -0.37816355277066899 0.32985684687273281 0 -0.39158393304450312 0.32769252248945308 0 -0.37442838800096029 0.32044424157556423 0 -0.38613629988198012 0.31665983269396758 0 -0.39158393304450312 0.32769252248945308 0 -0.37442838800096029 0.32044424157556423 0 -0.38613629988198012 0.31665983269396758 0 -0.37442838800096029 0.32044424157556423 0 -0.37415321332832258 0.31386652142517069 0 -0.39158393304450312 0.32769252248945308 0 -0.4039094095666334 0.320812311378052 0 -0.40925887999808552 0.33516025262174892 0 -0.38613629988198012 0.31665983269396758 0 -0.39830358576524327 0.31266849694114901 0 -0.39158393304450312 0.32769252248945308 0 -0.39830358576524327 0.31266849694114901 0 -0.39158393304450312 0.32769252248945308 0 -0.4039094095666334 0.320812311378052 0 -0.39830358576524327 0.31266849694114901 0 -0.4039094095666334 0.320812311378052 0 -0.40826549608127172 0.31275764886218971 0 -0.3787015959315434 0.33902802614693439 0 -0.40777024278950652 0.33697950655941222 0 -0.39158393304450312 0.32769252248945308 0 -0.40925887999808552 0.33516025262174892 0 -0.39158393304450312 0.32769252248945308 0 -0.40777024278950652 0.33697950655941222 0 -0.40925887999808552 0.33516025262174892 0 -0.3787015959315434 0.33902802614693439 0 -0.39158393304450312 0.32769252248945308 0 -0.40777024278950652 0.33697950655941222 0 -0.39400561065841477 0.34382680172727831 0 -0.3787015959315434 0.33902802614693439 0 -0.40777024278950652 0.33697950655941222 0 -0.39400561065841477 0.34382680172727831 0 -0.40586906590548888 0.3393029225754271 0 -0.40777024278950652 0.33697950655941222 0 -0.40105078960399698 0.34662517948293931 0 -0.40586906590548888 0.3393029225754271 0 -0.40105078960399698 0.34662517948293931 0 -0.40586906590548888 0.3393029225754271 0 -0.4080564418273247 0.34368885170405422 0 -0.4080564418273247 0.34368885170405422 0 -0.41125860555200922 0.34134685969384471 0 -0.40895905381070002 0.33957121871677393 0 -0.40586906590548888 0.3393029225754271 0 -0.4080564418273247 0.34368885170405422 0 -0.40895905381070002 0.33957121871677393 0 -0.4080564418273247 0.34368885170405422 0 -0.41125860555200922 0.34134685969384471 0 -0.41366919887348358 0.34576378073699821 0 -0.41125860555200922 0.34134685969384471 0 -0.41273643032526569 0.33662953043248711 0 -0.41433336845197538 0.3415594658204692 0 -0.41125860555200922 0.34134685969384471 0 -0.41433336845197538 0.3415594658204692 0 -0.41366919887348358 0.34576378073699821 0 -0.41125860555200922 0.34134685969384471 0 -0.41273643032526569 0.33662953043248711 0 -0.40895905381070002 0.33957121871677393 0 -0.41273643032526569 0.33662953043248711 0 -0.40777024278950652 0.33697950655941222 0 -0.41273643032526569 0.33662953043248711 0 -0.40895905381070002 0.33957121871677393 0 -0.40777024278950652 0.33697950655941222 0 -0.41273643032526569 0.33662953043248711 0 -0.40777024278950652 0.33697950655941222 0 -0.40925887999808552 0.33516025262174892 0 -0.40777024278950652 0.33697950655941222 0 -0.40925887999808552 0.33516025262174892 0 -0.40586906590548888 0.3393029225754271 0 -0.40895905381070002 0.33957121871677393 0 -0.40777024278950652 0.33697950655941222 0 -0.40586906590548888 0.3393029225754271 0 -0.40777024278950652 0.33697950655941222 0 -0.41273643032526569 0.33662953043248711 0 -0.40925887999808552 0.33516025262174892 0 -0.40925887999808552 0.33516025262174892 0 -0.42024067891477529 0.32173946694831868 0 -0.40925887999808552 0.33516025262174892 0 -0.42071708592719742 0.33131558094746122 0 -0.42024067891477529 0.32173946694831868 0 -0.41273643032526569 0.33662953043248711 0 -0.40925887999808552 0.33516025262174892 0 -0.42071708592719742 0.33131558094746122 0 -0.41273643032526569 0.33662953043248711 0 -0.4199209072431685 0.34318781838679219 0 -0.41433336845197538 0.3415594658204692 0 -0.4199209072431685 0.34318781838679219 0 -0.41433336845197538 0.3415594658204692 0 -0.41366919887348358 0.34576378073699821 0 -0.40925887999808552 0.33516025262174892 0 -0.41892768793075841 0.31754462100172592 0 -0.42141481873501418 0.31567829233095179 0 -0.40925887999808552 0.33516025262174892 0 -0.411263050936583 0.31954773430139438 0 -0.41892768793075841 0.31754462100172592 0 -0.40925887999808552 0.33516025262174892 0 -0.42141481873501418 0.31567829233095179 0 -0.40925887999808552 0.33516025262174892 0 -0.42024067891477529 0.32173946694831868 0 -0.42141481873501418 0.31567829233095179 0 -0.411263050936583 0.31954773430139438 0 -0.40826549608127172 0.31275764886218971 0 -0.41647318301620623 0.31168328686166002 0 -0.4039094095666334 0.320812311378052 0 -0.411263050936583 0.31954773430139438 0 -0.40826549608127172 0.31275764886218971 0 -0.4039094095666334 0.320812311378052 0 -0.40925887999808552 0.33516025262174892 0 -0.411263050936583 0.31954773430139438 0 -0.411263050936583 0.31954773430139438 0 -0.41892768793075841 0.31754462100172592 0 -0.41647318301620623 0.31168328686166002 0 -0.41892768793075841 0.31754462100172592 0 -0.42141481873501418 0.31567829233095179 0 -0.41892768793075841 0.31754462100172592 0 -0.42141481873501418 0.31567829233095179 0 -0.41647318301620623 0.31168328686166002 0 -0.42024067891477529 0.32173946694831868 0 -0.43790895006943947 0.32081412042189511 0 -0.43122247783146522 0.30831868127488848 0 -0.42024067891477529 0.32173946694831868 0 -0.42938605365092247 0.3272194948190838 0 -0.43790895006943947 0.32081412042189511 0 -0.42024067891477529 0.32173946694831868 0 -0.42141481873501418 0.31567829233095179 0 -0.43122247783146522 0.30831868127488848 0 -0.42024067891477529 0.32173946694831868 0 -0.43122247783146522 0.30831868127488848 0 -0.42071708592719742 0.33131558094746122 0 -0.42024067891477529 0.32173946694831868 0 -0.42938605365092247 0.3272194948190838 0 -0.42938605365092247 0.3272194948190838 0 -0.43674098495811231 0.33493788649063261 0 -0.43790895006943947 0.32081412042189511 0 -0.43790895006943947 0.32081412042189511 0 -0.4401847358662575 0.3127477530096977 0 -0.43122247783146522 0.30831868127488848 0 -0.41273643032526569 0.33662953043248711 0 -0.43674098495811231 0.33493788649063261 0 -0.42071708592719742 0.33131558094746122 0 -0.42938605365092247 0.3272194948190838 0 -0.43674098495811231 0.33493788649063261 0 -0.41273643032526569 0.33662953043248711 0 -0.4199209072431685 0.34318781838679219 0 -0.43385085243219867 0.34555045147446217 0 -0.41273643032526569 0.33662953043248711 0 -0.42071708592719742 0.33131558094746122 0 -0.43674098495811231 0.33493788649063261 0 -0.41273643032526569 0.33662953043248711 0 -0.43385085243219867 0.34555045147446217 0 -0.41273643032526569 0.33662953043248711 0 -0.43674098495811231 0.33493788649063261 0 -0.43385085243219867 0.34555045147446217 0 -0.43385085243219867 0.34555045147446217 0 -0.4302486007270056 0.35272204188882378 0 -0.42573384958437638 0.34916959158482058 0 -0.43385085243219867 0.34555045147446217 0 -0.43539550265875948 0.35741731211322858 0 -0.44110397924445488 0.35756373905142852 0 -0.43539550265875948 0.35741731211322858 0 -0.4302486007270056 0.35272204188882378 0 -0.42757171946388478 0.35850981688022993 0 -0.43385085243219867 0.34555045147446217 0 -0.43539550265875948 0.35741731211322858 0 -0.4302486007270056 0.35272204188882378 0 -0.4302486007270056 0.35272204188882378 0 -0.42480748600639012 0.35482075793933809 0 -0.42573384958437638 0.34916959158482058 0 -0.4302486007270056 0.35272204188882378 0 -0.42757171946388478 0.35850981688022993 0 -0.42480748600639012 0.35482075793933809 0 -0.42757171946388478 0.35850981688022993 0 -0.42480748600639012 0.35482075793933809 0 -0.42195212413097077 0.36043988011418487 0 -0.4199209072431685 0.34318781838679219 0 -0.43385085243219867 0.34555045147446217 0 -0.42573384958437638 0.34916959158482058 0 -0.42480748600639012 0.35482075793933809 0 -0.42573384958437638 0.34916959158482058 0 -0.41984140151311927 0.3495668882346864 0 -0.4199209072431685 0.34318781838679219 0 -0.42573384958437638 0.34916959158482058 0 -0.41984140151311927 0.3495668882346864 0 -0.4199209072431685 0.34318781838679219 0 -0.41984140151311927 0.3495668882346864 0 -0.41366919887348358 0.34576378073699821 0 -0.41984140151311927 0.3495668882346864 0 -0.41366919887348358 0.34576378073699821 0 -0.41404230344944593 0.35073751764187411 0 -0.42480748600639012 0.35482075793933809 0 -0.41984140151311927 0.3495668882346864 0 -0.41755863725870102 0.35684421707679032 0 -0.42480748600639012 0.35482075793933809 0 -0.41755863725870102 0.35684421707679032 0 -0.42195212413097077 0.36043988011418487 0 -0.41984140151311927 0.3495668882346864 0 -0.41755863725870102 0.35684421707679032 0 -0.41404230344944593 0.35073751764187411 0 -0.41755863725870102 0.35684421707679032 0 -0.41125051028190041 0.35540848222164118 0 -0.41404230344944593 0.35073751764187411 0 -0.41125051028190041 0.35540848222164118 0 -0.40888688292129022 0.34941903462410451 0 -0.41404230344944593 0.35073751764187411 0 -0.41755863725870102 0.35684421707679032 0 -0.41125051028190041 0.35540848222164118 0 -0.41142088061722581 0.36176204086772412 0 -0.40553625032349627 0.36037170931698131 0 -0.41125051028190041 0.35540848222164118 0 -0.41142088061722581 0.36176204086772412 0 -0.40525205349158999 0.35429039595711992 0 -0.40553625032349627 0.36037170931698131 0 -0.41125051028190041 0.35540848222164118 0 -0.40525205349158999 0.35429039595711992 0 -0.41125051028190041 0.35540848222164118 0 -0.40888688292129022 0.34941903462410451 0 -0.4080564418273247 0.34368885170405422 0 -0.40888688292129022 0.34941903462410451 0 -0.41366919887348358 0.34576378073699821 0 -0.40888688292129022 0.34941903462410451 0 -0.41366919887348358 0.34576378073699821 0 -0.41404230344944593 0.35073751764187411 0 -0.4250431626101242 0.37647010748543319 0 -0.40086489287733429 0.37467411733839928 0 -0.42486892241442098 0.36677785020884007 0 -0.40086489287733429 0.37467411733839928 0 -0.42486892241442098 0.36677785020884007 0 -0.40086489287733429 0.37467411733839928 0 -0.41378193274770297 0.36450427419225789 0 -0.42486892241442098 0.36677785020884007 0 -0.40544017780568847 0.3661562974108753 0 -0.40086489287733429 0.37467411733839928 0 -0.41378193274770297 0.36450427419225789 0 -0.40544017780568847 0.3661562974108753 0 -0.41142088061722581 0.36176204086772412 0 -0.41378193274770297 0.36450427419225789 0 -0.40553625032349627 0.36037170931698131 0 -0.40544017780568847 0.3661562974108753 0 -0.41142088061722581 0.36176204086772412 0 -0.41755863725870102 0.35684421707679032 0 -0.41378193274770297 0.36450427419225789 0 -0.42195212413097077 0.36043988011418487 0 -0.41378193274770297 0.36450427419225789 0 -0.42486892241442098 0.36677785020884007 0 -0.42195212413097077 0.36043988011418487 0 -0.41755863725870102 0.35684421707679032 0 -0.41142088061722581 0.36176204086772412 0 -0.41378193274770297 0.36450427419225789 0 -0.4250431626101242 0.37647010748543319 0 -0.44885864134335329 0.37135067543599282 0 -0.4250431626101242 0.37647010748543319 0 -0.42486892241442098 0.36677785020884007 0 -0.44885864134335329 0.37135067543599282 0 -0.42486892241442098 0.36677785020884007 0 -0.448872951951507 0.35888158307927881 0 -0.43539550265875948 0.35741731211322858 0 -0.42486892241442098 0.36677785020884007 0 -0.44110397924445488 0.35756373905142852 0 -0.43539550265875948 0.35741731211322858 0 -0.42757171946388478 0.35850981688022993 0 -0.42486892241442098 0.36677785020884007 0 -0.42757171946388478 0.35850981688022993 0 -0.42486892241442098 0.36677785020884007 0 -0.42195212413097077 0.36043988011418487 0 -0.42486892241442098 0.36677785020884007 0 -0.44885864134335329 0.37135067543599282 0 -0.448872951951507 0.35888158307927881 0 -0.44802713623065987 0.37645115623263098 0 -0.4250431626101242 0.37647010748543319 0 -0.44885864134335329 0.37135067543599282 0 -0.42486892241442098 0.36677785020884007 0 -0.44110397924445488 0.35756373905142852 0 -0.448872951951507 0.35888158307927881 0 -0.44885864134335329 0.37135067543599282 0 -0.448872951951507 0.35888158307927881 0 -0.44885864134335329 0.37135067543599282 0 -0.448872951951507 0.35888158307927881 0 -0.45634368000688869 0.36512471152292858 0 -0.43385085243219867 0.34555045147446217 0 -0.45496527453913199 0.35447137251643651 0 -0.44889299330712729 0.34242966823447613 0 -0.43385085243219867 0.34555045147446217 0 -0.45496527453913199 0.35447137251643651 0 -0.43385085243219867 0.34555045147446217 0 -0.44887533288597797 0.35680703170406669 0 -0.45496527453913199 0.35447137251643651 0 -0.43385085243219867 0.34555045147446217 0 -0.44110397924445488 0.35756373905142852 0 -0.44887533288597797 0.35680703170406669 0 -0.44110397924445488 0.35756373905142852 0 -0.44887533288597797 0.35680703170406669 0 -0.448872951951507 0.35888158307927881 0 -0.44887533288597797 0.35680703170406669 0 -0.448872951951507 0.35888158307927881 0 -0.44887533288597797 0.35680703170406669 0 -0.448872951951507 0.35888158307927881 0 -0.45496527453913199 0.35447137251643651 0 -0.448872951951507 0.35888158307927881 0 -0.45496527453913199 0.35447137251643651 0 -0.47186707529616939 0.3513175305497272 0 -0.448872951951507 0.35888158307927881 0 -0.47186707529616939 0.3513175305497272 0 -0.448872951951507 0.35888158307927881 0 -0.45634368000688869 0.36512471152292858 0 -0.47186707529616939 0.3513175305497272 0 -0.45911772068334677 0.34536620346235469 0 -0.45496527453913199 0.35447137251643651 0 -0.47186707529616939 0.3513175305497272 0 -0.45911772068334677 0.34536620346235469 0 -0.45496527453913199 0.35447137251643651 0 -0.44889299330712729 0.34242966823447613 0 -0.46572599417265398 0.36772482908493609 0 -0.45634368000688869 0.36512471152292858 0 -0.47186707529616939 0.3513175305497272 0 -0.46059005399087027 0.38292215568240928 0 -0.44885864134335329 0.37135067543599282 0 -0.46572599417265398 0.36772482908493609 0 -0.44885864134335329 0.37135067543599282 0 -0.46572599417265398 0.36772482908493609 0 -0.44885864134335329 0.37135067543599282 0 -0.46572599417265398 0.36772482908493609 0 -0.45634368000688869 0.36512471152292858 0 -0.47832653283541199 0.38608194873200979 0 -0.46572599417265398 0.36772482908493609 0 -0.48259334700195489 0.36409898273387958 0 -0.46572599417265398 0.36772482908493609 0 -0.48259334700195489 0.36409898273387958 0 -0.47186707529616939 0.3513175305497272 0 -0.46572599417265398 0.36772482908493609 0 -0.48259334700195489 0.36409898273387958 0 -0.47186707529616939 0.3513175305497272 0 -0.494861198640831 0.34375347802017348 0 -0.47186707529616939 0.3513175305497272 0 -0.48536711719674469 0.35339641184703091 0 -0.494861198640831 0.34375347802017348 0 -0.48259334700195489 0.36409898273387958 0 -0.47186707529616939 0.3513175305497272 0 -0.48536711719674469 0.35339641184703091 0 -0.48259334700195489 0.36409898273387958 0 -0.49214684784802371 0.35441565608434311 0 -0.48536711719674469 0.35339641184703091 0 -0.49214684784802371 0.35441565608434311 0 -0.5 0.36887446842263683 0 -0.5 0.34271985673358363 0 -0.49214684784802371 0.35441565608434311 0 -0.48536711719674469 0.35339641184703091 0 -0.494861198640831 0.34375347802017348 0 -0.49214684784802371 0.35441565608434311 0 -0.494861198640831 0.34375347802017348 0 -0.5 0.34271985673358363 0 -0.48850556386005051 0.3766603246979251 0 -0.48259334700195489 0.36409898273387958 0 -0.5 0.36887446842263683 0 -0.48259334700195489 0.36409898273387958 0 -0.49214684784802371 0.35441565608434311 0 -0.5 0.36887446842263683 0 -0.485708092488497 0.3189911195031831 0 -0.5 0.31656524504453032 0 -0.48475009422380527 0.3315545986069256 0 -0.485708092488497 0.3189911195031831 0 -0.5 0.31656524504453032 0 -0.48583489694974541 0.30845327583860088 0 -0.5 0.31656524504453032 0 -0.5 0.34271985673358363 0 -0.48475009422380527 0.3315545986069256 0 -0.494861198640831 0.34375347802017348 0 -0.5 0.34271985673358363 0 -0.48475009422380527 0.3315545986069256 0 -0.48475009422380527 0.3315545986069256 0 -0.46074553959095882 0.3332462425487791 0 -0.47186707529616939 0.3513175305497272 0 -0.494861198640831 0.34375347802017348 0 -0.48475009422380527 0.3315545986069256 0 -0.47186707529616939 0.3513175305497272 0 -0.48475009422380527 0.3315545986069256 0 -0.46074553959095882 0.3332462425487791 0 -0.48475009422380527 0.3315545986069256 0 -0.47224737878043732 0.31939135852267558 0 -0.46074553959095882 0.3332462425487791 0 -0.485708092488497 0.3189911195031831 0 -0.48475009422380527 0.3315545986069256 0 -0.47224737878043732 0.31939135852267558 0 -0.485708092488497 0.3189911195031831 0 -0.47224737878043732 0.31939135852267558 0 -0.48583489694974541 0.30845327583860088 0 -0.47224737878043732 0.31939135852267558 0 -0.46258830912673421 0.31343425170936878 0 -0.46074553959095882 0.3332462425487791 0 -0.46258830912673421 0.31343425170936878 0 -0.46074553959095882 0.3332462425487791 0 -0.45107709460752138 0.31557533431346357 0 -0.45911772068334677 0.34536620346235469 0 -0.47186707529616939 0.3513175305497272 0 -0.46074553959095882 0.3332462425487791 0 -0.45911772068334677 0.34536620346235469 0 -0.46074553959095882 0.3332462425487791 0 -0.44889299330712729 0.34242966823447613 0 -0.43674098495811231 0.33493788649063261 0 -0.46074553959095882 0.3332462425487791 0 -0.43674098495811231 0.33493788649063261 0 -0.46074553959095882 0.3332462425487791 0 -0.44889299330712729 0.34242966823447613 0 -0.43674098495811231 0.33493788649063261 0 -0.46074553959095882 0.3332462425487791 0 -0.43790895006943947 0.32081412042189511 0 -0.43674098495811231 0.33493788649063261 0 -0.43385085243219867 0.34555045147446217 0 -0.44889299330712729 0.34242966823447613 0 -0.46074553959095882 0.3332462425487791 0 -0.45107709460752138 0.31557533431346357 0 -0.43790895006943947 0.32081412042189511 0 -0.45107709460752138 0.31557533431346357 0 -0.43790895006943947 0.32081412042189511 0 -0.4401847358662575 0.3127477530096977 0 -0.44444415583193408 0.29216055381020578 0 -0.43122247783146522 0.30831868127488848 0 -0.44810052680614793 0.29565349026271098 0 -0.43122247783146522 0.30831868127488848 0 -0.44368336155109173 0.30649675881006838 0 -0.44810052680614793 0.29565349026271098 0 -0.43122247783146522 0.30831868127488848 0 -0.4401847358662575 0.3127477530096977 0 -0.44368336155109173 0.30649675881006838 0 -0.43122247783146522 0.30831868127488848 0 -0.44444415583193408 0.29216055381020578 0 -0.44810052680614793 0.29565349026271098 0 -0.43122247783146522 0.30831868127488848 0 -0.45107709460752138 0.31557533431346357 0 -0.4401847358662575 0.3127477530096977 0 -0.44368336155109173 0.30649675881006838 0 -0.44368336155109173 0.30649675881006838 0 -0.44996115485610377 0.3015940899144034 0 -0.4551770389262465 0.30483297142504889 0 -0.44368336155109173 0.30649675881006838 0 -0.44996115485610377 0.3015940899144034 0 -0.44810052680614793 0.29565349026271098 0 -0.45288369214092922 0.29939313915978533 0 -0.44996115485610377 0.3015940899144034 0 -0.44810052680614793 0.29565349026271098 0 -0.45288369214092922 0.29939313915978533 0 -0.44996115485610377 0.3015940899144034 0 -0.4551770389262465 0.30483297142504889 0 -0.45107709460752138 0.31557533431346357 0 -0.44368336155109173 0.30649675881006838 0 -0.4551770389262465 0.30483297142504889 0 -0.44702735364695217 0.27675533545947301 0 -0.43422108619098299 0.29621681389521232 0 -0.44444415583193408 0.29216055381020578 0 -0.44702735364695217 0.27675533545947301 0 -0.43422108619098299 0.29621681389521232 0 -0.44702735364695217 0.27675533545947301 0 -0.43274811138672559 0.28469846643612018 0 -0.43422108619098299 0.29621681389521232 0 -0.44810052680614793 0.29565349026271098 0 -0.4493542421043164 0.28919027156790111 0 -0.45395006383388498 0.28587005882998617 0 -0.44444415583193408 0.29216055381020578 0 -0.44810052680614793 0.29565349026271098 0 -0.4493542421043164 0.28919027156790111 0 -0.44444415583193408 0.29216055381020578 0 -0.4493542421043164 0.28919027156790111 0 -0.44702735364695217 0.27675533545947301 0 -0.4493542421043164 0.28919027156790111 0 -0.45395006383388498 0.28587005882998617 0 -0.44702735364695217 0.27675533545947301 0 -0.44810052680614793 0.29565349026271098 0 -0.45395006383388498 0.28587005882998617 0 -0.46497857578083068 0.28298829925053381 0 -0.44810052680614793 0.29565349026271098 0 -0.4593999708052337 0.29480301670676529 0 -0.46497857578083068 0.28298829925053381 0 -0.44810052680614793 0.29565349026271098 0 -0.46497857578083068 0.28298829925053381 0 -0.45288369214092922 0.29939313915978533 0 -0.44810052680614793 0.29565349026271098 0 -0.4593999708052337 0.29480301670676529 0 -0.4593999708052337 0.29480301670676529 0 -0.46827174088950307 0.29409138505043392 0 -0.46497857578083068 0.28298829925053381 0 -0.46258830912673421 0.31343425170936878 0 -0.45107709460752138 0.31557533431346357 0 -0.4551770389262465 0.30483297142504889 0 -0.45288369214092922 0.29939313915978533 0 -0.4593999708052337 0.29480301670676529 0 -0.4551770389262465 0.30483297142504889 0 -0.4593999708052337 0.29480301670676529 0 -0.4551770389262465 0.30483297142504889 0 -0.46625021185001803 0.30380681263807602 0 -0.4593999708052337 0.29480301670676529 0 -0.46827174088950307 0.29409138505043392 0 -0.46625021185001803 0.30380681263807602 0 -0.47224737878043732 0.31939135852267558 0 -0.46258830912673421 0.31343425170936878 0 -0.46625021185001803 0.30380681263807602 0 -0.46258830912673421 0.31343425170936878 0 -0.4551770389262465 0.30483297142504889 0 -0.46625021185001803 0.30380681263807602 0 -0.47551717359816043 0.30301602212345602 0 -0.4769183937012712 0.29196404103452073 0 -0.48583489694974541 0.30845327583860088 0 -0.47224737878043732 0.31939135852267558 0 -0.46625021185001803 0.30380681263807602 0 -0.47551717359816043 0.30301602212345602 0 -0.47224737878043732 0.31939135852267558 0 -0.47551717359816043 0.30301602212345602 0 -0.48583489694974541 0.30845327583860088 0 -0.46827174088950307 0.29409138505043392 0 -0.46625021185001803 0.30380681263807602 0 -0.47551717359816043 0.30301602212345602 0 -0.46827174088950307 0.29409138505043392 0 -0.46497857578083068 0.28298829925053381 0 -0.4769183937012712 0.29196404103452073 0 -0.4769183937012712 0.29196404103452073 0 -0.48757792524538679 0.2814999319082685 0 -0.48583489694974541 0.30845327583860088 0 -0.46827174088950307 0.29409138505043392 0 -0.47551717359816043 0.30301602212345602 0 -0.4769183937012712 0.29196404103452073 0 -0.46497857578083068 0.28298829925053381 0 -0.47783287987075052 0.28169384510791978 0 -0.4769183937012712 0.29196404103452073 0 -0.47783287987075052 0.28169384510791978 0 -0.4769183937012712 0.29196404103452073 0 -0.48757792524538679 0.2814999319082685 0 -0.5 0.29041063335547701 0 -0.48757792524538679 0.2814999319082685 0 -0.48583489694974541 0.30845327583860088 0 -0.48757792524538679 0.2814999319082685 0 -0.48583489694974541 0.30845327583860088 0 -0.5 0.31656524504453032 0 -0.5 0.29041063335547701 0 -0.48583489694974541 0.30845327583860088 0 -0.5 0.23810140997737081 0 -0.5 0.26425602166642381 0 -0.48932095354102823 0.25454658797793611 0 -0.48757792524538679 0.2814999319082685 0 -0.48932095354102823 0.25454658797793611 0 -0.48366697684514259 0.26703881783025729 0 -0.48757792524538679 0.2814999319082685 0 -0.5 0.26425602166642381 0 -0.48932095354102823 0.25454658797793611 0 -0.48757792524538679 0.2814999319082685 0 -0.48932095354102823 0.25454658797793611 0 -0.5 0.29041063335547701 0 -0.48757792524538679 0.2814999319082685 0 -0.5 0.26425602166642381 0 -0.46497857578083068 0.28298829925053381 0 -0.48185662475551339 0.27032310823835648 0 -0.46497857578083068 0.28298829925053381 0 -0.47783287987075052 0.28169384510791978 0 -0.48185662475551339 0.27032310823835648 0 -0.48366697684514259 0.26703881783025729 0 -0.45893043448094739 0.2699305570534084 0 -0.48757792524538679 0.2814999319082685 0 -0.48366697684514259 0.26703881783025729 0 -0.48185662475551339 0.27032310823835648 0 -0.48366697684514259 0.26703881783025729 0 -0.48185662475551339 0.27032310823835648 0 -0.47235815296560851 0.27257019559313889 0 -0.46497857578083068 0.28298829925053381 0 -0.48185662475551339 0.27032310823835648 0 -0.47235815296560851 0.27257019559313889 0 -0.48366697684514259 0.26703881783025729 0 -0.46959483388743167 0.25994315597580908 0 -0.45893043448094739 0.2699305570534084 0 -0.48366697684514259 0.26703881783025729 0 -0.47235815296560851 0.27257019559313889 0 -0.45893043448094739 0.2699305570534084 0 -0.47783287987075052 0.28169384510791978 0 -0.48757792524538679 0.2814999319082685 0 -0.48185662475551339 0.27032310823835648 0 -0.48932095354102823 0.25454658797793611 0 -0.48366697684514259 0.26703881783025729 0 -0.47792533453874358 0.25606878273296479 0 -0.48366697684514259 0.26703881783025729 0 -0.46959483388743167 0.25994315597580908 0 -0.47792533453874358 0.25606878273296479 0 -0.47864167104372218 0.246590621409366 0 -0.48932095354102823 0.25454658797793611 0 -0.47792533453874358 0.25606878273296479 0 -0.47864167104372218 0.246590621409366 0 -0.47792533453874358 0.25606878273296479 0 -0.46938038244821267 0.25133041049185839 0 -0.46959483388743167 0.25994315597580908 0 -0.47792533453874358 0.25606878273296479 0 -0.46938038244821267 0.25133041049185839 0 -0.46959483388743167 0.25994315597580908 0 -0.46938038244821267 0.25133041049185839 0 -0.45807104112411212 0.25534721177055669 0 -0.46959483388743167 0.25994315597580908 0 -0.45807104112411212 0.25534721177055669 0 -0.45893043448094739 0.2699305570534084 0 -0.45807104112411212 0.25534721177055669 0 -0.45893043448094739 0.2699305570534084 0 -0.44442574262614493 0.25832327296872359 0 -0.45395006383388498 0.28587005882998617 0 -0.46497857578083068 0.28298829925053381 0 -0.45893043448094739 0.2699305570534084 0 -0.45395006383388498 0.28587005882998617 0 -0.45893043448094739 0.2699305570534084 0 -0.44702735364695217 0.27675533545947301 0 -0.46497857578083068 0.28298829925053381 0 -0.47235815296560851 0.27257019559313889 0 -0.45893043448094739 0.2699305570534084 0 -0.45893043448094739 0.2699305570534084 0 -0.43419389211675241 0.27282229627655952 0 -0.45893043448094739 0.2699305570534084 0 -0.44442574262614493 0.25832327296872359 0 -0.43419389211675241 0.27282229627655952 0 -0.45893043448094739 0.2699305570534084 0 -0.44702735364695217 0.27675533545947301 0 -0.43419389211675241 0.27282229627655952 0 -0.44702735364695217 0.27675533545947301 0 -0.43419389211675241 0.27282229627655952 0 -0.43274811138672559 0.28469846643612018 0 -0.45046339488490522 0.249057113070103 0 -0.45807104112411212 0.25534721177055669 0 -0.44442574262614493 0.25832327296872359 0 -0.44062222049055039 0.24203477259657111 0 -0.44442574262614493 0.25832327296872359 0 -0.42503978512155383 0.25887440404814072 0 -0.44062222049055039 0.24203477259657111 0 -0.42503978512155383 0.25887440404814072 0 -0.44442574262614493 0.25832327296872359 0 -0.42503978512155383 0.25887440404814072 0 -0.43419389211675241 0.27282229627655952 0 -0.42503978512155383 0.25887440404814072 0 -0.40945734975255721 0.27571403549971041 0 -0.40585136056822319 0.25674789398696107 0 -0.4198454647722451 0.23985190764030939 0 -0.42503978512155383 0.25887440404814072 0 -0.40585136056822319 0.25674789398696107 0 -0.40945734975255721 0.27571403549971041 0 -0.43419389211675241 0.27282229627655952 0 -0.42503978512155383 0.25887440404814072 0 -0.40945734975255721 0.27571403549971041 0 -0.42503978512155383 0.25887440404814072 0 -0.40945734975255721 0.27571403549971041 0 -0.43419389211675241 0.27282229627655952 0 -0.40945734975255721 0.27571403549971041 0 -0.43419389211675241 0.27282229627655952 0 -0.4229835889384117 0.28415291652507912 0 -0.43419389211675241 0.27282229627655952 0 -0.43274811138672559 0.28469846643612018 0 -0.4229835889384117 0.28415291652507912 0 -0.43274811138672559 0.28469846643612018 0 -0.43422108619098299 0.29621681389521232 0 -0.42519236151645012 0.29288975242762622 0 -0.43274811138672559 0.28469846643612018 0 -0.42519236151645012 0.29288975242762622 0 -0.4229835889384117 0.28415291652507912 0 -0.42141481873501418 0.31567829233095179 0 -0.43422108619098299 0.29621681389521232 0 -0.42141481873501418 0.31567829233095179 0 -0.43422108619098299 0.29621681389521232 0 -0.42237726971740519 0.30236741203524931 0 -0.44444415583193408 0.29216055381020578 0 -0.43422108619098299 0.29621681389521232 0 -0.43122247783146522 0.30831868127488848 0 -0.42141481873501418 0.31567829233095179 0 -0.43422108619098299 0.29621681389521232 0 -0.43122247783146522 0.30831868127488848 0 -0.43422108619098299 0.29621681389521232 0 -0.42519236151645012 0.29288975242762622 0 -0.42237726971740519 0.30236741203524931 0 -0.42141481873501418 0.31567829233095179 0 -0.43122247783146522 0.30831868127488848 0 -0.42237726971740519 0.30236741203524931 0 -0.41647318301620623 0.31168328686166002 0 -0.40812109447663159 0.30329838776079099 0 -0.42141481873501418 0.31567829233095179 0 -0.42237726971740519 0.30236741203524931 0 -0.41647318301620623 0.31168328686166002 0 -0.42237726971740519 0.30236741203524931 0 -0.40812109447663159 0.30329838776079099 0 -0.41256551749876041 0.29129965580367562 0 -0.40826549608127172 0.31275764886218971 0 -0.41647318301620623 0.31168328686166002 0 -0.40812109447663159 0.30329838776079099 0 -0.40945734975255721 0.27571403549971041 0 -0.4229835889384117 0.28415291652507912 0 -0.41256551749876041 0.29129965580367562 0 -0.42519236151645012 0.29288975242762622 0 -0.4229835889384117 0.28415291652507912 0 -0.41256551749876041 0.29129965580367562 0 -0.42519236151645012 0.29288975242762622 0 -0.42237726971740519 0.30236741203524931 0 -0.41256551749876041 0.29129965580367562 0 -0.40945734975255721 0.27571403549971041 0 -0.39180528154043992 0.29479027846244049 0 -0.39350738277932218 0.27757861076756318 0 -0.40945734975255721 0.27571403549971041 0 -0.39180528154043992 0.29479027846244049 0 -0.40812109447663159 0.30329838776079099 0 -0.41256551749876041 0.29129965580367562 0 -0.39180528154043992 0.29479027846244049 0 -0.40945734975255721 0.27571403549971041 0 -0.41256551749876041 0.29129965580367562 0 -0.39180528154043992 0.29479027846244049 0 -0.38613629988198012 0.31665983269396758 0 -0.39830358576524327 0.31266849694114901 0 -0.39180528154043992 0.29479027846244049 0 -0.39830358576524327 0.31266849694114901 0 -0.40812109447663159 0.30329838776079099 0 -0.39180528154043992 0.29479027846244049 0 -0.39830358576524327 0.31266849694114901 0 -0.40826549608127172 0.31275764886218971 0 -0.40812109447663159 0.30329838776079099 0 -0.39180528154043992 0.29479027846244049 0 -0.37819889022761238 0.29924868842846319 0 -0.37415321332832258 0.31386652142517069 0 -0.38613629988198012 0.31665983269396758 0 -0.39180528154043992 0.29479027846244049 0 -0.37415321332832258 0.31386652142517069 0 -0.39180528154043992 0.29479027846244049 0 -0.37415321332832258 0.31386652142517069 0 -0.39180528154043992 0.29479027846244049 0 -0.37819889022761238 0.29924868842846319 0 -0.37870614451813112 0.28175948497688769 0 -0.39180528154043992 0.29479027846244049 0 -0.37870614451813112 0.28175948497688769 0 -0.39350738277932218 0.27757861076756318 0 -0.37870614451813112 0.28175948497688769 0 -0.37647038179830861 0.26645711442365799 0 -0.39350738277932218 0.27757861076756318 0 -0.37647038179830861 0.26645711442365799 0 -0.39336972403141229 0.26369738761855421 0 -0.39350738277932218 0.27757861076756318 0 -0.38790582398472923 0.24962922847932231 0 -0.37647038179830861 0.26645711442365799 0 -0.39336972403141229 0.26369738761855421 0 -0.38790582398472923 0.24962922847932231 0 -0.37647038179830861 0.26645711442365799 0 -0.36318679658289171 0.25196182354824148 0 -0.40945734975255721 0.27571403549971041 0 -0.40585136056822319 0.25674789398696107 0 -0.39336972403141229 0.26369738761855421 0 -0.38790582398472923 0.24962922847932231 0 -0.40585136056822319 0.25674789398696107 0 -0.39336972403141229 0.26369738761855421 0 -0.40945734975255721 0.27571403549971041 0 -0.39336972403141229 0.26369738761855421 0 -0.39350738277932218 0.27757861076756318 0 -0.40945734975255721 0.27571403549971041 0 -0.39350738277932218 0.27757861076756318 0 -0.35583614606747688 0.27501819518035592 0 -0.36318679658289171 0.25196182354824148 0 -0.33952374355129727 0.25899057541505788 0 -0.37647038179830861 0.26645711442365799 0 -0.35583614606747688 0.27501819518035592 0 -0.36318679658289171 0.25196182354824148 0 -0.37870614451813112 0.28175948497688769 0 -0.37647038179830861 0.26645711442365799 0 -0.35583614606747688 0.27501819518035592 0 -0.37819889022761238 0.29924868842846319 0 -0.37870614451813112 0.28175948497688769 0 -0.36775571630023218 0.2927315942663431 0 -0.37870614451813112 0.28175948497688769 0 -0.35583614606747688 0.27501819518035592 0 -0.36775571630023218 0.2927315942663431 0 -0.37819889022761238 0.29924868842846319 0 -0.36899777432263853 0.30469822459034263 0 -0.37415321332832258 0.31386652142517069 0 -0.36899777432263853 0.30469822459034263 0 -0.36272901898995358 0.31473918551029578 0 -0.37415321332832258 0.31386652142517069 0 -0.37819889022761238 0.29924868842846319 0 -0.36775571630023218 0.2927315942663431 0 -0.36899777432263853 0.30469822459034263 0 -0.36775571630023218 0.2927315942663431 0 -0.36899777432263853 0.30469822459034263 0 -0.35931620367806588 0.30475084950198522 0 -0.36775571630023218 0.2927315942663431 0 -0.35931620367806588 0.30475084950198522 0 -0.35261706249820868 0.29381533636168528 0 -0.36899777432263853 0.30469822459034263 0 -0.35931620367806588 0.30475084950198522 0 -0.36272901898995358 0.31473918551029578 0 -0.35931620367806588 0.30475084950198522 0 -0.35261706249820868 0.29381533636168528 0 -0.34344143829887858 0.30736403781452232 0 -0.35931620367806588 0.30475084950198522 0 -0.34344143829887858 0.30736403781452232 0 -0.35467675850453528 0.31743756764607989 0 -0.35931620367806588 0.30475084950198522 0 -0.35467675850453528 0.31743756764607989 0 -0.36272901898995358 0.31473918551029578 0 -0.35583614606747688 0.27501819518035592 0 -0.36775571630023218 0.2927315942663431 0 -0.35261706249820868 0.29381533636168528 0 -0.35583614606747688 0.27501819518035592 0 -0.35261706249820868 0.29381533636168528 0 -0.33673580814638959 0.28921200504521999 0 -0.35261706249820868 0.29381533636168528 0 -0.33673580814638959 0.28921200504521999 0 -0.34344143829887858 0.30736403781452232 0 -0.33673580814638959 0.28921200504521999 0 -0.32075162894010661 0.28280614760534989 0 -0.33379142081270979 0.2734424933293601 0 -0.34344143829887858 0.30736403781452232 0 -0.31699951866320542 0.30755322334125379 0 -0.34344143829887858 0.30736403781452232 0 -0.31699951866320542 0.30755322334125379 0 -0.33459812393413729 0.32207732583041709 0 -0.33673580814638959 0.28921200504521999 0 -0.34344143829887858 0.30736403781452232 0 -0.31699951866320542 0.30755322334125379 0 -0.33673580814638959 0.28921200504521999 0 -0.31699951866320542 0.30755322334125379 0 -0.32075162894010661 0.28280614760534989 0 -0.31699951866320542 0.30755322334125379 0 -0.32075162894010661 0.28280614760534989 0 -0.30493521127791462 0.28695781074044469 0 -0.32075162894010661 0.28280614760534989 0 -0.31931282352829687 0.26617321261290411 0 -0.33379142081270979 0.2734424933293601 0 -0.32075162894010661 0.28280614760534989 0 -0.31931282352829687 0.26617321261290411 0 -0.30493521127791462 0.28695781074044469 0 -0.35583614606747688 0.27501819518035592 0 -0.33673580814638959 0.28921200504521999 0 -0.33379142081270979 0.2734424933293601 0 -0.35583614606747688 0.27501819518035592 0 -0.33379142081270979 0.2734424933293601 0 -0.33952374355129727 0.25899057541505788 0 -0.31931282352829687 0.26617321261290411 0 -0.33379142081270979 0.2734424933293601 0 -0.33952374355129727 0.25899057541505788 0 -0.32200613725511351 0.24850726385495631 0 -0.31931282352829687 0.26617321261290411 0 -0.33952374355129727 0.25899057541505788 0 -0.32200613725511351 0.24850726385495631 0 -0.31931282352829687 0.26617321261290411 0 -0.30640548876467488 0.25787073169030861 0 -0.31931282352829687 0.26617321261290411 0 -0.30640548876467488 0.25787073169030861 0 -0.3010630097917536 0.27273037638764702 0 -0.31931282352829687 0.26617321261290411 0 -0.3010630097917536 0.27273037638764702 0 -0.30493521127791462 0.28695781074044469 0 -0.31931282352829687 0.26617321261290411 0 -0.30493521127791462 0.28695781074044469 0 -0.3010630097917536 0.27273037638764702 0 -0.29309283898050847 0.28048055459605348 0 -0.30493521127791462 0.28695781074044469 0 -0.3010630097917536 0.27273037638764702 0 -0.29309283898050847 0.28048055459605348 0 -0.28156868640737281 0.27216957229852412 0 -0.30640548876467488 0.25787073169030861 0 -0.3010630097917536 0.27273037638764702 0 -0.28156868640737281 0.27216957229852412 0 -0.30640548876467488 0.25787073169030861 0 -0.28156868640737281 0.27216957229852412 0 -0.28729818335365731 0.26780124082781631 0 -0.28156868640737281 0.27216957229852412 0 -0.28729818335365731 0.26780124082781631 0 -0.27880962639343299 0.26078065685839158 0 -0.29309283898050847 0.28048055459605348 0 -0.28156868640737281 0.27216957229852412 0 -0.28401529333418091 0.28255904946725641 0 -0.30640548876467488 0.25787073169030861 0 -0.28156868640737281 0.27216957229852412 0 -0.29125564533142001 0.24067530578368901 0 -0.30640548876467488 0.25787073169030861 0 -0.28729818335365731 0.26780124082781631 0 -0.29125564533142001 0.24067530578368901 0 -0.28729818335365731 0.26780124082781631 0 -0.27880962639343299 0.26078065685839158 0 -0.29125564533142001 0.24067530578368901 0 -0.28729818335365731 0.26780124082781631 0 -0.29125564533142001 0.24067530578368901 0 -0.26892213733164849 0.25365425058065472 0 -0.27880962639343299 0.26078065685839158 0 -0.26892213733164849 0.25365425058065472 0 -0.27880962639343299 0.26078065685839158 0 -0.26500347954306669 0.26960291480127369 0 -0.28156868640737281 0.27216957229852412 0 -0.25673188405007052 0.28646841290673969 0 -0.28156868640737281 0.27216957229852412 0 -0.26500347954306669 0.26960291480127369 0 -0.25673188405007052 0.28646841290673969 0 -0.28156868640737281 0.27216957229852412 0 -0.27880962639343299 0.26078065685839158 0 -0.26500347954306669 0.26960291480127369 0 -0.28156868640737281 0.27216957229852412 0 -0.27479408276187339 0.28687287199942368 0 -0.28401529333418091 0.28255904946725641 0 -0.26500347954306669 0.26960291480127369 0 -0.25265925142613249 0.26128234508680298 0 -0.25673188405007052 0.28646841290673969 0 -0.26892213733164849 0.25365425058065472 0 -0.26500347954306669 0.26960291480127369 0 -0.25265925142613249 0.26128234508680298 0 -0.25621817608628389 0.2460965770837312 0 -0.26892213733164849 0.25365425058065472 0 -0.25265925142613249 0.26128234508680298 0 -0.25505401324638421 0.30366623925853881 0 -0.26661761067819428 0.2958317928062858 0 -0.26721257633701828 0.30790943684761429 0 -0.25505401324638421 0.30366623925853881 0 -0.26721257633701828 0.30790943684761429 0 -0.25901197930261888 0.31383205914145501 0 -0.26721257633701828 0.30790943684761429 0 -0.25901197930261888 0.31383205914145501 0 -0.26528599585519008 0.31471464054907522 0 -0.25505401324638421 0.30366623925853881 0 -0.25901197930261888 0.31383205914145501 0 -0.24885494741763489 0.31718848033418301 0 -0.25505401324638421 0.30366623925853881 0 -0.25673188405007052 0.28646841290673969 0 -0.26661761067819428 0.2958317928062858 0 -0.26661761067819428 0.2958317928062858 0 -0.27573637841232751 0.29432500902679382 0 -0.27326763327687947 0.30016750757533939 0 -0.28156868640737281 0.27216957229852412 0 -0.25673188405007052 0.28646841290673969 0 -0.27479408276187339 0.28687287199942368 0 -0.26661761067819428 0.2958317928062858 0 -0.27479408276187339 0.28687287199942368 0 -0.27573637841232751 0.29432500902679382 0 -0.25673188405007052 0.28646841290673969 0 -0.26661761067819428 0.2958317928062858 0 -0.27479408276187339 0.28687287199942368 0 -0.27479408276187339 0.28687287199942368 0 -0.28401529333418091 0.28255904946725641 0 -0.28313816676434478 0.29069510378855717 0 -0.27479408276187339 0.28687287199942368 0 -0.27573637841232751 0.29432500902679382 0 -0.28313816676434478 0.29069510378855717 0 -0.27573637841232751 0.29432500902679382 0 -0.28086439858034518 0.29805776896436298 0 -0.28313816676434478 0.29069510378855717 0 -0.28086439858034518 0.29805776896436298 0 -0.27753065875984329 0.30327410754998058 0 -0.28274061889410179 0.30278083970340541 0 -0.27753065875984329 0.30327410754998058 0 -0.27514776209796898 0.30785266251660498 0 -0.28274061889410179 0.30278083970340541 0 -0.27753065875984329 0.30327410754998058 0 -0.27326763327687947 0.30016750757533939 0 -0.27348155140824082 0.30658246875079598 0 -0.28086439858034518 0.29805776896436298 0 -0.27753065875984329 0.30327410754998058 0 -0.27326763327687947 0.30016750757533939 0 -0.27573637841232751 0.29432500902679382 0 -0.28086439858034518 0.29805776896436298 0 -0.27326763327687947 0.30016750757533939 0 -0.26661761067819428 0.2958317928062858 0 -0.27326763327687947 0.30016750757533939 0 -0.26721257633701828 0.30790943684761429 0 -0.26721257633701828 0.30790943684761429 0 -0.27514776209796898 0.30785266251660498 0 -0.27123720609067609 0.3158529302113221 0 -0.26721257633701828 0.30790943684761429 0 -0.27348155140824082 0.30658246875079598 0 -0.27514776209796898 0.30785266251660498 0 -0.26721257633701828 0.30790943684761429 0 -0.27514776209796898 0.30785266251660498 0 -0.27326763327687947 0.30016750757533939 0 -0.26721257633701828 0.30790943684761429 0 -0.27348155140824082 0.30658246875079598 0 -0.27514776209796898 0.30785266251660498 0 -0.2851872012256097 0.31550597615259851 0 -0.27753065875984329 0.30327410754998058 0 -0.27348155140824082 0.30658246875079598 0 -0.27514776209796898 0.30785266251660498 0 -0.27348155140824082 0.30658246875079598 0 -0.27514776209796898 0.30785266251660498 0 -0.27514776209796898 0.30785266251660498 0 -0.2905575990275322 0.30774240886798532 0 -0.27514776209796898 0.30785266251660498 0 -0.2905575990275322 0.30774240886798532 0 -0.2851872012256097 0.31550597615259851 0 -0.2896026760048197 0.2969772506180926 0 -0.2905575990275322 0.30774240886798532 0 -0.30493521127791462 0.28695781074044469 0 -0.27514776209796898 0.30785266251660498 0 -0.28274061889410179 0.30278083970340541 0 -0.2905575990275322 0.30774240886798532 0 -0.2905575990275322 0.30774240886798532 0 -0.2851872012256097 0.31550597615259851 0 -0.28274061889410179 0.30278083970340541 0 -0.2896026760048197 0.2969772506180926 0 -0.2905575990275322 0.30774240886798532 0 -0.28086439858034518 0.29805776896436298 0 -0.28274061889410179 0.30278083970340541 0 -0.2896026760048197 0.2969772506180926 0 -0.28401529333418091 0.28255904946725641 0 -0.28313816676434478 0.29069510378855717 0 -0.29095683727235372 0.28753395384208091 0 -0.28086439858034518 0.29805776896436298 0 -0.2896026760048197 0.2969772506180926 0 -0.28313816676434478 0.29069510378855717 0 -0.2896026760048197 0.2969772506180926 0 -0.28313816676434478 0.29069510378855717 0 -0.29095683727235372 0.28753395384208091 0 -0.2896026760048197 0.2969772506180926 0 -0.29095683727235372 0.28753395384208091 0 -0.30493521127791462 0.28695781074044469 0 -0.29309283898050847 0.28048055459605348 0 -0.29095683727235372 0.28753395384208091 0 -0.30493521127791462 0.28695781074044469 0 -0.29309283898050847 0.28048055459605348 0 -0.28401529333418091 0.28255904946725641 0 -0.29095683727235372 0.28753395384208091 0 -0.31699951866320542 0.30755322334125379 0 -0.2905575990275322 0.30774240886798532 0 -0.30563014257680821 0.31779627416788381 0 -0.31699951866320542 0.30755322334125379 0 -0.2905575990275322 0.30774240886798532 0 -0.2905575990275322 0.30774240886798532 0 -0.30493521127791462 0.28695781074044469 0 -0.31699951866320542 0.30755322334125379 0 -0.2905575990275322 0.30774240886798532 0 -0.30493521127791462 0.28695781074044469 0 -0.30538608464820588 0.33090408634228141 0 -0.28942706780696309 0.31873813168532672 0 -0.30563014257680821 0.31779627416788381 0 -0.30538608464820588 0.33090408634228141 0 -0.31811651498789978 0.32488887006413791 0 -0.30563014257680821 0.31779627416788381 0 -0.30538608464820588 0.33090408634228141 0 -0.2937791937433501 0.31637108240395312 0 -0.30538608464820588 0.33090408634228141 0 -0.3017933608705089 0.344447887165377 0 -0.32134510148944728 0.34307004099923799 0 -0.30538608464820588 0.33090408634228141 0 -0.29093013722955491 0.33661105704622479 0 -0.3017933608705089 0.344447887165377 0 -0.30538608464820588 0.33090408634228141 0 -0.29093013722955491 0.33661105704622479 0 -0.2885751077852815 0.32830696870384862 0 -0.29093013722955491 0.33661105704622479 0 -0.28224162025157051 0.34582573333151501 0 -0.3017933608705089 0.344447887165377 0 -0.2885751077852815 0.32830696870384862 0 -0.28146834572906437 0.33465123959114113 0 -0.2790455690922089 0.3243844570517187 0 -0.29093013722955491 0.33661105704622479 0 -0.2885751077852815 0.32830696870384862 0 -0.28146834572906437 0.33465123959114113 0 -0.29093013722955491 0.33661105704622479 0 -0.28146834572906437 0.33465123959114113 0 -0.28224162025157051 0.34582573333151501 0 -0.30538608464820588 0.33090408634228141 0 -0.2885751077852815 0.32830696870384862 0 -0.28942706780696309 0.31873813168532672 0 -0.30538608464820588 0.33090408634228141 0 -0.28942706780696309 0.31873813168532672 0 -0.2937791937433501 0.31637108240395312 0 -0.28942706780696309 0.31873813168532672 0 -0.2937791937433501 0.31637108240395312 0 -0.2851872012256097 0.31550597615259851 0 -0.2905575990275322 0.30774240886798532 0 -0.30563014257680821 0.31779627416788381 0 -0.2937791937433501 0.31637108240395312 0 -0.2905575990275322 0.30774240886798532 0 -0.2937791937433501 0.31637108240395312 0 -0.2851872012256097 0.31550597615259851 0 -0.28942706780696309 0.31873813168532672 0 -0.2937791937433501 0.31637108240395312 0 -0.2885751077852815 0.32830696870384862 0 -0.28942706780696309 0.31873813168532672 0 -0.2790455690922089 0.3243844570517187 0 -0.28942706780696309 0.31873813168532672 0 -0.2790455690922089 0.3243844570517187 0 -0.2851872012256097 0.31550597615259851 0 -0.2790455690922089 0.3243844570517187 0 -0.28942706780696309 0.31873813168532672 0 -0.2851872012256097 0.31550597615259851 0 -0.2790455690922089 0.3243844570517187 0 -0.28942706780696309 0.31873813168532672 0 -0.2851872012256097 0.31550597615259851 0 -0.27514776209796898 0.30785266251660498 0 -0.2851872012256097 0.31550597615259851 0 -0.27699557949655113 0.31645322234696882 0 -0.2851872012256097 0.31550597615259851 0 -0.27699557949655113 0.31645322234696882 0 -0.2790455690922089 0.3243844570517187 0 -0.27514776209796898 0.30785266251660498 0 -0.27699557949655113 0.31645322234696882 0 -0.27123720609067609 0.3158529302113221 0 -0.27001263578126711 0.32263717043347712 0 -0.2790455690922089 0.3243844570517187 0 -0.25910260253645218 0.33523110656146687 0 -0.26721257633701828 0.30790943684761429 0 -0.27123720609067609 0.3158529302113221 0 -0.26528599585519008 0.31471464054907522 0 -0.27699557949655113 0.31645322234696882 0 -0.27123720609067609 0.3158529302113221 0 -0.27001263578126711 0.32263717043347712 0 -0.27123720609067609 0.3158529302113221 0 -0.26528599585519008 0.31471464054907522 0 -0.26368222169044719 0.32126413599590953 0 -0.27123720609067609 0.3158529302113221 0 -0.27001263578126711 0.32263717043347712 0 -0.26368222169044719 0.32126413599590953 0 -0.27699557949655113 0.31645322234696882 0 -0.27001263578126711 0.32263717043347712 0 -0.2790455690922089 0.3243844570517187 0 -0.2790455690922089 0.3243844570517187 0 -0.25910260253645218 0.33523110656146687 0 -0.2790455690922089 0.3243844570517187 0 -0.26824012707650141 0.34000504592112352 0 -0.28146834572906437 0.33465123959114113 0 -0.2790455690922089 0.3243844570517187 0 -0.26824012707650141 0.34000504592112352 0 -0.2790455690922089 0.3243844570517187 0 -0.26824012707650141 0.34000504592112352 0 -0.25910260253645218 0.33523110656146687 0 -0.28146834572906437 0.33465123959114113 0 -0.26824012707650141 0.34000504592112352 0 -0.28224162025157051 0.34582573333151501 0 -0.25910260253645218 0.33523110656146687 0 -0.25407523553642281 0.3497448278934856 0 -0.23915963598069589 0.34607775607121571 0 -0.25910260253645218 0.33523110656146687 0 -0.25407523553642281 0.3497448278934856 0 -0.26309588156361569 0.34576168367824162 0 -0.26824012707650141 0.34000504592112352 0 -0.25910260253645218 0.33523110656146687 0 -0.26309588156361569 0.34576168367824162 0 -0.25910260253645218 0.33523110656146687 0 -0.25451497659773847 0.32559442806853028 0 -0.24843663428782739 0.33758714710907461 0 -0.25451497659773847 0.32559442806853028 0 -0.25901197930261888 0.31383205914145501 0 -0.24885494741763489 0.31718848033418301 0 -0.25451497659773847 0.32559442806853028 0 -0.25901197930261888 0.31383205914145501 0 -0.26368222169044719 0.32126413599590953 0 -0.25901197930261888 0.31383205914145501 0 -0.26528599585519008 0.31471464054907522 0 -0.26368222169044719 0.32126413599590953 0 -0.27001263578126711 0.32263717043347712 0 -0.25910260253645218 0.33523110656146687 0 -0.26368222169044719 0.32126413599590953 0 -0.25910260253645218 0.33523110656146687 0 -0.25451497659773847 0.32559442806853028 0 -0.26368222169044719 0.32126413599590953 0 -0.26470209097228098 0.37140351159401941 0 -0.25562758441007077 0.36194187249828802 0 -0.266880351992417 0.3582272519812631 0 -0.26470209097228098 0.37140351159401941 0 -0.25213085833087667 0.37355178257669552 0 -0.25562758441007077 0.36194187249828802 0 -0.25213085833087667 0.37355178257669552 0 -0.25562758441007077 0.36194187249828802 0 -0.24329038266145239 0.36134909741814653 0 -0.25562758441007077 0.36194187249828802 0 -0.25407523553642281 0.3497448278934856 0 -0.24329038266145239 0.36134909741814653 0 -0.25407523553642281 0.3497448278934856 0 -0.26309588156361569 0.34576168367824162 0 -0.266880351992417 0.3582272519812631 0 -0.25562758441007077 0.36194187249828802 0 -0.25407523553642281 0.3497448278934856 0 -0.266880351992417 0.3582272519812631 0 -0.266880351992417 0.3582272519812631 0 -0.27640009279511962 0.35155878343443242 0 -0.28837447244510311 0.36628710188532532 0 -0.26309588156361569 0.34576168367824162 0 -0.266880351992417 0.3582272519812631 0 -0.27640009279511962 0.35155878343443242 0 -0.26824012707650141 0.34000504592112352 0 -0.26309588156361569 0.34576168367824162 0 -0.27640009279511962 0.35155878343443242 0 -0.26824012707650141 0.34000504592112352 0 -0.27640009279511962 0.35155878343443242 0 -0.28224162025157051 0.34582573333151501 0 -0.266880351992417 0.3582272519812631 0 -0.28837447244510311 0.36628710188532532 0 -0.266880351992417 0.3582272519812631 0 -0.28837447244510311 0.36628710188532532 0 -0.27747916353329311 0.37529003384729942 0 -0.26470209097228098 0.37140351159401941 0 -0.266880351992417 0.3582272519812631 0 -0.27747916353329311 0.37529003384729942 0 -0.28837447244510311 0.36628710188532532 0 -0.28714059247178902 0.37543321948423419 0 -0.27747916353329311 0.37529003384729942 0 -0.28837447244510311 0.36628710188532532 0 -0.28956810344150979 0.35324588380912608 0 -0.30292150033679799 0.36018321991941088 0 -0.28837447244510311 0.36628710188532532 0 -0.29874239202075642 0.37528196759933868 0 -0.28714059247178902 0.37543321948423419 0 -0.28224162025157051 0.34582573333151501 0 -0.3017933608705089 0.344447887165377 0 -0.28224162025157051 0.34582573333151501 0 -0.28956810344150979 0.35324588380912608 0 -0.3017933608705089 0.344447887165377 0 -0.27640009279511962 0.35155878343443242 0 -0.28224162025157051 0.34582573333151501 0 -0.28956810344150979 0.35324588380912608 0 -0.27640009279511962 0.35155878343443242 0 -0.28837447244510311 0.36628710188532532 0 -0.28956810344150979 0.35324588380912608 0 -0.3017933608705089 0.344447887165377 0 -0.31193410579265052 0.3536039280541286 0 -0.30292150033679799 0.36018321991941088 0 -0.28956810344150979 0.35324588380912608 0 -0.3017933608705089 0.344447887165377 0 -0.30292150033679799 0.36018321991941088 0 -0.3017933608705089 0.344447887165377 0 -0.32134510148944728 0.34307004099923799 0 -0.3017933608705089 0.344447887165377 0 -0.31193410579265052 0.3536039280541286 0 -0.32134510148944728 0.34307004099923799 0 -0.31193410579265052 0.3536039280541286 0 -0.30292150033679799 0.36018321991941088 0 -0.31340485972314069 0.36375751913665871 0 -0.28837447244510311 0.36628710188532532 0 -0.30292150033679799 0.36018321991941088 0 -0.30986859289778912 0.37434695178938759 0 -0.28837447244510311 0.36628710188532532 0 -0.30986859289778912 0.37434695178938759 0 -0.28837447244510311 0.36628710188532532 0 -0.30986859289778912 0.37434695178938759 0 -0.29874239202075642 0.37528196759933868 0 -0.30292150033679799 0.36018321991941088 0 -0.30986859289778912 0.37434695178938759 0 -0.31340485972314069 0.36375751913665871 0 -0.30986859289778912 0.37434695178938759 0 -0.31340485972314069 0.36375751913665871 0 -0.32167824364597858 0.36970754211250728 0 -0.31340485972314069 0.36375751913665871 0 -0.32243327870136801 0.35950699838777223 0 -0.32167824364597858 0.36970754211250728 0 -0.32243327870136801 0.35950699838777223 0 -0.32167824364597858 0.36970754211250728 0 -0.33132177355711989 0.36851943955526861 0 -0.32167824364597858 0.36970754211250728 0 -0.33132177355711989 0.36851943955526861 0 -0.33136271335047512 0.38240680169344993 0 -0.32243327870136801 0.35950699838777223 0 -0.33132177355711989 0.36851943955526861 0 -0.33989838930305449 0.35721367281084643 0 -0.33132177355711989 0.36851943955526861 0 -0.34304766554360439 0.37232322735168022 0 -0.33136271335047512 0.38240680169344993 0 -0.33132177355711989 0.36851943955526861 0 -0.34304766554360439 0.37232322735168022 0 -0.33989838930305449 0.35721367281084643 0 -0.33989838930305449 0.35721367281084643 0 -0.32134510148944728 0.34307004099923799 0 -0.33989838930305449 0.35721367281084643 0 -0.32134510148944728 0.34307004099923799 0 -0.3500233487104954 0.34104903357308669 0 -0.32243327870136801 0.35950699838777223 0 -0.33989838930305449 0.35721367281084643 0 -0.32134510148944728 0.34307004099923799 0 -0.31193410579265052 0.3536039280541286 0 -0.32243327870136801 0.35950699838777223 0 -0.32134510148944728 0.34307004099923799 0 -0.31193410579265052 0.3536039280541286 0 -0.31340485972314069 0.36375751913665871 0 -0.32243327870136801 0.35950699838777223 0 -0.30538608464820588 0.33090408634228141 0 -0.32134510148944728 0.34307004099923799 0 -0.30538608464820588 0.33090408634228141 0 -0.32134510148944728 0.34307004099923799 0 -0.31811651498789978 0.32488887006413791 0 -0.32134510148944728 0.34307004099923799 0 -0.31811651498789978 0.32488887006413791 0 -0.33459812393413729 0.32207732583041709 0 -0.31699951866320542 0.30755322334125379 0 -0.30563014257680821 0.31779627416788381 0 -0.31811651498789978 0.32488887006413791 0 -0.31699951866320542 0.30755322334125379 0 -0.31811651498789978 0.32488887006413791 0 -0.33459812393413729 0.32207732583041709 0 -0.32134510148944728 0.34307004099923799 0 -0.34342889555096417 0.33131534648734451 0 -0.3500233487104954 0.34104903357308669 0 -0.32134510148944728 0.34307004099923799 0 -0.33459812393413729 0.32207732583041709 0 -0.34342889555096417 0.33131534648734451 0 -0.32134510148944728 0.34307004099923799 0 -0.3500233487104954 0.34104903357308669 0 -0.3500233487104954 0.34104903357308669 0 -0.35650114511620551 0.33294276438790088 0 -0.36794029410566942 0.33226259727897972 0 -0.34342889555096417 0.33131534648734451 0 -0.3500233487104954 0.34104903357308669 0 -0.35650114511620551 0.33294276438790088 0 -0.33459812393413729 0.32207732583041709 0 -0.34342889555096417 0.33131534648734451 0 -0.35467675850453528 0.31743756764607989 0 -0.34344143829887858 0.30736403781452232 0 -0.33459812393413729 0.32207732583041709 0 -0.35467675850453528 0.31743756764607989 0 -0.35650114511620551 0.33294276438790088 0 -0.35467675850453528 0.31743756764607989 0 -0.36272901898995358 0.31473918551029578 0 -0.34342889555096417 0.33131534648734451 0 -0.35650114511620551 0.33294276438790088 0 -0.35467675850453528 0.31743756764607989 0 -0.35650114511620551 0.33294276438790088 0 -0.36272901898995358 0.31473918551029578 0 -0.37415321332832258 0.31386652142517069 0 -0.35650114511620551 0.33294276438790088 0 -0.37415321332832258 0.31386652142517069 0 -0.35650114511620551 0.33294276438790088 0 -0.37442838800096029 0.32044424157556423 0 -0.37415321332832258 0.31386652142517069 0 -0.37816355277066899 0.32985684687273281 0 -0.37442838800096029 0.32044424157556423 0 -0.36794029410566942 0.33226259727897972 0 -0.3787015959315434 0.33902802614693439 0 -0.3500233487104954 0.34104903357308669 0 -0.36794029410566942 0.33226259727897972 0 -0.35650114511620551 0.33294276438790088 0 -0.37442838800096029 0.32044424157556423 0 -0.36794029410566942 0.33226259727897972 0 -0.3787015959315434 0.33902802614693439 0 -0.3500233487104954 0.34104903357308669 0 -0.3787015959315434 0.33902802614693439 0 -0.37816355277066899 0.32985684687273281 0 -0.36794029410566942 0.33226259727897972 0 -0.3787015959315434 0.33902802614693439 0 -0.3500233487104954 0.34104903357308669 0 -0.36501658974902518 0.35367198233662939 0 -0.37823932191431281 0.35548757599615399 0 -0.3787015959315434 0.33902802614693439 0 -0.36501658974902518 0.35367198233662939 0 -0.37823932191431281 0.35548757599615399 0 -0.36501658974902518 0.35367198233662939 0 -0.37024808467873749 0.36543132639488701 0 -0.36501658974902518 0.35367198233662939 0 -0.37024808467873749 0.36543132639488701 0 -0.35845167711666143 0.37135730462245548 0 -0.37949655700884349 0.37153259571527891 0 -0.37024808467873749 0.36543132639488701 0 -0.36758280318953013 0.37627165255961892 0 -0.37024808467873749 0.36543132639488701 0 -0.35845167711666143 0.37135730462245548 0 -0.36758280318953013 0.37627165255961892 0 -0.36501658974902518 0.35367198233662939 0 -0.35845167711666143 0.37135730462245548 0 -0.35334750121980912 0.35582299833575448 0 -0.34304766554360439 0.37232322735168022 0 -0.33989838930305449 0.35721367281084643 0 -0.35845167711666143 0.37135730462245548 0 -0.33989838930305449 0.35721367281084643 0 -0.35845167711666143 0.37135730462245548 0 -0.35334750121980912 0.35582299833575448 0 -0.33989838930305449 0.35721367281084643 0 -0.35845167711666143 0.37135730462245548 0 -0.33989838930305449 0.35721367281084643 0 -0.3500233487104954 0.34104903357308669 0 -0.35334750121980912 0.35582299833575448 0 -0.3500233487104954 0.34104903357308669 0 -0.36501658974902518 0.35367198233662939 0 -0.35334750121980912 0.35582299833575448 0 -0.35285683380316007 0.39046665159751448 0 -0.36027192889352422 0.40897543894708011 0 -0.34270265381785459 0.40768080501023862 0 -0.34304766554360439 0.37232322735168022 0 -0.35845167711666143 0.37135730462245548 0 -0.35285683380316007 0.39046665159751448 0 -0.37686086334024771 0.38257038446795849 0 -0.35285683380316007 0.39046665159751448 0 -0.37686086334024771 0.38257038446795849 0 -0.35285683380316007 0.39046665159751448 0 -0.36758280318953013 0.37627165255961892 0 -0.35845167711666143 0.37135730462245548 0 -0.35285683380316007 0.39046665159751448 0 -0.36758280318953013 0.37627165255961892 0 -0.37686086334024771 0.38257038446795849 0 -0.37949655700884349 0.37153259571527891 0 -0.36758280318953013 0.37627165255961892 0 -0.37769092578324193 0.39977892163450779 0 -0.35285683380316007 0.39046665159751448 0 -0.37769092578324193 0.39977892163450779 0 -0.37686086334024771 0.38257038446795849 0 -0.35285683380316007 0.39046665159751448 0 -0.37769092578324193 0.39977892163450779 0 -0.35285683380316007 0.39046665159751448 0 -0.36027192889352422 0.40897543894708011 0 -0.37875820238401509 0.42613984176471847 0 -0.37769092578324193 0.39977892163450779 0 -0.36027192889352422 0.40897543894708011 0 -0.37875820238401509 0.42613984176471847 0 -0.36027192889352422 0.40897543894708011 0 -0.36048507512927641 0.42545129427310208 0 -0.37875820238401509 0.42613984176471847 0 -0.36048507512927641 0.42545129427310208 0 -0.35499138700470761 0.44318849185793469 0 -0.37875820238401509 0.42613984176471847 0 -0.35499138700470761 0.44318849185793469 0 -0.34691622899781399 0.42161541908905831 0 -0.33223168701086447 0.43660936806356893 0 -0.35499138700470761 0.44318849185793469 0 -0.36048507512927641 0.42545129427310208 0 -0.34691622899781399 0.42161541908905831 0 -0.35499138700470761 0.44318849185793469 0 -0.36027192889352422 0.40897543894708011 0 -0.34691622899781399 0.42161541908905831 0 -0.34270265381785459 0.40768080501023862 0 -0.36027192889352422 0.40897543894708011 0 -0.36048507512927641 0.42545129427310208 0 -0.34691622899781399 0.42161541908905831 0 -0.34270265381785459 0.40768080501023862 0 -0.32841174735063311 0.41773478988879181 0 -0.32505653004414181 0.39961172552874852 0 -0.34691622899781399 0.42161541908905831 0 -0.34270265381785459 0.40768080501023862 0 -0.32841174735063311 0.41773478988879181 0 -0.34691622899781399 0.42161541908905831 0 -0.32841174735063311 0.41773478988879181 0 -0.33223168701086447 0.43660936806356893 0 -0.32841174735063311 0.41773478988879181 0 -0.33223168701086447 0.43660936806356893 0 -0.31148998866141242 0.43181261152586448 0 -0.32841174735063311 0.41773478988879181 0 -0.31441363705571701 0.41408607272300291 0 -0.32505653004414181 0.39961172552874852 0 -0.32841174735063311 0.41773478988879181 0 -0.31441363705571701 0.41408607272300291 0 -0.31148998866141242 0.43181261152586448 0 -0.32505653004414181 0.39961172552874852 0 -0.31219235154091651 0.39185403334122892 0 -0.30619500853749271 0.39725637532293351 0 -0.32505653004414181 0.39961172552874852 0 -0.31778050989885959 0.38527433798844479 0 -0.31219235154091651 0.39185403334122892 0 -0.35285683380316007 0.39046665159751448 0 -0.32505653004414181 0.39961172552874852 0 -0.33136271335047512 0.38240680169344993 0 -0.35285683380316007 0.39046665159751448 0 -0.34270265381785459 0.40768080501023862 0 -0.32505653004414181 0.39961172552874852 0 -0.35285683380316007 0.39046665159751448 0 -0.32505653004414181 0.39961172552874852 0 -0.35285683380316007 0.39046665159751448 0 -0.33136271335047512 0.38240680169344993 0 -0.34304766554360439 0.37232322735168022 0 -0.35285683380316007 0.39046665159751448 0 -0.33136271335047512 0.38240680169344993 0 -0.30986859289778912 0.37434695178938759 0 -0.32167824364597858 0.36970754211250728 0 -0.33136271335047512 0.38240680169344993 0 -0.30986859289778912 0.37434695178938759 0 -0.33136271335047512 0.38240680169344993 0 -0.32505653004414181 0.39961172552874852 0 -0.33136271335047512 0.38240680169344993 0 -0.31778050989885959 0.38527433798844479 0 -0.30986859289778912 0.37434695178938759 0 -0.33136271335047512 0.38240680169344993 0 -0.31778050989885959 0.38527433798844479 0 -0.30986859289778912 0.37434695178938759 0 -0.31778050989885959 0.38527433798844479 0 -0.30574515252343709 0.38648905476423068 0 -0.30986859289778912 0.37434695178938759 0 -0.30574515252343709 0.38648905476423068 0 -0.29874239202075642 0.37528196759933868 0 -0.30574515252343709 0.38648905476423068 0 -0.29874239202075642 0.37528196759933868 0 -0.29146244090030071 0.40289140707507309 0 -0.31778050989885959 0.38527433798844479 0 -0.30574515252343709 0.38648905476423068 0 -0.31219235154091651 0.39185403334122892 0 -0.32505653004414181 0.39961172552874852 0 -0.30619500853749271 0.39725637532293351 0 -0.29725622628512233 0.40875679945997928 0 -0.32505653004414181 0.39961172552874852 0 -0.29725622628512233 0.40875679945997928 0 -0.30574515252343709 0.38648905476423068 0 -0.30619500853749271 0.39725637532293351 0 -0.29146244090030071 0.40289140707507309 0 -0.30574515252343709 0.38648905476423068 0 -0.31219235154091651 0.39185403334122892 0 -0.30619500853749271 0.39725637532293351 0 -0.30619500853749271 0.39725637532293351 0 -0.29146244090030071 0.40289140707507309 0 -0.29725622628512233 0.40875679945997928 0 -0.29146244090030071 0.40289140707507309 0 -0.2882496590958894 0.39023794275143442 0 -0.278827461574497 0.39790462172635238 0 -0.28396634188800352 0.38487377460497352 0 -0.2882496590958894 0.39023794275143442 0 -0.278827461574497 0.39790462172635238 0 -0.29146244090030071 0.40289140707507309 0 -0.278827461574497 0.39790462172635238 0 -0.27940045790464241 0.41220012044695847 0 -0.29874239202075642 0.37528196759933868 0 -0.29146244090030071 0.40289140707507309 0 -0.29874239202075642 0.37528196759933868 0 -0.29146244090030071 0.40289140707507309 0 -0.2882496590958894 0.39023794275143442 0 -0.29874239202075642 0.37528196759933868 0 -0.28396634188800352 0.38487377460497352 0 -0.28714059247178902 0.37543321948423419 0 -0.29874239202075642 0.37528196759933868 0 -0.28396634188800352 0.38487377460497352 0 -0.2882496590958894 0.39023794275143442 0 -0.28396634188800352 0.38487377460497352 0 -0.28714059247178902 0.37543321948423419 0 -0.27747916353329311 0.37529003384729942 0 -0.28396634188800352 0.38487377460497352 0 -0.27747916353329311 0.37529003384729942 0 -0.26775424033426293 0.38456849691175748 0 -0.28396634188800352 0.38487377460497352 0 -0.26775424033426293 0.38456849691175748 0 -0.278827461574497 0.39790462172635238 0 -0.26470209097228098 0.37140351159401941 0 -0.27747916353329311 0.37529003384729942 0 -0.26775424033426293 0.38456849691175748 0 -0.278827461574497 0.39790462172635238 0 -0.26298604578065232 0.3973558675440883 0 -0.2677584473194361 0.40899541659639099 0 -0.26775424033426293 0.38456849691175748 0 -0.278827461574497 0.39790462172635238 0 -0.26298604578065232 0.3973558675440883 0 -0.26298604578065232 0.3973558675440883 0 -0.25152819264859128 0.38883491631829081 0 -0.2490618870264745 0.40647588616764979 0 -0.26298604578065232 0.3973558675440883 0 -0.2677584473194361 0.40899541659639099 0 -0.2490618870264745 0.40647588616764979 0 -0.25213085833087667 0.37355178257669552 0 -0.26775424033426293 0.38456849691175748 0 -0.25152819264859128 0.38883491631829081 0 -0.26775424033426293 0.38456849691175748 0 -0.26298604578065232 0.3973558675440883 0 -0.25152819264859128 0.38883491631829081 0 -0.26470209097228098 0.37140351159401941 0 -0.25213085833087667 0.37355178257669552 0 -0.26775424033426293 0.38456849691175748 0 -0.2572482915111563 0.42152384209731297 0 -0.26330490497154813 0.43976041958731371 0 -0.24092688658692171 0.43286849171069308 0 -0.2572482915111563 0.42152384209731297 0 -0.27163392734069919 0.42205675226444578 0 -0.26330490497154813 0.43976041958731371 0 -0.2572482915111563 0.42152384209731297 0 -0.2677584473194361 0.40899541659639099 0 -0.2490618870264745 0.40647588616764979 0 -0.2572482915111563 0.42152384209731297 0 -0.2677584473194361 0.40899541659639099 0 -0.27163392734069919 0.42205675226444578 0 -0.27940045790464241 0.41220012044695847 0 -0.27163392734069919 0.42205675226444578 0 -0.28418248977984512 0.43050084655080739 0 -0.2677584473194361 0.40899541659639099 0 -0.27940045790464241 0.41220012044695847 0 -0.27163392734069919 0.42205675226444578 0 -0.278827461574497 0.39790462172635238 0 -0.2677584473194361 0.40899541659639099 0 -0.27940045790464241 0.41220012044695847 0 -0.27163392734069919 0.42205675226444578 0 -0.28418248977984512 0.43050084655080739 0 -0.26330490497154813 0.43976041958731371 0 -0.28418248977984512 0.43050084655080739 0 -0.29943060469912958 0.42576946359573847 0 -0.28981068171355151 0.44369098771903792 0 -0.29146244090030071 0.40289140707507309 0 -0.28418248977984512 0.43050084655080739 0 -0.29146244090030071 0.40289140707507309 0 -0.27940045790464241 0.41220012044695847 0 -0.28418248977984512 0.43050084655080739 0 -0.28418248977984512 0.43050084655080739 0 -0.29725622628512233 0.40875679945997928 0 -0.29943060469912958 0.42576946359573847 0 -0.29146244090030071 0.40289140707507309 0 -0.28418248977984512 0.43050084655080739 0 -0.29725622628512233 0.40875679945997928 0 -0.31441363705571701 0.41408607272300291 0 -0.32505653004414181 0.39961172552874852 0 -0.29725622628512233 0.40875679945997928 0 -0.31441363705571701 0.41408607272300291 0 -0.29725622628512233 0.40875679945997928 0 -0.29943060469912958 0.42576946359573847 0 -0.31441363705571701 0.41408607272300291 0 -0.29943060469912958 0.42576946359573847 0 -0.31148998866141242 0.43181261152586448 0 -0.29943060469912958 0.42576946359573847 0 -0.31148998866141242 0.43181261152586448 0 -0.28981068171355151 0.44369098771903792 0 -0.31148998866141242 0.43181261152586448 0 -0.30120616623050861 0.45239726712555162 0 -0.31718999816658727 0.45065056632578487 0 -0.31148998866141242 0.43181261152586448 0 -0.30120616623050861 0.45239726712555162 0 -0.31148998866141242 0.43181261152586448 0 -0.30120616623050861 0.45239726712555162 0 -0.28981068171355151 0.44369098771903792 0 -0.30120616623050861 0.45239726712555162 0 -0.29092234379960469 0.47298192272523881 0 -0.30745775624609217 0.47728579204436761 0 -0.30120616623050861 0.45239726712555162 0 -0.30745775624609217 0.47728579204436761 0 -0.31718999816658727 0.45065056632578487 0 -0.2852957606144535 0.45730244818253718 0 -0.28186649269177161 0.46567885888970018 0 -0.29092234379960469 0.47298192272523881 0 -0.30120616623050861 0.45239726712555162 0 -0.29092234379960469 0.47298192272523881 0 -0.30120616623050861 0.45239726712555162 0 -0.2852957606144535 0.45730244818253718 0 -0.29092234379960469 0.47298192272523881 0 -0.2852957606144535 0.45730244818253718 0 -0.28186649269177161 0.46567885888970018 0 -0.27690253865938408 0.45811028602654041 0 -0.28418248977984512 0.43050084655080739 0 -0.28981068171355151 0.44369098771903792 0 -0.27690253865938408 0.45811028602654041 0 -0.30120616623050861 0.45239726712555162 0 -0.2852957606144535 0.45730244818253718 0 -0.28981068171355151 0.44369098771903792 0 -0.2852957606144535 0.45730244818253718 0 -0.28981068171355151 0.44369098771903792 0 -0.27690253865938408 0.45811028602654041 0 -0.28418248977984512 0.43050084655080739 0 -0.27690253865938408 0.45811028602654041 0 -0.28418248977984512 0.43050084655080739 0 -0.27690253865938408 0.45811028602654041 0 -0.26330490497154813 0.43976041958731371 0 -0.2852957606144535 0.45730244818253718 0 -0.27690253865938408 0.45811028602654041 0 -0.28186649269177161 0.46567885888970018 0 -0.27690253865938408 0.45811028602654041 0 -0.27835780074514338 0.47366975871288508 0 -0.27690253865938408 0.45811028602654041 0 -0.25345677561811758 0.46036691342989022 0 -0.27690253865938408 0.45811028602654041 0 -0.25345677561811758 0.46036691342989022 0 -0.26590293397843329 0.47057525233348851 0 -0.25345677561811758 0.46036691342989022 0 -0.25315469521642581 0.4750486889203015 0 -0.26590293397843329 0.47057525233348851 0 -0.25345677561811758 0.46036691342989022 0 -0.26330490497154813 0.43976041958731371 0 -0.24129970279445639 0.44943490890582899 0 -0.27690253865938408 0.45811028602654041 0 -0.25345677561811758 0.46036691342989022 0 -0.26330490497154813 0.43976041958731371 0 -0.26169037092037989 0.4910190989046625 0 -0.25397816739109252 0.5 0 -0.27113802145370669 0.49283981386083792 0 -0.26169037092037989 0.4910190989046625 0 -0.25474868654415728 0.48692894813519849 0 -0.26689660829256312 0.48430763362261348 0 -0.26169037092037989 0.4910190989046625 0 -0.25397816739109252 0.5 0 -0.25474868654415728 0.48692894813519849 0 -0.25315469521642581 0.4750486889203015 0 -0.26689660829256312 0.48430763362261348 0 -0.25315469521642581 0.4750486889203015 0 -0.26689660829256312 0.48430763362261348 0 -0.26590293397843329 0.47057525233348851 0 -0.25474868654415728 0.48692894813519849 0 -0.25315469521642581 0.4750486889203015 0 -0.26689660829256312 0.48430763362261348 0 -0.27690253865938408 0.45811028602654041 0 -0.26590293397843329 0.47057525233348851 0 -0.26946370716205509 0.4860372782758946 0 -0.27690253865938408 0.45811028602654041 0 -0.26946370716205509 0.4860372782758946 0 -0.27690253865938408 0.45811028602654041 0 -0.27835780074514338 0.47366975871288508 0 -0.26946370716205509 0.4860372782758946 0 -0.26689660829256312 0.48430763362261348 0 -0.26590293397843329 0.47057525233348851 0 -0.26946370716205509 0.4860372782758946 0 -0.28186649269177161 0.46567885888970018 0 -0.27835780074514338 0.47366975871288508 0 -0.28298297564177088 0.4743823417855309 0 -0.27835780074514338 0.47366975871288508 0 -0.2798907507987049 0.48286402398659151 0 -0.28298297564177088 0.4743823417855309 0 -0.27835780074514338 0.47366975871288508 0 -0.2798907507987049 0.48286402398659151 0 -0.26946370716205509 0.4860372782758946 0 -0.26946370716205509 0.4860372782758946 0 -0.28063852136870049 0.49356657832492562 0 -0.26946370716205509 0.4860372782758946 0 -0.27113802145370669 0.49283981386083792 0 -0.28063852136870049 0.49356657832492562 0 -0.2798907507987049 0.48286402398659151 0 -0.26946370716205509 0.4860372782758946 0 -0.28063852136870049 0.49356657832492562 0 -0.25397816739109252 0.5 0 -0.27113802145370669 0.49283981386083792 0 -0.27742446875513049 0.50000000000000155 0 -0.26689660829256312 0.48430763362261348 0 -0.26946370716205509 0.4860372782758946 0 -0.27113802145370669 0.49283981386083792 0 -0.26169037092037989 0.4910190989046625 0 -0.26689660829256312 0.48430763362261348 0 -0.27113802145370669 0.49283981386083792 0 -0.26689660829256312 0.48430763362261348 0 -0.26946370716205509 0.4860372782758946 0 -0.27113802145370669 0.49283981386083792 0 -0.28063852136870049 0.49356657832492562 0 -0.27742446875513049 0.50000000000000155 0 -0.28063852136870049 0.49356657832492562 0 -0.27742446875513049 0.50000000000000155 0 -0.28063852136870049 0.49356657832492562 0 -0.27742446875513049 0.50000000000000155 0 -0.29018685806186229 0.50000000000000122 0 -0.28063852136870049 0.49356657832492562 0 -0.29018685806186229 0.50000000000000122 0 -0.29092234379960469 0.47298192272523881 0 -0.28063852136870049 0.49356657832492562 0 -0.29018685806186229 0.50000000000000122 0 -0.29018685806186229 0.50000000000000122 0 -0.29092234379960469 0.47298192272523881 0 -0.30745775624609217 0.47728579204436761 0 -0.28063852136870049 0.49356657832492562 0 -0.29092234379960469 0.47298192272523881 0 -0.2798907507987049 0.48286402398659151 0 -0.28063852136870049 0.49356657832492562 0 -0.29092234379960469 0.47298192272523881 0 -0.28186649269177161 0.46567885888970018 0 -0.28298297564177088 0.4743823417855309 0 -0.29092234379960469 0.47298192272523881 0 -0.2798907507987049 0.48286402398659151 0 -0.28298297564177088 0.4743823417855309 0 -0.29092234379960469 0.47298192272523881 0 -0.29018685806186229 0.50000000000000122 0 -0.30745775624609217 0.47728579204436761 0 -0.3640375775585698 0.5 0 -0.30745775624609217 0.47728579204436761 0 -0.33122457162539992 0.46023714195115112 0 -0.3640375775585698 0.5 0 -0.30745775624609217 0.47728579204436761 0 -0.33122457162539992 0.46023714195115112 0 -0.30745775624609217 0.47728579204436761 0 -0.31718999816658727 0.45065056632578487 0 -0.33122457162539992 0.46023714195115112 0 -0.33223168701086447 0.43660936806356893 0 -0.31148998866141242 0.43181261152586448 0 -0.31718999816658727 0.45065056632578487 0 -0.33223168701086447 0.43660936806356893 0 -0.31718999816658727 0.45065056632578487 0 -0.33122457162539992 0.46023714195115112 0 -0.33122457162539992 0.46023714195115112 0 -0.35499138700470761 0.44318849185793469 0 -0.33223168701086447 0.43660936806356893 0 -0.33122457162539992 0.46023714195115112 0 -0.35499138700470761 0.44318849185793469 0 -0.33122457162539992 0.46023714195115112 0 -0.35376164566254242 0.46494380824906301 0 -0.35499138700470761 0.44318849185793469 0 -0.38249991962136642 0.44345487931465249 0 -0.35499138700470761 0.44318849185793469 0 -0.37103467036260362 0.45695891695805302 0 -0.38249991962136642 0.44345487931465249 0 -0.37875820238401509 0.42613984176471847 0 -0.35499138700470761 0.44318849185793469 0 -0.35376164566254242 0.46494380824906301 0 -0.35499138700470761 0.44318849185793469 0 -0.37103467036260362 0.45695891695805302 0 -0.35376164566254242 0.46494380824906301 0 -0.37103467036260362 0.45695891695805302 0 -0.36943712044780219 0.47475959506207249 0 -0.33122457162539992 0.46023714195115112 0 -0.35376164566254242 0.46494380824906301 0 -0.3640375775585698 0.5 0 -0.38891458820749281 0.47713565504117422 0 -0.36943712044780219 0.47475959506207249 0 -0.3640375775585698 0.5 0 -0.35376164566254242 0.46494380824906301 0 -0.36943712044780219 0.47475959506207249 0 -0.3640375775585698 0.5 0 -0.1410608215807003 0.47118489318428192 0 -0.1506389915883973 0.47451242435581331 0 -0.15779819732271971 0.4695739402503486 0 -0.1410608215807003 0.47118489318428192 0 -0.15779819732271971 0.4695739402503486 0 -0.1455325599989582 0.47665965757352818 0 -0.14983465253105441 0.48099067897208148 0 -0.1405957742956809 0.47995063378193648 0 -0.14983465253105441 0.48099067897208148 0 -0.14427471349546869 0.48965289008050411 0 -0.1405957742956809 0.47995063378193648 0 -0.1455325599989582 0.47665965757352818 0 -0.1410608215807003 0.47118489318428192 0 -0.1506389915883973 0.47451242435581331 0 -0.1455325599989582 0.47665965757352818 0 -0.1410608215807003 0.47118489318428192 0 -0.1405957742956809 0.47995063378193648 0 -0.1506389915883973 0.47451242435581331 0 -0.15682389603308189 0.47748605108520858 0 -0.15779819732271971 0.4695739402503486 0 -0.1506389915883973 0.47451242435581331 0 -0.14983465253105441 0.48099067897208148 0 -0.15682389603308189 0.47748605108520858 0 -0.1455325599989582 0.47665965757352818 0 -0.1506389915883973 0.47451242435581331 0 -0.14983465253105441 0.48099067897208148 0 -0.14983465253105441 0.48099067897208148 0 -0.1558122254133027 0.48316327461493752 0 -0.15682389603308189 0.47748605108520858 0 -0.14983465253105441 0.48099067897208148 0 -0.1558122254133027 0.48316327461493752 0 -0.15140604362779489 0.486968875654338 0 -0.1558122254133027 0.48316327461493752 0 -0.15140604362779489 0.486968875654338 0 -0.15545271364459581 0.49281799385228547 0 -0.14983465253105441 0.48099067897208148 0 -0.15140604362779489 0.486968875654338 0 -0.14427471349546869 0.48965289008050411 0 -0.15140604362779489 0.486968875654338 0 -0.15545271364459581 0.49281799385228547 0 -0.14427471349546869 0.48965289008050411 0 -0.15453849507163009 0.5 0 -0.14427471349546869 0.48965289008050411 0 -0.12543772684428189 0.5 0 -0.15453849507163009 0.5 0 -0.15545271364459581 0.49281799385228547 0 -0.14427471349546869 0.48965289008050411 0 -0.14427471349546869 0.48965289008050411 0 -0.12543772684428189 0.5 0 -0.13178312884530541 0.48627570230508688 0 -0.14427471349546869 0.48965289008050411 0 -0.13178312884530541 0.48627570230508688 0 -0.1405957742956809 0.47995063378193648 0 -0.13178312884530541 0.48627570230508688 0 -0.1317912103042716 0.47600940211286807 0 -0.11642361318749669 0.48420448820259387 0 -0.1317912103042716 0.47600940211286807 0 -0.14083201439797821 0.46516349611765162 0 -0.12052644250191399 0.4682622397032008 0 -0.13178312884530541 0.48627570230508688 0 -0.1405957742956809 0.47995063378193648 0 -0.1317912103042716 0.47600940211286807 0 -0.1410608215807003 0.47118489318428192 0 -0.1405957742956809 0.47995063378193648 0 -0.1317912103042716 0.47600940211286807 0 -0.1410608215807003 0.47118489318428192 0 -0.1317912103042716 0.47600940211286807 0 -0.14083201439797821 0.46516349611765162 0 -0.12618187852634369 0.45882241462805679 0 -0.14083201439797821 0.46516349611765162 0 -0.12052644250191399 0.4682622397032008 0 -0.14083201439797821 0.46516349611765162 0 -0.12052644250191399 0.4682622397032008 0 -0.12618187852634369 0.45882241462805679 0 -0.13621980461969219 0.45775649261309698 0 -0.13482926781972801 0.45201676164804122 0 -0.13621980461969219 0.45775649261309698 0 -0.13482926781972801 0.45201676164804122 0 -0.1430360577347192 0.45502329805863873 0 -0.13621980461969219 0.45775649261309698 0 -0.14083201439797821 0.46516349611765162 0 -0.1430360577347192 0.45502329805863873 0 -0.12618187852634369 0.45882241462805679 0 -0.13621980461969219 0.45775649261309698 0 -0.14083201439797821 0.46516349611765162 0 -0.12618187852634369 0.45882241462805679 0 -0.13482926781972801 0.45201676164804122 0 -0.1248743097581413 0.44162978393037222 0 -0.13482926781972801 0.45201676164804122 0 -0.13973201497409549 0.44099892737807922 0 -0.1415241139788854 0.4488412036993919 0 -0.13482926781972801 0.45201676164804122 0 -0.1415241139788854 0.4488412036993919 0 -0.1430360577347192 0.45502329805863873 0 -0.13973201497409549 0.44099892737807922 0 -0.13491063247587859 0.43073185275000708 0 -0.1248743097581413 0.44162978393037222 0 -0.13482926781972801 0.45201676164804122 0 -0.13973201497409549 0.44099892737807922 0 -0.1248743097581413 0.44162978393037222 0 -0.13973201497409549 0.44099892737807922 0 -0.14849911538699881 0.44732582771280882 0 -0.14949031039727409 0.43903968606904947 0 -0.14849911538699881 0.44732582771280882 0 -0.1430360577347192 0.45502329805863873 0 -0.15230793746503779 0.45507497120342549 0 -0.13973201497409549 0.44099892737807922 0 -0.1415241139788854 0.4488412036993919 0 -0.14849911538699881 0.44732582771280882 0 -0.1415241139788854 0.4488412036993919 0 -0.14849911538699881 0.44732582771280882 0 -0.1430360577347192 0.45502329805863873 0 -0.14849911538699881 0.44732582771280882 0 -0.15230793746503779 0.45507497120342549 0 -0.15767924869329919 0.44641741059368378 0 -0.14949031039727409 0.43903968606904947 0 -0.15767924869329919 0.44641741059368378 0 -0.15912083936695831 0.4347249498771325 0 -0.14849911538699881 0.44732582771280882 0 -0.14949031039727409 0.43903968606904947 0 -0.15767924869329919 0.44641741059368378 0 -0.14083201439797821 0.46516349611765162 0 -0.16113758629404229 0.46206475253210239 0 -0.15779819732271971 0.4695739402503486 0 -0.1410608215807003 0.47118489318428192 0 -0.14083201439797821 0.46516349611765162 0 -0.15779819732271971 0.4695739402503486 0 -0.14083201439797821 0.46516349611765162 0 -0.16113758629404229 0.46206475253210239 0 -0.14083201439797821 0.46516349611765162 0 -0.15230793746503779 0.45507497120342549 0 -0.16113758629404229 0.46206475253210239 0 -0.14083201439797821 0.46516349611765162 0 -0.1430360577347192 0.45502329805863873 0 -0.15230793746503779 0.45507497120342549 0 -0.16113758629404229 0.46206475253210239 0 -0.16940388650370539 0.44815354093755089 0 -0.18144315819010631 0.45896600894655282 0 -0.16113758629404229 0.46206475253210239 0 -0.18144315819010631 0.45896600894655282 0 -0.16113758629404229 0.46206475253210239 0 -0.17453557306473899 0.46796298731641428 0 -0.15779819732271971 0.4695739402503486 0 -0.15230793746503779 0.45507497120342549 0 -0.16113758629404229 0.46206475253210239 0 -0.16013216473902109 0.45292766881669072 0 -0.16113758629404229 0.46206475253210239 0 -0.16013216473902109 0.45292766881669072 0 -0.16940388650370539 0.44815354093755089 0 -0.15767924869329919 0.44641741059368378 0 -0.16940388650370539 0.44815354093755089 0 -0.15912083936695831 0.4347249498771325 0 -0.15230793746503779 0.45507497120342549 0 -0.16013216473902109 0.45292766881669072 0 -0.15767924869329919 0.44641741059368378 0 -0.16013216473902109 0.45292766881669072 0 -0.15767924869329919 0.44641741059368378 0 -0.16940388650370539 0.44815354093755089 0 -0.1829590266345629 0.45699162349075462 0 -0.18255950863604661 0.43173185523385532 0 -0.1829590266345629 0.45699162349075462 0 -0.19557533522393281 0.44055915781337712 0 -0.18255950863604661 0.43173185523385532 0 -0.16940388650370539 0.44815354093755089 0 -0.1829590266345629 0.45699162349075462 0 -0.18255950863604661 0.43173185523385532 0 -0.16113758629404229 0.46206475253210239 0 -0.17453557306473899 0.46796298731641428 0 -0.18144315819010631 0.45896600894655282 0 -0.17453557306473899 0.46796298731641428 0 -0.18144315819010631 0.45896600894655282 0 -0.17453557306473899 0.46796298731641428 0 -0.18311948649431831 0.46713679563994498 0 -0.16940388650370539 0.44815354093755089 0 -0.18144315819010631 0.45896600894655282 0 -0.1829590266345629 0.45699162349075462 0 -0.18144315819010631 0.45896600894655282 0 -0.1829590266345629 0.45699162349075462 0 -0.18144315819010631 0.45896600894655282 0 -0.1829865290739871 0.45873048193697258 0 -0.1829590266345629 0.45699162349075462 0 -0.18144315819010631 0.45896600894655282 0 -0.1829865290739871 0.45873048193697258 0 -0.1829865290739871 0.45873048193697258 0 -0.1829590266345629 0.45699162349075462 0 -0.17453557306473899 0.46796298731641428 0 -0.18144315819010631 0.45896600894655282 0 -0.18311948649431831 0.46713679563994498 0 -0.1829865290739871 0.45873048193697258 0 -0.18311948649431831 0.46713679563994498 0 -0.18144315819010631 0.45896600894655282 0 -0.1829865290739871 0.45873048193697258 0 -0.18311948649431831 0.46713679563994498 0 -0.18311948649431831 0.46713679563994498 0 -0.18337937489664821 0.48356839781997168 0 -0.19511197543601369 0.47606725323690458 0 -0.18311948649431831 0.46713679563994498 0 -0.18337937489664821 0.48356839781997168 0 -0.18311948649431831 0.46713679563994498 0 -0.18337937489664821 0.48356839781997168 0 -0.17485937494801759 0.47808814193434568 0 -0.17453557306473899 0.46796298731641428 0 -0.18311948649431831 0.46713679563994498 0 -0.17485937494801759 0.47808814193434568 0 -0.17453557306473899 0.46796298731641428 0 -0.15779819732271971 0.4695739402503486 0 -0.17453557306473899 0.46796298731641428 0 -0.16499414335466689 0.48039049058434952 0 -0.17453557306473899 0.46796298731641428 0 -0.16499414335466689 0.48039049058434952 0 -0.15779819732271971 0.4695739402503486 0 -0.17453557306473899 0.46796298731641428 0 -0.17485937494801759 0.47808814193434568 0 -0.16499414335466689 0.48039049058434952 0 -0.17485937494801759 0.47808814193434568 0 -0.16499414335466689 0.48039049058434952 0 -0.1699453859209171 0.49288017845899518 0 -0.1558122254133027 0.48316327461493752 0 -0.16499414335466689 0.48039049058434952 0 -0.15682389603308189 0.47748605108520858 0 -0.16499414335466689 0.48039049058434952 0 -0.15682389603308189 0.47748605108520858 0 -0.15779819732271971 0.4695739402503486 0 -0.15453849507163009 0.5 0 -0.1699453859209171 0.49288017845899518 0 -0.18363926329897839 0.49999999999999828 0 -0.15453849507163009 0.5 0 -0.15545271364459581 0.49281799385228547 0 -0.1699453859209171 0.49288017845899518 0 -0.15545271364459581 0.49281799385228547 0 -0.16499414335466689 0.48039049058434952 0 -0.1699453859209171 0.49288017845899518 0 -0.15545271364459581 0.49281799385228547 0 -0.16499414335466689 0.48039049058434952 0 -0.1558122254133027 0.48316327461493752 0 -0.15545271364459581 0.49281799385228547 0 -0.16499414335466689 0.48039049058434952 0 -0.18337937489664821 0.48356839781997168 0 -0.18363926329897839 0.49999999999999828 0 -0.18337937489664821 0.48356839781997168 0 -0.1699453859209171 0.49288017845899518 0 -0.18363926329897839 0.49999999999999828 0 -0.18337937489664821 0.48356839781997168 0 -0.17485937494801759 0.47808814193434568 0 -0.1699453859209171 0.49288017845899518 0 -0.18337937489664821 0.48356839781997168 0 -0.18363926329897839 0.49999999999999828 0 -0.19848883175809501 0.48685236178056529 0 -0.18363926329897839 0.49999999999999828 0 -0.19848883175809501 0.48685236178056529 0 -0.20708556466301639 0.5 0 -0.18311948649431831 0.46713679563994498 0 -0.19511197543601369 0.47606725323690458 0 -0.20656524953558469 0.46488016823659339 0 -0.18337937489664821 0.48356839781997168 0 -0.19848883175809501 0.48685236178056529 0 -0.19511197543601369 0.47606725323690458 0 -0.19848883175809501 0.48685236178056529 0 -0.19511197543601369 0.47606725323690458 0 -0.206747867840962 0.47700509082497228 0 -0.19511197543601369 0.47606725323690458 0 -0.206747867840962 0.47700509082497228 0 -0.20656524953558469 0.46488016823659339 0 -0.19848883175809501 0.48685236178056529 0 -0.206747867840962 0.47700509082497228 0 -0.21585796601610141 0.48648558657266339 0 -0.206747867840962 0.47700509082497228 0 -0.21852396914967101 0.47285401242330122 0 -0.20656524953558469 0.46488016823659339 0 -0.206747867840962 0.47700509082497228 0 -0.21852396914967101 0.47285401242330122 0 -0.21585796601610141 0.48648558657266339 0 -0.20708556466301639 0.5 0 -0.21585796601610141 0.48648558657266339 0 -0.23053186602705439 0.5 0 -0.19848883175809501 0.48685236178056529 0 -0.20708556466301639 0.5 0 -0.21585796601610141 0.48648558657266339 0 -0.21585796601610141 0.48648558657266339 0 -0.23053186602705439 0.5 0 -0.2373192826940049 0.48342253064983348 0 -0.21852396914967101 0.47285401242330122 0 -0.2373192826940049 0.48342253064983348 0 -0.23001101257685119 0.46262354083324181 0 -0.21852396914967101 0.47285401242330122 0 -0.21585796601610141 0.48648558657266339 0 -0.2373192826940049 0.48342253064983348 0 -0.25474868654415728 0.48692894813519849 0 -0.25315469521642581 0.4750486889203015 0 -0.2373192826940049 0.48342253064983348 0 -0.25315469521642581 0.4750486889203015 0 -0.2373192826940049 0.48342253064983348 0 -0.23001101257685119 0.46262354083324181 0 -0.25397816739109252 0.5 0 -0.23053186602705439 0.5 0 -0.2373192826940049 0.48342253064983348 0 -0.25397816739109252 0.5 0 -0.25474868654415728 0.48692894813519849 0 -0.2373192826940049 0.48342253064983348 0 -0.26330490497154813 0.43976041958731371 0 -0.24129970279445639 0.44943490890582899 0 -0.24092688658692171 0.43286849171069308 0 -0.24129970279445639 0.44943490890582899 0 -0.2242493546558077 0.44235471361969553 0 -0.24092688658692171 0.43286849171069308 0 -0.25345677561811758 0.46036691342989022 0 -0.23001101257685119 0.46262354083324181 0 -0.25345677561811758 0.46036691342989022 0 -0.24129970279445639 0.44943490890582899 0 -0.23001101257685119 0.46262354083324181 0 -0.25345677561811758 0.46036691342989022 0 -0.25315469521642581 0.4750486889203015 0 -0.23001101257685119 0.46262354083324181 0 -0.24129970279445639 0.44943490890582899 0 -0.23001101257685119 0.46262354083324181 0 -0.2242493546558077 0.44235471361969553 0 -0.23001101257685119 0.46262354083324181 0 -0.2242493546558077 0.44235471361969553 0 -0.2144914677851314 0.45380351874251162 0 -0.2242493546558077 0.44235471361969553 0 -0.20880164963731279 0.443380440886459 0 -0.2144914677851314 0.45380351874251162 0 -0.20880164963731279 0.443380440886459 0 -0.2144914677851314 0.45380351874251162 0 -0.20415969833182021 0.45549933815243238 0 -0.23001101257685119 0.46262354083324181 0 -0.2144914677851314 0.45380351874251162 0 -0.20656524953558469 0.46488016823659339 0 -0.21852396914967101 0.47285401242330122 0 -0.23001101257685119 0.46262354083324181 0 -0.20656524953558469 0.46488016823659339 0 -0.23001101257685119 0.46262354083324181 0 -0.20656524953558469 0.46488016823659339 0 -0.2144914677851314 0.45380351874251162 0 -0.20415969833182021 0.45549933815243238 0 -0.20656524953558469 0.46488016823659339 0 -0.1829865290739871 0.45873048193697258 0 -0.1829590266345629 0.45699162349075462 0 -0.20415969833182021 0.45549933815243238 0 -0.1829865290739871 0.45873048193697258 0 -0.20415969833182021 0.45549933815243238 0 -0.18311948649431831 0.46713679563994498 0 -0.20415969833182021 0.45549933815243238 0 -0.20656524953558469 0.46488016823659339 0 -0.1829865290739871 0.45873048193697258 0 -0.18311948649431831 0.46713679563994498 0 -0.20415969833182021 0.45549933815243238 0 -0.18311948649431831 0.46713679563994498 0 -0.20656524953558469 0.46488016823659339 0 -0.1829590266345629 0.45699162349075462 0 -0.19557533522393281 0.44055915781337712 0 -0.1829590266345629 0.45699162349075462 0 -0.20415969833182021 0.45549933815243238 0 -0.19557533522393281 0.44055915781337712 0 -0.20880164963731279 0.443380440886459 0 -0.20415969833182021 0.45549933815243238 0 -0.19557533522393281 0.44055915781337712 0 -0.19557533522393281 0.44055915781337712 0 -0.20819164381331129 0.42412669213600601 0 -0.19557533522393281 0.44055915781337712 0 -0.19413142888046839 0.4217351031076268 0 -0.18255950863604661 0.43173185523385532 0 -0.19557533522393281 0.44055915781337712 0 -0.19413142888046839 0.4217351031076268 0 -0.20819164381331129 0.42412669213600601 0 -0.19413142888046839 0.4217351031076268 0 -0.20819164381331129 0.42412669213600601 0 -0.2021706660915297 0.40578572337793972 0 -0.19413142888046839 0.4217351031076268 0 -0.2021706660915297 0.40578572337793972 0 -0.18215999063752189 0.40647208697695608 0 -0.20819164381331129 0.42412669213600601 0 -0.22405449890785839 0.40643558214578251 0 -0.2021706660915297 0.40578572337793972 0 -0.20880164963731279 0.443380440886459 0 -0.19557533522393281 0.44055915781337712 0 -0.20819164381331129 0.42412669213600601 0 -0.2242493546558077 0.44235471361969553 0 -0.20880164963731279 0.443380440886459 0 -0.20819164381331129 0.42412669213600601 0 -0.2242493546558077 0.44235471361969553 0 -0.20819164381331129 0.42412669213600601 0 -0.22600929792909111 0.42518400498706249 0 -0.2242493546558077 0.44235471361969553 0 -0.22600929792909111 0.42518400498706249 0 -0.24092688658692171 0.43286849171069308 0 -0.20819164381331129 0.42412669213600601 0 -0.22600929792909111 0.42518400498706249 0 -0.22405449890785839 0.40643558214578251 0 -0.22600929792909111 0.42518400498706249 0 -0.22405449890785839 0.40643558214578251 0 -0.2382988550227183 0.41778448946306668 0 -0.2572482915111563 0.42152384209731297 0 -0.2382988550227183 0.41778448946306668 0 -0.2490618870264745 0.40647588616764979 0 -0.22405449890785839 0.40643558214578251 0 -0.2382988550227183 0.41778448946306668 0 -0.2490618870264745 0.40647588616764979 0 -0.2572482915111563 0.42152384209731297 0 -0.2382988550227183 0.41778448946306668 0 -0.24092688658692171 0.43286849171069308 0 -0.22600929792909111 0.42518400498706249 0 -0.2382988550227183 0.41778448946306668 0 -0.24092688658692171 0.43286849171069308 0 -0.24000210142933509 0.37809552861286783 0 -0.23801773827758249 0.39392053259368742 0 -0.22567210936962789 0.38582584627882549 0 -0.25152819264859128 0.38883491631829081 0 -0.24000210142933509 0.37809552861286783 0 -0.23801773827758249 0.39392053259368742 0 -0.25213085833087667 0.37355178257669552 0 -0.25152819264859128 0.38883491631829081 0 -0.24000210142933509 0.37809552861286783 0 -0.25152819264859128 0.38883491631829081 0 -0.2490618870264745 0.40647588616764979 0 -0.23801773827758249 0.39392053259368742 0 -0.22405449890785839 0.40643558214578251 0 -0.2490618870264745 0.40647588616764979 0 -0.23801773827758249 0.39392053259368742 0 -0.22405449890785839 0.40643558214578251 0 -0.22567210936962789 0.38582584627882549 0 -0.2099895612515065 0.38861519238670661 0 -0.22405449890785839 0.40643558214578251 0 -0.23801773827758249 0.39392053259368742 0 -0.22567210936962789 0.38582584627882549 0 -0.22567210936962789 0.38582584627882549 0 -0.21752164111765379 0.37637519474985792 0 -0.23054114355980421 0.3681661286558337 0 -0.24000210142933509 0.37809552861286783 0 -0.22567210936962789 0.38582584627882549 0 -0.23054114355980421 0.3681661286558337 0 -0.22567210936962789 0.38582584627882549 0 -0.21752164111765379 0.37637519474985792 0 -0.2099895612515065 0.38861519238670661 0 -0.21752164111765379 0.37637519474985792 0 -0.2099895612515065 0.38861519238670661 0 -0.20825127389149589 0.37038948781896619 0 -0.2099895612515065 0.38861519238670661 0 -0.1956253707180633 0.37355818799515828 0 -0.20825127389149589 0.37038948781896619 0 -0.22405449890785839 0.40643558214578251 0 -0.2099895612515065 0.38861519238670661 0 -0.2021706660915297 0.40578572337793972 0 -0.2021706660915297 0.40578572337793972 0 -0.19434121226752371 0.39112870189136351 0 -0.18215999063752189 0.40647208697695608 0 -0.2099895612515065 0.38861519238670661 0 -0.2021706660915297 0.40578572337793972 0 -0.19434121226752371 0.39112870189136351 0 -0.2099895612515065 0.38861519238670661 0 -0.19434121226752371 0.39112870189136351 0 -0.1956253707180633 0.37355818799515828 0 -0.19434121226752371 0.39112870189136351 0 -0.18176047263899719 0.38121231872005679 0 -0.1956253707180633 0.37355818799515828 0 -0.18176047263899719 0.38121231872005679 0 -0.16585623702428451 0.39107516703040651 0 -0.16689278400863089 0.37048631692620287 0 -0.16585623702428451 0.39107516703040651 0 -0.1532541744773912 0.375434017343177 0 -0.15169756500005979 0.38990146883471011 0 -0.16585623702428451 0.39107516703040651 0 -0.1532541744773912 0.375434017343177 0 -0.16689278400863089 0.37048631692620287 0 -0.16585623702428451 0.39107516703040651 0 -0.1665369108918931 0.40914444316194981 0 -0.1556916669008335 0.40278409093046019 0 -0.16585623702428451 0.39107516703040651 0 -0.18215999063752189 0.40647208697695608 0 -0.1665369108918931 0.40914444316194981 0 -0.16585623702428451 0.39107516703040651 0 -0.15169756500005979 0.38990146883471011 0 -0.1556916669008335 0.40278409093046019 0 -0.18176047263899719 0.38121231872005679 0 -0.16585623702428451 0.39107516703040651 0 -0.18215999063752189 0.40647208697695608 0 -0.18176047263899719 0.38121231872005679 0 -0.18215999063752189 0.40647208697695608 0 -0.19434121226752371 0.39112870189136351 0 -0.18176047263899719 0.38121231872005679 0 -0.18215999063752189 0.40647208697695608 0 -0.18215999063752189 0.40647208697695608 0 -0.18255950863604661 0.43173185523385532 0 -0.18215999063752189 0.40647208697695608 0 -0.16958367679162159 0.42493542776846188 0 -0.1665369108918931 0.40914444316194981 0 -0.19413142888046839 0.4217351031076268 0 -0.18215999063752189 0.40647208697695608 0 -0.18255950863604661 0.43173185523385532 0 -0.18215999063752189 0.40647208697695608 0 -0.18255950863604661 0.43173185523385532 0 -0.16958367679162159 0.42493542776846188 0 -0.16940388650370539 0.44815354093755089 0 -0.18255950863604661 0.43173185523385532 0 -0.16958367679162159 0.42493542776846188 0 -0.16940388650370539 0.44815354093755089 0 -0.16958367679162159 0.42493542776846188 0 -0.15912083936695831 0.4347249498771325 0 -0.16958367679162159 0.42493542776846188 0 -0.15912083936695831 0.4347249498771325 0 -0.15604886632200479 0.41831593774319042 0 -0.16958367679162159 0.42493542776846188 0 -0.1665369108918931 0.40914444316194981 0 -0.15604886632200479 0.41831593774319042 0 -0.1665369108918931 0.40914444316194981 0 -0.15604886632200479 0.41831593774319042 0 -0.1556916669008335 0.40278409093046019 0 -0.15604886632200479 0.41831593774319042 0 -0.14768726638806501 0.40958107086639878 0 -0.1556916669008335 0.40278409093046019 0 -0.15604886632200479 0.41831593774319042 0 -0.1455440964649429 0.41771164433310332 0 -0.14575226394851429 0.42876386523653243 0 -0.15604886632200479 0.41831593774319042 0 -0.1455440964649429 0.41771164433310332 0 -0.14768726638806501 0.40958107086639878 0 -0.1455440964649429 0.41771164433310332 0 -0.14768726638806501 0.40958107086639878 0 -0.13820848934052041 0.41088683445876423 0 -0.15912083936695831 0.4347249498771325 0 -0.15604886632200479 0.41831593774319042 0 -0.14575226394851429 0.42876386523653243 0 -0.14949031039727409 0.43903968606904947 0 -0.15912083936695831 0.4347249498771325 0 -0.14575226394851429 0.42876386523653243 0 -0.1455440964649429 0.41771164433310332 0 -0.14575226394851429 0.42876386523653243 0 -0.13557398954387551 0.42076075412316039 0 -0.13973201497409549 0.44099892737807922 0 -0.14949031039727409 0.43903968606904947 0 -0.14575226394851429 0.42876386523653243 0 -0.13491063247587859 0.43073185275000708 0 -0.1242188050129694 0.42501783294758849 0 -0.1248743097581413 0.44162978393037222 0 -0.13973201497409549 0.44099892737807922 0 -0.14575226394851429 0.42876386523653243 0 -0.13491063247587859 0.43073185275000708 0 -0.14575226394851429 0.42876386523653243 0 -0.13491063247587859 0.43073185275000708 0 -0.13557398954387551 0.42076075412316039 0 -0.13491063247587859 0.43073185275000708 0 -0.13557398954387551 0.42076075412316039 0 -0.1242188050129694 0.42501783294758849 0 -0.13820848934052041 0.41088683445876423 0 -0.13557398954387551 0.42076075412316039 0 -0.12623023605756489 0.41143854881348008 0 -0.1455440964649429 0.41771164433310332 0 -0.13820848934052041 0.41088683445876423 0 -0.13557398954387551 0.42076075412316039 0 -0.13557398954387551 0.42076075412316039 0 -0.12623023605756489 0.41143854881348008 0 -0.1242188050129694 0.42501783294758849 0 -0.13820848934052041 0.41088683445876423 0 -0.12623023605756489 0.41143854881348008 0 -0.13398515235888339 0.40371564514020769 0 -0.12997925716256209 0.39431640422262348 0 -0.14074253368576661 0.38200722200303072 0 -0.1429432129120235 0.39820684686647628 0 -0.12623023605756489 0.41143854881348008 0 -0.13398515235888339 0.40371564514020769 0 -0.12997925716256209 0.39431640422262348 0 -0.13398515235888339 0.40371564514020769 0 -0.12997925716256209 0.39431640422262348 0 -0.1429432129120235 0.39820684686647628 0 -0.13820848934052041 0.41088683445876423 0 -0.13398515235888339 0.40371564514020769 0 -0.1429432129120235 0.39820684686647628 0 -0.12997925716256209 0.39431640422262348 0 -0.14074253368576661 0.38200722200303072 0 -0.12523428666698541 0.37069662222368049 0 -0.12997925716256209 0.39431640422262348 0 -0.12523428666698541 0.37069662222368049 0 -0.12103247972044499 0.39311621374447298 0 -0.14074253368576661 0.38200722200303072 0 -0.15169756500005979 0.38990146883471011 0 -0.1429432129120235 0.39820684686647628 0 -0.14074253368576661 0.38200722200303072 0 -0.1532541744773912 0.375434017343177 0 -0.15169756500005979 0.38990146883471011 0 -0.15169756500005979 0.38990146883471011 0 -0.1556916669008335 0.40278409093046019 0 -0.1429432129120235 0.39820684686647628 0 -0.14768726638806501 0.40958107086639878 0 -0.1556916669008335 0.40278409093046019 0 -0.1429432129120235 0.39820684686647628 0 -0.14768726638806501 0.40958107086639878 0 -0.13820848934052041 0.41088683445876423 0 -0.1429432129120235 0.39820684686647628 0 -0.14407255521749979 0.34403263722221961 0 -0.15504053286571459 0.3545366000593369 0 -0.14129669608781389 0.36249735492572199 0 -0.14407255521749979 0.34403263722221961 0 -0.15504053286571459 0.3545366000593369 0 -0.1549481930100888 0.34056708499864929 0 -0.14074253368576661 0.38200722200303072 0 -0.1532541744773912 0.375434017343177 0 -0.14129669608781389 0.36249735492572199 0 -0.1532541744773912 0.375434017343177 0 -0.15504053286571459 0.3545366000593369 0 -0.14129669608781389 0.36249735492572199 0 -0.14129669608781389 0.36249735492572199 0 -0.12523428666698541 0.37069662222368049 0 -0.1294360936135257 0.3482770307028879 0 -0.12523428666698541 0.37069662222368049 0 -0.1294360936135257 0.3482770307028879 0 -0.14074253368576661 0.38200722200303072 0 -0.14129669608781389 0.36249735492572199 0 -0.12523428666698541 0.37069662222368049 0 -0.14407255521749979 0.34403263722221961 0 -0.14129669608781389 0.36249735492572199 0 -0.1294360936135257 0.3482770307028879 0 -0.1294360936135257 0.3482770307028879 0 -0.13363790056006589 0.32585743918209531 0 -0.14407255521749979 0.34403263722221961 0 -0.1294360936135257 0.3482770307028879 0 -0.13363790056006589 0.32585743918209531 0 -0.1294360936135257 0.3482770307028879 0 -0.13363790056006589 0.32585743918209531 0 -0.1154499742120704 0.34086754873962172 0 -0.12722248981549561 0.3181430308760943 0 -0.13363790056006589 0.32585743918209531 0 -0.1360408951285694 0.3130357752318072 0 -0.12722248981549561 0.3181430308760943 0 -0.1360408951285694 0.3130357752318072 0 -0.12136448477009221 0.30951812845445109 0 -0.12722248981549561 0.3181430308760943 0 -0.13363790056006589 0.32585743918209531 0 -0.12142985306419619 0.32461006626398298 0 -0.13363790056006589 0.32585743918209531 0 -0.12142985306419619 0.32461006626398298 0 -0.13363790056006589 0.32585743918209531 0 -0.1360408951285694 0.3130357752318072 0 -0.14290423209994971 0.32095809222069871 0 -0.13363790056006589 0.32585743918209531 0 -0.1360408951285694 0.3130357752318072 0 -0.14290423209994971 0.32095809222069871 0 -0.1532404752523272 0.32269894785805692 0 -0.1464174014568787 0.29836992735667278 0 -0.13363790056006589 0.32585743918209531 0 -0.14290423209994971 0.32095809222069871 0 -0.15729966860100811 0.32827511069417059 0 -0.13363790056006589 0.32585743918209531 0 -0.15729966860100811 0.32827511069417059 0 -0.14290423209994971 0.32095809222069871 0 -0.1532404752523272 0.32269894785805692 0 -0.15729966860100811 0.32827511069417059 0 -0.1532404752523272 0.32269894785805692 0 -0.15943794807189979 0.31595908059817063 0 -0.1547819877644892 0.3091453549012102 0 -0.14407255521749979 0.34403263722221961 0 -0.13363790056006589 0.32585743918209531 0 -0.14748957934716561 0.33468306802428371 0 -0.13363790056006589 0.32585743918209531 0 -0.14748957934716561 0.33468306802428371 0 -0.15729966860100811 0.32827511069417059 0 -0.14748957934716561 0.33468306802428371 0 -0.1549481930100888 0.34056708499864929 0 -0.15729966860100811 0.32827511069417059 0 -0.14407255521749979 0.34403263722221961 0 -0.14748957934716561 0.33468306802428371 0 -0.1549481930100888 0.34056708499864929 0 -0.15729966860100811 0.32827511069417059 0 -0.18096143664194889 0.33069278220625808 0 -0.1549481930100888 0.34056708499864929 0 -0.15729966860100811 0.32827511069417059 0 -0.16781010436956259 0.34240718275037813 0 -0.15729966860100811 0.32827511069417059 0 -0.16781010436956259 0.34240718275037813 0 -0.18096143664194889 0.33069278220625808 0 -0.15729966860100811 0.32827511069417059 0 -0.17028988351433311 0.32233995817617028 0 -0.18096143664194889 0.33069278220625808 0 -0.15943794807189979 0.31595908059817063 0 -0.16495134068588049 0.31685297469802859 0 -0.1638395481514221 0.30983277085387728 0 -0.1532404752523272 0.32269894785805692 0 -0.15943794807189979 0.31595908059817063 0 -0.16037638850537991 0.32126535467967993 0 -0.15943794807189979 0.31595908059817063 0 -0.16037638850537991 0.32126535467967993 0 -0.16495134068588049 0.31685297469802859 0 -0.15729966860100811 0.32827511069417059 0 -0.16037638850537991 0.32126535467967993 0 -0.17028988351433311 0.32233995817617028 0 -0.1532404752523272 0.32269894785805692 0 -0.15729966860100811 0.32827511069417059 0 -0.16037638850537991 0.32126535467967993 0 -0.16495134068588049 0.31685297469802859 0 -0.17285953122972289 0.31090601179704258 0 -0.1638395481514221 0.30983277085387728 0 -0.17028988351433311 0.32233995817617028 0 -0.16495134068588049 0.31685297469802859 0 -0.17285953122972289 0.31090601179704258 0 -0.16037638850537991 0.32126535467967993 0 -0.17028988351433311 0.32233995817617028 0 -0.16495134068588049 0.31685297469802859 0 -0.18077272512400111 0.31876138179813301 0 -0.17285953122972289 0.31090601179704258 0 -0.17028988351433311 0.32233995817617028 0 -0.18077272512400111 0.31876138179813301 0 -0.17285953122972289 0.31090601179704258 0 -0.17028988351433311 0.32233995817617028 0 -0.18077272512400111 0.31876138179813301 0 -0.18096143664194889 0.33069278220625808 0 -0.18077272512400111 0.31876138179813301 0 -0.19386790912735871 0.33176087567547108 0 -0.18077272512400111 0.31876138179813301 0 -0.18096143664194889 0.33069278220625808 0 -0.18077272512400111 0.31876138179813301 0 -0.18096143664194889 0.33069278220625808 0 -0.19386790912735871 0.33176087567547108 0 -0.18096143664194889 0.33069278220625808 0 -0.1813609546404725 0.35595255046315749 0 -0.18096143664194889 0.33069278220625808 0 -0.1813609546404725 0.35595255046315749 0 -0.19258948339875709 0.33633707034479371 0 -0.16781010436956259 0.34240718275037813 0 -0.18096143664194889 0.33069278220625808 0 -0.1813609546404725 0.35595255046315749 0 -0.18096143664194889 0.33069278220625808 0 -0.19386790912735871 0.33176087567547108 0 -0.15504053286571459 0.3545366000593369 0 -0.16781010436956259 0.34240718275037813 0 -0.1813609546404725 0.35595255046315749 0 -0.15504053286571459 0.3545366000593369 0 -0.1549481930100888 0.34056708499864929 0 -0.16781010436956259 0.34240718275037813 0 -0.1532541744773912 0.375434017343177 0 -0.15504053286571459 0.3545366000593369 0 -0.16689278400863089 0.37048631692620287 0 -0.15504053286571459 0.3545366000593369 0 -0.1813609546404725 0.35595255046315749 0 -0.16689278400863089 0.37048631692620287 0 -0.18176047263899719 0.38121231872005679 0 -0.1813609546404725 0.35595255046315749 0 -0.18176047263899719 0.38121231872005679 0 -0.1813609546404725 0.35595255046315749 0 -0.1956253707180633 0.37355818799515828 0 -0.18176047263899719 0.38121231872005679 0 -0.1813609546404725 0.35595255046315749 0 -0.16689278400863089 0.37048631692620287 0 -0.1813609546404725 0.35595255046315749 0 -0.1956253707180633 0.37355818799515828 0 -0.2000380028121157 0.35856944723279938 0 -0.1956253707180633 0.37355818799515828 0 -0.2000380028121157 0.35856944723279938 0 -0.20825127389149589 0.37038948781896619 0 -0.1813609546404725 0.35595255046315749 0 -0.1951678646333711 0.34883535218340811 0 -0.19258948339875709 0.33633707034479371 0 -0.1813609546404725 0.35595255046315749 0 -0.1951678646333711 0.34883535218340811 0 -0.2000380028121157 0.35856944723279938 0 -0.1951678646333711 0.34883535218340811 0 -0.2000380028121157 0.35856944723279938 0 -0.20668301768213909 0.34448234069288158 0 -0.20668301768213909 0.34448234069288158 0 -0.2120127789660084 0.36084248239747968 0 -0.21921666942493959 0.3569244055809645 0 -0.2000380028121157 0.35856944723279938 0 -0.20668301768213909 0.34448234069288158 0 -0.2120127789660084 0.36084248239747968 0 -0.2120127789660084 0.36084248239747968 0 -0.21921666942493959 0.3569244055809645 0 -0.20668301768213909 0.34448234069288158 0 -0.21921666942493959 0.3569244055809645 0 -0.22158808080033929 0.34557455345049992 0 -0.20668301768213909 0.34448234069288158 0 -0.21921666942493959 0.3569244055809645 0 -0.2000380028121157 0.35856944723279938 0 -0.20825127389149589 0.37038948781896619 0 -0.2120127789660084 0.36084248239747968 0 -0.2120127789660084 0.36084248239747968 0 -0.2199937556016836 0.36693485901855288 0 -0.21921666942493959 0.3569244055809645 0 -0.20825127389149589 0.37038948781896619 0 -0.2120127789660084 0.36084248239747968 0 -0.2199937556016836 0.36693485901855288 0 -0.21752164111765379 0.37637519474985792 0 -0.20825127389149589 0.37038948781896619 0 -0.2199937556016836 0.36693485901855288 0 -0.21752164111765379 0.37637519474985792 0 -0.23054114355980421 0.3681661286558337 0 -0.2199937556016836 0.36693485901855288 0 -0.23054114355980421 0.3681661286558337 0 -0.21921666942493959 0.3569244055809645 0 -0.23305195790672301 0.35812934693154008 0 -0.23054114355980421 0.3681661286558337 0 -0.2199937556016836 0.36693485901855288 0 -0.21921666942493959 0.3569244055809645 0 -0.23054114355980421 0.3681661286558337 0 -0.21921666942493959 0.3569244055809645 0 -0.21921666942493959 0.3569244055809645 0 -0.22158808080033929 0.34557455345049992 0 -0.23915963598069589 0.34607775607121571 0 -0.21921666942493959 0.3569244055809645 0 -0.23915963598069589 0.34607775607121571 0 -0.21921666942493959 0.3569244055809645 0 -0.23305195790672301 0.35812934693154008 0 -0.23915963598069589 0.34607775607121571 0 -0.23305195790672301 0.35812934693154008 0 -0.23915963598069589 0.34607775607121571 0 -0.24329038266145239 0.36134909741814653 0 -0.25407523553642281 0.3497448278934856 0 -0.23915963598069589 0.34607775607121571 0 -0.24329038266145239 0.36134909741814653 0 -0.25213085833087667 0.37355178257669552 0 -0.24000210142933509 0.37809552861286783 0 -0.24329038266145239 0.36134909741814653 0 -0.24000210142933509 0.37809552861286783 0 -0.23054114355980421 0.3681661286558337 0 -0.24329038266145239 0.36134909741814653 0 -0.23054114355980421 0.3681661286558337 0 -0.23305195790672301 0.35812934693154008 0 -0.24329038266145239 0.36134909741814653 0 -0.23582541811145999 0.32679902143390172 0 -0.24885494741763489 0.31718848033418301 0 -0.23189508169276829 0.30076725351495531 0 -0.23582541811145999 0.32679902143390172 0 -0.24885494741763489 0.31718848033418301 0 -0.24633099797708269 0.32737693631841108 0 -0.25451497659773847 0.32559442806853028 0 -0.24885494741763489 0.31718848033418301 0 -0.24633099797708269 0.32737693631841108 0 -0.24843663428782739 0.33758714710907461 0 -0.22129300011358269 0.33481371145693772 0 -0.25451497659773847 0.32559442806853028 0 -0.24633099797708269 0.32737693631841108 0 -0.24843663428782739 0.33758714710907461 0 -0.25910260253645218 0.33523110656146687 0 -0.23915963598069589 0.34607775607121571 0 -0.23582541811145999 0.32679902143390172 0 -0.24633099797708269 0.32737693631841108 0 -0.24843663428782739 0.33758714710907461 0 -0.25910260253645218 0.33523110656146687 0 -0.23915963598069589 0.34607775607121571 0 -0.24843663428782739 0.33758714710907461 0 -0.23582541811145999 0.32679902143390172 0 -0.24843663428782739 0.33758714710907461 0 -0.22129300011358269 0.33481371145693772 0 -0.23915963598069589 0.34607775607121571 0 -0.24843663428782739 0.33758714710907461 0 -0.22129300011358269 0.33481371145693772 0 -0.22158808080033929 0.34557455345049992 0 -0.23915963598069589 0.34607775607121571 0 -0.22129300011358269 0.33481371145693772 0 -0.23582541811145999 0.32679902143390172 0 -0.21954464392232159 0.31820766509236142 0 -0.23189508169276829 0.30076725351495531 0 -0.23582541811145999 0.32679902143390172 0 -0.22129300011358269 0.33481371145693772 0 -0.21954464392232159 0.31820766509236142 0 -0.21954464392232159 0.31820766509236142 0 -0.20492818889453221 0.32276220977772679 0 -0.20060783596013981 0.3076349397264902 0 -0.22129300011358269 0.33481371145693772 0 -0.21954464392232159 0.31820766509236142 0 -0.20492818889453221 0.32276220977772679 0 -0.22129300011358269 0.33481371145693772 0 -0.20492818889453221 0.32276220977772679 0 -0.19386790912735871 0.33176087567547108 0 -0.22129300011358269 0.33481371145693772 0 -0.19386790912735871 0.33176087567547108 0 -0.20668301768213909 0.34448234069288158 0 -0.22129300011358269 0.33481371145693772 0 -0.19386790912735871 0.33176087567547108 0 -0.20668301768213909 0.34448234069288158 0 -0.22158808080033929 0.34557455345049992 0 -0.22129300011358269 0.33481371145693772 0 -0.20668301768213909 0.34448234069288158 0 -0.19386790912735871 0.33176087567547108 0 -0.19258948339875709 0.33633707034479371 0 -0.20668301768213909 0.34448234069288158 0 -0.19386790912735871 0.33176087567547108 0 -0.1951678646333711 0.34883535218340811 0 -0.20668301768213909 0.34448234069288158 0 -0.19258948339875709 0.33633707034479371 0 -0.18096143664194889 0.33069278220625808 0 -0.19386790912735871 0.33176087567547108 0 -0.19258948339875709 0.33633707034479371 0 -0.19386790912735871 0.33176087567547108 0 -0.19258948339875709 0.33633707034479371 0 -0.18077272512400111 0.31876138179813301 0 -0.19386790912735871 0.33176087567547108 0 -0.20060783596013981 0.3076349397264902 0 -0.20492818889453221 0.32276220977772679 0 -0.19386790912735871 0.33176087567547108 0 -0.20060783596013981 0.3076349397264902 0 -0.19386790912735871 0.33176087567547108 0 -0.20060783596013981 0.3076349397264902 0 -0.20060783596013981 0.3076349397264902 0 -0.20734776279292019 0.28350900377750898 0 -0.23189508169276829 0.30076725351495531 0 -0.21954464392232159 0.31820766509236142 0 -0.20060783596013981 0.3076349397264902 0 -0.23189508169276829 0.30076725351495531 0 -0.20060783596013981 0.3076349397264902 0 -0.20734776279292019 0.28350900377750898 0 -0.18034630435624241 0.29180066960649809 0 -0.20734776279292019 0.28350900377750898 0 -0.19375927737912041 0.2730469699042487 0 -0.18034630435624241 0.29180066960649809 0 -0.20060783596013981 0.3076349397264902 0 -0.20734776279292019 0.28350900377750898 0 -0.20734776279292019 0.28350900377750898 0 -0.23189508169276829 0.30076725351495531 0 -0.22396762922540969 0.27514125130055722 0 -0.23189508169276829 0.30076725351495531 0 -0.2378434694439332 0.28391349183279069 0 -0.22396762922540969 0.27514125130055722 0 -0.25673188405007052 0.28646841290673969 0 -0.23189508169276829 0.30076725351495531 0 -0.2378434694439332 0.28391349183279069 0 -0.25673188405007052 0.28646841290673969 0 -0.23189508169276829 0.30076725351495531 0 -0.25505401324638421 0.30366623925853881 0 -0.25673188405007052 0.28646841290673969 0 -0.23189508169276829 0.30076725351495531 0 -0.25505401324638421 0.30366623925853881 0 -0.24885494741763489 0.31718848033418301 0 -0.23189508169276829 0.30076725351495531 0 -0.25265925142613249 0.26128234508680298 0 -0.23885305679183191 0.2684477152547543 0 -0.23951274761537589 0.2474853768326048 0 -0.23885305679183191 0.2684477152547543 0 -0.22811192938500721 0.25829645972706228 0 -0.23951274761537589 0.2474853768326048 0 -0.25621817608628389 0.2460965770837312 0 -0.25265925142613249 0.26128234508680298 0 -0.23951274761537589 0.2474853768326048 0 -0.25673188405007052 0.28646841290673969 0 -0.2378434694439332 0.28391349183279069 0 -0.23885305679183191 0.2684477152547543 0 -0.25265925142613249 0.26128234508680298 0 -0.25673188405007052 0.28646841290673969 0 -0.23885305679183191 0.2684477152547543 0 -0.23885305679183191 0.2684477152547543 0 -0.22396762922540969 0.27514125130055722 0 -0.22811192938500721 0.25829645972706228 0 -0.2378434694439332 0.28391349183279069 0 -0.23885305679183191 0.2684477152547543 0 -0.22396762922540969 0.27514125130055722 0 -0.22811192938500721 0.25829645972706228 0 -0.22371849106378741 0.2462845034026982 0 -0.23951274761537589 0.2474853768326048 0 -0.22396762922540969 0.27514125130055722 0 -0.22811192938500721 0.25829645972706228 0 -0.21408768962570049 0.25938306782852782 0 -0.22811192938500721 0.25829645972706228 0 -0.21408768962570049 0.25938306782852782 0 -0.22371849106378741 0.2462845034026982 0 -0.21408768962570049 0.25938306782852782 0 -0.19928355658839081 0.25766712263582692 0 -0.2066863838603582 0.24242880758937649 0 -0.21408768962570049 0.25938306782852782 0 -0.20163280817849061 0.26608937016207479 0 -0.19928355658839081 0.25766712263582692 0 -0.20734776279292019 0.28350900377750898 0 -0.21408768962570049 0.25938306782852782 0 -0.20734776279292019 0.28350900377750898 0 -0.22396762922540969 0.27514125130055722 0 -0.21408768962570049 0.25938306782852782 0 -0.20734776279292019 0.28350900377750898 0 -0.21408768962570049 0.25938306782852782 0 -0.20163280817849061 0.26608937016207479 0 -0.20734776279292019 0.28350900377750898 0 -0.20163280817849061 0.26608937016207479 0 -0.19375927737912041 0.2730469699042487 0 -0.20163280817849061 0.26608937016207479 0 -0.19375927737912041 0.2730469699042487 0 -0.19160269433399771 0.26436194023610149 0 -0.19375927737912041 0.2730469699042487 0 -0.19160269433399771 0.26436194023610149 0 -0.17991988358848049 0.26483995741486333 0 -0.19928355658839081 0.25766712263582692 0 -0.18259587964237009 0.2606558300825601 0 -0.2066863838603582 0.24242880758937649 0 -0.18259587964237009 0.2606558300825601 0 -0.19333963139412971 0.24385714112684301 0 -0.19928355658839081 0.25766712263582692 0 -0.19160269433399771 0.26436194023610149 0 -0.18259587964237009 0.2606558300825601 0 -0.18259587964237009 0.2606558300825601 0 -0.2066863838603582 0.24242880758937649 0 -0.20163280817849061 0.26608937016207479 0 -0.19928355658839081 0.25766712263582692 0 -0.19160269433399771 0.26436194023610149 0 -0.17991988358848049 0.26483995741486333 0 -0.17951502337729761 0.2392424245160312 0 -0.17991988358848049 0.26483995741486333 0 -0.17042143569771079 0.26099360542817968 0 -0.17951502337729761 0.2392424245160312 0 -0.18259587964237009 0.2606558300825601 0 -0.17991988358848049 0.26483995741486333 0 -0.17951502337729761 0.2392424245160312 0 -0.19160269433399771 0.26436194023610149 0 -0.18259587964237009 0.2606558300825601 0 -0.17991988358848049 0.26483995741486333 0 -0.18259587964237009 0.2606558300825601 0 -0.17991988358848049 0.26483995741486333 0 -0.17991988358848049 0.26483995741486333 0 -0.17042143569771079 0.26099360542817968 0 -0.17716480609589361 0.26914773470870201 0 -0.17042143569771079 0.26099360542817968 0 -0.1627301728603629 0.26968240911070368 0 -0.1532221513837192 0.25419418888983192 0 -0.17042143569771079 0.26099360542817968 0 -0.1532221513837192 0.25419418888983192 0 -0.17951502337729761 0.2392424245160312 0 -0.1627301728603629 0.26968240911070368 0 -0.1620479085915319 0.28265904931380531 0 -0.15271877240598841 0.27446820953958367 0 -0.17042143569771079 0.26099360542817968 0 -0.1627301728603629 0.26968240911070368 0 -0.1699765768805111 0.26885491792894611 0 -0.1627301728603629 0.26968240911070368 0 -0.1699765768805111 0.26885491792894611 0 -0.16860704672851359 0.27535934789532951 0 -0.1627301728603629 0.26968240911070368 0 -0.16860704672851359 0.27535934789532951 0 -0.1620479085915319 0.28265904931380531 0 -0.16860704672851359 0.27535934789532951 0 -0.17077339862397739 0.28423195702734899 0 -0.1620479085915319 0.28265904931380531 0 -0.17991988358848049 0.26483995741486333 0 -0.18034630435624241 0.29180066960649809 0 -0.17991988358848049 0.26483995741486333 0 -0.17716480609589361 0.26914773470870201 0 -0.18034630435624241 0.29180066960649809 0 -0.16860704672851359 0.27535934789532951 0 -0.17716480609589361 0.26914773470870201 0 -0.17077339862397739 0.28423195702734899 0 -0.19375927737912041 0.2730469699042487 0 -0.17991988358848049 0.26483995741486333 0 -0.18034630435624241 0.29180066960649809 0 -0.17042143569771079 0.26099360542817968 0 -0.1699765768805111 0.26885491792894611 0 -0.17716480609589361 0.26914773470870201 0 -0.1699765768805111 0.26885491792894611 0 -0.16860704672851359 0.27535934789532951 0 -0.17716480609589361 0.26914773470870201 0 -0.17991988358848049 0.26483995741486333 0 -0.17716480609589361 0.26914773470870201 0 -0.17716480609589361 0.26914773470870201 0 -0.18034630435624241 0.29180066960649809 0 -0.17077339862397739 0.28423195702734899 0 -0.18034630435624241 0.29180066960649809 0 -0.16501618616712291 0.29775164083812761 0 -0.17077339862397739 0.28423195702734899 0 -0.18077272512400111 0.31876138179813301 0 -0.18034630435624241 0.29180066960649809 0 -0.18077272512400111 0.31876138179813301 0 -0.18034630435624241 0.29180066960649809 0 -0.17285953122972289 0.31090601179704258 0 -0.18034630435624241 0.29180066960649809 0 -0.17285953122972289 0.31090601179704258 0 -0.16501618616712291 0.29775164083812761 0 -0.18077272512400111 0.31876138179813301 0 -0.20060783596013981 0.3076349397264902 0 -0.18034630435624241 0.29180066960649809 0 -0.16501618616712291 0.29775164083812761 0 -0.15329008091572741 0.28945008379417048 0 -0.1547819877644892 0.3091453549012102 0 -0.17285953122972289 0.31090601179704258 0 -0.16501618616712291 0.29775164083812761 0 -0.1638395481514221 0.30983277085387728 0 -0.16501618616712291 0.29775164083812761 0 -0.1638395481514221 0.30983277085387728 0 -0.1547819877644892 0.3091453549012102 0 -0.15943794807189979 0.31595908059817063 0 -0.1638395481514221 0.30983277085387728 0 -0.1547819877644892 0.3091453549012102 0 -0.16501618616712291 0.29775164083812761 0 -0.17077339862397739 0.28423195702734899 0 -0.1620479085915319 0.28265904931380531 0 -0.16501618616712291 0.29775164083812761 0 -0.1620479085915319 0.28265904931380531 0 -0.15329008091572741 0.28945008379417048 0 -0.1464174014568787 0.29836992735667278 0 -0.13959432766143021 0.2740409068552887 0 -0.1620479085915319 0.28265904931380531 0 -0.15329008091572741 0.28945008379417048 0 -0.15271877240598841 0.27446820953958367 0 -0.15329008091572741 0.28945008379417048 0 -0.1464174014568787 0.29836992735667278 0 -0.13959432766143021 0.2740409068552887 0 -0.15329008091572741 0.28945008379417048 0 -0.1464174014568787 0.29836992735667278 0 -0.1547819877644892 0.3091453549012102 0 -0.1532404752523272 0.32269894785805692 0 -0.1464174014568787 0.29836992735667278 0 -0.1360408951285694 0.3130357752318072 0 -0.14290423209994971 0.32095809222069871 0 -0.1464174014568787 0.29836992735667278 0 -0.1532404752523272 0.32269894785805692 0 -0.1464174014568787 0.29836992735667278 0 -0.1547819877644892 0.3091453549012102 0 -0.1360408951285694 0.3130357752318072 0 -0.1264253840414637 0.29528772621663357 0 -0.12136448477009221 0.30951812845445109 0 -0.1360408951285694 0.3130357752318072 0 -0.1464174014568787 0.29836992735667278 0 -0.1264253840414637 0.29528772621663357 0 -0.1464174014568787 0.29836992735667278 0 -0.1264253840414637 0.29528772621663357 0 -0.13959432766143021 0.2740409068552887 0 -0.1264253840414637 0.29528772621663357 0 -0.13959432766143021 0.2740409068552887 0 -0.1185373796182298 0.27837978510360878 0 -0.13959432766143021 0.2740409068552887 0 -0.1327712538659816 0.24971188635390451 0 -0.13959432766143021 0.2740409068552887 0 -0.116744543106582 0.25728181003509248 0 -0.1327712538659816 0.24971188635390451 0 -0.13959432766143021 0.2740409068552887 0 -0.1532221513837192 0.25419418888983192 0 -0.1327712538659816 0.24971188635390451 0 -0.1627301728603629 0.26968240911070368 0 -0.1532221513837192 0.25419418888983192 0 -0.15271877240598841 0.27446820953958367 0 -0.13959432766143021 0.2740409068552887 0 -0.1532221513837192 0.25419418888983192 0 -0.15271877240598841 0.27446820953958367 0 -0.15329008091572741 0.28945008379417048 0 -0.13959432766143021 0.2740409068552887 0 -0.15271877240598841 0.27446820953958367 0 -0.1061606963602142 0.26761343855331338 0 -0.1001789302111205 0.27974269320078388 0 -0.1185373796182298 0.27837978510360878 0 -0.1061606963602142 0.26761343855331338 0 -0.1001789302111205 0.27974269320078388 0 -0.092613028744971265 0.26767711662392979 0 -0.1061606963602142 0.26761343855331338 0 -0.10005120432924321 0.25626016583208688 0 -0.116744543106582 0.25728181003509248 0 -0.1061606963602142 0.26761343855331338 0 -0.10005120432924321 0.25626016583208688 0 -0.092613028744971265 0.26767711662392979 0 -0.10005120432924321 0.25626016583208688 0 -0.116744543106582 0.25728181003509248 0 -0.1045487088169635 0.24438495162540061 0 -0.13959432766143021 0.2740409068552887 0 -0.116744543106582 0.25728181003509248 0 -0.1185373796182298 0.27837978510360878 0 -0.1061606963602142 0.26761343855331338 0 -0.116744543106582 0.25728181003509248 0 -0.1185373796182298 0.27837978510360878 0 -0.1264253840414637 0.29528772621663357 0 -0.1127724140037699 0.30190213115774378 0 -0.1091517300735869 0.29135078386346752 0 -0.1264253840414637 0.29528772621663357 0 -0.1185373796182298 0.27837978510360878 0 -0.1091517300735869 0.29135078386346752 0 -0.1264253840414637 0.29528772621663357 0 -0.12136448477009221 0.30951812845445109 0 -0.1127724140037699 0.30190213115774378 0 -0.12136448477009221 0.30951812845445109 0 -0.1127724140037699 0.30190213115774378 0 -0.1061991548417472 0.31213959050036899 0 -0.1127724140037699 0.30190213115774378 0 -0.1061991548417472 0.31213959050036899 0 -0.1005146973405663 0.30141191014932889 0 -0.1127724140037699 0.30190213115774378 0 -0.1005146973405663 0.30141191014932889 0 -0.1091517300735869 0.29135078386346752 0 -0.1005146973405663 0.30141191014932889 0 -0.094430836728355921 0.29177030977787999 0 -0.089068024122243669 0.30112896568664949 0 -0.1061991548417472 0.31213959050036899 0 -0.1005146973405663 0.30141191014932889 0 -0.090928135519314904 0.31087631578889069 0 -0.1001789302111205 0.27974269320078388 0 -0.1185373796182298 0.27837978510360878 0 -0.1091517300735869 0.29135078386346752 0 -0.1005146973405663 0.30141191014932889 0 -0.1091517300735869 0.29135078386346752 0 -0.094430836728355921 0.29177030977787999 0 -0.1001789302111205 0.27974269320078388 0 -0.1091517300735869 0.29135078386346752 0 -0.094430836728355921 0.29177030977787999 0 -0.1001789302111205 0.27974269320078388 0 -0.094430836728355921 0.29177030977787999 0 -0.086145563619835275 0.2816538088019015 0 -0.094430836728355921 0.29177030977787999 0 -0.086145563619835275 0.2816538088019015 0 -0.081526075002782958 0.29533369696514911 0 -0.094430836728355921 0.29177030977787999 0 -0.081526075002782958 0.29533369696514911 0 -0.089068024122243669 0.30112896568664949 0 -0.086145563619835275 0.2816538088019015 0 -0.081526075002782958 0.29533369696514911 0 -0.070830210313899522 0.29195808219782299 0 -0.090928135519314904 0.31087631578889069 0 -0.079482369404140468 0.30560554845979909 0 -0.074915307566508993 0.31649039264194578 0 -0.090928135519314904 0.31087631578889069 0 -0.089068024122243669 0.30112896568664949 0 -0.079482369404140468 0.30560554845979909 0 -0.1005146973405663 0.30141191014932889 0 -0.090928135519314904 0.31087631578889069 0 -0.089068024122243669 0.30112896568664949 0 -0.081526075002782958 0.29533369696514911 0 -0.089068024122243669 0.30112896568664949 0 -0.079482369404140468 0.30560554845979909 0 -0.054647974243728172 0.30430181459310768 0 -0.074915307566508993 0.31649039264194578 0 -0.079482369404140468 0.30560554845979909 0 -0.068661557073843291 0.3005821027458685 0 -0.074915307566508993 0.31649039264194578 0 -0.068661557073843291 0.3005821027458685 0 -0.054647974243728172 0.30430181459310768 0 -0.074915307566508993 0.31649039264194578 0 -0.081526075002782958 0.29533369696514911 0 -0.079482369404140468 0.30560554845979909 0 -0.068661557073843291 0.3005821027458685 0 -0.070830210313899522 0.29195808219782299 0 -0.067453711470644842 0.27023673344429472 0 -0.052574645638654917 0.28480468584225688 0 -0.081526075002782958 0.29533369696514911 0 -0.068661557073843291 0.3005821027458685 0 -0.070830210313899522 0.29195808219782299 0 -0.068661557073843291 0.3005821027458685 0 -0.070830210313899522 0.29195808219782299 0 -0.068661557073843291 0.3005821027458685 0 -0.070830210313899522 0.29195808219782299 0 -0.059610011597539182 0.29372125904316332 0 -0.086145563619835275 0.2816538088019015 0 -0.070830210313899522 0.29195808219782299 0 -0.077256670317037021 0.26667642926106078 0 -0.070830210313899522 0.29195808219782299 0 -0.067453711470644842 0.27023673344429472 0 -0.070830210313899522 0.29195808219782299 0 -0.077256670317037021 0.26667642926106078 0 -0.070830210313899522 0.29195808219782299 0 -0.067453711470644842 0.27023673344429472 0 -0.077256670317037021 0.26667642926106078 0 -0.086145563619835275 0.2816538088019015 0 -0.077256670317037021 0.26667642926106078 0 -0.092613028744971265 0.26767711662392979 0 -0.1001789302111205 0.27974269320078388 0 -0.086145563619835275 0.2816538088019015 0 -0.092613028744971265 0.26767711662392979 0 -0.077256670317037021 0.26667642926106078 0 -0.086302411784292182 0.25447467192259482 0 -0.083666647235009842 0.24139059785004849 0 -0.077256670317037021 0.26667642926106078 0 -0.083666647235009842 0.24139059785004849 0 -0.10005120432924321 0.25626016583208688 0 -0.086302411784292182 0.25447467192259482 0 -0.094679029848152713 0.24609146959404629 0 -0.10005120432924321 0.25626016583208688 0 -0.092613028744971265 0.26767711662392979 0 -0.086302411784292182 0.25447467192259482 0 -0.077256670317037021 0.26667642926106078 0 -0.092613028744971265 0.26767711662392979 0 -0.086302411784292182 0.25447467192259482 0 -0.077256670317037021 0.26667642926106078 0 -0.064077212627390134 0.24851538469076631 0 -0.083666647235009842 0.24139059785004849 0 -0.067453711470644842 0.27023673344429472 0 -0.077256670317037021 0.26667642926106078 0 -0.064077212627390134 0.24851538469076631 0 -0.067453711470644842 0.27023673344429472 0 -0.064077212627390134 0.24851538469076631 0 -0.067453711470644842 0.27023673344429472 0 -0.04634179854296408 0.26632715615711849 0 -0.064077212627390134 0.24851538469076631 0 -0.04634179854296408 0.26632715615711849 0 -0.064077212627390134 0.24851538469076631 0 -0.046578861792199937 0.24361118962503389 0 -0.067453711470644842 0.27023673344429472 0 -0.04634179854296408 0.26632715615711849 0 -0.052574645638654917 0.28480468584225688 0 -0.04634179854296408 0.26632715615711849 0 -0.034380640920947357 0.29211323654426968 0 -0.052574645638654917 0.28480468584225688 0 -0.04634179854296408 0.26632715615711849 0 -0.022607631921228569 0.27169805167723737 0 -0.034380640920947357 0.29211323654426968 0 -0.04634179854296408 0.26632715615711849 0 -0.03068766995985707 0.25286978792993342 0 -0.022607631921228569 0.27169805167723737 0 -0.04634179854296408 0.26632715615711849 0 -0.03068766995985707 0.25286978792993342 0 -0.046578861792199937 0.24361118962503389 0 -0.03068766995985707 0.25286978792993342 0 -0.022607631921228569 0.27169805167723737 0 -0.0098044441781452579 0.25473951632571468 0 -0.022607631921228569 0.27169805167723737 0 -0.015153941911089409 0.29208252597919021 0 3.3590645499582607e-05 0.27236849017123349 0 -0.022607631921228569 0.27169805167723737 0 -0.0098044441781452579 0.25473951632571468 0 3.3590645499582607e-05 0.27236849017123349 0 -0.0098044441781452579 0.25473951632571468 0 0.0073806355134042019 0.25529449578482938 0 3.3590645499582607e-05 0.27236849017123349 0 -0.0088759444352828343 0.31092800175718183 0 -0.015153941911089409 0.29208252597919021 0 0.0083336089875100904 0.29343585490586271 0 -0.015153941911089409 0.29208252597919021 0 0.0083336089875100904 0.29343585490586271 0 3.3590645499582607e-05 0.27236849017123349 0 -0.022607631921228569 0.27169805167723737 0 -0.015153941911089409 0.29208252597919021 0 -0.034380640920947357 0.29211323654426968 0 -0.0088759444352828343 0.31092800175718183 0 -0.015153941911089409 0.29208252597919021 0 -0.03508050583840458 0.3127012881250415 0 -0.015153941911089409 0.29208252597919021 0 -0.034380640920947357 0.29211323654426968 0 -0.03508050583840458 0.3127012881250415 0 -0.034380640920947357 0.29211323654426968 0 -0.054647974243728172 0.30430181459310768 0 -0.034380640920947357 0.29211323654426968 0 -0.054647974243728172 0.30430181459310768 0 -0.03508050583840458 0.3127012881250415 0 -0.034380640920947357 0.29211323654426968 0 -0.052574645638654917 0.28480468584225688 0 -0.054647974243728172 0.30430181459310768 0 -0.052574645638654917 0.28480468584225688 0 -0.059610011597539182 0.29372125904316332 0 -0.054647974243728172 0.30430181459310768 0 -0.070830210313899522 0.29195808219782299 0 -0.052574645638654917 0.28480468584225688 0 -0.059610011597539182 0.29372125904316332 0 -0.068661557073843291 0.3005821027458685 0 -0.059610011597539182 0.29372125904316332 0 -0.054647974243728172 0.30430181459310768 0 -0.058679851530075752 0.32054224196392622 0 -0.045885169747561752 0.33132665820789581 0 -0.073191842414501496 0.33174208285196288 0 -0.054647974243728172 0.30430181459310768 0 -0.058679851530075752 0.32054224196392622 0 -0.03508050583840458 0.3127012881250415 0 -0.045885169747561752 0.33132665820789581 0 -0.067541502003893042 0.3482616942848048 0 -0.073191842414501496 0.33174208285196288 0 -0.045885169747561752 0.33132665820789581 0 -0.073191842414501496 0.33174208285196288 0 -0.045885169747561752 0.33132665820789581 0 -0.018578497080621779 0.33091123356382868 0 -0.045885169747561752 0.33132665820789581 0 -0.03508050583840458 0.3127012881250415 0 -0.018578497080621779 0.33091123356382868 0 -0.058679851530075752 0.32054224196392622 0 -0.045885169747561752 0.33132665820789581 0 -0.03508050583840458 0.3127012881250415 0 -0.0088759444352828343 0.31092800175718183 0 -0.03508050583840458 0.3127012881250415 0 -0.018578497080621779 0.33091123356382868 0 -0.018578497080621779 0.33091123356382868 0 -0.0050552824635438226 0.34569829691311771 0 -0.02749858990914332 0.35301881799134821 0 -0.045885169747561752 0.33132665820789581 0 -0.018578497080621779 0.33091123356382868 0 -0.02749858990914332 0.35301881799134821 0 -0.018578497080621779 0.33091123356382868 0 -0.0050552824635438226 0.34569829691311771 0 0.0064742168078369342 0.3347740657525386 0 -0.018578497080621779 0.33091123356382868 0 0.0087281755863181168 0.33049580891976171 0 -0.018578497080621779 0.33091123356382868 0 0.0064742168078369342 0.3347740657525386 0 0.0087281755863181168 0.33049580891976171 0 -0.018578497080621779 0.33091123356382868 0 -0.003280447873963227 0.32161399115684158 0 0.0087281755863181168 0.33049580891976171 0 -0.0088759444352828343 0.31092800175718183 0 -0.018578497080621779 0.33091123356382868 0 -0.003280447873963227 0.32161399115684158 0 -0.0088759444352828343 0.31092800175718183 0 -0.003280447873963227 0.32161399115684158 0 0.0056044744337335906 0.31412092038659428 0 -0.0052616759920083916 0.36132776784546622 0 -0.0045342830833226501 0.3863935686212247 0 -0.0052616759920083916 0.36132776784546622 0 -0.024169526760701381 0.37267007813580277 0 -0.0045342830833226501 0.3863935686212247 0 -0.0052616759920083916 0.36132776784546622 0 -0.0045342830833226501 0.3863935686212247 0 0.0079023355216259559 0.37348921158265391 0 -0.0052616759920083916 0.36132776784546622 0 -0.0050552824635438226 0.34569829691311771 0 0.0061318462344260851 0.35417601161121459 0 -0.0052616759920083916 0.36132776784546622 0 -0.0050552824635438226 0.34569829691311771 0 -0.02749858990914332 0.35301881799134821 0 -0.02749858990914332 0.35301881799134821 0 -0.024169526760701381 0.37267007813580277 0 -0.04149310004589906 0.37124785083274592 0 -0.0052616759920083916 0.36132776784546622 0 -0.02749858990914332 0.35301881799134821 0 -0.024169526760701381 0.37267007813580277 0 -0.02749858990914332 0.35301881799134821 0 -0.04149310004589906 0.37124785083274592 0 -0.051818441616049399 0.35735321764765782 0 -0.045885169747561752 0.33132665820789581 0 -0.02749858990914332 0.35301881799134821 0 -0.051818441616049399 0.35735321764765782 0 -0.045885169747561752 0.33132665820789581 0 -0.051818441616049399 0.35735321764765782 0 -0.067541502003893042 0.3482616942848048 0 -0.04149310004589906 0.37124785083274592 0 -0.051818441616049399 0.35735321764765782 0 -0.056875823715872062 0.37631267096962301 0 -0.051818441616049399 0.35735321764765782 0 -0.069616273344600341 0.3650636543096733 0 -0.056875823715872062 0.37631267096962301 0 -0.069616273344600341 0.3650636543096733 0 -0.085055645225370236 0.37193713089684588 0 -0.071788917171084016 0.3809272333041443 0 -0.069616273344600341 0.3650636543096733 0 -0.071788917171084016 0.3809272333041443 0 -0.056875823715872062 0.37631267096962301 0 -0.069616273344600341 0.3650636543096733 0 -0.085055645225370236 0.37193713089684588 0 -0.084100884505446297 0.3554636863979832 0 -0.085055645225370236 0.37193713089684588 0 -0.084100884505446297 0.3554636863979832 0 -0.1008292236537022 0.36036332390371462 0 -0.084100884505446297 0.3554636863979832 0 -0.067541502003893042 0.3482616942848048 0 -0.085709514220790303 0.34113927750747819 0 -0.084100884505446297 0.3554636863979832 0 -0.085709514220790303 0.34113927750747819 0 -0.099722393067727538 0.34687368244968458 0 -0.069616273344600341 0.3650636543096733 0 -0.084100884505446297 0.3554636863979832 0 -0.067541502003893042 0.3482616942848048 0 -0.051818441616049399 0.35735321764765782 0 -0.069616273344600341 0.3650636543096733 0 -0.067541502003893042 0.3482616942848048 0 -0.067541502003893042 0.3482616942848048 0 -0.073191842414501496 0.33174208285196288 0 -0.085709514220790303 0.34113927750747819 0 -0.058679851530075752 0.32054224196392622 0 -0.073191842414501496 0.33174208285196288 0 -0.074915307566508993 0.31649039264194578 0 -0.054647974243728172 0.30430181459310768 0 -0.058679851530075752 0.32054224196392622 0 -0.074915307566508993 0.31649039264194578 0 -0.073191842414501496 0.33174208285196288 0 -0.074915307566508993 0.31649039264194578 0 -0.095182640889289766 0.32867897069078372 0 -0.090928135519314904 0.31087631578889069 0 -0.074915307566508993 0.31649039264194578 0 -0.095182640889289766 0.32867897069078372 0 -0.074915307566508993 0.31649039264194578 0 -0.095182640889289766 0.32867897069078372 0 -0.073191842414501496 0.33174208285196288 0 -0.085709514220790303 0.34113927750747819 0 -0.095182640889289766 0.32867897069078372 0 -0.085709514220790303 0.34113927750747819 0 -0.095182640889289766 0.32867897069078372 0 -0.099722393067727538 0.34687368244968458 0 -0.095182640889289766 0.32867897069078372 0 -0.1154499742120704 0.34086754873962172 0 -0.095182640889289766 0.32867897069078372 0 -0.1098512680755149 0.32470257897991811 0 -0.1154499742120704 0.34086754873962172 0 -0.095182640889289766 0.32867897069078372 0 -0.1154499742120704 0.34086754873962172 0 -0.099722393067727538 0.34687368244968458 0 -0.1061991548417472 0.31213959050036899 0 -0.090928135519314904 0.31087631578889069 0 -0.095182640889289766 0.32867897069078372 0 -0.1061991548417472 0.31213959050036899 0 -0.095182640889289766 0.32867897069078372 0 -0.1098512680755149 0.32470257897991811 0 -0.1061991548417472 0.31213959050036899 0 -0.115330384384618 0.31728312261503783 0 -0.1098512680755149 0.32470257897991811 0 -0.12136448477009221 0.30951812845445109 0 -0.1061991548417472 0.31213959050036899 0 -0.115330384384618 0.31728312261503783 0 -0.115330384384618 0.31728312261503783 0 -0.1098512680755149 0.32470257897991811 0 -0.12142985306419619 0.32461006626398298 0 -0.12722248981549561 0.3181430308760943 0 -0.115330384384618 0.31728312261503783 0 -0.12142985306419619 0.32461006626398298 0 -0.12722248981549561 0.3181430308760943 0 -0.12136448477009221 0.30951812845445109 0 -0.115330384384618 0.31728312261503783 0 -0.1098512680755149 0.32470257897991811 0 -0.12142985306419619 0.32461006626398298 0 -0.1154499742120704 0.34086754873962172 0 -0.13363790056006589 0.32585743918209531 0 -0.12142985306419619 0.32461006626398298 0 -0.1154499742120704 0.34086754873962172 0 -0.12523428666698541 0.37069662222368049 0 -0.1294360936135257 0.3482770307028879 0 -0.1154159689866658 0.35521970897278921 0 -0.1154499742120704 0.34086754873962172 0 -0.1154159689866658 0.35521970897278921 0 -0.099722393067727538 0.34687368244968458 0 -0.1294360936135257 0.3482770307028879 0 -0.1154499742120704 0.34086754873962172 0 -0.1154159689866658 0.35521970897278921 0 -0.12523428666698541 0.37069662222368049 0 -0.1154159689866658 0.35521970897278921 0 -0.11117961403065831 0.36839673047223442 0 -0.12523428666698541 0.37069662222368049 0 -0.11117961403065831 0.36839673047223442 0 -0.1123930043347208 0.38073562172137532 0 -0.11117961403065831 0.36839673047223442 0 -0.1008292236537022 0.36036332390371462 0 -0.09970079949094271 0.37763208900548878 0 -0.1154159689866658 0.35521970897278921 0 -0.11117961403065831 0.36839673047223442 0 -0.1008292236537022 0.36036332390371462 0 -0.085055645225370236 0.37193713089684588 0 -0.1008292236537022 0.36036332390371462 0 -0.09970079949094271 0.37763208900548878 0 -0.084100884505446297 0.3554636863979832 0 -0.1008292236537022 0.36036332390371462 0 -0.099722393067727538 0.34687368244968458 0 -0.1154159689866658 0.35521970897278921 0 -0.1008292236537022 0.36036332390371462 0 -0.099722393067727538 0.34687368244968458 0 -0.1036554482544351 0.39516830989393792 0 -0.1102807352191843 0.41378788895710661 0 -0.09259379641793411 0.40948313349934218 0 -0.1036554482544351 0.39516830989393792 0 -0.09970079949094271 0.37763208900548878 0 -0.1123930043347208 0.38073562172137532 0 -0.1036554482544351 0.39516830989393792 0 -0.09970079949094271 0.37763208900548878 0 -0.084297773186445962 0.39217279846007119 0 -0.11117961403065831 0.36839673047223442 0 -0.09970079949094271 0.37763208900548878 0 -0.1123930043347208 0.38073562172137532 0 -0.12523428666698541 0.37069662222368049 0 -0.1123930043347208 0.38073562172137532 0 -0.12103247972044499 0.39311621374447298 0 -0.1036554482544351 0.39516830989393792 0 -0.1123930043347208 0.38073562172137532 0 -0.12103247972044499 0.39311621374447298 0 -0.12523428666698541 0.37069662222368049 0 -0.12103247972044499 0.39311621374447298 0 -0.1036554482544351 0.39516830989393792 0 -0.12103247972044499 0.39311621374447298 0 -0.1102807352191843 0.41378788895710661 0 -0.12997925716256209 0.39431640422262348 0 -0.1102807352191843 0.41378788895710661 0 -0.12997925716256209 0.39431640422262348 0 -0.12103247972044499 0.39311621374447298 0 -0.1102807352191843 0.41378788895710661 0 -0.12623023605756489 0.41143854881348008 0 -0.1102807352191843 0.41378788895710661 0 -0.1242188050129694 0.42501783294758849 0 -0.12623023605756489 0.41143854881348008 0 -0.12997925716256209 0.39431640422262348 0 -0.1102807352191843 0.41378788895710661 0 -0.1102807352191843 0.41378788895710661 0 -0.1104760497445479 0.43296770510105842 0 -0.1242188050129694 0.42501783294758849 0 -0.1104760497445479 0.43296770510105842 0 -0.1242188050129694 0.42501783294758849 0 -0.1248743097581413 0.44162978393037222 0 -0.1102807352191843 0.41378788895710661 0 -0.090582213275806372 0.43325937369158968 0 -0.1102807352191843 0.41378788895710661 0 -0.1104760497445479 0.43296770510105842 0 -0.090582213275806372 0.43325937369158968 0 -0.1102807352191843 0.41378788895710661 0 -0.09259379641793411 0.40948313349934218 0 -0.090582213275806372 0.43325937369158968 0 -0.09259379641793411 0.40948313349934218 0 -0.090582213275806372 0.43325937369158968 0 -0.074152812153798875 0.41302729649400538 0 -0.090582213275806372 0.43325937369158968 0 -0.066022972602334681 0.42956105407568013 0 -0.074152812153798875 0.41302729649400538 0 -0.066022972602334681 0.42956105407568013 0 -0.074152812153798875 0.41302729649400538 0 -0.049329429094603867 0.41198700835812702 0 -0.074152812153798875 0.41302729649400538 0 -0.063154715464804681 0.39516467689365731 0 -0.084297773186445962 0.39217279846007119 0 -0.09259379641793411 0.40948313349934218 0 -0.074152812153798875 0.41302729649400538 0 -0.084297773186445962 0.39217279846007119 0 -0.1036554482544351 0.39516830989393792 0 -0.09259379641793411 0.40948313349934218 0 -0.084297773186445962 0.39217279846007119 0 -0.085055645225370236 0.37193713089684588 0 -0.09970079949094271 0.37763208900548878 0 -0.084297773186445962 0.39217279846007119 0 -0.085055645225370236 0.37193713089684588 0 -0.084297773186445962 0.39217279846007119 0 -0.071788917171084016 0.3809272333041443 0 -0.063154715464804681 0.39516467689365731 0 -0.084297773186445962 0.39217279846007119 0 -0.071788917171084016 0.3809272333041443 0 -0.063154715464804681 0.39516467689365731 0 -0.071788917171084016 0.3809272333041443 0 -0.056875823715872062 0.37631267096962301 0 -0.04149310004589906 0.37124785083274592 0 -0.056875823715872062 0.37631267096962301 0 -0.04338349465279491 0.38811939282985902 0 -0.063154715464804681 0.39516467689365731 0 -0.056875823715872062 0.37631267096962301 0 -0.04338349465279491 0.38811939282985902 0 -0.063154715464804681 0.39516467689365731 0 -0.04338349465279491 0.38811939282985902 0 -0.049329429094603867 0.41198700835812702 0 -0.04338349465279491 0.38811939282985902 0 -0.024844401122877391 0.39948633252540261 0 -0.049329429094603867 0.41198700835812702 0 -0.024169526760701381 0.37267007813580277 0 -0.04149310004589906 0.37124785083274592 0 -0.04338349465279491 0.38811939282985902 0 -0.024169526760701381 0.37267007813580277 0 -0.04338349465279491 0.38811939282985902 0 -0.024844401122877391 0.39948633252540261 0 -0.024169526760701381 0.37267007813580277 0 -0.024844401122877391 0.39948633252540261 0 -0.0045342830833226501 0.3863935686212247 0 -0.024844401122877391 0.39948633252540261 0 -0.0045342830833226501 0.3863935686212247 0 -0.0038092142255275289 0.41137928311071797 0 -0.0045342830833226501 0.3863935686212247 0 -0.0038092142255275289 0.41137928311071797 0 -0.024169526760701381 0.37267007813580277 0 -0.0045342830833226501 0.3863935686212247 0 -0.0030841453677343121 0.43636499760021141 0 -0.0038092142255275289 0.41137928311071797 0 -0.026324668085478481 0.42779129271708288 0 -0.0030841453677343121 0.43636499760021141 0 -0.0038092142255275289 0.41137928311071797 0 -0.024844401122877391 0.39948633252540261 0 -0.0038092142255275289 0.41137928311071797 0 -0.026324668085478481 0.42779129271708288 0 -0.026324668085478481 0.42779129271708288 0 -0.049329429094603867 0.41198700835812702 0 -0.049413859365407042 0.43472239834070731 0 -0.024844401122877391 0.39948633252540261 0 -0.026324668085478481 0.42779129271708288 0 -0.049329429094603867 0.41198700835812702 0 -0.074152812153798875 0.41302729649400538 0 -0.063154715464804681 0.39516467689365731 0 -0.049329429094603867 0.41198700835812702 0 -0.066022972602334681 0.42956105407568013 0 -0.049329429094603867 0.41198700835812702 0 -0.049413859365407042 0.43472239834070731 0 -0.066022972602334681 0.42956105407568013 0 -0.049413859365407042 0.43472239834070731 0 -0.0708836913324285 0.45273085842607269 0 -0.0393713920190637 0.45112048084748302 0 -0.052402143273794041 0.47435943831340011 0 -0.0708836913324285 0.45273085842607269 0 -0.049413859365407042 0.43472239834070731 0 -0.0393713920190637 0.45112048084748302 0 -0.0708836913324285 0.45273085842607269 0 -0.0393713920190637 0.45112048084748302 0 -0.02876560419008364 0.47203163756026523 0 -0.052402143273794041 0.47435943831340011 0 -0.026324668085478481 0.42779129271708288 0 -0.049413859365407042 0.43472239834070731 0 -0.0393713920190637 0.45112048084748302 0 -0.0030841453677343121 0.43636499760021141 0 -0.026324668085478481 0.42779129271708288 0 -0.01888650882967766 0.45329231687868837 0 -0.026324668085478481 0.42779129271708288 0 -0.0393713920190637 0.45112048084748302 0 -0.01888650882967766 0.45329231687868837 0 -0.0393713920190637 0.45112048084748302 0 -0.01888650882967766 0.45329231687868837 0 -0.02876560419008364 0.47203163756026523 0 -0.01888650882967766 0.45329231687868837 0 -0.01341416680576474 0.47109478045738301 0 -0.02876560419008364 0.47203163756026523 0 -0.01888650882967766 0.45329231687868837 0 -0.002359076509941094 0.46135071208970457 0 -0.01341416680576474 0.47109478045738301 0 -0.0030841453677343121 0.43636499760021141 0 -0.01888650882967766 0.45329231687868837 0 -0.002359076509941094 0.46135071208970457 0 -0.0030841453677343121 0.43636499760021141 0 -0.002359076509941094 0.46135071208970457 0 -0.0090346539348886701 0.5 0 -0.0016340076521478781 0.48633642657919801 0 -0.017460482120078509 0.48648722646036041 0 -0.0016340076521478781 0.48633642657919801 0 -0.01341416680576474 0.47109478045738301 0 -0.017460482120078509 0.48648722646036041 0 -0.002359076509941094 0.46135071208970457 0 -0.0016340076521478781 0.48633642657919801 0 -0.01341416680576474 0.47109478045738301 0 -0.002359076509941094 0.46135071208970457 0 -0.0016340076521478781 0.48633642657919801 0 -0.002359076509941094 0.46135071208970457 0 -0.0016340076521478781 0.48633642657919801 0 0.0036787250480955699 0.47408322248379448 0 -0.01341416680576474 0.47109478045738301 0 -0.02876560419008364 0.47203163756026523 0 -0.017460482120078509 0.48648722646036041 0 -0.02876560419008364 0.47203163756026523 0 -0.017460482120078509 0.48648722646036041 0 -0.038135422162237087 0.5 0 -0.0090346539348886701 0.5 0 -0.017460482120078509 0.48648722646036041 0 -0.038135422162237087 0.5 0 -0.02876560419008364 0.47203163756026523 0 -0.038135422162237087 0.5 0 -0.052402143273794041 0.47435943831340011 0 -0.038135422162237087 0.5 0 -0.052402143273794041 0.47435943831340011 0 -0.067236190389585393 0.5 0 -0.052402143273794041 0.47435943831340011 0 -0.067236190389585393 0.5 0 -0.073349005429332273 0.47921852398434828 0 -0.067236190389585393 0.5 0 -0.073349005429332273 0.47921852398434828 0 -0.096336958616933588 0.5 0 -0.073349005429332273 0.47921852398434828 0 -0.096336958616933588 0.5 0 -0.093805091172543903 0.47224368257650851 0 -0.052402143273794041 0.47435943831340011 0 -0.073349005429332273 0.47921852398434828 0 -0.0708836913324285 0.45273085842607269 0 -0.0708836913324285 0.45273085842607269 0 -0.1043361340672995 0.45358667135048331 0 -0.093805091172543903 0.47224368257650851 0 -0.090582213275806372 0.43325937369158968 0 -0.0708836913324285 0.45273085842607269 0 -0.1043361340672995 0.45358667135048331 0 -0.090582213275806372 0.43325937369158968 0 -0.066022972602334681 0.42956105407568013 0 -0.0708836913324285 0.45273085842607269 0 -0.090582213275806372 0.43325937369158968 0 -0.0708836913324285 0.45273085842607269 0 -0.073349005429332273 0.47921852398434828 0 -0.0708836913324285 0.45273085842607269 0 -0.093805091172543903 0.47224368257650851 0 -0.1043361340672995 0.45358667135048331 0 -0.12052644250191399 0.4682622397032008 0 -0.093805091172543903 0.47224368257650851 0 -0.1104760497445479 0.43296770510105842 0 -0.090582213275806372 0.43325937369158968 0 -0.1043361340672995 0.45358667135048331 0 -0.12618187852634369 0.45882241462805679 0 -0.1043361340672995 0.45358667135048331 0 -0.1248743097581413 0.44162978393037222 0 -0.1104760497445479 0.43296770510105842 0 -0.1043361340672995 0.45358667135048331 0 -0.1248743097581413 0.44162978393037222 0 -0.12618187852634369 0.45882241462805679 0 -0.1043361340672995 0.45358667135048331 0 -0.12052644250191399 0.4682622397032008 0 -0.1317912103042716 0.47600940211286807 0 -0.12052644250191399 0.4682622397032008 0 -0.11642361318749669 0.48420448820259387 0 -0.12052644250191399 0.4682622397032008 0 -0.11642361318749669 0.48420448820259387 0 -0.093805091172543903 0.47224368257650851 0 -0.12543772684428189 0.5 0 -0.11642361318749669 0.48420448820259387 0 -0.096336958616933588 0.5 0 -0.12543772684428189 0.5 0 -0.13178312884530541 0.48627570230508688 0 -0.11642361318749669 0.48420448820259387 0 -0.11642361318749669 0.48420448820259387 0 -0.096336958616933588 0.5 0 -0.093805091172543903 0.47224368257650851 0 -0.1693268494853358 0.079538523923443544 0 -0.16945340910355561 0.089496265134995978 0 -0.1618062267740645 0.07958177760614682 0 -0.16945340910355561 0.089496265134995978 0 -0.1618062267740645 0.07958177760614682 0 -0.1616157516695074 0.095139316102685473 0 -0.1618062267740645 0.07958177760614682 0 -0.1616157516695074 0.095139316102685473 0 -0.14767322655010931 0.084806545451415583 0 -0.1618062267740645 0.07958177760614682 0 -0.16640070467345031 0.07104807823334372 0 -0.15517576509654349 0.068304766057398533 0 -0.16640070467345031 0.07104807823334372 0 -0.15517576509654349 0.068304766057398533 0 -0.16451238623864939 0.061110077383343737 0 -0.16640070467345031 0.07104807823334372 0 -0.17354141001077031 0.063798093567348918 0 -0.16451238623864939 0.061110077383343737 0 -0.17157411485926041 0.074087910936242465 0 -0.16640070467345031 0.07104807823334372 0 -0.17354141001077031 0.063798093567348918 0 -0.1693268494853358 0.079538523923443544 0 -0.17157411485926041 0.074087910936242465 0 -0.16640070467345031 0.07104807823334372 0 -0.1693268494853358 0.079538523923443544 0 -0.1618062267740645 0.07958177760614682 0 -0.16640070467345031 0.07104807823334372 0 -0.17354141001077031 0.063798093567348918 0 -0.17702749526748529 0.081966948020833708 0 -0.17656426821359539 0.052679136019797047 0 -0.18185637422210199 0.067243003367259677 0 -0.17702749526748529 0.081966948020833708 0 -0.17656426821359539 0.052679136019797047 0 -0.17702749526748529 0.081966948020833708 0 -0.17656426821359539 0.052679136019797047 0 -0.17157411485926041 0.074087910936242465 0 -0.17354141001077031 0.063798093567348918 0 -0.17702749526748529 0.081966948020833708 0 -0.18185637422210199 0.067243003367259677 0 -0.1853153676200878 0.058850167416455039 0 -0.18892740292417859 0.064703221589215376 0 -0.18185637422210199 0.067243003367259677 0 -0.19050021368002351 0.072419239531055349 0 -0.18892740292417859 0.064703221589215376 0 -0.18185637422210199 0.067243003367259677 0 -0.18141962227324601 0.075216957450553817 0 -0.17702749526748529 0.081966948020833708 0 -0.18185637422210199 0.067243003367259677 0 -0.18141962227324601 0.075216957450553817 0 -0.19050021368002351 0.072419239531055349 0 -0.18141962227324601 0.075216957450553817 0 -0.1867192510276118 0.077748512173410014 0 -0.19050021368002351 0.072419239531055349 0 -0.18141962227324601 0.075216957450553817 0 -0.1867192510276118 0.077748512173410014 0 -0.1819129998543452 0.079414551687582866 0 -0.18248563084903771 0.082725789105533951 0 -0.17702749526748529 0.081966948020833708 0 -0.17749072232138041 0.1112547600218704 0 -0.1867192510276118 0.077748512173410014 0 -0.18248563084903771 0.082725789105533951 0 -0.1819129998543452 0.079414551687582866 0 -0.18141962227324601 0.075216957450553817 0 -0.1819129998543452 0.079414551687582866 0 -0.17702749526748529 0.081966948020833708 0 -0.18248563084903771 0.082725789105533951 0 -0.1819129998543452 0.079414551687582866 0 -0.17702749526748529 0.081966948020833708 0 -0.1693268494853358 0.079538523923443544 0 -0.16945340910355561 0.089496265134995978 0 -0.17702749526748529 0.081966948020833708 0 -0.1693268494853358 0.079538523923443544 0 -0.17157411485926041 0.074087910936242465 0 -0.17702749526748529 0.081966948020833708 0 -0.17702749526748529 0.081966948020833708 0 -0.17749072232138041 0.1112547600218704 0 -0.16945340910355561 0.089496265134995978 0 -0.17702749526748529 0.081966948020833708 0 -0.17749072232138041 0.1112547600218704 0 -0.17749072232138041 0.1112547600218704 0 -0.1951643137470572 0.093770439387570487 0 -0.18248563084903771 0.082725789105533951 0 -0.17749072232138041 0.1112547600218704 0 -0.1951643137470572 0.093770439387570487 0 -0.17749072232138041 0.1112547600218704 0 -0.19150979458678249 0.1243728737611647 0 -0.17789558253256721 0.1368522929207025 0 -0.17749072232138041 0.1112547600218704 0 -0.17789558253256721 0.1368522929207025 0 -0.17749072232138041 0.1112547600218704 0 -0.16113979031376621 0.12743058591966341 0 -0.17749072232138041 0.1112547600218704 0 -0.15084139672814201 0.110160429760413 0 -0.16113979031376621 0.12743058591966341 0 -0.17749072232138041 0.1112547600218704 0 -0.1616157516695074 0.095139316102685473 0 -0.15084139672814201 0.110160429760413 0 -0.16945340910355561 0.089496265134995978 0 -0.17749072232138041 0.1112547600218704 0 -0.1616157516695074 0.095139316102685473 0 -0.1616157516695074 0.095139316102685473 0 -0.15084139672814201 0.110160429760413 0 -0.14767322655010931 0.084806545451415583 0 -0.15084139672814201 0.110160429760413 0 -0.1348328660863515 0.097215266237156234 0 -0.14767322655010931 0.084806545451415583 0 -0.15084139672814201 0.110160429760413 0 -0.13137241316615089 0.11357835761918721 0 -0.14300315410871919 0.1253406317882016 0 -0.15084139672814201 0.110160429760413 0 -0.16113979031376621 0.12743058591966341 0 -0.14300315410871919 0.1253406317882016 0 -0.13137241316615089 0.11357835761918721 0 -0.14300315410871919 0.1253406317882016 0 -0.12687331202938101 0.13192737382428379 0 -0.13137241316615089 0.11357835761918721 0 -0.1348328660863515 0.097215266237156234 0 -0.1198812247159142 0.095002477965890675 0 -0.15084139672814201 0.110160429760413 0 -0.13137241316615089 0.11357835761918721 0 -0.1348328660863515 0.097215266237156234 0 -0.1348328660863515 0.097215266237156234 0 -0.12533951967512769 0.078274991835817334 0 -0.1198812247159142 0.095002477965890675 0 -0.1348328660863515 0.097215266237156234 0 -0.12533951967512769 0.078274991835817334 0 -0.14767322655010931 0.084806545451415583 0 -0.1618062267740645 0.07958177760614682 0 -0.14767322655010931 0.084806545451415583 0 -0.15517576509654349 0.068304766057398533 0 -0.14767322655010931 0.084806545451415583 0 -0.15517576509654349 0.068304766057398533 0 -0.14001017723872511 0.063978020277280875 0 -0.12533951967512769 0.078274991835817334 0 -0.14767322655010931 0.084806545451415583 0 -0.14001017723872511 0.063978020277280875 0 -0.12533951967512769 0.078274991835817334 0 -0.14001017723872511 0.063978020277280875 0 -0.1248745965026067 0.059896082918310993 0 -0.14001017723872511 0.063978020277280875 0 -0.13626681081840961 0.042829268155062397 0 -0.1248745965026067 0.059896082918310993 0 -0.13626681081840961 0.042829268155062397 0 -0.1339340902388827 0.022300844741854581 0 -0.1180188049733784 0.030804183747700629 0 -0.13626681081840961 0.042829268155062397 0 -0.1339340902388827 0.022300844741854581 0 -0.15968783393996419 0.037567277286728401 0 -0.13626681081840961 0.042829268155062397 0 -0.15351002702878311 0.053877414325468623 0 -0.15968783393996419 0.037567277286728401 0 -0.13626681081840961 0.042829268155062397 0 -0.15968783393996419 0.037567277286728401 0 -0.14001017723872511 0.063978020277280875 0 -0.13626681081840961 0.042829268155062397 0 -0.15351002702878311 0.053877414325468623 0 -0.15517576509654349 0.068304766057398533 0 -0.14001017723872511 0.063978020277280875 0 -0.15351002702878311 0.053877414325468623 0 -0.12735709500343681 0.004015926865657337 0 -0.15177498865293759 0.016606981474429749 0 -0.12735709500343681 0.004015926865657337 0 -0.1339340902388827 0.022300844741854581 0 -0.15177498865293759 0.016606981474429749 0 -0.12735709500343681 0.004015926865657337 0 -0.1339340902388827 0.022300844741854581 0 -0.11835839359799651 0.016938700943610479 0 -0.1339340902388827 0.022300844741854581 0 -0.15177498865293759 0.016606981474429749 0 -0.15968783393996419 0.037567277286728401 0 -0.1339340902388827 0.022300844741854581 0 -0.15968783393996419 0.037567277286728401 0 -0.12735709500343681 0.004015926865657337 0 -0.15177498865293759 0.016606981474429749 0 -0.14801408494475049 0.0031182785745780331 0 -0.15177498865293759 0.016606981474429749 0 -0.14801408494475049 0.0031182785745780331 0 -0.1619193683370386 0.0066468078375689294 0 -0.15773416148281841 -0.0035868741371463562 0 -0.14801408494475049 0.0031182785745780331 0 -0.1619193683370386 0.0066468078375689294 0 -0.15177498865293759 0.016606981474429749 0 -0.1619193683370386 0.0066468078375689294 0 -0.16760309597538539 0.015861310899326669 0 -0.16716832075785379 -0.0032078365625175 0 -0.1619193683370386 0.0066468078375689294 0 -0.17584419881677341 0.0071523107965592754 0 -0.1619193683370386 0.0066468078375689294 0 -0.16760309597538539 0.015861310899326669 0 -0.17584419881677341 0.0071523107965592754 0 -0.15177498865293759 0.016606981474429749 0 -0.17619288230243149 0.029198036083215671 0 -0.15177498865293759 0.016606981474429749 0 -0.17619288230243149 0.029198036083215671 0 -0.15968783393996419 0.037567277286728401 0 -0.15177498865293759 0.016606981474429749 0 -0.16760309597538539 0.015861310899326669 0 -0.17619288230243149 0.029198036083215671 0 -0.17619288230243149 0.029198036083215671 0 -0.1852069371874478 0.015311100034367831 0 -0.17584419881677341 0.0071523107965592754 0 -0.17619288230243149 0.029198036083215671 0 -0.17584419881677341 0.0071523107965592754 0 -0.16760309597538539 0.015861310899326669 0 -0.17619288230243149 0.029198036083215671 0 -0.17584419881677341 0.0071523107965592754 0 -0.17619288230243149 0.029198036083215671 0 -0.19572946351785711 0.039272048382664133 0 -0.19029700863621521 0.024089069561314659 0 -0.17619288230243149 0.029198036083215671 0 -0.1852069371874478 0.015311100034367831 0 -0.19029700863621521 0.024089069561314659 0 -0.1852069371874478 0.015311100034367831 0 -0.18717715497560061 0.0062623078557712403 0 -0.17584419881677341 0.0071523107965592754 0 -0.18154179604087481 -0.0036104187285780349 0 -0.18717715497560061 0.0062623078557712403 0 -0.17584419881677341 0.0071523107965592754 0 -0.15351002702878311 0.053877414325468623 0 -0.1659033968134131 0.050269055427132232 0 -0.15968783393996419 0.037567277286728401 0 -0.1659033968134131 0.050269055427132232 0 -0.16451238623864939 0.061110077383343737 0 -0.17656426821359539 0.052679136019797047 0 -0.17354141001077031 0.063798093567348918 0 -0.16451238623864939 0.061110077383343737 0 -0.17656426821359539 0.052679136019797047 0 -0.16451238623864939 0.061110077383343737 0 -0.17656426821359539 0.052679136019797047 0 -0.15351002702878311 0.053877414325468623 0 -0.1659033968134131 0.050269055427132232 0 -0.16451238623864939 0.061110077383343737 0 -0.15517576509654349 0.068304766057398533 0 -0.15351002702878311 0.053877414325468623 0 -0.16451238623864939 0.061110077383343737 0 -0.15968783393996419 0.037567277286728401 0 -0.1762663423330757 0.033842591165095401 0 -0.1659033968134131 0.050269055427132232 0 -0.15968783393996419 0.037567277286728401 0 -0.1764827173319595 0.047523031967639129 0 -0.17619288230243149 0.029198036083215671 0 -0.15968783393996419 0.037567277286728401 0 -0.1762663423330757 0.033842591165095401 0 -0.15968783393996419 0.037567277286728401 0 -0.1764827173319595 0.047523031967639129 0 -0.15968783393996419 0.037567277286728401 0 -0.1762663423330757 0.033842591165095401 0 -0.1764827173319595 0.047523031967639129 0 -0.17619288230243149 0.029198036083215671 0 -0.19572946351785711 0.039272048382664133 0 -0.181281627628781 0.040827380692469641 0 -0.18051660755046151 0.049914261515807259 0 -0.1764827173319595 0.047523031967639129 0 -0.17619288230243149 0.029198036083215671 0 -0.1762663423330757 0.033842591165095401 0 -0.19572946351785711 0.039272048382664133 0 -0.1762663423330757 0.033842591165095401 0 -0.181281627628781 0.040827380692469641 0 -0.19572946351785711 0.039272048382664133 0 -0.1762663423330757 0.033842591165095401 0 -0.181281627628781 0.040827380692469641 0 -0.1764827173319595 0.047523031967639129 0 -0.1762663423330757 0.033842591165095401 0 -0.1764827173319595 0.047523031967639129 0 -0.17619288230243149 0.029198036083215671 0 -0.1762663423330757 0.033842591165095401 0 -0.181281627628781 0.040827380692469641 0 -0.18051660755046151 0.049914261515807259 0 -0.19572946351785711 0.039272048382664133 0 -0.18051660755046151 0.049914261515807259 0 -0.17656426821359539 0.052679136019797047 0 -0.1853153676200878 0.058850167416455039 0 -0.18051660755046151 0.049914261515807259 0 -0.1764827173319595 0.047523031967639129 0 -0.1764827173319595 0.047523031967639129 0 -0.17656426821359539 0.052679136019797047 0 -0.1659033968134131 0.050269055427132232 0 -0.1764827173319595 0.047523031967639129 0 -0.17656426821359539 0.052679136019797047 0 -0.18051660755046151 0.049914261515807259 0 -0.1764827173319595 0.047523031967639129 0 -0.17656426821359539 0.052679136019797047 0 -0.18051660755046151 0.049914261515807259 0 -0.17656426821359539 0.052679136019797047 0 -0.18185637422210199 0.067243003367259677 0 -0.17656426821359539 0.052679136019797047 0 -0.1853153676200878 0.058850167416455039 0 -0.1853153676200878 0.058850167416455039 0 -0.19803765617450109 0.060300476042091433 0 -0.18892740292417859 0.064703221589215376 0 -0.18051660755046151 0.049914261515807259 0 -0.19803765617450109 0.060300476042091433 0 -0.1977866825790292 0.05007637869738242 0 -0.18051660755046151 0.049914261515807259 0 -0.1853153676200878 0.058850167416455039 0 -0.19803765617450109 0.060300476042091433 0 -0.18051660755046151 0.049914261515807259 0 -0.19803765617450109 0.060300476042091433 0 -0.19803765617450109 0.060300476042091433 0 -0.1977866825790292 0.05007637869738242 0 -0.2066297839190599 0.054855205218219752 0 -0.18051660755046151 0.049914261515807259 0 -0.1977866825790292 0.05007637869738242 0 -0.19572946351785711 0.039272048382664133 0 -0.18051660755046151 0.049914261515807259 0 -0.19572946351785711 0.039272048382664133 0 -0.19572946351785711 0.039272048382664133 0 -0.2098237389609823 0.029412342647955388 0 -0.1977866825790292 0.05007637869738242 0 -0.19572946351785711 0.039272048382664133 0 -0.2073344650466164 0.045256152092875389 0 -0.19572946351785711 0.039272048382664133 0 -0.2073344650466164 0.045256152092875389 0 -0.2073344650466164 0.045256152092875389 0 -0.21702036639386221 0.038769314305699548 0 -0.2098237389609823 0.029412342647955388 0 -0.19572946351785711 0.039272048382664133 0 -0.2073344650466164 0.045256152092875389 0 -0.2098237389609823 0.029412342647955388 0 -0.21702036639386221 0.038769314305699548 0 -0.2098237389609823 0.029412342647955388 0 -0.2284051488343061 0.035137669629428533 0 -0.2073344650466164 0.045256152092875389 0 -0.21702036639386221 0.038769314305699548 0 -0.22251811273354419 0.045271092852538893 0 -0.2073344650466164 0.045256152092875389 0 -0.21769334509658461 0.055951218203848879 0 -0.22251811273354419 0.045271092852538893 0 -0.21769334509658461 0.055951218203848879 0 -0.20947987249717179 0.060448397508133619 0 -0.2066297839190599 0.054855205218219752 0 -0.21769334509658461 0.055951218203848879 0 -0.20947987249717179 0.060448397508133619 0 -0.2155587047985415 0.070686690568374386 0 -0.19803765617450109 0.060300476042091433 0 -0.20947987249717179 0.060448397508133619 0 -0.2066297839190599 0.054855205218219752 0 -0.1977866825790292 0.05007637869738242 0 -0.2073344650466164 0.045256152092875389 0 -0.2066297839190599 0.054855205218219752 0 -0.2073344650466164 0.045256152092875389 0 -0.21769334509658461 0.055951218203848879 0 -0.2066297839190599 0.054855205218219752 0 -0.1989264366345522 -0.0080023544535597537 0 -0.1965234412062255 0.0098537758749781944 0 -0.20713549204565579 6.5395444916274768e-05 0 -0.19066530249761049 -0.0041303576494283751 0 -0.18717715497560061 0.0062623078557712403 0 -0.1965234412062255 0.0098537758749781944 0 -0.1852069371874478 0.015311100034367831 0 -0.18717715497560061 0.0062623078557712403 0 -0.1965234412062255 0.0098537758749781944 0 -0.1965234412062255 0.0098537758749781944 0 -0.20113962024173071 0.02227838771243261 0 -0.2107847094499361 0.011405203725301251 0 -0.19572946351785711 0.039272048382664133 0 -0.20113962024173071 0.02227838771243261 0 -0.2098237389609823 0.029412342647955388 0 -0.19572946351785711 0.039272048382664133 0 -0.20113962024173071 0.02227838771243261 0 -0.19029700863621521 0.024089069561314659 0 -0.1965234412062255 0.0098537758749781944 0 -0.20113962024173071 0.02227838771243261 0 -0.19029700863621521 0.024089069561314659 0 -0.1852069371874478 0.015311100034367831 0 -0.1965234412062255 0.0098537758749781944 0 -0.19029700863621521 0.024089069561314659 0 -0.2098237389609823 0.029412342647955388 0 -0.2107847094499361 0.011405203725301251 0 -0.22391801440410891 0.019552636913248388 0 -0.20113962024173071 0.02227838771243261 0 -0.2098237389609823 0.029412342647955388 0 -0.2107847094499361 0.011405203725301251 0 -0.2098237389609823 0.029412342647955388 0 -0.22391801440410891 0.019552636913248388 0 -0.21702438745170211 -0.0043907958627755336 0 -0.2107847094499361 0.011405203725301251 0 -0.20713549204565579 6.5395444916274768e-05 0 -0.21702438745170211 -0.0043907958627755336 0 -0.2107847094499361 0.011405203725301251 0 -0.22391801440410891 0.019552636913248388 0 -0.1965234412062255 0.0098537758749781944 0 -0.2107847094499361 0.011405203725301251 0 -0.20713549204565579 6.5395444916274768e-05 0 -0.22867745033346079 0.0038692188645070222 0 -0.22391801440410891 0.019552636913248388 0 -0.2344599051246074 0.012178015861532989 0 -0.21702438745170211 -0.0043907958627755336 0 -0.22391801440410891 0.019552636913248388 0 -0.21702438745170211 -0.0043907958627755336 0 -0.22867745033346079 0.0038692188645070222 0 -0.22391801440410891 0.019552636913248388 0 -0.22391801440410891 0.019552636913248388 0 -0.2403792472176362 0.02548084658656756 0 -0.2344599051246074 0.012178015861532989 0 -0.2098237389609823 0.029412342647955388 0 -0.22391801440410891 0.019552636913248388 0 -0.2284051488343061 0.035137669629428533 0 -0.22391801440410891 0.019552636913248388 0 -0.2403792472176362 0.02548084658656756 0 -0.2284051488343061 0.035137669629428533 0 -0.22391801440410891 0.019552636913248388 0 -0.2344599051246074 0.012178015861532989 0 -0.22391801440410891 0.019552636913248388 0 -0.2284051488343061 0.035137669629428533 0 -0.2522816967992324 0.037264740289820159 0 -0.25157722050270093 0.012682655753942951 0 -0.2403792472176362 0.02548084658656756 0 -0.25157722050270093 0.012682655753942951 0 -0.2403792472176362 0.02548084658656756 0 -0.2344599051246074 0.012178015861532989 0 -0.25267499080189931 -0.0034516002120552492 0 -0.25157722050270093 0.012682655753942951 0 -0.2401015516947359 0.00075261550232862703 0 -0.25157722050270093 0.012682655753942951 0 -0.2344599051246074 0.012178015861532989 0 -0.2401015516947359 0.00075261550232862703 0 -0.22867745033346079 0.0038692188645070222 0 -0.2344599051246074 0.012178015861532989 0 -0.2401015516947359 0.00075261550232862703 0 -0.21769334509658461 0.055951218203848879 0 -0.23255980098598539 0.056775429521547523 0 -0.2155587047985415 0.070686690568374386 0 -0.23289228326450309 0.050722702345608793 0 -0.22641588552015429 0.052180110730886013 0 -0.22251811273354419 0.045271092852538893 0 -0.23289228326450309 0.050722702345608793 0 -0.23255980098598539 0.056775429521547523 0 -0.22641588552015429 0.052180110730886013 0 -0.21769334509658461 0.055951218203848879 0 -0.23255980098598539 0.056775429521547523 0 -0.22641588552015429 0.052180110730886013 0 -0.21769334509658461 0.055951218203848879 0 -0.22641588552015429 0.052180110730886013 0 -0.22251811273354419 0.045271092852538893 0 -0.21702036639386221 0.038769314305699548 0 -0.22251811273354419 0.045271092852538893 0 -0.2284051488343061 0.035137669629428533 0 -0.23289228326450309 0.050722702345608793 0 -0.22251811273354419 0.045271092852538893 0 -0.2284051488343061 0.035137669629428533 0 -0.23289228326450309 0.050722702345608793 0 -0.2284051488343061 0.035137669629428533 0 -0.2522816967992324 0.037264740289820159 0 -0.2403792472176362 0.02548084658656756 0 -0.2284051488343061 0.035137669629428533 0 -0.2522816967992324 0.037264740289820159 0 -0.23289228326450309 0.050722702345608793 0 -0.2284051488343061 0.035137669629428533 0 -0.2522816967992324 0.037264740289820159 0 -0.23289228326450309 0.050722702345608793 0 -0.23255980098598539 0.056775429521547523 0 -0.2522816967992324 0.037264740289820159 0 -0.23255980098598539 0.056775429521547523 0 -0.2522816967992324 0.037264740289820159 0 -0.23255980098598539 0.056775429521547523 0 -0.24906194248509719 0.058488871325365822 0 -0.23255980098598539 0.056775429521547523 0 -0.24906194248509719 0.058488871325365822 0 -0.23770452364983391 0.071010308971772351 0 -0.26257114212692878 0.06573449919026883 0 -0.24906194248509719 0.058488871325365822 0 -0.23770452364983391 0.071010308971772351 0 -0.25261226255175379 0.080423606239198905 0 -0.23770452364983391 0.071010308971772351 0 -0.23158356521460469 0.085326977986282804 0 -0.25261226255175379 0.080423606239198905 0 -0.23158356521460469 0.085326977986282804 0 -0.24377998071086901 0.096378574065869249 0 -0.23158356521460469 0.085326977986282804 0 -0.21283790517273879 0.076286118753275345 0 -0.22135706029896429 0.097751395037259853 0 -0.23158356521460469 0.085326977986282804 0 -0.22135706029896429 0.097751395037259853 0 -0.24377998071086901 0.096378574065869249 0 -0.23255980098598539 0.056775429521547523 0 -0.21283790517273879 0.076286118753275345 0 -0.23770452364983391 0.071010308971772351 0 -0.23158356521460469 0.085326977986282804 0 -0.21283790517273879 0.076286118753275345 0 -0.23255980098598539 0.056775429521547523 0 -0.23770452364983391 0.071010308971772351 0 -0.21283790517273879 0.076286118753275345 0 -0.23255980098598539 0.056775429521547523 0 -0.21283790517273879 0.076286118753275345 0 -0.2155587047985415 0.070686690568374386 0 -0.23770452364983391 0.071010308971772351 0 -0.21283790517273879 0.076286118753275345 0 -0.19803765617450109 0.060300476042091433 0 -0.20947987249717179 0.060448397508133619 0 -0.2155587047985415 0.070686690568374386 0 -0.19803765617450109 0.060300476042091433 0 -0.20333782300263301 0.070680183335342567 0 -0.2155587047985415 0.070686690568374386 0 -0.19803765617450109 0.060300476042091433 0 -0.2155587047985415 0.070686690568374386 0 -0.21283790517273879 0.076286118753275345 0 -0.19766176801088831 0.079505953929404904 0 -0.20333782300263301 0.070680183335342567 0 -0.21283790517273879 0.076286118753275345 0 -0.19766176801088831 0.079505953929404904 0 -0.20333782300263301 0.070680183335342567 0 -0.21283790517273879 0.076286118753275345 0 -0.2155587047985415 0.070686690568374386 0 -0.21283790517273879 0.076286118753275345 0 -0.1951643137470572 0.093770439387570487 0 -0.22135706029896429 0.097751395037259853 0 -0.21283790517273879 0.076286118753275345 0 -0.1951643137470572 0.093770439387570487 0 -0.21283790517273879 0.076286118753275345 0 -0.19766176801088831 0.079505953929404904 0 -0.1951643137470572 0.093770439387570487 0 -0.18248563084903771 0.082725789105533951 0 -0.19766176801088831 0.079505953929404904 0 -0.1951643137470572 0.093770439387570487 0 -0.1867192510276118 0.077748512173410014 0 -0.18248563084903771 0.082725789105533951 0 -0.19766176801088831 0.079505953929404904 0 -0.18248563084903771 0.082725789105533951 0 -0.19766176801088831 0.079505953929404904 0 -0.1867192510276118 0.077748512173410014 0 -0.19766176801088831 0.079505953929404904 0 -0.19050021368002351 0.072419239531055349 0 -0.19803765617450109 0.060300476042091433 0 -0.19050021368002351 0.072419239531055349 0 -0.18892740292417859 0.064703221589215376 0 -0.19803765617450109 0.060300476042091433 0 -0.20333782300263301 0.070680183335342567 0 -0.19050021368002351 0.072419239531055349 0 -0.20333782300263301 0.070680183335342567 0 -0.19766176801088831 0.079505953929404904 0 -0.19050021368002351 0.072419239531055349 0 -0.17749072232138041 0.1112547600218704 0 -0.19150979458678249 0.1243728737611647 0 -0.1951643137470572 0.093770439387570487 0 -0.19150979458678249 0.1243728737611647 0 -0.1951643137470572 0.093770439387570487 0 -0.20994497012605751 0.11823125198409511 0 -0.1951643137470572 0.093770439387570487 0 -0.20994497012605751 0.11823125198409511 0 -0.22135706029896429 0.097751395037259853 0 -0.20994497012605751 0.11823125198409511 0 -0.2348316268224595 0.11651500804646669 0 -0.2235388627286797 0.12965651036182041 0 -0.20994497012605751 0.11823125198409511 0 -0.22135706029896429 0.097751395037259853 0 -0.2348316268224595 0.11651500804646669 0 -0.22135706029896429 0.097751395037259853 0 -0.24377998071086901 0.096378574065869249 0 -0.2348316268224595 0.11651500804646669 0 -0.25136603029008331 0.1103208693098497 0 -0.24377998071086901 0.096378574065869249 0 -0.2348316268224595 0.11651500804646669 0 -0.25922316449870308 0.12628093809151891 0 -0.25136603029008331 0.1103208693098497 0 -0.2348316268224595 0.11651500804646669 0 -0.25922316449870308 0.12628093809151891 0 -0.2348316268224595 0.11651500804646669 0 -0.2369615480924761 0.1404602413506009 0 -0.2369615480924761 0.1404602413506009 0 -0.2235388627286797 0.12965651036182041 0 -0.2124173058737257 0.14341954006611901 0 -0.2348316268224595 0.11651500804646669 0 -0.2369615480924761 0.1404602413506009 0 -0.2235388627286797 0.12965651036182041 0 -0.2369615480924761 0.1404602413506009 0 -0.22679867445049531 0.16064067306310431 0 -0.2124173058737257 0.14341954006611901 0 -0.2369615480924761 0.1404602413506009 0 -0.247018622616726 0.15992587597476091 0 -0.22679867445049531 0.16064067306310431 0 -0.25846103874104392 0.14702121199507179 0 -0.2369615480924761 0.1404602413506009 0 -0.247018622616726 0.15992587597476091 0 -0.247018622616726 0.15992587597476091 0 -0.23359887481107691 0.1809086922627815 0 -0.247018622616726 0.15992587597476091 0 -0.23359887481107691 0.1809086922627815 0 -0.22679867445049531 0.16064067306310431 0 -0.26439180367967152 0.18225540552070321 0 -0.247018622616726 0.15992587597476091 0 -0.23359887481107691 0.1809086922627815 0 -0.23359887481107691 0.1809086922627815 0 -0.20517995294037331 0.17379218369948349 0 -0.2201791270054278 0.2018915085508021 0 -0.23359887481107691 0.1809086922627815 0 -0.22679867445049531 0.16064067306310431 0 -0.20517995294037331 0.17379218369948349 0 -0.22679867445049531 0.16064067306310431 0 -0.20517995294037331 0.17379218369948349 0 -0.2124173058737257 0.14341954006611901 0 -0.20517995294037331 0.17379218369948349 0 -0.19274338499996449 0.14807478539393409 0 -0.17830044274374979 0.16244982581953471 0 -0.19150979458678249 0.1243728737611647 0 -0.19274338499996449 0.14807478539393409 0 -0.2124173058737257 0.14341954006611901 0 -0.20994497012605751 0.11823125198409511 0 -0.2235388627286797 0.12965651036182041 0 -0.2124173058737257 0.14341954006611901 0 -0.19150979458678249 0.1243728737611647 0 -0.20994497012605751 0.11823125198409511 0 -0.2124173058737257 0.14341954006611901 0 -0.20517995294037331 0.17379218369948349 0 -0.19274338499996449 0.14807478539393409 0 -0.2124173058737257 0.14341954006611901 0 -0.22371849106378741 0.2462845034026982 0 -0.23019370483249479 0.22382880503591951 0 -0.2066863838603582 0.24242880758937649 0 -0.22371849106378741 0.2462845034026982 0 -0.23951274761537589 0.2474853768326048 0 -0.23019370483249479 0.22382880503591951 0 -0.25272375818517617 0.22994970808158929 0 -0.25621817608628389 0.2460965770837312 0 -0.23951274761537589 0.2474853768326048 0 -0.25370102580463139 0.2052288024824625 0 -0.25272375818517617 0.22994970808158929 0 -0.23019370483249479 0.22382880503591951 0 -0.25272375818517617 0.22994970808158929 0 -0.23951274761537589 0.2474853768326048 0 -0.23019370483249479 0.22382880503591951 0 -0.25370102580463139 0.2052288024824625 0 -0.23359887481107691 0.1809086922627815 0 -0.2201791270054278 0.2018915085508021 0 -0.25370102580463139 0.2052288024824625 0 -0.23019370483249479 0.22382880503591951 0 -0.2201791270054278 0.2018915085508021 0 -0.23019370483249479 0.22382880503591951 0 -0.2201791270054278 0.2018915085508021 0 -0.20675937919977869 0.22287432483882261 0 -0.25370102580463139 0.2052288024824625 0 -0.23019370483249479 0.22382880503591951 0 -0.23359887481107691 0.1809086922627815 0 -0.2201791270054278 0.2018915085508021 0 -0.20517995294037331 0.17379218369948349 0 -0.2201791270054278 0.2018915085508021 0 -0.19686056424972551 0.20437535499954981 0 -0.20517995294037331 0.17379218369948349 0 -0.19686056424972551 0.20437535499954981 0 -0.17870530295493239 0.18804735871836689 0 -0.19686056424972551 0.20437535499954981 0 -0.20675937919977869 0.22287432483882261 0 -0.19122946023172571 0.22600186257262461 0 -0.19686056424972551 0.20437535499954981 0 -0.19122946023172571 0.22600186257262461 0 -0.179110163166115 0.21364489161719899 0 -0.2201791270054278 0.2018915085508021 0 -0.19686056424972551 0.20437535499954981 0 -0.20675937919977869 0.22287432483882261 0 -0.2201791270054278 0.2018915085508021 0 -0.20675937919977869 0.22287432483882261 0 -0.23019370483249479 0.22382880503591951 0 -0.2066863838603582 0.24242880758937649 0 -0.23019370483249479 0.22382880503591951 0 -0.20675937919977869 0.22287432483882261 0 -0.2066863838603582 0.24242880758937649 0 -0.20675937919977869 0.22287432483882261 0 -0.19333963139412971 0.24385714112684301 0 -0.20675937919977869 0.22287432483882261 0 -0.19122946023172571 0.22600186257262461 0 -0.19333963139412971 0.24385714112684301 0 -0.19122946023172571 0.22600186257262461 0 -0.19333963139412971 0.24385714112684301 0 -0.17951502337729761 0.2392424245160312 0 -0.20675937919977869 0.22287432483882261 0 -0.19333963139412971 0.24385714112684301 0 -0.2066863838603582 0.24242880758937649 0 -0.18259587964237009 0.2606558300825601 0 -0.19333963139412971 0.24385714112684301 0 -0.2066863838603582 0.24242880758937649 0 -0.21408768962570049 0.25938306782852782 0 -0.22371849106378741 0.2462845034026982 0 -0.2066863838603582 0.24242880758937649 0 -0.1532221513837192 0.25419418888983192 0 -0.17951502337729761 0.2392424245160312 0 -0.15110003921584569 0.22881829817408891 0 -0.18259587964237009 0.2606558300825601 0 -0.19333963139412971 0.24385714112684301 0 -0.17951502337729761 0.2392424245160312 0 -0.17951502337729761 0.2392424245160312 0 -0.1619547442009632 0.2162214427956837 0 -0.179110163166115 0.21364489161719899 0 -0.19122946023172571 0.22600186257262461 0 -0.17951502337729761 0.2392424245160312 0 -0.179110163166115 0.21364489161719899 0 -0.17951502337729761 0.2392424245160312 0 -0.179110163166115 0.21364489161719899 0 -0.17951502337729761 0.2392424245160312 0 -0.1619547442009632 0.2162214427956837 0 -0.15110003921584569 0.22881829817408891 0 -0.1619547442009632 0.2162214427956837 0 -0.179110163166115 0.21364489161719899 0 -0.17870530295493239 0.18804735871836689 0 -0.19686056424972551 0.20437535499954981 0 -0.179110163166115 0.21364489161719899 0 -0.17870530295493239 0.18804735871836689 0 -0.179110163166115 0.21364489161719899 0 -0.17870530295493239 0.18804735871836689 0 -0.1619547442009632 0.2162214427956837 0 -0.17870530295493239 0.18804735871836689 0 -0.15775407484820861 0.18727827749961631 0 -0.14804225966403101 0.20585853828705919 0 -0.15775407484820861 0.18727827749961631 0 -0.13876353146598761 0.18223131465273959 0 -0.1619547442009632 0.2162214427956837 0 -0.14804225966403101 0.20585853828705919 0 -0.15775407484820861 0.18727827749961631 0 -0.13876353146598761 0.18223131465273959 0 -0.1245765098090509 0.17966052017845999 0 -0.1190175871807343 0.20067046473278771 0 -0.14804225966403101 0.20585853828705919 0 -0.13876353146598761 0.18223131465273959 0 -0.1190175871807343 0.20067046473278771 0 -0.14804225966403101 0.20585853828705919 0 -0.13479108425045189 0.2189379304695287 0 -0.1190175871807343 0.20067046473278771 0 -0.13479108425045189 0.2189379304695287 0 -0.12594818007053379 0.2253828658525201 0 -0.1190175871807343 0.20067046473278771 0 -0.1619547442009632 0.2162214427956837 0 -0.14804225966403101 0.20585853828705919 0 -0.15110003921584569 0.22881829817408891 0 -0.14804225966403101 0.20585853828705919 0 -0.15110003921584569 0.22881829817408891 0 -0.13479108425045189 0.2189379304695287 0 -0.15110003921584569 0.22881829817408891 0 -0.13479108425045189 0.2189379304695287 0 -0.1378537507735782 0.22769286600650679 0 -0.15110003921584569 0.22881829817408891 0 -0.1378537507735782 0.22769286600650679 0 -0.13827307027013019 0.2362506378269415 0 -0.13479108425045189 0.2189379304695287 0 -0.12594818007053379 0.2253828658525201 0 -0.1378537507735782 0.22769286600650679 0 -0.12594818007053379 0.2253828658525201 0 -0.1378537507735782 0.22769286600650679 0 -0.13827307027013019 0.2362506378269415 0 -0.12594818007053379 0.2253828658525201 0 -0.13827307027013019 0.2362506378269415 0 -0.1327712538659816 0.24971188635390451 0 -0.12594818007053379 0.2253828658525201 0 -0.1327712538659816 0.24971188635390451 0 -0.1532221513837192 0.25419418888983192 0 -0.15110003921584569 0.22881829817408891 0 -0.13827307027013019 0.2362506378269415 0 -0.1532221513837192 0.25419418888983192 0 -0.13827307027013019 0.2362506378269415 0 -0.1327712538659816 0.24971188635390451 0 -0.16317411874061041 0.14897554401654969 0 -0.16113979031376621 0.12743058591966341 0 -0.1447888583061562 0.1436064118174607 0 -0.16317411874061041 0.14897554401654969 0 -0.16113979031376621 0.12743058591966341 0 -0.17789558253256721 0.1368522929207025 0 -0.17749072232138041 0.1112547600218704 0 -0.16113979031376621 0.12743058591966341 0 -0.17789558253256721 0.1368522929207025 0 -0.19150979458678249 0.1243728737611647 0 -0.19274338499996449 0.14807478539393409 0 -0.17789558253256721 0.1368522929207025 0 -0.16317411874061041 0.14897554401654969 0 -0.17789558253256721 0.1368522929207025 0 -0.17830044274374979 0.16244982581953471 0 -0.17789558253256721 0.1368522929207025 0 -0.17830044274374979 0.16244982581953471 0 -0.19274338499996449 0.14807478539393409 0 -0.17789558253256721 0.1368522929207025 0 -0.17830044274374979 0.16244982581953471 0 -0.20517995294037331 0.17379218369948349 0 -0.17870530295493239 0.18804735871836689 0 -0.17830044274374979 0.16244982581953471 0 -0.17870530295493239 0.18804735871836689 0 -0.17830044274374979 0.16244982581953471 0 -0.17870530295493239 0.18804735871836689 0 -0.17830044274374979 0.16244982581953471 0 -0.15775407484820861 0.18727827749961631 0 -0.17830044274374979 0.16244982581953471 0 -0.15775407484820861 0.18727827749961631 0 -0.15245232938168229 0.1648839185887534 0 -0.16317411874061041 0.14897554401654969 0 -0.17830044274374979 0.16244982581953471 0 -0.15245232938168229 0.1648839185887534 0 -0.15775407484820861 0.18727827749961631 0 -0.15245232938168229 0.1648839185887534 0 -0.13876353146598761 0.18223131465273959 0 -0.13876353146598761 0.18223131465273959 0 -0.12843792629854631 0.15978223771525801 0 -0.1245765098090509 0.17966052017845999 0 -0.15245232938168229 0.1648839185887534 0 -0.13876353146598761 0.18223131465273959 0 -0.12843792629854631 0.15978223771525801 0 -0.12843792629854631 0.15978223771525801 0 -0.1447888583061562 0.1436064118174607 0 -0.12843792629854631 0.15978223771525801 0 -0.1447888583061562 0.1436064118174607 0 -0.1204435081575875 0.14623213693654391 0 -0.16317411874061041 0.14897554401654969 0 -0.15245232938168229 0.1648839185887534 0 -0.1447888583061562 0.1436064118174607 0 -0.15245232938168229 0.1648839185887534 0 -0.12843792629854631 0.15978223771525801 0 -0.1447888583061562 0.1436064118174607 0 -0.16113979031376621 0.12743058591966341 0 -0.1447888583061562 0.1436064118174607 0 -0.14300315410871919 0.1253406317882016 0 -0.16113979031376621 0.12743058591966341 0 -0.1447888583061562 0.1436064118174607 0 -0.1447888583061562 0.1436064118174607 0 -0.12687331202938101 0.13192737382428379 0 -0.1204435081575875 0.14623213693654391 0 -0.1447888583061562 0.1436064118174607 0 -0.14300315410871919 0.1253406317882016 0 -0.12687331202938101 0.13192737382428379 0 -0.12687331202938101 0.13192737382428379 0 -0.1130049083687871 0.13722853083192951 0 -0.10667563132183119 0.1260080396076822 0 -0.12687331202938101 0.13192737382428379 0 -0.1130049083687871 0.13722853083192951 0 -0.1204435081575875 0.14623213693654391 0 -0.10667563132183119 0.1260080396076822 0 -0.081978849477511453 0.1384377215961772 0 -0.096577670607123245 0.1239972751083621 0 -0.10667563132183119 0.1260080396076822 0 -0.1008242758955458 0.1385116675773613 0 -0.081978849477511453 0.1384377215961772 0 -0.10667563132183119 0.1260080396076822 0 -0.081978849477511453 0.1384377215961772 0 -0.1130049083687871 0.13722853083192951 0 -0.10667563132183119 0.1260080396076822 0 -0.1008242758955458 0.1385116675773613 0 -0.1130049083687871 0.13722853083192951 0 -0.1008242758955458 0.1385116675773613 0 -0.1078791741402548 0.14587794917826699 0 -0.094422293866394627 0.1556947047027778 0 -0.094582816169344081 0.14500609667275041 0 -0.1078791741402548 0.14587794917826699 0 -0.1008242758955458 0.1385116675773613 0 -0.094582816169344081 0.14500609667275041 0 -0.1078791741402548 0.14587794917826699 0 -0.12843792629854631 0.15978223771525801 0 -0.1204435081575875 0.14623213693654391 0 -0.1073217141416921 0.15896651377475199 0 -0.1078791741402548 0.14587794917826699 0 -0.1204435081575875 0.14623213693654391 0 -0.1073217141416921 0.15896651377475199 0 -0.1130049083687871 0.13722853083192951 0 -0.1078791741402548 0.14587794917826699 0 -0.1204435081575875 0.14623213693654391 0 -0.12843792629854631 0.15978223771525801 0 -0.1245765098090509 0.17966052017845999 0 -0.1120869942909358 0.17595806361305491 0 -0.1120869942909358 0.17595806361305491 0 -0.1073217141416921 0.15896651377475199 0 -0.12843792629854631 0.15978223771525801 0 -0.1120869942909358 0.17595806361305491 0 -0.12843792629854631 0.15978223771525801 0 -0.1120869942909358 0.17595806361305491 0 -0.1073217141416921 0.15896651377475199 0 -0.1245765098090509 0.17966052017845999 0 -0.1120869942909358 0.17595806361305491 0 -0.1190175871807343 0.20067046473278771 0 -0.1120869942909358 0.17595806361305491 0 -0.1020860412129876 0.1687304780430319 0 -0.095149617161195271 0.19271405424946009 0 -0.1020860412129876 0.1687304780430319 0 -0.095149617161195271 0.19271405424946009 0 -0.1120869942909358 0.17595806361305491 0 -0.095149617161195271 0.19271405424946009 0 -0.1020860412129876 0.1687304780430319 0 -0.093279947424905002 0.17994671451597891 0 -0.095149617161195271 0.19271405424946009 0 -0.1020860412129876 0.1687304780430319 0 -0.089956478385260899 0.16811851343374709 0 -0.093279947424905002 0.17994671451597891 0 -0.094422293866394627 0.1556947047027778 0 -0.1078791741402548 0.14587794917826699 0 -0.1020860412129876 0.1687304780430319 0 -0.1078791741402548 0.14587794917826699 0 -0.1073217141416921 0.15896651377475199 0 -0.1020860412129876 0.1687304780430319 0 -0.1120869942909358 0.17595806361305491 0 -0.1073217141416921 0.15896651377475199 0 -0.1020860412129876 0.1687304780430319 0 -0.1078791741402548 0.14587794917826699 0 -0.1020860412129876 0.1687304780430319 0 -0.094422293866394627 0.1556947047027778 0 -0.1020860412129876 0.1687304780430319 0 -0.089956478385260899 0.16811851343374709 0 -0.094422293866394627 0.1556947047027778 0 -0.089956478385260899 0.16811851343374709 0 -0.084742563178951485 0.15922574422532609 0 -0.089956478385260899 0.16811851343374709 0 -0.080023232193096983 0.1657260639694961 0 -0.084742563178951485 0.15922574422532609 0 -0.089956478385260899 0.16811851343374709 0 -0.080023232193096983 0.1657260639694961 0 -0.081293191825158789 0.17801619480298669 0 -0.080023232193096983 0.1657260639694961 0 -0.084742563178951485 0.15922574422532609 0 -0.074930767296401246 0.15918989644816289 0 -0.081293191825158789 0.17801619480298669 0 -0.095149617161195271 0.19271405424946009 0 -0.073474196407973841 0.19079473501472519 0 -0.081293191825158789 0.17801619480298669 0 -0.095149617161195271 0.19271405424946009 0 -0.093279947424905002 0.17994671451597891 0 -0.081293191825158789 0.17801619480298669 0 -0.095149617161195271 0.19271405424946009 0 -0.089956478385260899 0.16811851343374709 0 -0.093279947424905002 0.17994671451597891 0 -0.081293191825158789 0.17801619480298669 0 -0.064604308801312821 0.18244611143699499 0 -0.069549912031587807 0.17131438064227461 0 -0.073474196407973841 0.19079473501472519 0 -0.081293191825158789 0.17801619480298669 0 -0.069549912031587807 0.17131438064227461 0 -0.073474196407973841 0.19079473501472519 0 -0.069549912031587807 0.17131438064227461 0 -0.073474196407973841 0.19079473501472519 0 -0.064604308801312821 0.18244611143699499 0 -0.069549912031587807 0.17131438064227461 0 -0.062041409668937363 0.1723934095439342 0 -0.084742563178951485 0.15922574422532609 0 -0.074930767296401246 0.15918989644816289 0 -0.074588176879671189 0.15080810715310269 0 -0.080023232193096983 0.1657260639694961 0 -0.074930767296401246 0.15918989644816289 0 -0.06743676648912228 0.16331833535651319 0 -0.081293191825158789 0.17801619480298669 0 -0.069549912031587807 0.17131438064227461 0 -0.06743676648912228 0.16331833535651319 0 -0.080023232193096983 0.1657260639694961 0 -0.081293191825158789 0.17801619480298669 0 -0.06743676648912228 0.16331833535651319 0 -0.081293191825158789 0.17801619480298669 0 -0.06743676648912228 0.16331833535651319 0 -0.069549912031587807 0.17131438064227461 0 -0.062031688412593149 0.16441565219234799 0 -0.062041409668937363 0.1723934095439342 0 -0.069549912031587807 0.17131438064227461 0 -0.06743676648912228 0.16331833535651319 0 -0.062031688412593149 0.16441565219234799 0 -0.06743676648912228 0.16331833535651319 0 -0.06725389334219653 0.15771987894696021 0 -0.062031688412593149 0.16441565219234799 0 -0.074930767296401246 0.15918989644816289 0 -0.06743676648912228 0.16331833535651319 0 -0.06725389334219653 0.15771987894696021 0 -0.081978849477511453 0.1384377215961772 0 -0.05728206763319247 0.1508674035846734 0 -0.06725389334219653 0.15771987894696021 0 -0.074588176879671189 0.15080810715310269 0 -0.05728206763319247 0.1508674035846734 0 -0.074588176879671189 0.15080810715310269 0 -0.081978849477511453 0.1384377215961772 0 -0.05728206763319247 0.1508674035846734 0 -0.081978849477511453 0.1384377215961772 0 -0.06070043620975589 0.134524720015781 0 -0.05728206763319247 0.1508674035846734 0 -0.074930767296401246 0.15918989644816289 0 -0.06725389334219653 0.15771987894696021 0 -0.074588176879671189 0.15080810715310269 0 -0.071786582042575819 0.1280585334591178 0 -0.081978849477511453 0.1384377215961772 0 -0.08034823769671974 0.121089655777625 0 -0.071786582042575819 0.1280585334591178 0 -0.081978849477511453 0.1384377215961772 0 -0.06070043620975589 0.134524720015781 0 -0.071786582042575819 0.1280585334591178 0 -0.06070043620975589 0.134524720015781 0 -0.06411880478631618 0.11818203644688791 0 -0.081978849477511453 0.1384377215961772 0 -0.08034823769671974 0.121089655777625 0 -0.096577670607123245 0.1239972751083621 0 -0.1008242758955458 0.1385116675773613 0 -0.094582816169344081 0.14500609667275041 0 -0.081978849477511453 0.1384377215961772 0 -0.094582816169344081 0.14500609667275041 0 -0.081978849477511453 0.1384377215961772 0 -0.0854808471676783 0.14892295327365951 0 -0.094422293866394627 0.1556947047027778 0 -0.084742563178951485 0.15922574422532609 0 -0.0854808471676783 0.14892295327365951 0 -0.094422293866394627 0.1556947047027778 0 -0.094582816169344081 0.14500609667275041 0 -0.0854808471676783 0.14892295327365951 0 -0.084742563178951485 0.15922574422532609 0 -0.074588176879671189 0.15080810715310269 0 -0.0854808471676783 0.14892295327365951 0 -0.074588176879671189 0.15080810715310269 0 -0.081978849477511453 0.1384377215961772 0 -0.0854808471676783 0.14892295327365951 0 -0.1045487088169635 0.24438495162540061 0 -0.11455994162881621 0.23631135170566109 0 -0.098826177075254387 0.23394696074010041 0 -0.10005120432924321 0.25626016583208688 0 -0.094679029848152713 0.24609146959404629 0 -0.1045487088169635 0.24438495162540061 0 -0.094679029848152713 0.24609146959404629 0 -0.1045487088169635 0.24438495162540061 0 -0.098826177075254387 0.23394696074010041 0 -0.116744543106582 0.25728181003509248 0 -0.1045487088169635 0.24438495162540061 0 -0.11455994162881621 0.23631135170566109 0 -0.116744543106582 0.25728181003509248 0 -0.1327712538659816 0.24971188635390451 0 -0.11455994162881621 0.23631135170566109 0 -0.12594818007053379 0.2253828658525201 0 -0.1327712538659816 0.24971188635390451 0 -0.11455994162881621 0.23631135170566109 0 -0.11455994162881621 0.23631135170566109 0 -0.1144435087069731 0.2232582902708152 0 -0.1063794885369051 0.22193246116811141 0 -0.12594818007053379 0.2253828658525201 0 -0.1144435087069731 0.2232582902708152 0 -0.1108864245916369 0.20940648235696879 0 -0.12594818007053379 0.2253828658525201 0 -0.11455994162881621 0.23631135170566109 0 -0.1144435087069731 0.2232582902708152 0 -0.11455994162881621 0.23631135170566109 0 -0.1063794885369051 0.22193246116811141 0 -0.098826177075254387 0.23394696074010041 0 -0.1063794885369051 0.22193246116811141 0 -0.098826177075254387 0.23394696074010041 0 -0.089950704149474564 0.21660149084549701 0 -0.1063794885369051 0.22193246116811141 0 -0.089950704149474564 0.21660149084549701 0 -0.10053720550511509 0.21148400771379949 0 -0.095149617161195271 0.19271405424946009 0 -0.089950704149474564 0.21660149084549701 0 -0.1063794885369051 0.22193246116811141 0 -0.10053720550511509 0.21148400771379949 0 -0.089950704149474564 0.21660149084549701 0 -0.10053720550511509 0.21148400771379949 0 -0.1108864245916369 0.20940648235696879 0 -0.095149617161195271 0.19271405424946009 0 -0.1063794885369051 0.22193246116811141 0 -0.10053720550511509 0.21148400771379949 0 -0.1108864245916369 0.20940648235696879 0 -0.12594818007053379 0.2253828658525201 0 -0.1190175871807343 0.20067046473278771 0 -0.12594818007053379 0.2253828658525201 0 -0.1108864245916369 0.20940648235696879 0 -0.1190175871807343 0.20067046473278771 0 -0.12594818007053379 0.2253828658525201 0 -0.1108864245916369 0.20940648235696879 0 -0.1144435087069731 0.2232582902708152 0 -0.1063794885369051 0.22193246116811141 0 -0.1108864245916369 0.20940648235696879 0 -0.1120869942909358 0.17595806361305491 0 -0.1190175871807343 0.20067046473278771 0 -0.1108864245916369 0.20940648235696879 0 -0.1190175871807343 0.20067046473278771 0 -0.10682171669235439 0.1942096232944058 0 -0.1120869942909358 0.17595806361305491 0 -0.1190175871807343 0.20067046473278771 0 -0.10682171669235439 0.1942096232944058 0 -0.1108864245916369 0.20940648235696879 0 -0.095149617161195271 0.19271405424946009 0 -0.1108864245916369 0.20940648235696879 0 -0.10682171669235439 0.1942096232944058 0 -0.095149617161195271 0.19271405424946009 0 -0.1120869942909358 0.17595806361305491 0 -0.10682171669235439 0.1942096232944058 0 -0.095149617161195271 0.19271405424946009 0 -0.095149617161195271 0.19271405424946009 0 -0.077398480784349299 0.2102750893871779 0 -0.095149617161195271 0.19271405424946009 0 -0.073474196407973841 0.19079473501472519 0 -0.077398480784349299 0.2102750893871779 0 -0.095149617161195271 0.19271405424946009 0 -0.077398480784349299 0.2102750893871779 0 -0.087241526055590657 0.20514135106535239 0 -0.073474196407973841 0.19079473501472519 0 -0.077398480784349299 0.2102750893871779 0 -0.073474196407973841 0.19079473501472519 0 -0.077398480784349299 0.2102750893871779 0 -0.068984895145132993 0.20348567813270921 0 -0.064604308801312821 0.18244611143699499 0 -0.073474196407973841 0.19079473501472519 0 -0.062951628171730722 0.19451437844324071 0 -0.073474196407973841 0.19079473501472519 0 -0.062951628171730722 0.19451437844324071 0 -0.068984895145132993 0.20348567813270921 0 -0.062951628171730722 0.19451437844324071 0 -0.068984895145132993 0.20348567813270921 0 -0.057478398324341332 0.20606456403591589 0 -0.068984895145132993 0.20348567813270921 0 -0.075683327299925024 0.21197187487555791 0 -0.057478398324341332 0.20606456403591589 0 -0.075683327299925024 0.21197187487555791 0 -0.060700713784132942 0.2267940359372384 0 -0.057478398324341332 0.20606456403591589 0 -0.075683327299925024 0.21197187487555791 0 -0.057478398324341332 0.20606456403591589 0 -0.077398480784349299 0.2102750893871779 0 -0.068984895145132993 0.20348567813270921 0 -0.075683327299925024 0.21197187487555791 0 -0.075683327299925024 0.21197187487555791 0 -0.077884159070199604 0.2126860219832131 0 -0.060700713784132942 0.2267940359372384 0 -0.075683327299925024 0.21197187487555791 0 -0.077884159070199604 0.2126860219832131 0 -0.077398480784349299 0.2102750893871779 0 -0.075683327299925024 0.21197187487555791 0 -0.077884159070199604 0.2126860219832131 0 -0.077398480784349299 0.2102750893871779 0 -0.077884159070199604 0.2126860219832131 0 -0.077398480784349299 0.2102750893871779 0 -0.075683327299925024 0.21197187487555791 0 -0.077884159070199604 0.2126860219832131 0 -0.089950704149474564 0.21660149084549701 0 -0.077884159070199604 0.2126860219832131 0 -0.087241526055590657 0.20514135106535239 0 -0.089950704149474564 0.21660149084549701 0 -0.095149617161195271 0.19271405424946009 0 -0.087241526055590657 0.20514135106535239 0 -0.089950704149474564 0.21660149084549701 0 -0.095149617161195271 0.19271405424946009 0 -0.089950704149474564 0.21660149084549701 0 -0.077398480784349299 0.2102750893871779 0 -0.077884159070199604 0.2126860219832131 0 -0.087241526055590657 0.20514135106535239 0 -0.077884159070199604 0.2126860219832131 0 -0.083666647235009842 0.24139059785004849 0 -0.089950704149474564 0.21660149084549701 0 -0.083666647235009842 0.24139059785004849 0 -0.077884159070199604 0.2126860219832131 0 -0.089950704149474564 0.21660149084549701 0 -0.083666647235009842 0.24139059785004849 0 -0.098826177075254387 0.23394696074010041 0 -0.089950704149474564 0.21660149084549701 0 -0.083666647235009842 0.24139059785004849 0 -0.077884159070199604 0.2126860219832131 0 -0.083666647235009842 0.24139059785004849 0 -0.060700713784132942 0.2267940359372384 0 -0.075683327299925024 0.21197187487555791 0 -0.060700713784132942 0.2267940359372384 0 -0.064077212627390134 0.24851538469076631 0 -0.083666647235009842 0.24139059785004849 0 -0.060700713784132942 0.2267940359372384 0 -0.086302411784292182 0.25447467192259482 0 -0.083666647235009842 0.24139059785004849 0 -0.094679029848152713 0.24609146959404629 0 -0.098826177075254387 0.23394696074010041 0 -0.083666647235009842 0.24139059785004849 0 -0.086302411784292182 0.25447467192259482 0 -0.094679029848152713 0.24609146959404629 0 -0.083666647235009842 0.24139059785004849 0 -0.03068766995985707 0.25286978792993342 0 -0.034335222642673788 0.23481172099035691 0 -0.046578861792199937 0.24361118962503389 0 -0.034335222642673788 0.23481172099035691 0 -0.046578861792199937 0.24361118962503389 0 -0.045510089746351297 0.2289623102588538 0 -0.064077212627390134 0.24851538469076631 0 -0.046578861792199937 0.24361118962503389 0 -0.055802081643016588 0.23164020743468811 0 -0.064077212627390134 0.24851538469076631 0 -0.055802081643016588 0.23164020743468811 0 -0.060700713784132942 0.2267940359372384 0 -0.064077212627390134 0.24851538469076631 0 -0.060700713784132942 0.2267940359372384 0 -0.046578861792199937 0.24361118962503389 0 -0.055802081643016588 0.23164020743468811 0 -0.045510089746351297 0.2289623102588538 0 -0.055802081643016588 0.23164020743468811 0 -0.053252725762674542 0.2222055350902031 0 -0.045510089746351297 0.2289623102588538 0 -0.055802081643016588 0.23164020743468811 0 -0.060700713784132942 0.2267940359372384 0 -0.053252725762674542 0.2222055350902031 0 -0.055802081643016588 0.23164020743468811 0 -0.060700713784132942 0.2267940359372384 0 -0.053252725762674542 0.2222055350902031 0 -0.045510089746351297 0.2289623102588538 0 -0.046772345315528908 0.21756655778431969 0 -0.045510089746351297 0.2289623102588538 0 -0.036443083940353373 0.22210497005765251 0 -0.046772345315528908 0.21756655778431969 0 -0.034335222642673788 0.23481172099035691 0 -0.045510089746351297 0.2289623102588538 0 -0.036443083940353373 0.22210497005765251 0 -0.034335222642673788 0.23481172099035691 0 -0.036443083940353373 0.22210497005765251 0 -0.024866254401544021 0.22078734426404351 0 -0.036443083940353373 0.22210497005765251 0 -0.046772345315528908 0.21756655778431969 0 -0.031637039445344017 0.19767931081015269 0 -0.046772345315528908 0.21756655778431969 0 -0.057478398324341332 0.20606456403591589 0 -0.031637039445344017 0.19767931081015269 0 -0.060700713784132942 0.2267940359372384 0 -0.053252725762674542 0.2222055350902031 0 -0.057478398324341332 0.20606456403591589 0 -0.060700713784132942 0.2267940359372384 0 -0.057478398324341332 0.20606456403591589 0 -0.053252725762674542 0.2222055350902031 0 -0.046772345315528908 0.21756655778431969 0 -0.057478398324341332 0.20606456403591589 0 -0.062951628171730722 0.19451437844324071 0 -0.057478398324341332 0.20606456403591589 0 -0.054948738746262903 0.1897910154656581 0 -0.057478398324341332 0.20606456403591589 0 -0.054948738746262903 0.1897910154656581 0 -0.031637039445344017 0.19767931081015269 0 -0.057478398324341332 0.20606456403591589 0 -0.054948738746262903 0.1897910154656581 0 -0.054948738746262903 0.1897910154656581 0 -0.031637039445344017 0.19767931081015269 0 -0.039999697082172873 0.18418677263352329 0 -0.057478398324341332 0.20606456403591589 0 -0.031637039445344017 0.19767931081015269 0 -0.031637039445344017 0.19767931081015269 0 -0.0057956805663459468 0.1892940575843915 0 -0.031637039445344017 0.19767931081015269 0 -0.0057956805663459468 0.1892940575843915 0 -0.024775833668462071 0.17590936267321361 0 -0.031637039445344017 0.19767931081015269 0 -0.0057956805663459468 0.1892940575843915 0 -0.01019634689217482 0.20814994011246479 0 -0.0057956805663459468 0.1892940575843915 0 -0.01019634689217482 0.20814994011246479 0 0.0090806704795409685 0.20996839310177981 0 -0.01019634689217482 0.20814994011246479 0 0.00014186162909880781 0.2338185852574263 0 0.0090806704795409685 0.20996839310177981 0 -0.036443083940353373 0.22210497005765251 0 -0.031637039445344017 0.19767931081015269 0 -0.024866254401544021 0.22078734426404351 0 -0.031637039445344017 0.19767931081015269 0 -0.01019634689217482 0.20814994011246479 0 -0.024866254401544021 0.22078734426404351 0 -0.034335222642673788 0.23481172099035691 0 -0.024866254401544021 0.22078734426404351 0 -0.01991034591062427 0.239405390953495 0 -0.024866254401544021 0.22078734426404351 0 0.00014186162909880781 0.2338185852574263 0 -0.024866254401544021 0.22078734426404351 0 -0.01991034591062427 0.239405390953495 0 0.00014186162909880781 0.2338185852574263 0 -0.01019634689217482 0.20814994011246479 0 -0.024866254401544021 0.22078734426404351 0 0.00014186162909880781 0.2338185852574263 0 -0.0098044441781452579 0.25473951632571468 0 0.00014186162909880781 0.2338185852574263 0 0.0073806355134042019 0.25529449578482938 0 -0.0098044441781452579 0.25473951632571468 0 -0.01991034591062427 0.239405390953495 0 0.00014186162909880781 0.2338185852574263 0 -0.03068766995985707 0.25286978792993342 0 -0.034335222642673788 0.23481172099035691 0 -0.01991034591062427 0.239405390953495 0 -0.03068766995985707 0.25286978792993342 0 -0.0098044441781452579 0.25473951632571468 0 -0.01991034591062427 0.239405390953495 0 -0.045513089216113363 0.1481501368583191 0 -0.039963318838929777 0.1583549670989208 0 -0.028048700007850699 0.14601834090005769 0 -0.045513089216113363 0.1481501368583191 0 -0.037584816749385713 0.12707105787504261 0 -0.028048700007850699 0.14601834090005769 0 -0.037584816749385713 0.12707105787504261 0 -0.028048700007850699 0.14601834090005769 0 -0.045513089216113363 0.1481501368583191 0 -0.037584816749385713 0.12707105787504261 0 -0.045513089216113363 0.1481501368583191 0 -0.037584816749385713 0.12707105787504261 0 -0.049753839012929922 0.13582205838018921 0 -0.037584816749385713 0.12707105787504261 0 -0.049753839012929922 0.13582205838018921 0 -0.051208231868337763 0.1260313133231428 0 -0.049753839012929922 0.13582205838018921 0 -0.06070043620975589 0.134524720015781 0 -0.052276118599972977 0.1457036522838337 0 -0.051208231868337763 0.1260313133231428 0 -0.06070043620975589 0.134524720015781 0 -0.06411880478631618 0.11818203644688791 0 -0.06070043620975589 0.134524720015781 0 -0.06411880478631618 0.11818203644688791 0 -0.049753839012929922 0.13582205838018921 0 -0.051208231868337763 0.1260313133231428 0 -0.06070043620975589 0.134524720015781 0 -0.06070043620975589 0.134524720015781 0 -0.052276118599972977 0.1457036522838337 0 -0.05728206763319247 0.1508674035846734 0 -0.06070043620975589 0.134524720015781 0 -0.05728206763319247 0.1508674035846734 0 -0.045513089216113363 0.1481501368583191 0 -0.049753839012929922 0.13582205838018921 0 -0.052276118599972977 0.1457036522838337 0 -0.045513089216113363 0.1481501368583191 0 -0.052276118599972977 0.1457036522838337 0 -0.053440893212920608 0.15280063427064891 0 -0.052276118599972977 0.1457036522838337 0 -0.053440893212920608 0.15280063427064891 0 -0.05728206763319247 0.1508674035846734 0 -0.053440893212920608 0.15280063427064891 0 -0.05728206763319247 0.1508674035846734 0 -0.05728206763319247 0.1508674035846734 0 -0.062031688412593149 0.16441565219234799 0 -0.053441361682841117 0.16922921584159559 0 -0.053440893212920608 0.15280063427064891 0 -0.05728206763319247 0.1508674035846734 0 -0.053441361682841117 0.16922921584159559 0 -0.045513089216113363 0.1481501368583191 0 -0.053440893212920608 0.15280063427064891 0 -0.053441361682841117 0.16922921584159559 0 -0.045513089216113363 0.1481501368583191 0 -0.053441361682841117 0.16922921584159559 0 -0.05728206763319247 0.1508674035846734 0 -0.053441361682841117 0.16922921584159559 0 -0.06725389334219653 0.15771987894696021 0 -0.05728206763319247 0.1508674035846734 0 -0.062031688412593149 0.16441565219234799 0 -0.062031688412593149 0.16441565219234799 0 -0.053441361682841117 0.16922921584159559 0 -0.062041409668937363 0.1723934095439342 0 -0.053441361682841117 0.16922921584159559 0 -0.047633738945979477 0.17108968717192211 0 -0.039963318838929777 0.1583549670989208 0 -0.052991971448818453 0.17137768000779441 0 -0.053441361682841117 0.16922921584159559 0 -0.047633738945979477 0.17108968717192211 0 -0.052991971448818453 0.17137768000779441 0 -0.053441361682841117 0.16922921584159559 0 -0.054948738746262903 0.1897910154656581 0 -0.052419079168185397 0.17351746689540021 0 -0.046888846475854867 0.17837904804597579 0 -0.062951628171730722 0.19451437844324071 0 -0.054948738746262903 0.1897910154656581 0 -0.052419079168185397 0.17351746689540021 0 -0.062951628171730722 0.19451437844324071 0 -0.052991971448818453 0.17137768000779441 0 -0.052419079168185397 0.17351746689540021 0 -0.064604308801312821 0.18244611143699499 0 -0.062951628171730722 0.19451437844324071 0 -0.053441361682841117 0.16922921584159559 0 -0.062951628171730722 0.19451437844324071 0 -0.052991971448818453 0.17137768000779441 0 -0.053441361682841117 0.16922921584159559 0 -0.054948738746262903 0.1897910154656581 0 -0.052419079168185397 0.17351746689540021 0 -0.062951628171730722 0.19451437844324071 0 -0.053441361682841117 0.16922921584159559 0 -0.064604308801312821 0.18244611143699499 0 -0.053441361682841117 0.16922921584159559 0 -0.062041409668937363 0.1723934095439342 0 -0.052991971448818453 0.17137768000779441 0 -0.047633738945979477 0.17108968717192211 0 -0.052419079168185397 0.17351746689540021 0 -0.047633738945979477 0.17108968717192211 0 -0.052419079168185397 0.17351746689540021 0 -0.046888846475854867 0.17837904804597579 0 -0.054948738746262903 0.1897910154656581 0 -0.046888846475854867 0.17837904804597579 0 -0.039999697082172873 0.18418677263352329 0 -0.031637039445344017 0.19767931081015269 0 -0.039999697082172873 0.18418677263352329 0 -0.024775833668462071 0.17590936267321361 0 -0.046888846475854867 0.17837904804597579 0 -0.039999697082172873 0.18418677263352329 0 -0.039442978436673673 0.17331029806337539 0 -0.047633738945979477 0.17108968717192211 0 -0.046888846475854867 0.17837904804597579 0 -0.039442978436673673 0.17331029806337539 0 -0.039442978436673673 0.17331029806337539 0 -0.032139483942643897 0.16694135859911591 0 -0.024775833668462071 0.17590936267321361 0 -0.039999697082172873 0.18418677263352329 0 -0.039442978436673673 0.17331029806337539 0 -0.024775833668462071 0.17590936267321361 0 -0.045513089216113363 0.1481501368583191 0 -0.053441361682841117 0.16922921584159559 0 -0.039963318838929777 0.1583549670989208 0 -0.039963318838929777 0.1583549670989208 0 -0.032139483942643897 0.16694135859911591 0 -0.02343924065842673 0.15869802647678349 0 -0.047633738945979477 0.17108968717192211 0 -0.039442978436673673 0.17331029806337539 0 -0.039963318838929777 0.1583549670989208 0 -0.039442978436673673 0.17331029806337539 0 -0.039963318838929777 0.1583549670989208 0 -0.032139483942643897 0.16694135859911591 0 -0.032139483942643897 0.16694135859911591 0 -0.02343924065842673 0.15869802647678349 0 -0.024775833668462071 0.17590936267321361 0 -0.02343924065842673 0.15869802647678349 0 -0.024775833668462071 0.17590936267321361 0 -0.0048034666842798916 0.1614245706846468 0 -0.0057956805663459468 0.1892940575843915 0 -0.024775833668462071 0.17590936267321361 0 -0.0048034666842798916 0.1614245706846468 0 -0.0048034666842798916 0.1614245706846468 0 -0.01090464080839405 0.14353955890474629 0 0.011098566836083609 0.13484946890849181 0 -0.02343924065842673 0.15869802647678349 0 -0.0048034666842798916 0.1614245706846468 0 -0.01090464080839405 0.14353955890474629 0 -0.039963318838929777 0.1583549670989208 0 -0.02343924065842673 0.15869802647678349 0 -0.028048700007850699 0.14601834090005769 0 -0.02343924065842673 0.15869802647678349 0 -0.01090464080839405 0.14353955890474629 0 -0.028048700007850699 0.14601834090005769 0 -0.037584816749385713 0.12707105787504261 0 -0.0187932077553963 0.1304023687453105 0 -0.02482114599867602 0.1199028763409456 0 -0.01090464080839405 0.14353955890474629 0 -0.028048700007850699 0.14601834090005769 0 -0.0187932077553963 0.1304023687453105 0 -0.037584816749385713 0.12707105787504261 0 -0.028048700007850699 0.14601834090005769 0 -0.0187932077553963 0.1304023687453105 0 -0.0064436606074630637 0.13109611639504981 0 -0.007175360702145514 0.1155930690216506 0 0.011098566836083609 0.13484946890849181 0 -0.01090464080839405 0.14353955890474629 0 -0.0064436606074630637 0.13109611639504981 0 0.011098566836083609 0.13484946890849181 0 -0.0187932077553963 0.1304023687453105 0 -0.0064436606074630637 0.13109611639504981 0 -0.007175360702145514 0.1155930690216506 0 -0.01090464080839405 0.14353955890474629 0 -0.0187932077553963 0.1304023687453105 0 -0.0064436606074630637 0.13109611639504981 0 -0.007175360702145514 0.1155930690216506 0 -0.0040088977147468936 0.097024336429998151 0 -0.013655752966245171 0.094180689311720855 0 -0.007175360702145514 0.1155930690216506 0 -0.0040088977147468936 0.097024336429998151 0 0.0025937760044158291 0.1064596481343341 0 -0.007175360702145514 0.1155930690216506 0 -0.013655752966245171 0.094180689311720855 0 -0.02544928824037461 0.096336669134809427 0 -0.029459919491476121 0.1011230655410132 0 -0.021580178673492881 0.1105609364200745 0 -0.037915498494119543 0.10215930426450601 0 -0.007175360702145514 0.1155930690216506 0 -0.02544928824037461 0.096336669134809427 0 -0.007175360702145514 0.1155930690216506 0 -0.02544928824037461 0.096336669134809427 0 -0.0241566231860777 0.1021061234229471 0 -0.02544928824037461 0.096336669134809427 0 -0.029459919491476121 0.1011230655410132 0 -0.035034026511796899 0.0954599165668297 0 -0.02544928824037461 0.096336669134809427 0 -0.029459919491476121 0.1011230655410132 0 -0.0241566231860777 0.1021061234229471 0 -0.02544928824037461 0.096336669134809427 0 -0.0241566231860777 0.1021061234229471 0 -0.029459919491476121 0.1011230655410132 0 -0.0241566231860777 0.1021061234229471 0 -0.021580178673492881 0.1105609364200745 0 -0.02482114599867602 0.1199028763409456 0 -0.021580178673492881 0.1105609364200745 0 -0.032585978911933711 0.11378053360982859 0 -0.007175360702145514 0.1155930690216506 0 -0.0241566231860777 0.1021061234229471 0 -0.021580178673492881 0.1105609364200745 0 -0.0187932077553963 0.1304023687453105 0 -0.007175360702145514 0.1155930690216506 0 -0.02482114599867602 0.1199028763409456 0 -0.007175360702145514 0.1155930690216506 0 -0.02482114599867602 0.1199028763409456 0 -0.021580178673492881 0.1105609364200745 0 -0.01109578586274463 0.07592966442077155 0 -0.01963881101933795 0.057650575484614511 0 -0.0089029190745683329 0.062319161291970238 0 -0.0031702267477386531 0.067180855403790804 0 -0.01109578586274463 0.07592966442077155 0 0.0065236609159091173 0.071671444604676282 0 -0.0031702267477386531 0.067180855403790804 0 -0.0089029190745683329 0.062319161291970238 0 0.00079413703044923156 0.058803151297745167 0 -0.0031702267477386531 0.067180855403790804 0 -0.01109578586274463 0.07592966442077155 0 -0.0089029190745683329 0.062319161291970238 0 -0.0040088977147468936 0.097024336429998151 0 -0.01109578586274463 0.07592966442077155 0 0.011643404763696401 0.092949868607662828 0 -0.0040088977147468936 0.097024336429998151 0 -0.013655752966245171 0.094180689311720855 0 -0.01109578586274463 0.07592966442077155 0 -0.013655752966245171 0.094180689311720855 0 -0.01109578586274463 0.07592966442077155 0 -0.02054943231121421 0.086019707551374502 0 -0.02544928824037461 0.096336669134809427 0 -0.02054943231121421 0.086019707551374502 0 -0.029642132364781061 0.077623064684345475 0 -0.02544928824037461 0.096336669134809427 0 -0.029642132364781061 0.077623064684345475 0 -0.036673455980692451 0.084509049595857907 0 -0.01109578586274463 0.07592966442077155 0 -0.02054943231121421 0.086019707551374502 0 -0.029642132364781061 0.077623064684345475 0 -0.02544928824037461 0.096336669134809427 0 -0.029642132364781061 0.077623064684345475 0 -0.013655752966245171 0.094180689311720855 0 -0.02544928824037461 0.096336669134809427 0 -0.02054943231121421 0.086019707551374502 0 -0.02544928824037461 0.096336669134809427 0 -0.036673455980692451 0.084509049595857907 0 -0.01109578586274463 0.07592966442077155 0 -0.033834976489186493 0.058909460233881362 0 -0.01109578586274463 0.07592966442077155 0 -0.029642132364781061 0.077623064684345475 0 -0.033834976489186493 0.058909460233881362 0 -0.01109578586274463 0.07592966442077155 0 -0.033834976489186493 0.058909460233881362 0 -0.01963881101933795 0.057650575484614511 0 -0.029642132364781061 0.077623064684345475 0 -0.033834976489186493 0.058909460233881362 0 -0.029642132364781061 0.077623064684345475 0 -0.036732086871232597 0.066761861307427367 0 -0.033834976489186493 0.058909460233881362 0 -0.042969512877196837 0.063698159366550891 0 -0.036732086871232597 0.066761861307427367 0 -0.038306240480512441 0.072768089837317376 0 -0.042969512877196837 0.063698159366550891 0 -0.038306240480512441 0.072768089837317376 0 -0.046136221960229658 0.070392563092827029 0 -0.042969512877196837 0.063698159366550891 0 -0.036732086871232597 0.066761861307427367 0 -0.038907572144486188 0.060810532415041758 0 -0.029642132364781061 0.077623064684345475 0 -0.036732086871232597 0.066761861307427367 0 -0.038306240480512441 0.072768089837317376 0 -0.038306240480512441 0.072768089837317376 0 -0.046136221960229658 0.070392563092827029 0 -0.043586306971417507 0.077534071189344175 0 -0.038306240480512441 0.072768089837317376 0 -0.043586306971417507 0.077534071189344175 0 -0.036673455980692451 0.084509049595857907 0 -0.043586306971417507 0.077534071189344175 0 -0.036673455980692451 0.084509049595857907 0 -0.046978765451358998 0.084182386091036676 0 -0.029642132364781061 0.077623064684345475 0 -0.038306240480512441 0.072768089837317376 0 -0.036673455980692451 0.084509049595857907 0 -0.02544928824037461 0.096336669134809427 0 -0.036673455980692451 0.084509049595857907 0 -0.035034026511796899 0.0954599165668297 0 -0.036673455980692451 0.084509049595857907 0 -0.044089979176562301 0.093675305350012283 0 -0.035034026511796899 0.0954599165668297 0 -0.036673455980692451 0.084509049595857907 0 -0.044089979176562301 0.093675305350012283 0 -0.046978765451358998 0.084182386091036676 0 -0.044089979176562301 0.093675305350012283 0 -0.057144835734191893 0.088207312209507505 0 -0.046978765451358998 0.084182386091036676 0 -0.057144835734191893 0.088207312209507505 0 -0.046978765451358998 0.084182386091036676 0 -0.053399249393930842 0.076986192110461482 0 -0.043586306971417507 0.077534071189344175 0 -0.046978765451358998 0.084182386091036676 0 -0.053399249393930842 0.076986192110461482 0 -0.053399249393930842 0.076986192110461482 0 -0.070406408885084593 0.061857930521202607 0 -0.059815066152941319 0.061788281472960463 0 -0.057144835734191893 0.088207312209507505 0 -0.053399249393930842 0.076986192110461482 0 -0.070406408885084593 0.061857930521202607 0 -0.046136221960229658 0.070392563092827029 0 -0.043586306971417507 0.077534071189344175 0 -0.053399249393930842 0.076986192110461482 0 -0.046136221960229658 0.070392563092827029 0 -0.053399249393930842 0.076986192110461482 0 -0.05257832837313995 0.068950164376806455 0 -0.053399249393930842 0.076986192110461482 0 -0.05257832837313995 0.068950164376806455 0 -0.059815066152941319 0.061788281472960463 0 -0.05257832837313995 0.068950164376806455 0 -0.052166049838275927 0.062310195238599278 0 -0.059815066152941319 0.061788281472960463 0 -0.046136221960229658 0.070392563092827029 0 -0.05257832837313995 0.068950164376806455 0 -0.052166049838275927 0.062310195238599278 0 -0.042969512877196837 0.063698159366550891 0 -0.046136221960229658 0.070392563092827029 0 -0.052166049838275927 0.062310195238599278 0 -0.021580178673492881 0.1105609364200745 0 -0.043883262583300407 0.11455669389781301 0 -0.021580178673492881 0.1105609364200745 0 -0.043883262583300407 0.11455669389781301 0 -0.032585978911933711 0.11378053360982859 0 -0.037584816749385713 0.12707105787504261 0 -0.051208231868337763 0.1260313133231428 0 -0.043883262583300407 0.11455669389781301 0 -0.037584816749385713 0.12707105787504261 0 -0.043883262583300407 0.11455669389781301 0 -0.037584816749385713 0.12707105787504261 0 -0.032585978911933711 0.11378053360982859 0 -0.037584816749385713 0.12707105787504261 0 -0.043883262583300407 0.11455669389781301 0 -0.032585978911933711 0.11378053360982859 0 -0.037584816749385713 0.12707105787504261 0 -0.02482114599867602 0.1199028763409456 0 -0.032585978911933711 0.11378053360982859 0 -0.021580178673492881 0.1105609364200745 0 -0.043883262583300407 0.11455669389781301 0 -0.037915498494119543 0.10215930426450601 0 -0.044089979176562301 0.093675305350012283 0 -0.043883262583300407 0.11455669389781301 0 -0.037915498494119543 0.10215930426450601 0 -0.044089979176562301 0.093675305350012283 0 -0.037915498494119543 0.10215930426450601 0 -0.035034026511796899 0.0954599165668297 0 -0.029459919491476121 0.1011230655410132 0 -0.037915498494119543 0.10215930426450601 0 -0.035034026511796899 0.0954599165668297 0 -0.044089979176562301 0.093675305350012283 0 -0.057144835734191893 0.088207312209507505 0 -0.043883262583300407 0.11455669389781301 0 -0.057144835734191893 0.088207312209507505 0 -0.043883262583300407 0.11455669389781301 0 -0.057144835734191893 0.088207312209507505 0 -0.043883262583300407 0.11455669389781301 0 -0.056175626513735713 0.104231459755559 0 -0.056175626513735713 0.104231459755559 0 -0.061770267295803899 0.1005995653590098 0 -0.06411880478631618 0.11818203644688791 0 -0.057144835734191893 0.088207312209507505 0 -0.056175626513735713 0.104231459755559 0 -0.061770267295803899 0.1005995653590098 0 -0.043883262583300407 0.11455669389781301 0 -0.06411880478631618 0.11818203644688791 0 -0.051208231868337763 0.1260313133231428 0 -0.043883262583300407 0.11455669389781301 0 -0.06411880478631618 0.11818203644688791 0 -0.043883262583300407 0.11455669389781301 0 -0.056175626513735713 0.104231459755559 0 -0.06411880478631618 0.11818203644688791 0 -0.071786582042575819 0.1280585334591178 0 -0.06411880478631618 0.11818203644688791 0 -0.08034823769671974 0.121089655777625 0 -0.06411880478631618 0.11818203644688791 0 -0.08034823769671974 0.121089655777625 0 -0.075381325115152609 0.106019298300689 0 -0.06411880478631618 0.11818203644688791 0 -0.08034823769671974 0.121089655777625 0 -0.08034823769671974 0.121089655777625 0 -0.096577670607123245 0.1239972751083621 0 -0.08034823769671974 0.121089655777625 0 -0.092569001324263961 0.1124699312803344 0 -0.096577670607123245 0.1239972751083621 0 -0.08034823769671974 0.121089655777625 0 -0.083967771981719092 0.1102844810624737 0 -0.092569001324263961 0.1124699312803344 0 -0.08034823769671974 0.121089655777625 0 -0.083967771981719092 0.1102844810624737 0 -0.075381325115152609 0.106019298300689 0 -0.087572523790740042 0.10155903889124659 0 -0.082071947835387321 0.094412947715560025 0 -0.09233625647768956 0.091651488650119919 0 -0.083967771981719092 0.1102844810624737 0 -0.092569001324263961 0.1124699312803344 0 -0.087572523790740042 0.10155903889124659 0 -0.083967771981719092 0.1102844810624737 0 -0.087572523790740042 0.10155903889124659 0 -0.075381325115152609 0.106019298300689 0 -0.087572523790740042 0.10155903889124659 0 -0.082071947835387321 0.094412947715560025 0 -0.075381325115152609 0.106019298300689 0 -0.06411880478631618 0.11818203644688791 0 -0.06964180214897181 0.091777453024084701 0 -0.082071947835387321 0.094412947715560025 0 -0.075381325115152609 0.106019298300689 0 -0.06964180214897181 0.091777453024084701 0 -0.06411880478631618 0.11818203644688791 0 -0.075381325115152609 0.106019298300689 0 -0.06964180214897181 0.091777453024084701 0 -0.061770267295803899 0.1005995653590098 0 -0.06411880478631618 0.11818203644688791 0 -0.06964180214897181 0.091777453024084701 0 -0.057144835734191893 0.088207312209507505 0 -0.061770267295803899 0.1005995653590098 0 -0.06964180214897181 0.091777453024084701 0 -0.06964180214897181 0.091777453024084701 0 -0.075164799511626648 0.065372869601281192 0 -0.057144835734191893 0.088207312209507505 0 -0.06964180214897181 0.091777453024084701 0 -0.068089461569968729 0.076803891339018993 0 -0.06964180214897181 0.091777453024084701 0 -0.068089461569968729 0.076803891339018993 0 -0.075164799511626648 0.065372869601281192 0 -0.057144835734191893 0.088207312209507505 0 -0.068089461569968729 0.076803891339018993 0 -0.070406408885084593 0.061857930521202607 0 -0.06964180214897181 0.091777453024084701 0 -0.075164799511626648 0.065372869601281192 0 -0.08073347634316104 0.073575546631144614 0 -0.057144835734191893 0.088207312209507505 0 -0.070406408885084593 0.061857930521202607 0 -0.068089461569968729 0.076803891339018993 0 -0.075164799511626648 0.065372869601281192 0 -0.070406408885084593 0.061857930521202607 0 -0.089923560922876636 0.068178037636278263 0 -0.08578586832533959 0.082170087930996366 0 -0.103675070998617 0.083967309240415983 0 -0.08073347634316104 0.073575546631144614 0 -0.089923560922876636 0.068178037636278263 0 -0.083186879645449088 0.059889597987781727 0 -0.075164799511626648 0.065372869601281192 0 -0.08073347634316104 0.073575546631144614 0 -0.083186879645449088 0.059889597987781727 0 -0.08073347634316104 0.073575546631144614 0 -0.089923560922876636 0.068178037636278263 0 -0.08578586832533959 0.082170087930996366 0 -0.06964180214897181 0.091777453024084701 0 -0.08073347634316104 0.073575546631144614 0 -0.08578586832533959 0.082170087930996366 0 -0.082071947835387321 0.094412947715560025 0 -0.06964180214897181 0.091777453024084701 0 -0.08578586832533959 0.082170087930996366 0 -0.082071947835387321 0.094412947715560025 0 -0.08578586832533959 0.082170087930996366 0 -0.09233625647768956 0.091651488650119919 0 -0.09233625647768956 0.091651488650119919 0 -0.103675070998617 0.083967309240415983 0 -0.10429444750695741 0.1014886749251958 0 -0.08578586832533959 0.082170087930996366 0 -0.09233625647768956 0.091651488650119919 0 -0.103675070998617 0.083967309240415983 0 -0.103675070998617 0.083967309240415983 0 -0.1198812247159142 0.095002477965890675 0 -0.10429444750695741 0.1014886749251958 0 -0.089923560922876636 0.068178037636278263 0 -0.103675070998617 0.083967309240415983 0 -0.10785209906359081 0.065371441260914459 0 -0.12533951967512769 0.078274991835817334 0 -0.103675070998617 0.083967309240415983 0 -0.10785209906359081 0.065371441260914459 0 -0.12533951967512769 0.078274991835817334 0 -0.10785209906359081 0.065371441260914459 0 -0.1248745965026067 0.059896082918310993 0 -0.12533951967512769 0.078274991835817334 0 -0.103675070998617 0.083967309240415983 0 -0.1198812247159142 0.095002477965890675 0 -0.13137241316615089 0.11357835761918721 0 -0.1198812247159142 0.095002477965890675 0 -0.10429444750695741 0.1014886749251958 0 -0.13137241316615089 0.11357835761918721 0 -0.12687331202938101 0.13192737382428379 0 -0.10667563132183119 0.1260080396076822 0 -0.13137241316615089 0.11357835761918721 0 -0.10667563132183119 0.1260080396076822 0 -0.1062978327852654 0.11550845570815239 0 -0.13137241316615089 0.11357835761918721 0 -0.1062978327852654 0.11550845570815239 0 -0.10429444750695741 0.1014886749251958 0 -0.13137241316615089 0.11357835761918721 0 -0.10667563132183119 0.1260080396076822 0 -0.10667563132183119 0.1260080396076822 0 -0.1062978327852654 0.11550845570815239 0 -0.096577670607123245 0.1239972751083621 0 -0.092569001324263961 0.1124699312803344 0 -0.1062978327852654 0.11550845570815239 0 -0.096577670607123245 0.1239972751083621 0 -0.092569001324263961 0.1124699312803344 0 -0.1062978327852654 0.11550845570815239 0 -0.10429444750695741 0.1014886749251958 0 -0.092569001324263961 0.1124699312803344 0 -0.087572523790740042 0.10155903889124659 0 -0.10429444750695741 0.1014886749251958 0 -0.087572523790740042 0.10155903889124659 0 -0.09233625647768956 0.091651488650119919 0 -0.10429444750695741 0.1014886749251958 0 -0.10370969952600501 0.019997694726909911 0 -0.098524362227562057 0.035744340183224317 0 -0.08645931971955316 0.02325136753113614 0 -0.10370969952600501 0.019997694726909911 0 -0.08645931971955316 0.02325136753113614 0 -0.091682611010439896 0.0063963380850077774 0 -0.10370969952600501 0.019997694726909911 0 -0.1180188049733784 0.030804183747700629 0 -0.098524362227562057 0.035744340183224317 0 -0.10370969952600501 0.019997694726909911 0 -0.10877227824827949 0.0075748546359299482 0 -0.091682611010439896 0.0063963380850077774 0 -0.1029392013539359 -0.0085751277431150782 0 -0.10877227824827949 0.0075748546359299482 0 -0.091682611010439896 0.0063963380850077774 0 -0.10370969952600501 0.019997694726909911 0 -0.10877227824827949 0.0075748546359299482 0 -0.11835839359799651 0.016938700943610479 0 -0.1029392013539359 -0.0085751277431150782 0 -0.12735709500343681 0.004015926865657337 0 -0.10877227824827949 0.0075748546359299482 0 -0.12735709500343681 0.004015926865657337 0 -0.10877227824827949 0.0075748546359299482 0 -0.11835839359799651 0.016938700943610479 0 -0.1339340902388827 0.022300844741854581 0 -0.11835839359799651 0.016938700943610479 0 -0.1180188049733784 0.030804183747700629 0 -0.10370969952600501 0.019997694726909911 0 -0.11835839359799651 0.016938700943610479 0 -0.1180188049733784 0.030804183747700629 0 -0.1180188049733784 0.030804183747700629 0 -0.1128457876968547 0.048091259023394652 0 -0.098524362227562057 0.035744340183224317 0 -0.13626681081840961 0.042829268155062397 0 -0.1128457876968547 0.048091259023394652 0 -0.13626681081840961 0.042829268155062397 0 -0.1180188049733784 0.030804183747700629 0 -0.1128457876968547 0.048091259023394652 0 -0.13626681081840961 0.042829268155062397 0 -0.1128457876968547 0.048091259023394652 0 -0.1248745965026067 0.059896082918310993 0 -0.10785209906359081 0.065371441260914459 0 -0.1128457876968547 0.048091259023394652 0 -0.1248745965026067 0.059896082918310993 0 -0.1128457876968547 0.048091259023394652 0 -0.089424764575299687 0.053353249891726941 0 -0.089923560922876636 0.068178037636278263 0 -0.10785209906359081 0.065371441260914459 0 -0.089424764575299687 0.053353249891726941 0 -0.10785209906359081 0.065371441260914459 0 -0.1128457876968547 0.048091259023394652 0 -0.089424764575299687 0.053353249891726941 0 -0.1128457876968547 0.048091259023394652 0 -0.098524362227562057 0.035744340183224317 0 -0.089424764575299687 0.053353249891726941 0 -0.098524362227562057 0.035744340183224317 0 -0.080687796874281473 0.038968286178477703 0 -0.08645931971955316 0.02325136753113614 0 -0.098524362227562057 0.035744340183224317 0 -0.080687796874281473 0.038968286178477703 0 -0.089424764575299687 0.053353249891726941 0 -0.080687796874281473 0.038968286178477703 0 -0.089424764575299687 0.053353249891726941 0 -0.083186879645449088 0.059889597987781727 0 -0.075164799511626648 0.065372869601281192 0 -0.080687796874281473 0.038968286178477703 0 -0.083186879645449088 0.059889597987781727 0 -0.089923560922876636 0.068178037636278263 0 -0.089424764575299687 0.053353249891726941 0 -0.083186879645449088 0.059889597987781727 0 -0.075164799511626648 0.065372869601281192 0 -0.080687796874281473 0.038968286178477703 0 -0.071303082845968715 0.053347503409362687 0 -0.075164799511626648 0.065372869601281192 0 -0.080687796874281473 0.038968286178477703 0 -0.075164799511626648 0.065372869601281192 0 -0.070406408885084593 0.061857930521202607 0 -0.071303082845968715 0.053347503409362687 0 -0.071303082845968715 0.053347503409362687 0 -0.064856269609628314 0.055117702274744398 0 -0.065400139349222536 0.045420728471107522 0 -0.070406408885084593 0.061857930521202607 0 -0.071303082845968715 0.053347503409362687 0 -0.064856269609628314 0.055117702274744398 0 -0.070406408885084593 0.061857930521202607 0 -0.064856269609628314 0.055117702274744398 0 -0.059815066152941319 0.061788281472960463 0 -0.080687796874281473 0.038968286178477703 0 -0.065400139349222536 0.045420728471107522 0 -0.063264057366842208 0.031259222641012697 0 -0.080687796874281473 0.038968286178477703 0 -0.063264057366842208 0.031259222641012697 0 -0.073460039823911166 0.024685388153665749 0 -0.080687796874281473 0.038968286178477703 0 -0.071303082845968715 0.053347503409362687 0 -0.065400139349222536 0.045420728471107522 0 -0.063264057366842208 0.031259222641012697 0 -0.073460039823911166 0.024685388153665749 0 -0.061440697951084179 0.017621877449499421 0 -0.073460039823911166 0.024685388153665749 0 -0.076769634387976737 0.01135693610240161 0 -0.061440697951084179 0.017621877449499421 0 -0.080687796874281473 0.038968286178477703 0 -0.073460039823911166 0.024685388153665749 0 -0.08645931971955316 0.02325136753113614 0 -0.073460039823911166 0.024685388153665749 0 -0.08645931971955316 0.02325136753113614 0 -0.076769634387976737 0.01135693610240161 0 -0.08645931971955316 0.02325136753113614 0 -0.091682611010439896 0.0063963380850077774 0 -0.076769634387976737 0.01135693610240161 0 -0.091682611010439896 0.0063963380850077774 0 -0.078933949510919491 0.00072378658541613432 0 -0.076769634387976737 0.01135693610240161 0 -0.086097875964997059 -0.0058870606910941042 0 -0.091682611010439896 0.0063963380850077774 0 -0.078933949510919491 0.00072378658541613432 0 -0.078933949510919491 0.00072378658541613432 0 -0.076769634387976737 0.01135693610240161 0 -0.068462160169621672 0.0025537029525893409 0 -0.068462160169621672 0.0025537029525893409 0 -0.057836245250817257 0.0062936453779614283 0 -0.061440697951084179 0.017621877449499421 0 -0.076769634387976737 0.01135693610240161 0 -0.068462160169621672 0.0025537029525893409 0 -0.061440697951084179 0.017621877449499421 0 -0.057836245250817257 0.0062936453779614283 0 -0.061440697951084179 0.017621877449499421 0 -0.042678209040760022 0.019440128409622049 0 -0.057836245250817257 0.0062936453779614283 0 -0.042678209040760022 0.019440128409622049 0 -0.044352522143416888 0.0050416822031405977 0 -0.063264057366842208 0.031259222641012697 0 -0.042678209040760022 0.019440128409622049 0 -0.05195897498334151 0.039592758420259042 0 -0.063264057366842208 0.031259222641012697 0 -0.061440697951084179 0.017621877449499421 0 -0.042678209040760022 0.019440128409622049 0 -0.042678209040760022 0.019440128409622049 0 -0.038256592764973757 0.039174794321751791 0 -0.042678209040760022 0.019440128409622049 0 -0.038256592764973757 0.039174794321751791 0 -0.027511467414372541 0.03001296694831072 0 -0.042678209040760022 0.019440128409622049 0 -0.028180513839983729 0.018098474401369 0 -0.027511467414372541 0.03001296694831072 0 -0.042678209040760022 0.019440128409622049 0 -0.032770024037711037 0.0084985419153508525 0 -0.028180513839983729 0.018098474401369 0 -0.032770024037711037 0.0084985419153508525 0 -0.03614709390981162 0.0015378833132510439 0 -0.044352522143416888 0.0050416822031405977 0 -0.029539197120254941 -0.00051038393964639519 0 -0.032770024037711037 0.0084985419153508525 0 -0.03614709390981162 0.0015378833132510439 0 -0.042678209040760022 0.019440128409622049 0 -0.032770024037711037 0.0084985419153508525 0 -0.044352522143416888 0.0050416822031405977 0 -0.042969512877196837 0.063698159366550891 0 -0.047980875447113908 0.056604040506729722 0 -0.052166049838275927 0.062310195238599278 0 -0.047980875447113908 0.056604040506729722 0 -0.052166049838275927 0.062310195238599278 0 -0.055804220694704088 0.051985500715961808 0 -0.064856269609628314 0.055117702274744398 0 -0.059815066152941319 0.061788281472960463 0 -0.055804220694704088 0.051985500715961808 0 -0.052166049838275927 0.062310195238599278 0 -0.059815066152941319 0.061788281472960463 0 -0.055804220694704088 0.051985500715961808 0 -0.064856269609628314 0.055117702274744398 0 -0.065400139349222536 0.045420728471107522 0 -0.055804220694704088 0.051985500715961808 0 -0.047980875447113908 0.056604040506729722 0 -0.055804220694704088 0.051985500715961808 0 -0.046350630683546529 0.050276175962098407 0 -0.055804220694704088 0.051985500715961808 0 -0.05195897498334151 0.039592758420259042 0 -0.046350630683546529 0.050276175962098407 0 -0.065400139349222536 0.045420728471107522 0 -0.055804220694704088 0.051985500715961808 0 -0.05195897498334151 0.039592758420259042 0 -0.065400139349222536 0.045420728471107522 0 -0.063264057366842208 0.031259222641012697 0 -0.05195897498334151 0.039592758420259042 0 -0.042678209040760022 0.019440128409622049 0 -0.05195897498334151 0.039592758420259042 0 -0.038256592764973757 0.039174794321751791 0 -0.05195897498334151 0.039592758420259042 0 -0.038256592764973757 0.039174794321751791 0 -0.046350630683546529 0.050276175962098407 0 -0.038256592764973757 0.039174794321751791 0 -0.033834976489186493 0.058909460233881362 0 -0.038256592764973757 0.039174794321751791 0 -0.038513274033404883 0.055407770980391423 0 -0.033834976489186493 0.058909460233881362 0 -0.038256592764973757 0.039174794321751791 0 -0.046350630683546529 0.050276175962098407 0 -0.038513274033404883 0.055407770980391423 0 -0.038256592764973757 0.039174794321751791 0 -0.033834976489186493 0.058909460233881362 0 -0.02879531395286377 0.050132256585483953 0 -0.046350630683546529 0.050276175962098407 0 -0.038513274033404883 0.055407770980391423 0 -0.042914570065583427 0.057802329486214707 0 -0.036732086871232597 0.066761861307427367 0 -0.033834976489186493 0.058909460233881362 0 -0.038907572144486188 0.060810532415041758 0 -0.038513274033404883 0.055407770980391423 0 -0.033834976489186493 0.058909460233881362 0 -0.038513274033404883 0.055407770980391423 0 -0.033834976489186493 0.058909460233881362 0 -0.038907572144486188 0.060810532415041758 0 -0.042969512877196837 0.063698159366550891 0 -0.038907572144486188 0.060810532415041758 0 -0.042914570065583427 0.057802329486214707 0 -0.038513274033404883 0.055407770980391423 0 -0.038907572144486188 0.060810532415041758 0 -0.042914570065583427 0.057802329486214707 0 -0.047980875447113908 0.056604040506729722 0 -0.046350630683546529 0.050276175962098407 0 -0.042914570065583427 0.057802329486214707 0 -0.042969512877196837 0.063698159366550891 0 -0.047980875447113908 0.056604040506729722 0 -0.042914570065583427 0.057802329486214707 0 -0.033834976489186493 0.058909460233881362 0 -0.01963881101933795 0.057650575484614511 0 -0.02879531395286377 0.050132256585483953 0 -0.01963881101933795 0.057650575484614511 0 -0.02879531395286377 0.050132256585483953 0 -0.02345087553795689 0.044794196301688183 0 -0.01963881101933795 0.057650575484614511 0 -0.02345087553795689 0.044794196301688183 0 -0.012175026131353321 0.050402421608982242 0 -0.02345087553795689 0.044794196301688183 0 -0.014695186475719159 0.0359408453649432 0 -0.012175026131353321 0.050402421608982242 0 -0.038256592764973757 0.039174794321751791 0 -0.02879531395286377 0.050132256585483953 0 -0.02345087553795689 0.044794196301688183 0 -0.038256592764973757 0.039174794321751791 0 -0.02345087553795689 0.044794196301688183 0 -0.027511467414372541 0.03001296694831072 0 -0.02345087553795689 0.044794196301688183 0 -0.014695186475719159 0.0359408453649432 0 -0.027511467414372541 0.03001296694831072 0 -0.014695186475719159 0.0359408453649432 0 -0.0023331541944977092 0.045311556235899067 0 0.00074240361007229996 0.028778475488121531 0 -0.014695186475719159 0.0359408453649432 0 -0.0023331541944977092 0.045311556235899067 0 -0.012175026131353321 0.050402421608982242 0 -0.0023331541944977092 0.045311556235899067 0 -0.012175026131353321 0.050402421608982242 0 0.00079413703044923156 0.058803151297745167 0 -0.012175026131353321 0.050402421608982242 0 -0.0089029190745683329 0.062319161291970238 0 0.00079413703044923156 0.058803151297745167 0 -0.01963881101933795 0.057650575484614511 0 -0.012175026131353321 0.050402421608982242 0 -0.0089029190745683329 0.062319161291970238 0 -0.021996997598287969 0.010981086364913869 0 -0.02112675760807068 0.0030512678310729521 0 -0.0083058662928979787 0.012079608812324741 0 -0.021996997598287969 0.010981086364913869 0 -0.01661374249992489 0.02103319015209278 0 -0.0083058662928979787 0.012079608812324741 0 -0.021996997598287969 0.010981086364913869 0 -0.02112675760807068 0.0030512678310729521 0 -0.02631380729169577 0.0053104208567875946 0 -0.029539197120254941 -0.00051038393964639519 0 -0.02112675760807068 0.0030512678310729521 0 -0.02631380729169577 0.0053104208567875946 0 -0.029539197120254941 -0.00051038393964639519 0 -0.032770024037711037 0.0084985419153508525 0 -0.02631380729169577 0.0053104208567875946 0 -0.032770024037711037 0.0084985419153508525 0 -0.021996997598287969 0.010981086364913869 0 -0.02631380729169577 0.0053104208567875946 0 -0.032770024037711037 0.0084985419153508525 0 -0.021996997598287969 0.010981086364913869 0 -0.028180513839983729 0.018098474401369 0 -0.028180513839983729 0.018098474401369 0 -0.027511467414372541 0.03001296694831072 0 -0.01661374249992489 0.02103319015209278 0 -0.014695186475719159 0.0359408453649432 0 -0.027511467414372541 0.03001296694831072 0 -0.01661374249992489 0.02103319015209278 0 -0.021996997598287969 0.010981086364913869 0 -0.028180513839983729 0.018098474401369 0 -0.01661374249992489 0.02103319015209278 0 -0.01661374249992489 0.02103319015209278 0 0.00074240361007229996 0.028778475488121531 0 -0.0083058662928979787 0.012079608812324741 0 0.0060294939382754481 0.01286563290641534 0 0.00074240361007229996 0.028778475488121531 0 -0.014695186475719159 0.0359408453649432 0 -0.01661374249992489 0.02103319015209278 0 0.00074240361007229996 0.028778475488121531 0 -0.0083058662928979787 0.012079608812324741 0 0.00074240361007229996 0.028778475488121531 0 -0.01661374249992489 0.02103319015209278 0 -0.0083058662928979787 0.012079608812324741 0 0.00074240361007229996 0.028778475488121531 0 -0.0072764121498596901 -0.0036325873431357339 0 -0.0083058662928979787 0.012079608812324741 0 0.0012074066645448821 -0.00065723147797176382 0 -0.0072764121498596901 -0.0036325873431357339 0 -0.013607688627124061 -0.00178224205395049 0 -0.0083058662928979787 0.012079608812324741 0 -0.017354136195868258 -0.0046192578634720229 0 -0.0083058662928979787 0.012079608812324741 0 -0.017354136195868258 -0.0046192578634720229 0 -0.013607688627124061 -0.00178224205395049 0 -0.0083058662928979787 0.012079608812324741 0 -0.0083058662928979787 0.012079608812324741 0 0.0060294939382754481 0.01286563290641534 0 0.0012074066645448821 -0.00065723147797176382 0 -0.017354136195868258 -0.0046192578634720229 0 -0.02112675760807068 0.0030512678310729521 0 -0.0083058662928979787 0.012079608812324741 0 0.0060294939382754481 0.01286563290641534 0 0.0012074066645448821 -0.00065723147797176382 0 0.01265631079038235 -0.01012693536007268 0 0.0060294939382754481 0.01286563290641534 0 0.020311547060899309 0.014329649790385431 0 0.01265631079038235 -0.01012693536007268 0 0.00074240361007229996 0.028778475488121531 0 0.015746539320639769 0.024046632949657649 0 0.022626785018342459 0.038544513255683338 0 0.0060294939382754481 0.01286563290641534 0 0.00074240361007229996 0.028778475488121531 0 0.015746539320639769 0.024046632949657649 0 0.0060294939382754481 0.01286563290641534 0 0.015746539320639769 0.024046632949657649 0 0.020311547060899309 0.014329649790385431 0 0.015746539320639769 0.024046632949657649 0 0.029022466975609298 0.02571489330768258 0 0.020311547060899309 0.014329649790385431 0 0.015746539320639769 0.024046632949657649 0 0.029022466975609298 0.02571489330768258 0 0.022626785018342459 0.038544513255683338 0 0.020311547060899309 0.014329649790385431 0 0.034885408484197772 0.0062912350017927032 0 0.01265631079038235 -0.01012693536007268 0 0.029022466975609298 0.02571489330768258 0 0.020311547060899309 0.014329649790385431 0 0.034885408484197772 0.0062912350017927032 0 0.00079413703044923156 0.058803151297745167 0 0.01366790099406239 0.052632887419703241 0 0.0065236609159091173 0.071671444604676282 0 -0.0023331541944977092 0.045311556235899067 0 0.00079413703044923156 0.058803151297745167 0 0.01366790099406239 0.052632887419703241 0 0.00074240361007229996 0.028778475488121531 0 0.01366790099406239 0.052632887419703241 0 0.022626785018342459 0.038544513255683338 0 0.00074240361007229996 0.028778475488121531 0 0.022626785018342459 0.038544513255683338 0 -0.0023331541944977092 0.045311556235899067 0 0.00074240361007229996 0.028778475488121531 0 0.01366790099406239 0.052632887419703241 0 0.00074240361007229996 0.028778475488121531 0 0.01366790099406239 0.052632887419703241 0 0.029022466975609298 0.02571489330768258 0 0.022626785018342459 0.038544513255683338 0 0.037630953216902623 0.033668105561091018 0 0.01366790099406239 0.052632887419703241 0 0.022626785018342459 0.038544513255683338 0 0.025434983742737761 0.055249644843112657 0 0.022626785018342459 0.038544513255683338 0 0.025434983742737761 0.055249644843112657 0 0.034616451435572633 0.051242168749322393 0 0.025434983742737761 0.055249644843112657 0 0.034062632092931817 0.061255223706808547 0 0.02703491536905472 0.067401080742933134 0 0.01366790099406239 0.052632887419703241 0 0.025434983742737761 0.055249644843112657 0 0.02703491536905472 0.067401080742933134 0 0.034616451435572633 0.051242168749322393 0 0.044511166426612833 0.04831055102324476 0 0.060132464308973767 0.062986029428160187 0 0.034616451435572633 0.051242168749322393 0 0.060132464308973767 0.062986029428160187 0 0.044258496001147778 0.063884183083345675 0 0.034062632092931817 0.061255223706808547 0 0.034616451435572633 0.051242168749322393 0 0.044258496001147778 0.063884183083345675 0 0.025434983742737761 0.055249644843112657 0 0.034062632092931817 0.061255223706808547 0 0.034616451435572633 0.051242168749322393 0 0.022626785018342459 0.038544513255683338 0 0.044511166426612833 0.04831055102324476 0 0.022626785018342459 0.038544513255683338 0 0.034616451435572633 0.051242168749322393 0 0.044511166426612833 0.04831055102324476 0 0.022626785018342459 0.038544513255683338 0 0.044511166426612833 0.04831055102324476 0 0.037630953216902623 0.033668105561091018 0 0.044511166426612833 0.04831055102324476 0 0.037630953216902623 0.033668105561091018 0 0.0484135161167236 0.034205204957136963 0 0.0484135161167236 0.034205204957136963 0 0.060669767880595721 0.038134724015348051 0 0.0518117103670514 0.042737821036878322 0 0.0484135161167236 0.034205204957136963 0 0.060669767880595721 0.038134724015348051 0 0.057623658326613529 0.02352368721002385 0 0.060669767880595721 0.038134724015348051 0 0.0518117103670514 0.042737821036878322 0 0.059559274975242667 0.047504887075434543 0 0.044511166426612833 0.04831055102324476 0 0.0518117103670514 0.042737821036878322 0 0.059559274975242667 0.047504887075434543 0 0.044511166426612833 0.04831055102324476 0 0.0484135161167236 0.034205204957136963 0 0.0518117103670514 0.042737821036878322 0 0.044511166426612833 0.04831055102324476 0 0.066395547834883203 0.05807658879080619 0 0.060132464308973767 0.062986029428160187 0 0.034616451435572633 0.051242168749322393 0 0.060132464308973767 0.062986029428160187 0 0.044511166426612833 0.04831055102324476 0 0.066395547834883203 0.05807658879080619 0 0.044511166426612833 0.04831055102324476 0 0.059559274975242667 0.047504887075434543 0 0.066395547834883203 0.05807658879080619 0 0.034885408484197772 0.0062912350017927032 0 0.052968053050369737 0.0090809173488315582 0 0.042517259973231587 -0.011683923625132649 0 0.034885408484197772 0.0062912350017927032 0 0.043580831547224863 0.021565365261707499 0 0.052968053050369737 0.0090809173488315582 0 0.029022466975609298 0.02571489330768258 0 0.034885408484197772 0.0062912350017927032 0 0.043580831547224863 0.021565365261707499 0 0.029022466975609298 0.02571489330768258 0 0.037630953216902623 0.033668105561091018 0 0.043580831547224863 0.021565365261707499 0 0.037630953216902623 0.033668105561091018 0 0.0484135161167236 0.034205204957136963 0 0.043580831547224863 0.021565365261707499 0 0.057623658326613529 0.02352368721002385 0 0.052968053050369737 0.0090809173488315582 0 0.071708216805815503 0.016768608491387289 0 0.043580831547224863 0.021565365261707499 0 0.057623658326613529 0.02352368721002385 0 0.052968053050369737 0.0090809173488315582 0 0.0484135161167236 0.034205204957136963 0 0.043580831547224863 0.021565365261707499 0 0.057623658326613529 0.02352368721002385 0 0.052968053050369737 0.0090809173488315582 0 0.071708216805815503 0.016768608491387289 0 0.067492943165135169 -0.0019794682467893379 0 0.083930998993742512 0.0059737405228527038 0 0.071708216805815503 0.016768608491387289 0 0.067492943165135169 -0.0019794682467893379 0 0.083930998993742512 0.0059737405228527038 0 0.098495163759696414 0.0029673617968291321 0 0.094917995650245529 0.021722354499223519 0 0.083930998993742512 0.0059737405228527038 0 0.071708216805815503 0.016768608491387289 0 0.094917995650245529 0.021722354499223519 0 0.071708216805815503 0.016768608491387289 0 0.07449934060461412 0.03258063005354956 0 0.094917995650245529 0.021722354499223519 0 0.07449934060461412 0.03258063005354956 0 0.087237150257314613 0.037926204838731957 0 0.094917995650245529 0.021722354499223519 0 0.057623658326613529 0.02352368721002385 0 0.071708216805815503 0.016768608491387289 0 0.07449934060461412 0.03258063005354956 0 0.060669767880595721 0.038134724015348051 0 0.057623658326613529 0.02352368721002385 0 0.07449934060461412 0.03258063005354956 0 0.060669767880595721 0.038134724015348051 0 0.069155187538762042 0.045022305850501279 0 0.07449934060461412 0.03258063005354956 0 0.060669767880595721 0.038134724015348051 0 0.059559274975242667 0.047504887075434543 0 0.069155187538762042 0.045022305850501279 0 0.069155187538762042 0.045022305850501279 0 0.07449934060461412 0.03258063005354956 0 0.079692196512252927 0.044953406994506007 0 0.059559274975242667 0.047504887075434543 0 0.069155187538762042 0.045022305850501279 0 0.067326156772233525 0.050603546620565112 0 0.059559274975242667 0.047504887075434543 0 0.066395547834883203 0.05807658879080619 0 0.067326156772233525 0.050603546620565112 0 0.066395547834883203 0.05807658879080619 0 0.067326156772233525 0.050603546620565112 0 0.074194616740046182 0.051810404765518438 0 0.069155187538762042 0.045022305850501279 0 0.067326156772233525 0.050603546620565112 0 0.074194616740046182 0.051810404765518438 0 0.069155187538762042 0.045022305850501279 0 0.074194616740046182 0.051810404765518438 0 0.079692196512252927 0.044953406994506007 0 0.066395547834883203 0.05807658879080619 0 0.074194616740046182 0.051810404765518438 0 0.080343143758095259 0.058335218209008277 0 0.066395547834883203 0.05807658879080619 0 0.080343143758095259 0.058335218209008277 0 0.08827992924315356 0.067842626558367619 0 0.080343143758095259 0.058335218209008277 0 0.083306510346727383 0.05351440315152866 0 0.090416084875221875 0.058235299142909973 0 0.074194616740046182 0.051810404765518438 0 0.083306510346727383 0.05351440315152866 0 0.079692196512252927 0.044953406994506007 0 0.083306510346727383 0.05351440315152866 0 0.089760373586053266 0.048866493307206167 0 0.079692196512252927 0.044953406994506007 0 0.074194616740046182 0.051810404765518438 0 0.080343143758095259 0.058335218209008277 0 0.083306510346727383 0.05351440315152866 0 0.083306510346727383 0.05351440315152866 0 0.089760373586053266 0.048866493307206167 0 0.090416084875221875 0.058235299142909973 0 0.089760373586053266 0.048866493307206167 0 0.090416084875221875 0.058235299142909973 0 0.099395501669828634 0.055681054702382278 0 0.080343143758095259 0.058335218209008277 0 0.090416084875221875 0.058235299142909973 0 0.08827992924315356 0.067842626558367619 0 0.087237150257314613 0.037926204838731957 0 0.098930039005792711 0.04227996871225087 0 0.094917995650245529 0.021722354499223519 0 0.07449934060461412 0.03258063005354956 0 0.079692196512252927 0.044953406994506007 0 0.087237150257314613 0.037926204838731957 0 0.089760373586053266 0.048866493307206167 0 0.079692196512252927 0.044953406994506007 0 0.087237150257314613 0.037926204838731957 0 0.089760373586053266 0.048866493307206167 0 0.087237150257314613 0.037926204838731957 0 0.098930039005792711 0.04227996871225087 0 0.10894092886672049 0.033503019923715648 0 0.098930039005792711 0.04227996871225087 0 0.11550376979223601 0.054551475820320147 0 0.10894092886672049 0.033503019923715648 0 0.098930039005792711 0.04227996871225087 0 0.094917995650245529 0.021722354499223519 0 0.098930039005792711 0.04227996871225087 0 0.099395501669828634 0.055681054702382278 0 0.11550376979223601 0.054551475820320147 0 0.099395501669828634 0.055681054702382278 0 0.11550376979223601 0.054551475820320147 0 0.10561354398445311 0.069921878226714862 0 0.090416084875221875 0.058235299142909973 0 0.099395501669828634 0.055681054702382278 0 0.095618088847860577 0.065038419849084594 0 0.089760373586053266 0.048866493307206167 0 0.098930039005792711 0.04227996871225087 0 0.099395501669828634 0.055681054702382278 0 0.10894092886672049 0.033503019923715648 0 0.11961069471150609 0.02296590295220987 0 0.12977361784467401 0.039215218793308727 0 0.10894092886672049 0.033503019923715648 0 0.11550376979223601 0.054551475820320147 0 0.12977361784467401 0.039215218793308727 0 0.11961069471150609 0.02296590295220987 0 0.1158546052028349 0.0064685721448778594 0 0.094917995650245529 0.021722354499223519 0 0.11961069471150609 0.02296590295220987 0 0.1158546052028349 0.0064685721448778594 0 0.13894824890776639 0.02136224913872127 0 0.1158546052028349 0.0064685721448778594 0 0.098495163759696414 0.0029673617968291321 0 0.094917995650245529 0.021722354499223519 0 0.10894092886672049 0.033503019923715648 0 0.11961069471150609 0.02296590295220987 0 0.094917995650245529 0.021722354499223519 0 0.097728221435088053 0.099184528615223033 0 0.110275064223293 0.10236359857942121 0 0.11116449005577619 0.086473750785835857 0 0.099894961061174667 0.1104201015940532 0 0.11150799601301251 0.1117412241471519 0 0.110275064223293 0.10236359857942121 0 0.097728221435088053 0.099184528615223033 0 0.099894961061174667 0.1104201015940532 0 0.110275064223293 0.10236359857942121 0 0.097728221435088053 0.099184528615223033 0 0.099894961061174667 0.1104201015940532 0 0.084925795867796111 0.1103515185161017 0 0.099894961061174667 0.1104201015940532 0 0.096984900528893664 0.1212489081817222 0 0.084925795867796111 0.1103515185161017 0 0.099894961061174667 0.1104201015940532 0 0.096984900528893664 0.1212489081817222 0 0.10712684862241641 0.1210429748963526 0 0.096984900528893664 0.1212489081817222 0 0.10712684862241641 0.1210429748963526 0 0.10589272808503949 0.13156516273042271 0 0.099894961061174667 0.1104201015940532 0 0.10712684862241641 0.1210429748963526 0 0.11150799601301251 0.1117412241471519 0 0.10712684862241641 0.1210429748963526 0 0.11150799601301251 0.1117412241471519 0 0.1187293914863337 0.1182846474287873 0 0.11150799601301251 0.1117412241471519 0 0.1187293914863337 0.1182846474287873 0 0.1197878353292403 0.1092484053650479 0 0.10712684862241641 0.1210429748963526 0 0.1187293914863337 0.1182846474287873 0 0.114987521205969 0.1268010028982309 0 0.1187293914863337 0.1182846474287873 0 0.12813823657366311 0.12049833089676459 0 0.12624189261331301 0.1140678077034443 0 0.1187293914863337 0.1182846474287873 0 0.12212988809696081 0.1249307776834532 0 0.12813823657366311 0.12049833089676459 0 0.1187293914863337 0.1182846474287873 0 0.12212988809696081 0.1249307776834532 0 0.114987521205969 0.1268010028982309 0 0.1187293914863337 0.1182846474287873 0 0.1197878353292403 0.1092484053650479 0 0.12624189261331301 0.1140678077034443 0 0.1216961693062274 0.1020981758197984 0 0.110275064223293 0.10236359857942121 0 0.11116449005577619 0.086473750785835857 0 0.1197878353292403 0.1092484053650479 0 0.1216961693062274 0.1020981758197984 0 0.1302764983332621 0.10693497851168419 0 0.1216961693062274 0.1020981758197984 0 0.11116449005577619 0.086473750785835857 0 0.13668050292917741 0.098217611464673699 0 0.1197878353292403 0.1092484053650479 0 0.1216961693062274 0.1020981758197984 0 0.110275064223293 0.10236359857942121 0 0.11150799601301251 0.1117412241471519 0 0.1197878353292403 0.1092484053650479 0 0.110275064223293 0.10236359857942121 0 0.11116449005577619 0.086473750785835857 0 0.1207366242219714 0.074251990558816788 0 0.1300820653953097 0.084166932106396392 0 0.11116449005577619 0.086473750785835857 0 0.13668050292917741 0.098217611464673699 0 0.11116449005577619 0.086473750785835857 0 0.1207366242219714 0.074251990558816788 0 0.10561354398445311 0.069921878226714862 0 0.11550376979223601 0.054551475820320147 0 0.1207366242219714 0.074251990558816788 0 0.13255022158949201 0.068763676371196639 0 0.11550376979223601 0.054551475820320147 0 0.1207366242219714 0.074251990558816788 0 0.10561354398445311 0.069921878226714862 0 0.11116449005577619 0.086473750785835857 0 0.10561354398445311 0.069921878226714862 0 0.085648477182374977 0.074729890106998029 0 0.10561354398445311 0.069921878226714862 0 0.095618088847860577 0.065038419849084594 0 0.085648477182374977 0.074729890106998029 0 0.099395501669828634 0.055681054702382278 0 0.10561354398445311 0.069921878226714862 0 0.095618088847860577 0.065038419849084594 0 0.11116449005577619 0.086473750785835857 0 0.085648477182374977 0.074729890106998029 0 0.11116449005577619 0.086473750785835857 0 0.090808031879269946 0.087622927320568048 0 0.085648477182374977 0.074729890106998029 0 0.097728221435088053 0.099184528615223033 0 0.11116449005577619 0.086473750785835857 0 0.090808031879269946 0.087622927320568048 0 0.097728221435088053 0.099184528615223033 0 0.090808031879269946 0.087622927320568048 0 0.080235742217082393 0.093435287859391092 0 0.090808031879269946 0.087622927320568048 0 0.078675001300488379 0.083882301042573534 0 0.085648477182374977 0.074729890106998029 0 0.090808031879269946 0.087622927320568048 0 0.078675001300488379 0.083882301042573534 0 0.080235742217082393 0.093435287859391092 0 0.066395547834883203 0.05807658879080619 0 0.08827992924315356 0.067842626558367619 0 0.085648477182374977 0.074729890106998029 0 0.095618088847860577 0.065038419849084594 0 0.08827992924315356 0.067842626558367619 0 0.085648477182374977 0.074729890106998029 0 0.090416084875221875 0.058235299142909973 0 0.095618088847860577 0.065038419849084594 0 0.08827992924315356 0.067842626558367619 0 0.066395547834883203 0.05807658879080619 0 0.085648477182374977 0.074729890106998029 0 0.060132464308973767 0.062986029428160187 0 0.066395547834883203 0.05807658879080619 0 0.08827992924315356 0.067842626558367619 0 0.085648477182374977 0.074729890106998029 0 0.068637102026180674 0.07792917868559901 0 0.060132464308973767 0.062986029428160187 0 0.085648477182374977 0.074729890106998029 0 0.060132464308973767 0.062986029428160187 0 0.078675001300488379 0.083882301042573534 0 0.085648477182374977 0.074729890106998029 0 0.068637102026180674 0.07792917868559901 0 0.080235742217082393 0.093435287859391092 0 0.069503799956795384 0.087722797055870286 0 0.068523875558259784 0.095111972458496966 0 0.078675001300488379 0.083882301042573534 0 0.080235742217082393 0.093435287859391092 0 0.069503799956795384 0.087722797055870286 0 0.078675001300488379 0.083882301042573534 0 0.068637102026180674 0.07792917868559901 0 0.069503799956795384 0.087722797055870286 0 0.068637102026180674 0.07792917868559901 0 0.069503799956795384 0.087722797055870286 0 0.060111091978902922 0.083782113849914977 0 0.069503799956795384 0.087722797055870286 0 0.06135777996986308 0.093915161513068182 0 0.060111091978902922 0.083782113849914977 0 0.069503799956795384 0.087722797055870286 0 0.068523875558259784 0.095111972458496966 0 0.06135777996986308 0.093915161513068182 0 0.068523875558259784 0.095111972458496966 0 0.071520258741129425 0.10189571548122769 0 0.062413973273008162 0.1018934272394761 0 0.068523875558259784 0.095111972458496966 0 0.062413973273008162 0.1018934272394761 0 0.06135777996986308 0.093915161513068182 0 0.071520258741129425 0.10189571548122769 0 0.072821304814728441 0.1108529925529516 0 0.063718101814298073 0.11016590081819259 0 0.071520258741129425 0.10189571548122769 0 0.063718101814298073 0.11016590081819259 0 0.062413973273008162 0.1018934272394761 0 0.071520258741129425 0.10189571548122769 0 0.084925795867796111 0.1103515185161017 0 0.072821304814728441 0.1108529925529516 0 0.080235742217082393 0.093435287859391092 0 0.068523875558259784 0.095111972458496966 0 0.071520258741129425 0.10189571548122769 0 0.097728221435088053 0.099184528615223033 0 0.080235742217082393 0.093435287859391092 0 0.084925795867796111 0.1103515185161017 0 0.080235742217082393 0.093435287859391092 0 0.071520258741129425 0.10189571548122769 0 0.084925795867796111 0.1103515185161017 0 0.084925795867796111 0.1103515185161017 0 0.074154959480044275 0.1204842858357125 0 0.087075880893963842 0.12621803440601359 0 0.096984900528893664 0.1212489081817222 0 0.084925795867796111 0.1103515185161017 0 0.087075880893963842 0.12621803440601359 0 0.084925795867796111 0.1103515185161017 0 0.074154959480044275 0.1204842858357125 0 0.072821304814728441 0.1108529925529516 0 0.074154959480044275 0.1204842858357125 0 0.072821304814728441 0.1108529925529516 0 0.063718101814298073 0.11016590081819259 0 0.074154959480044275 0.1204842858357125 0 0.063718101814298073 0.11016590081819259 0 0.060124536552058239 0.11864948812996751 0 0.074154959480044275 0.1204842858357125 0 0.060124536552058239 0.11864948812996751 0 0.061109117960118017 0.12720913792676911 0 0.060124536552058239 0.11864948812996751 0 0.052595679859244633 0.1236025024456274 0 0.054913207086597561 0.11271600588853189 0 0.060124536552058239 0.11864948812996751 0 0.052595679859244633 0.1236025024456274 0 0.061109117960118017 0.12720913792676911 0 0.052595679859244633 0.1236025024456274 0 0.054913207086597561 0.11271600588853189 0 0.046771683079868627 0.1089772416004138 0 0.063718101814298073 0.11016590081819259 0 0.060124536552058239 0.11864948812996751 0 0.054913207086597561 0.11271600588853189 0 0.063718101814298073 0.11016590081819259 0 0.062413973273008162 0.1018934272394761 0 0.053620768430252298 0.1031656988462608 0 0.063718101814298073 0.11016590081819259 0 0.054913207086597561 0.11271600588853189 0 0.053620768430252298 0.1031656988462608 0 0.06135777996986308 0.093915161513068182 0 0.053620768430252298 0.1031656988462608 0 0.051535176025136201 0.090416251810209708 0 0.062413973273008162 0.1018934272394761 0 0.06135777996986308 0.093915161513068182 0 0.053620768430252298 0.1031656988462608 0 0.053620768430252298 0.1031656988462608 0 0.042875633238578528 0.09739353282270094 0 0.051535176025136201 0.090416251810209708 0 0.053620768430252298 0.1031656988462608 0 0.046771683079868627 0.1089772416004138 0 0.042875633238578528 0.09739353282270094 0 0.054913207086597561 0.11271600588853189 0 0.053620768430252298 0.1031656988462608 0 0.046771683079868627 0.1089772416004138 0 0.046771683079868627 0.1089772416004138 0 0.042875633238578528 0.09739353282270094 0 0.034382595390138257 0.1099700727945534 0 0.042875633238578528 0.09739353282270094 0 0.034382595390138257 0.1099700727945534 0 0.030708755379597181 0.088685576768743155 0 0.034382595390138257 0.1099700727945534 0 0.030708755379597181 0.088685576768743155 0 0.052595679859244633 0.1236025024456274 0 0.046771683079868627 0.1089772416004138 0 0.034382595390138257 0.1099700727945534 0 0.034382595390138257 0.1099700727945534 0 0.02520709702204247 0.1232263280856261 0 0.037354296692750887 0.12718670835402709 0 0.052595679859244633 0.1236025024456274 0 0.034382595390138257 0.1099700727945534 0 0.037354296692750887 0.12718670835402709 0 0.034382595390138257 0.1099700727945534 0 0.037354296692750887 0.12718670835402709 0 0.052595679859244633 0.1236025024456274 0 0.034382595390138257 0.1099700727945534 0 0.060132464308973767 0.062986029428160187 0 0.051537231586459821 0.0703604747810012 0 0.044258496001147778 0.063884183083345675 0 0.051537231586459821 0.0703604747810012 0 0.045053238281461433 0.071665999821029613 0 0.044258496001147778 0.063884183083345675 0 0.060132464308973767 0.062986029428160187 0 0.058160070023191839 0.074213970699792686 0 0.051537231586459821 0.0703604747810012 0 0.068637102026180674 0.07792917868559901 0 0.060132464308973767 0.062986029428160187 0 0.058160070023191839 0.074213970699792686 0 0.051537231586459821 0.0703604747810012 0 0.049495561811348857 0.078896267932753172 0 0.045053238281461433 0.071665999821029613 0 0.058160070023191839 0.074213970699792686 0 0.051537231586459821 0.0703604747810012 0 0.049495561811348857 0.078896267932753172 0 0.049495561811348857 0.078896267932753172 0 0.051535176025136201 0.090416251810209708 0 0.041750220721871581 0.085344735896560275 0 0.049495561811348857 0.078896267932753172 0 0.060111091978902922 0.083782113849914977 0 0.051535176025136201 0.090416251810209708 0 0.068637102026180674 0.07792917868559901 0 0.058160070023191839 0.074213970699792686 0 0.060111091978902922 0.083782113849914977 0 0.058160070023191839 0.074213970699792686 0 0.049495561811348857 0.078896267932753172 0 0.060111091978902922 0.083782113849914977 0 0.06135777996986308 0.093915161513068182 0 0.060111091978902922 0.083782113849914977 0 0.051535176025136201 0.090416251810209708 0 0.042875633238578528 0.09739353282270094 0 0.051535176025136201 0.090416251810209708 0 0.041750220721871581 0.085344735896560275 0 0.042875633238578528 0.09739353282270094 0 0.041750220721871581 0.085344735896560275 0 0.030708755379597181 0.088685576768743155 0 0.041750220721871581 0.085344735896560275 0 0.037489048909448763 0.07466528487264068 0 0.030708755379597181 0.088685576768743155 0 0.049495561811348857 0.078896267932753172 0 0.041750220721871581 0.085344735896560275 0 0.037489048909448763 0.07466528487264068 0 0.037489048909448763 0.07466528487264068 0 0.02703491536905472 0.067401080742933134 0 0.030708755379597181 0.088685576768743155 0 0.049495561811348857 0.078896267932753172 0 0.045053238281461433 0.071665999821029613 0 0.037489048909448763 0.07466528487264068 0 0.045053238281461433 0.071665999821029613 0 0.037489048909448763 0.07466528487264068 0 0.037579666130808903 0.067774354445351542 0 0.034062632092931817 0.061255223706808547 0 0.037579666130808903 0.067774354445351542 0 0.02703491536905472 0.067401080742933134 0 0.037489048909448763 0.07466528487264068 0 0.037579666130808903 0.067774354445351542 0 0.02703491536905472 0.067401080742933134 0 0.034062632092931817 0.061255223706808547 0 0.037579666130808903 0.067774354445351542 0 0.044258496001147778 0.063884183083345675 0 0.045053238281461433 0.071665999821029613 0 0.037579666130808903 0.067774354445351542 0 0.044258496001147778 0.063884183083345675 0 0.02703491536905472 0.067401080742933134 0 0.030708755379597181 0.088685576768743155 0 0.01366790099406239 0.052632887419703241 0 0.026593398378051959 0.076487299351285121 0 0.01366790099406239 0.052632887419703241 0 0.02703491536905472 0.067401080742933134 0 0.026593398378051959 0.076487299351285121 0 0.02703491536905472 0.067401080742933134 0 0.026593398378051959 0.076487299351285121 0 0.030708755379597181 0.088685576768743155 0 0.01366790099406239 0.052632887419703241 0 0.026593398378051959 0.076487299351285121 0 0.01611389888654503 0.070322973248010373 0 0.026593398378051959 0.076487299351285121 0 0.01611389888654503 0.070322973248010373 0 0.01767063525815666 0.080500261616376856 0 0.01767063525815666 0.080500261616376856 0 0.030708755379597181 0.088685576768743155 0 0.011643404763696401 0.092949868607662828 0 0.026593398378051959 0.076487299351285121 0 0.01767063525815666 0.080500261616376856 0 0.030708755379597181 0.088685576768743155 0 0.01767063525815666 0.080500261616376856 0 0.011643404763696401 0.092949868607662828 0 0.0065236609159091173 0.071671444604676282 0 -0.01109578586274463 0.07592966442077155 0 0.011643404763696401 0.092949868607662828 0 0.0065236609159091173 0.071671444604676282 0 -0.01109578586274463 0.07592966442077155 0 0.011643404763696401 0.092949868607662828 0 0.01366790099406239 0.052632887419703241 0 0.01611389888654503 0.070322973248010373 0 0.0065236609159091173 0.071671444604676282 0 0.01611389888654503 0.070322973248010373 0 0.01767063525815666 0.080500261616376856 0 0.0065236609159091173 0.071671444604676282 0 -0.0031702267477386531 0.067180855403790804 0 0.00079413703044923156 0.058803151297745167 0 0.0065236609159091173 0.071671444604676282 0 0.034382595390138257 0.1099700727945534 0 0.02520709702204247 0.1232263280856261 0 0.01356063639681436 0.11371506303709419 0 0.02520709702204247 0.1232263280856261 0 0.01356063639681436 0.11371506303709419 0 0.011098566836083609 0.13484946890849181 0 0.034382595390138257 0.1099700727945534 0 0.011643404763696401 0.092949868607662828 0 0.01356063639681436 0.11371506303709419 0 0.034382595390138257 0.1099700727945534 0 0.011643404763696401 0.092949868607662828 0 0.034382595390138257 0.1099700727945534 0 0.030708755379597181 0.088685576768743155 0 0.011643404763696401 0.092949868607662828 0 -0.0040088977147468936 0.097024336429998151 0 0.011643404763696401 0.092949868607662828 0 0.0025937760044158291 0.1064596481343341 0 0.011643404763696401 0.092949868607662828 0 0.0025937760044158291 0.1064596481343341 0 0.01356063639681436 0.11371506303709419 0 -0.007175360702145514 0.1155930690216506 0 0.0025937760044158291 0.1064596481343341 0 0.01356063639681436 0.11371506303709419 0 -0.007175360702145514 0.1155930690216506 0 0.01356063639681436 0.11371506303709419 0 0.011098566836083609 0.13484946890849181 0 -0.007175360702145514 0.1155930690216506 0 0.011098566836083609 0.13484946890849181 0 0.02520709702204247 0.1232263280856261 0 0.011098566836083609 0.13484946890849181 0 0.028759663239593541 0.13617761485890201 0 0.02520709702204247 0.1232263280856261 0 0.028759663239593541 0.13617761485890201 0 0.037354296692750887 0.12718670835402709 0 0.011098566836083609 0.13484946890849181 0 0.029372494374312729 0.15410586879533311 0 0.013538337341477229 0.1636201682865295 0 0.011098566836083609 0.13484946890849181 0 0.028759663239593541 0.13617761485890201 0 0.029372494374312729 0.15410586879533311 0 0.011098566836083609 0.13484946890849181 0 0.029372494374312729 0.15410586879533311 0 -0.0048034666842798916 0.1614245706846468 0 0.011098566836083609 0.13484946890849181 0 0.013538337341477229 0.1636201682865295 0 -0.0057956805663459468 0.1892940575843915 0 -0.0048034666842798916 0.1614245706846468 0 0.013538337341477229 0.1636201682865295 0 -0.0057956805663459468 0.1892940575843915 0 0.013538337341477229 0.1636201682865295 0 0.020045678312652242 0.18090880435863019 0 -0.0057956805663459468 0.1892940575843915 0 0.020045678312652242 0.18090880435863019 0 0.029372494374312729 0.15410586879533311 0 0.013538337341477229 0.1636201682865295 0 0.020045678312652242 0.18090880435863019 0 0.029372494374312729 0.15410586879533311 0 0.045887037191650451 0.17252355113286891 0 0.04813315871709322 0.1541455757588851 0 0.029372494374312729 0.15410586879533311 0 0.020045678312652242 0.18090880435863019 0 0.045887037191650451 0.17252355113286891 0 0.020045678312652242 0.18090880435863019 0 0.045887037191650451 0.17252355113286891 0 0.020045678312652242 0.18090880435863019 0 0.045887037191650451 0.17252355113286891 0 0.041991232206495782 0.1919910870650737 0 0.045887037191650451 0.17252355113286891 0 0.060802696405823108 0.1787365445376432 0 0.041991232206495782 0.1919910870650737 0 0.045887037191650451 0.17252355113286891 0 0.071728396070648653 0.1641382979071076 0 0.045887037191650451 0.17252355113286891 0 0.060802696405823108 0.1787365445376432 0 0.071728396070648653 0.1641382979071076 0 0.045887037191650451 0.17252355113286891 0 0.059657673584757237 0.15824269734654939 0 0.04813315871709322 0.1541455757588851 0 0.045887037191650451 0.17252355113286891 0 0.059657673584757237 0.15824269734654939 0 0.071728396070648653 0.1641382979071076 0 0.059657673584757237 0.15824269734654939 0 0.04813315871709322 0.1541455757588851 0 0.060329678829100349 0.1474246815113264 0 0.04813315871709322 0.1541455757588851 0 0.050215372913412007 0.1458935282758238 0 0.060329678829100349 0.1474246815113264 0 0.050215372913412007 0.1458935282758238 0 0.060329678829100349 0.1474246815113264 0 0.052072656112092337 0.13760051191958289 0 0.050215372913412007 0.1458935282758238 0 0.052072656112092337 0.13760051191958289 0 0.040325997995362128 0.14440334391350099 0 0.060329678829100349 0.1474246815113264 0 0.062159468211553673 0.13737243366585769 0 0.052072656112092337 0.13760051191958289 0 0.062159468211553673 0.13737243366585769 0 0.054733357378362921 0.13083888414419281 0 0.052072656112092337 0.13760051191958289 0 0.052595679859244633 0.1236025024456274 0 0.054733357378362921 0.13083888414419281 0 0.061109117960118017 0.12720913792676911 0 0.062159468211553673 0.13737243366585769 0 0.054733357378362921 0.13083888414419281 0 0.061109117960118017 0.12720913792676911 0 0.052595679859244633 0.1236025024456274 0 0.054733357378362921 0.13083888414419281 0 0.046346625143134958 0.1312929959830558 0 0.054733357378362921 0.13083888414419281 0 0.052072656112092337 0.13760051191958289 0 0.046346625143134958 0.1312929959830558 0 0.037354296692750887 0.12718670835402709 0 0.040325997995362128 0.14440334391350099 0 0.046346625143134958 0.1312929959830558 0 0.037354296692750887 0.12718670835402709 0 0.040325997995362128 0.14440334391350099 0 0.028759663239593541 0.13617761485890201 0 0.037354296692750887 0.12718670835402709 0 0.040325997995362128 0.14440334391350099 0 0.052072656112092337 0.13760051191958289 0 0.046346625143134958 0.1312929959830558 0 0.040325997995362128 0.14440334391350099 0 0.052595679859244633 0.1236025024456274 0 0.046346625143134958 0.1312929959830558 0 0.037354296692750887 0.12718670835402709 0 0.028759663239593541 0.13617761485890201 0 0.029372494374312729 0.15410586879533311 0 0.040325997995362128 0.14440334391350099 0 0.029372494374312729 0.15410586879533311 0 0.04813315871709322 0.1541455757588851 0 0.040325997995362128 0.14440334391350099 0 0.04813315871709322 0.1541455757588851 0 0.050215372913412007 0.1458935282758238 0 0.040325997995362128 0.14440334391350099 0 0.025149977659741599 0.24684982625080901 0 0.00014186162909880781 0.2338185852574263 0 0.02177620002751179 0.22559840920251981 0 0.025149977659741599 0.24684982625080901 0 0.00014186162909880781 0.2338185852574263 0 0.025149977659741599 0.24684982625080901 0 0.00014186162909880781 0.2338185852574263 0 0.0073806355134042019 0.25529449578482938 0 0.00014186162909880781 0.2338185852574263 0 0.02177620002751179 0.22559840920251981 0 0.0090806704795409685 0.20996839310177981 0 0.025149977659741599 0.24684982625080901 0 0.02177620002751179 0.22559840920251981 0 0.039960986899899173 0.22780444499479169 0 0.02177620002751179 0.22559840920251981 0 0.0090806704795409685 0.20996839310177981 0 0.034547503469278373 0.20955079640779209 0 0.0090806704795409685 0.20996839310177981 0 0.02162293693503077 0.1981024475624624 0 0.034547503469278373 0.20955079640779209 0 -0.0057956805663459468 0.1892940575843915 0 0.0090806704795409685 0.20996839310177981 0 0.02162293693503077 0.1981024475624624 0 -0.0057956805663459468 0.1892940575843915 0 0.020045678312652242 0.18090880435863019 0 0.02162293693503077 0.1981024475624624 0 0.020045678312652242 0.18090880435863019 0 0.02162293693503077 0.1981024475624624 0 0.041991232206495782 0.1919910870650737 0 0.02162293693503077 0.1981024475624624 0 0.041991232206495782 0.1919910870650737 0 0.034547503469278373 0.20955079640779209 0 0.041991232206495782 0.1919910870650737 0 0.05849467095877426 0.1965416733816682 0 0.050764695011206777 0.20916964222725651 0 0.060802696405823108 0.1787365445376432 0 0.041991232206495782 0.1919910870650737 0 0.05849467095877426 0.1965416733816682 0 0.050764695011206777 0.20916964222725651 0 0.066981886553135278 0.20878848804672309 0 0.05849467095877426 0.1965416733816682 0 0.050764695011206777 0.20916964222725651 0 0.066981886553135278 0.20878848804672309 0 0.050764695011206777 0.20916964222725651 0 0.061514006406540499 0.23071042489022231 0 0.066981886553135278 0.20878848804672309 0 0.050764695011206777 0.20916964222725651 0 0.034547503469278373 0.20955079640779209 0 0.039960986899899173 0.22780444499479169 0 0.050764695011206777 0.20916964222725651 0 0.034547503469278373 0.20955079640779209 0 0.041991232206495782 0.1919910870650737 0 0.050764695011206777 0.20916964222725651 0 0.034547503469278373 0.20955079640779209 0 0.02177620002751179 0.22559840920251981 0 0.034547503469278373 0.20955079640779209 0 0.039960986899899173 0.22780444499479169 0 0.039960986899899173 0.22780444499479169 0 0.061514006406540499 0.23071042489022231 0 0.045472231705318063 0.24424317023843681 0 0.050764695011206777 0.20916964222725651 0 0.039960986899899173 0.22780444499479169 0 0.061514006406540499 0.23071042489022231 0 0.061514006406540499 0.23071042489022231 0 0.056046126259945157 0.25263236173372139 0 0.061514006406540499 0.23071042489022231 0 0.056046126259945157 0.25263236173372139 0 0.067905867336300579 0.25358800162702 0 0.061514006406540499 0.23071042489022231 0 0.045472231705318063 0.24424317023843681 0 0.056046126259945157 0.25263236173372139 0 0.025149977659741599 0.24684982625080901 0 0.039960986899899173 0.22780444499479169 0 0.045472231705318063 0.24424317023843681 0 0.092857250133516089 0.24175825718487831 0 0.078525547080241467 0.2465942846531784 0 0.093798877441032588 0.2579700649065903 0 0.092857250133516089 0.24175825718487831 0 0.078525547080241467 0.2465942846531784 0 0.081986142109724491 0.22560265144644431 0 0.061514006406540499 0.23071042489022231 0 0.078525547080241467 0.2465942846531784 0 0.067905867336300579 0.25358800162702 0 0.061514006406540499 0.23071042489022231 0 0.078525547080241467 0.2465942846531784 0 0.081986142109724491 0.22560265144644431 0 0.061514006406540499 0.23071042489022231 0 0.081986142109724491 0.22560265144644431 0 0.066981886553135278 0.20878848804672309 0 0.061514006406540499 0.23071042489022231 0 0.066981886553135278 0.20878848804672309 0 0.081986142109724491 0.22560265144644431 0 0.09236794217301933 0.20819183719001669 0 0.066981886553135278 0.20878848804672309 0 0.09236794217301933 0.20819183719001669 0 0.066981886553135278 0.20878848804672309 0 0.09236794217301933 0.20819183719001669 0 0.066981886553135278 0.20878848804672309 0 0.071445073857882777 0.19089458628000441 0 0.060802696405823108 0.1787365445376432 0 0.05849467095877426 0.1965416733816682 0 0.071445073857882777 0.19089458628000441 0 0.066981886553135278 0.20878848804672309 0 0.071445073857882777 0.19089458628000441 0 0.05849467095877426 0.1965416733816682 0 0.066981886553135278 0.20878848804672309 0 0.071445073857882777 0.19089458628000441 0 0.09236794217301933 0.20819183719001669 0 0.071445073857882777 0.19089458628000441 0 0.086464584236575506 0.1862285865309723 0 0.09236794217301933 0.20819183719001669 0 0.086464584236575506 0.1862285865309723 0 0.1023855527362314 0.18749689463882899 0 0.09236794217301933 0.20819183719001669 0 0.11775399779290339 0.20759518633331239 0 0.1023855527362314 0.18749689463882899 0 0.11775399779290339 0.20759518633331239 0 0.1023855527362314 0.18749689463882899 0 0.12550986450034471 0.186594373040398 0 0.09236794217301933 0.20819183719001669 0 0.11775399779290339 0.20759518633331239 0 0.09236794217301933 0.20819183719001669 0 0.11775399779290339 0.20759518633331239 0 0.10906069526472741 0.22998953009969161 0 0.092857250133516089 0.24175825718487831 0 0.081986142109724491 0.22560265144644431 0 0.10906069526472741 0.22998953009969161 0 0.081986142109724491 0.22560265144644431 0 0.09236794217301933 0.20819183719001669 0 0.10906069526472741 0.22998953009969161 0 0.11775399779290339 0.20759518633331239 0 0.10906069526472741 0.22998953009969161 0 0.1382648444377183 0.22719855966067881 0 0.10906069526472741 0.22998953009969161 0 0.12787711237058769 0.24521089126939841 0 0.1100607559553454 0.25396994184181759 0 0.092857250133516089 0.24175825718487831 0 0.10906069526472741 0.22998953009969161 0 0.1100607559553454 0.25396994184181759 0 0.081151633673542972 0.15313158297098389 0 0.083920606388658545 0.14050817004821939 0 0.0975697549496468 0.15575304468134629 0 0.081151633673542972 0.15313158297098389 0 0.083920606388658545 0.14050817004821939 0 0.071387777285217918 0.15212681924726251 0 0.074154959480044275 0.1204842858357125 0 0.087075880893963842 0.12621803440601359 0 0.083920606388658545 0.14050817004821939 0 0.087075880893963842 0.12621803440601359 0 0.083920606388658545 0.14050817004821939 0 0.097906888154765004 0.1362305538396491 0 0.062159468211553673 0.13737243366585769 0 0.061109117960118017 0.12720913792676911 0 0.083920606388658545 0.14050817004821939 0 0.074154959480044275 0.1204842858357125 0 0.061109117960118017 0.12720913792676911 0 0.083920606388658545 0.14050817004821939 0 0.061109117960118017 0.12720913792676911 0 0.083920606388658545 0.14050817004821939 0 0.062159468211553673 0.13737243366585769 0 0.083920606388658545 0.14050817004821939 0 0.069449382678632612 0.1443580261181665 0 0.060329678829100349 0.1474246815113264 0 0.062159468211553673 0.13737243366585769 0 0.069449382678632612 0.1443580261181665 0 0.060329678829100349 0.1474246815113264 0 0.069449382678632612 0.1443580261181665 0 0.071387777285217918 0.15212681924726251 0 0.083920606388658545 0.14050817004821939 0 0.069449382678632612 0.1443580261181665 0 0.071387777285217918 0.15212681924726251 0 0.059657673584757237 0.15824269734654939 0 0.060329678829100349 0.1474246815113264 0 0.071387777285217918 0.15212681924726251 0 0.059657673584757237 0.15824269734654939 0 0.071387777285217918 0.15212681924726251 0 0.071728396070648653 0.1641382979071076 0 0.081151633673542972 0.15313158297098389 0 0.071387777285217918 0.15212681924726251 0 0.071728396070648653 0.1641382979071076 0 0.071445073857882777 0.19089458628000441 0 0.075908261162629706 0.17300068451328551 0 0.086464584236575506 0.1862285865309723 0 0.060802696405823108 0.1787365445376432 0 0.071445073857882777 0.19089458628000441 0 0.075908261162629706 0.17300068451328551 0 0.071445073857882777 0.19089458628000441 0 0.075908261162629706 0.17300068451328551 0 0.060802696405823108 0.1787365445376432 0 0.071728396070648653 0.1641382979071076 0 0.075908261162629706 0.17300068451328551 0 0.086464584236575506 0.1862285865309723 0 0.090216091253114361 0.17155893003272579 0 0.1023855527362314 0.18749689463882899 0 0.075908261162629706 0.17300068451328551 0 0.086464584236575506 0.1862285865309723 0 0.090216091253114361 0.17155893003272579 0 0.081151633673542972 0.15313158297098389 0 0.071728396070648653 0.1641382979071076 0 0.0975697549496468 0.15575304468134629 0 0.071728396070648653 0.1641382979071076 0 0.090216091253114361 0.17155893003272579 0 0.0975697549496468 0.15575304468134629 0 0.071728396070648653 0.1641382979071076 0 0.075908261162629706 0.17300068451328551 0 0.090216091253114361 0.17155893003272579 0 0.071728396070648653 0.1641382979071076 0 0.0975697549496468 0.15575304468134629 0 0.090216091253114361 0.17155893003272579 0 0.1064810698159025 0.16893633516972181 0 0.0975697549496468 0.15575304468134629 0 0.1064810698159025 0.16893633516972181 0 0.1067320948171991 0.1538072021696697 0 0.0975697549496468 0.15575304468134629 0 0.090216091253114361 0.17155893003272579 0 0.1064810698159025 0.16893633516972181 0 0.1023855527362314 0.18749689463882899 0 0.1064810698159025 0.16893633516972181 0 0.12954358324573961 0.16710623429112001 0 0.12550986450034471 0.186594373040398 0 0.1064810698159025 0.16893633516972181 0 0.1023855527362314 0.18749689463882899 0 0.12550986450034471 0.186594373040398 0 0.1064810698159025 0.16893633516972181 0 0.1067320948171991 0.1538072021696697 0 0.12954358324573961 0.16710623429112001 0 0.1067320948171991 0.1538072021696697 0 0.1262856736452258 0.1537478882528979 0 0.12954358324573961 0.16710623429112001 0 0.1067320948171991 0.1538072021696697 0 0.12954358324573961 0.16710623429112001 0 0.1148569119608701 0.14824987142416859 0 0.1067320948171991 0.1538072021696697 0 0.1262856736452258 0.1537478882528979 0 0.118317888191051 0.14254191757659121 0 0.1148569119608701 0.14824987142416859 0 0.1262856736452258 0.1537478882528979 0 0.118317888191051 0.14254191757659121 0 0.12756241452120801 0.13893694775055651 0 0.1262856736452258 0.1537478882528979 0 0.1148569119608701 0.14824987142416859 0 0.1067320948171991 0.1538072021696697 0 0.1080919911900045 0.14290247769751591 0 0.118317888191051 0.14254191757659121 0 0.1148569119608701 0.14824987142416859 0 0.1080919911900045 0.14290247769751591 0 0.083920606388658545 0.14050817004821939 0 0.1067320948171991 0.1538072021696697 0 0.1067320948171991 0.1538072021696697 0 0.1080919911900045 0.14290247769751591 0 0.097906888154765004 0.1362305538396491 0 0.083920606388658545 0.14050817004821939 0 0.1067320948171991 0.1538072021696697 0 0.097906888154765004 0.1362305538396491 0 0.083920606388658545 0.14050817004821939 0 0.1067320948171991 0.1538072021696697 0 0.0975697549496468 0.15575304468134629 0 0.096984900528893664 0.1212489081817222 0 0.097906888154765004 0.1362305538396491 0 0.10589272808503949 0.13156516273042271 0 0.096984900528893664 0.1212489081817222 0 0.087075880893963842 0.12621803440601359 0 0.097906888154765004 0.1362305538396491 0 0.1080919911900045 0.14290247769751591 0 0.097906888154765004 0.1362305538396491 0 0.10589272808503949 0.13156516273042271 0 0.1080919911900045 0.14290247769751591 0 0.10589272808503949 0.13156516273042271 0 0.11327312463209829 0.13597294690712769 0 0.10712684862241641 0.1210429748963526 0 0.10589272808503949 0.13156516273042271 0 0.114987521205969 0.1268010028982309 0 0.10589272808503949 0.13156516273042271 0 0.114987521205969 0.1268010028982309 0 0.11327312463209829 0.13597294690712769 0 0.114987521205969 0.1268010028982309 0 0.11327312463209829 0.13597294690712769 0 0.1203000125167645 0.13336293759413789 0 0.118317888191051 0.14254191757659121 0 0.1080919911900045 0.14290247769751591 0 0.11327312463209829 0.13597294690712769 0 0.118317888191051 0.14254191757659121 0 0.1203000125167645 0.13336293759413789 0 0.12756241452120801 0.13893694775055651 0 0.118317888191051 0.14254191757659121 0 0.11327312463209829 0.13597294690712769 0 0.1203000125167645 0.13336293759413789 0 0.12212988809696081 0.1249307776834532 0 0.114987521205969 0.1268010028982309 0 0.1203000125167645 0.13336293759413789 0 0.12212988809696081 0.1249307776834532 0 0.1203000125167645 0.13336293759413789 0 0.12788127083107459 0.1291064789800366 0 0.12788127083107459 0.1291064789800366 0 0.13409394305489639 0.1257339851238449 0 0.12813823657366311 0.12049833089676459 0 0.12788127083107459 0.1291064789800366 0 0.13410827310584911 0.13282331674432049 0 0.13409394305489639 0.1257339851238449 0 0.12788127083107459 0.1291064789800366 0 0.12756241452120801 0.13893694775055651 0 0.13410827310584911 0.13282331674432049 0 0.1203000125167645 0.13336293759413789 0 0.12788127083107459 0.1291064789800366 0 0.12756241452120801 0.13893694775055651 0 0.13410827310584911 0.13282331674432049 0 0.14295710802469111 0.12768772724150559 0 0.13848136883728299 0.14203914735535511 0 0.12756241452120801 0.13893694775055651 0 0.13410827310584911 0.13282331674432049 0 0.13848136883728299 0.14203914735535511 0 0.13410827310584911 0.13282331674432049 0 0.13409394305489639 0.1257339851238449 0 0.14295710802469111 0.12768772724150559 0 0.14295710802469111 0.12768772724150559 0 0.15698787762036359 0.14007723406829989 0 0.15364605026385231 0.1227496740475859 0 0.14295710802469111 0.12768772724150559 0 0.13848136883728299 0.14203914735535511 0 0.15698787762036359 0.14007723406829989 0 0.13848136883728299 0.14203914735535511 0 0.1441447949138806 0.1573716891147208 0 0.15698787762036359 0.14007723406829989 0 0.1441447949138806 0.1573716891147208 0 0.1598153361361678 0.15982657838785511 0 0.15698787762036359 0.14007723406829989 0 0.13848136883728299 0.14203914735535511 0 0.1262856736452258 0.1537478882528979 0 0.1441447949138806 0.1573716891147208 0 0.12756241452120801 0.13893694775055651 0 0.13848136883728299 0.14203914735535511 0 0.1262856736452258 0.1537478882528979 0 0.1262856736452258 0.1537478882528979 0 0.12954358324573961 0.16710623429112001 0 0.1441447949138806 0.1573716891147208 0 0.12954358324573961 0.16710623429112001 0 0.12550986450034471 0.186594373040398 0 0.15375492999850379 0.1814330523327968 0 0.12954358324573961 0.16710623429112001 0 0.15375492999850379 0.1814330523327968 0 0.1441447949138806 0.1573716891147208 0 0.15375492999850379 0.1814330523327968 0 0.1441447949138806 0.1573716891147208 0 0.1598153361361678 0.15982657838785511 0 0.1598153361361678 0.15982657838785511 0 0.17205847002769489 0.1711246398383999 0 0.17247097746626519 0.1464629757798975 0 0.15375492999850379 0.1814330523327968 0 0.1598153361361678 0.15982657838785511 0 0.17205847002769489 0.1711246398383999 0 0.15375492999850379 0.1814330523327968 0 0.17205847002769489 0.1711246398383999 0 0.18411838942066619 0.18828130780555291 0 0.17205847002769489 0.1711246398383999 0 0.18411838942066619 0.18828130780555291 0 0.19050902449260759 0.164433536692701 0 0.17205847002769489 0.1711246398383999 0 0.17247097746626519 0.1464629757798975 0 0.19050902449260759 0.164433536692701 0 0.17247097746626519 0.1464629757798975 0 0.1903693880120208 0.14015559280000461 0 0.19050902449260759 0.164433536692701 0 0.17247097746626519 0.1464629757798975 0 0.18002451345814399 0.12716596121819479 0 0.1903693880120208 0.14015559280000461 0 0.17247097746626519 0.1464629757798975 0 0.18002451345814399 0.12716596121819479 0 0.16417220099380411 0.12505127510387981 0 0.15698787762036359 0.14007723406829989 0 0.16417220099380411 0.12505127510387981 0 0.15364605026385231 0.1227496740475859 0 0.17247097746626519 0.1464629757798975 0 0.15698787762036359 0.14007723406829989 0 0.16417220099380411 0.12505127510387981 0 0.1598153361361678 0.15982657838785511 0 0.17247097746626519 0.1464629757798975 0 0.15698787762036359 0.14007723406829989 0 0.14702044576598061 0.2478904659134552 0 0.1382648444377183 0.22719855966067881 0 0.15828943790025421 0.22969507774947781 0 0.14702044576598061 0.2478904659134552 0 0.12787711237058769 0.24521089126939841 0 0.1382648444377183 0.22719855966067881 0 0.10906069526472741 0.22998953009969161 0 0.12787711237058769 0.24521089126939841 0 0.1382648444377183 0.22719855966067881 0 0.1382648444377183 0.22719855966067881 0 0.14314005341278749 0.20699853547660821 0 0.15828943790025421 0.22969507774947781 0 0.14314005341278749 0.20699853547660821 0 0.16852610903267151 0.206401884619904 0 0.11775399779290339 0.20759518633331239 0 0.1382648444377183 0.22719855966067881 0 0.14314005341278749 0.20699853547660821 0 0.11775399779290339 0.20759518633331239 0 0.14314005341278749 0.20699853547660821 0 0.11775399779290339 0.20759518633331239 0 0.12550986450034471 0.186594373040398 0 0.14314005341278749 0.20699853547660821 0 0.15375492999850379 0.1814330523327968 0 0.14314005341278749 0.20699853547660821 0 0.16852610903267151 0.206401884619904 0 0.12550986450034471 0.186594373040398 0 0.15375492999850379 0.1814330523327968 0 0.14314005341278749 0.20699853547660821 0 0.15375492999850379 0.1814330523327968 0 0.18411838942066619 0.18828130780555291 0 0.16852610903267151 0.206401884619904 0 0.18411838942066619 0.18828130780555291 0 0.16852610903267151 0.206401884619904 0 0.1878214256448299 0.20672411698152671 0 0.16852610903267151 0.206401884619904 0 0.17766068788986381 0.23020170431202469 0 0.1878214256448299 0.20672411698152671 0 0.14314005341278749 0.20699853547660821 0 0.16852610903267151 0.206401884619904 0 0.15828943790025421 0.22969507774947781 0 0.16852610903267151 0.206401884619904 0 0.15828943790025421 0.22969507774947781 0 0.17766068788986381 0.23020170431202469 0 0.17766068788986381 0.23020170431202469 0 0.19353513124668931 0.22246748781277501 0 0.1878214256448299 0.20672411698152671 0 0.17766068788986381 0.23020170431202469 0 0.18692125413578081 0.24552837502103991 0 0.19379669244916639 0.23440003217329089 0 0.17766068788986381 0.23020170431202469 0 0.18692125413578081 0.24552837502103991 0 0.16774616909827719 0.2460930353984315 0 0.15828943790025421 0.22969507774947781 0 0.17766068788986381 0.23020170431202469 0 0.16774616909827719 0.2460930353984315 0 0.14702044576598061 0.2478904659134552 0 0.15828943790025421 0.22969507774947781 0 0.16774616909827719 0.2460930353984315 0 0.21557305570370441 0.24515722135805329 0 0.2029257889591993 0.24295866219667439 0 0.23007231546290949 0.2334513308517342 0 0.2029257889591993 0.24295866219667439 0 0.23007231546290949 0.2334513308517342 0 0.21557305570370441 0.24515722135805329 0 0.2029257889591993 0.24295866219667439 0 0.20107379594449931 0.25686311186437227 0 0.18692125413578081 0.24552837502103991 0 0.2029257889591993 0.24295866219667439 0 0.20107379594449931 0.25686311186437227 0 0.18692125413578081 0.24552837502103991 0 0.19379669244916639 0.23440003217329089 0 0.2029257889591993 0.24295866219667439 0 0.17766068788986381 0.23020170431202469 0 0.19379669244916639 0.23440003217329089 0 0.19353513124668931 0.22246748781277501 0 0.19379669244916639 0.23440003217329089 0 0.2029257889591993 0.24295866219667439 0 0.20920449219815451 0.22515354045629349 0 0.19379669244916639 0.23440003217329089 0 0.19353513124668931 0.22246748781277501 0 0.20920449219815451 0.22515354045629349 0 0.2029257889591993 0.24295866219667439 0 0.20920449219815451 0.22515354045629349 0 0.23007231546290949 0.2334513308517342 0 0.19353513124668931 0.22246748781277501 0 0.20920449219815451 0.22515354045629349 0 0.20732414099141369 0.20672295990195361 0 0.20920449219815451 0.22515354045629349 0 0.20732414099141369 0.20672295990195361 0 0.22783619495118521 0.20973527166224001 0 0.19353513124668931 0.22246748781277501 0 0.20732414099141369 0.20672295990195361 0 0.1878214256448299 0.20672411698152671 0 0.18411838942066619 0.18828130780555291 0 0.1878214256448299 0.20672411698152671 0 0.20343121377691101 0.18825927067945539 0 0.20732414099141369 0.20672295990195361 0 0.1878214256448299 0.20672411698152671 0 0.20343121377691101 0.18825927067945539 0 0.20732414099141369 0.20672295990195361 0 0.20343121377691101 0.18825927067945539 0 0.2219787971027708 0.18678942035429349 0 0.20732414099141369 0.20672295990195361 0 0.22783619495118521 0.20973527166224001 0 0.2219787971027708 0.18678942035429349 0 0.24528107816237801 0.1907036486386274 0 0.22783619495118521 0.20973527166224001 0 0.2219787971027708 0.18678942035429349 0 0.24528107816237801 0.1907036486386274 0 0.25242827713160498 0.21540237912569379 0 0.24528107816237801 0.1907036486386274 0 0.22783619495118521 0.20973527166224001 0 0.25242827713160498 0.21540237912569379 0 0.20920449219815451 0.22515354045629349 0 0.22783619495118521 0.20973527166224001 0 0.23007231546290949 0.2334513308517342 0 0.23007231546290949 0.2334513308517342 0 0.25242827713160498 0.21540237912569379 0 0.23007231546290949 0.2334513308517342 0 0.25511338863332461 0.22468137717712711 0 0.25242827713160498 0.21540237912569379 0 0.23007231546290949 0.2334513308517342 0 0.25511338863332461 0.22468137717712711 0 0.23007231546290949 0.2334513308517342 0 0.2457442494512444 0.24022391879071339 0 0.25511338863332461 0.22468137717712711 0 0.22783619495118521 0.20973527166224001 0 0.23007231546290949 0.2334513308517342 0 0.25242827713160498 0.21540237912569379 0 0.2457442494512444 0.24022391879071339 0 0.23628031136540401 0.25597328662156199 0 0.26221447651104962 0.2479993693513689 0 0.23007231546290949 0.2334513308517342 0 0.2457442494512444 0.24022391879071339 0 0.23628031136540401 0.25597328662156199 0 0.21557305570370441 0.24515722135805329 0 0.23007231546290949 0.2334513308517342 0 0.23628031136540401 0.25597328662156199 0 0.21557305570370441 0.24515722135805329 0 0.23007231546290949 0.2334513308517342 0 0.21023583046185859 0.14706018503428281 0 0.22521494488481819 0.12557893006429149 0 0.2001236667938262 0.1180422718546187 0 0.18002451345814399 0.12716596121819479 0 0.1903693880120208 0.14015559280000461 0 0.2001236667938262 0.1180422718546187 0 0.21023583046185859 0.14706018503428281 0 0.1903693880120208 0.14015559280000461 0 0.2001236667938262 0.1180422718546187 0 0.21023583046185859 0.14706018503428281 0 0.1903693880120208 0.14015559280000461 0 0.19050902449260759 0.164433536692701 0 0.18411838942066619 0.18828130780555291 0 0.20343121377691101 0.18825927067945539 0 0.19050902449260759 0.164433536692701 0 0.20343121377691101 0.18825927067945539 0 0.19050902449260759 0.164433536692701 0 0.20962662881846919 0.1707346457134423 0 0.20343121377691101 0.18825927067945539 0 0.20962662881846919 0.1707346457134423 0 0.2219787971027708 0.18678942035429349 0 0.21023583046185859 0.14706018503428281 0 0.20962662881846919 0.1707346457134423 0 0.2254160648188453 0.164078398330023 0 0.21023583046185859 0.14706018503428281 0 0.19050902449260759 0.164433536692701 0 0.20962662881846919 0.1707346457134423 0 0.20962662881846919 0.1707346457134423 0 0.2254160648188453 0.164078398330023 0 0.2219787971027708 0.18678942035429349 0 0.2254160648188453 0.164078398330023 0 0.2219787971027708 0.18678942035429349 0 0.23714843650665229 0.1758398884969993 0 0.24528107816237801 0.1907036486386274 0 0.2219787971027708 0.18678942035429349 0 0.23714843650665229 0.1758398884969993 0 0.24528107816237801 0.1907036486386274 0 0.23714843650665229 0.1758398884969993 0 0.25292738168467233 0.17649485219682931 0 0.2254160648188453 0.164078398330023 0 0.24653130607993951 0.16237692388552691 0 0.23688534306575301 0.1458043597726891 0 0.23714843650665229 0.1758398884969993 0 0.24653130607993951 0.16237692388552691 0 0.25292738168467233 0.17649485219682931 0 0.2254160648188453 0.164078398330023 0 0.23714843650665229 0.1758398884969993 0 0.24653130607993951 0.16237692388552691 0 0.24653130607993951 0.16237692388552691 0 0.2496536413094039 0.15044712256699261 0 0.23688534306575301 0.1458043597726891 0 0.2496536413094039 0.15044712256699261 0 0.23688534306575301 0.1458043597726891 0 0.25004344172447263 0.14019424959050239 0 0.21023583046185859 0.14706018503428281 0 0.2254160648188453 0.164078398330023 0 0.23688534306575301 0.1458043597726891 0 0.21023583046185859 0.14706018503428281 0 0.23688534306575301 0.1458043597726891 0 0.22521494488481819 0.12557893006429149 0 0.22521494488481819 0.12557893006429149 0 0.25030622297580962 0.13311558827396619 0 0.23688534306575301 0.1458043597726891 0 0.22521494488481819 0.12557893006429149 0 0.25030622297580962 0.13311558827396619 0 0.23688534306575301 0.1458043597726891 0 0.25004344172447263 0.14019424959050239 0 0.25030622297580962 0.13311558827396619 0 0.22521494488481819 0.12557893006429149 0 0.2369469616243938 0.1144798656387125 0 0.25030622297580962 0.13311558827396619 0 0.2369469616243938 0.1144798656387125 0 0.25094552198087999 0.11589449234768209 0 0.25030622297580962 0.13311558827396619 0 0.2369469616243938 0.1144798656387125 0 0.25158482098595109 0.098673396421397969 0 0.25094552198087999 0.11589449234768209 0 0.2369469616243938 0.1144798656387125 0 0.2308580048349978 0.09939168424622695 0 0.25158482098595109 0.098673396421397969 0 0.2308580048349978 0.09939168424622695 0 0.2177667053289645 0.10879872465146249 0 0.21723881235993189 0.092441087960636145 0 0.2369469616243938 0.1144798656387125 0 0.2308580048349978 0.09939168424622695 0 0.2177667053289645 0.10879872465146249 0 0.22521494488481819 0.12557893006429149 0 0.2369469616243938 0.1144798656387125 0 0.2177667053289645 0.10879872465146249 0 0.2177667053289645 0.10879872465146249 0 0.1970849337058638 0.1019164286603922 0 0.2001236667938262 0.1180422718546187 0 0.22521494488481819 0.12557893006429149 0 0.2177667053289645 0.10879872465146249 0 0.2001236667938262 0.1180422718546187 0 0.22521494488481819 0.12557893006429149 0 0.2001236667938262 0.1180422718546187 0 0.1970849337058638 0.1019164286603922 0 0.20420713705815571 0.090978010823124941 0 0.21723881235993189 0.092441087960636145 0 0.1970849337058638 0.1019164286603922 0 0.21723881235993189 0.092441087960636145 0 0.2177667053289645 0.10879872465146249 0 0.1970849337058638 0.1019164286603922 0 0.21723881235993189 0.092441087960636145 0 0.1970849337058638 0.1019164286603922 0 0.1916307843626972 0.08827444688259839 0 0.17503238870283441 0.11050561364494491 0 0.2001236667938262 0.1180422718546187 0 0.17503238870283441 0.11050561364494491 0 0.1970849337058638 0.1019164286603922 0 0.2001236667938262 0.1180422718546187 0 0.17503238870283441 0.11050561364494491 0 0.1916307843626972 0.08827444688259839 0 0.2082291800225603 0.066043280120252124 0 0.19067723801237901 0.065525043857756982 0 0.1916307843626972 0.08827444688259839 0 0.2082291800225603 0.066043280120252124 0 0.1916307843626972 0.08827444688259839 0 0.21087401780412959 0.081280079788873041 0 0.20420713705815571 0.090978010823124941 0 0.1970849337058638 0.1019164286603922 0 0.1916307843626972 0.08827444688259839 0 0.20420713705815571 0.090978010823124941 0 0.1916307843626972 0.08827444688259839 0 0.21087401780412959 0.081280079788873041 0 0.2082291800225603 0.066043280120252124 0 0.21087401780412959 0.081280079788873041 0 0.20420713705815571 0.090978010823124941 0 0.21723881235993189 0.092441087960636145 0 0.21087401780412959 0.081280079788873041 0 0.21723881235993189 0.092441087960636145 0 0.22613356481757629 0.0775902723280468 0 0.21087401780412959 0.081280079788873041 0 0.2082291800225603 0.066043280120252124 0 0.22613356481757629 0.0775902723280468 0 0.2082291800225603 0.066043280120252124 0 0.22613356481757629 0.0775902723280468 0 0.2082291800225603 0.066043280120252124 0 0.2259496113806885 0.070300708218039992 0 0.21450653174737461 0.057635669175196122 0 0.2259496113806885 0.070300708218039992 0 0.21450653174737461 0.057635669175196122 0 0.2082291800225603 0.066043280120252124 0 0.2259496113806885 0.070300708218039992 0 0.22613356481757629 0.0775902723280468 0 0.2259496113806885 0.070300708218039992 0 0.2248665156508784 0.061611733455129589 0 0.21450653174737461 0.057635669175196122 0 0.2259496113806885 0.070300708218039992 0 0.22613356481757629 0.0775902723280468 0 0.23739269101400209 0.082965747260884265 0 0.2259496113806885 0.070300708218039992 0 0.23739269101400209 0.082965747260884265 0 0.237967452106535 0.070105640596903412 0 0.2259496113806885 0.070300708218039992 0 0.23739269101400209 0.082965747260884265 0 0.2259496113806885 0.070300708218039992 0 0.2330718446673557 0.064441819436705627 0 0.2248665156508784 0.061611733455129589 0 0.2259496113806885 0.070300708218039992 0 0.2330718446673557 0.064441819436705627 0 0.237967452106535 0.070105640596903412 0 0.2308580048349978 0.09939168424622695 0 0.21723881235993189 0.092441087960636145 0 0.23739269101400209 0.082965747260884265 0 0.21723881235993189 0.092441087960636145 0 0.22613356481757629 0.0775902723280468 0 0.23739269101400209 0.082965747260884265 0 0.21723881235993189 0.092441087960636145 0 0.23739269101400209 0.082965747260884265 0 0.23739269101400209 0.082965747260884265 0 0.25158482098595109 0.098673396421397969 0 0.23739269101400209 0.082965747260884265 0 0.25243039498113262 0.075895774732197205 0 0.25158482098595109 0.098673396421397969 0 0.2308580048349978 0.09939168424622695 0 0.23739269101400209 0.082965747260884265 0 0.25158482098595109 0.098673396421397969 0 0.23739269101400209 0.082965747260884265 0 0.25243039498113262 0.075895774732197205 0 0.23934469018649959 0.064583282500140851 0 0.237967452106535 0.070105640596903412 0 0.24496427956833819 0.066036472520138348 0 0.2330718446673557 0.064441819436705627 0 0.23934469018649959 0.064583282500140851 0 0.2376257901407148 0.059976102198904507 0 0.2330718446673557 0.064441819436705627 0 0.23934469018649959 0.064583282500140851 0 0.237967452106535 0.070105640596903412 0 0.23739269101400209 0.082965747260884265 0 0.237967452106535 0.070105640596903412 0 0.24429048066179679 0.072622021298478806 0 0.24429048066179679 0.072622021298478806 0 0.24842415088314279 0.069033451464499671 0 0.25243039498113262 0.075895774732197205 0 0.23739269101400209 0.082965747260884265 0 0.24429048066179679 0.072622021298478806 0 0.25243039498113262 0.075895774732197205 0 0.24842415088314279 0.069033451464499671 0 0.24853219730195361 0.063845178725116872 0 0.25274476311700622 0.067427493409812952 0 0.237967452106535 0.070105640596903412 0 0.24429048066179679 0.072622021298478806 0 0.24496427956833819 0.066036472520138348 0 0.24429048066179679 0.072622021298478806 0 0.24842415088314279 0.069033451464499671 0 0.24496427956833819 0.066036472520138348 0 0.23934469018649959 0.064583282500140851 0 0.24496427956833819 0.066036472520138348 0 0.24309408444955441 0.062356377748052388 0 0.24496427956833819 0.066036472520138348 0 0.24602681454492631 0.062964227281045088 0 0.24309408444955441 0.062356377748052388 0 0.24496427956833819 0.066036472520138348 0 0.24602681454492631 0.062964227281045088 0 0.24853219730195361 0.063845178725116872 0 0.24842415088314279 0.069033451464499671 0 0.24496427956833819 0.066036472520138348 0 0.24853219730195361 0.063845178725116872 0 0.24751669685985911 0.059618880130872708 0 0.24309408444955441 0.062356377748052388 0 0.2376257901407148 0.059976102198904507 0 0.24751669685985911 0.059618880130872708 0 0.24426241142214139 0.049994713685017962 0 0.2310385276818335 0.053106641608170198 0 0.24751669685985911 0.059618880130872708 0 0.2376257901407148 0.059976102198904507 0 0.2310385276818335 0.053106641608170198 0 0.24751669685985911 0.059618880130872708 0 0.2310385276818335 0.053106641608170198 0 0.24853219730195361 0.063845178725116872 0 0.24751669685985911 0.059618880130872708 0 0.2530174900015254 0.0600809219264858 0 0.24602681454492631 0.062964227281045088 0 0.24853219730195361 0.063845178725116872 0 0.24751669685985911 0.059618880130872708 0 0.24602681454492631 0.062964227281045088 0 0.24751669685985911 0.059618880130872708 0 0.24309408444955441 0.062356377748052388 0 0.23934469018649959 0.064583282500140851 0 0.24309408444955441 0.062356377748052388 0 0.2376257901407148 0.059976102198904507 0 0.24426241142214139 0.049994713685017962 0 0.23928634064401511 0.040096757013566242 0 0.2310385276818335 0.053106641608170198 0 0.24751669685985911 0.059618880130872708 0 0.24426241142214139 0.049994713685017962 0 0.25102243244437311 0.053297338652025752 0 0.24426241142214139 0.049994713685017962 0 0.25174039047255609 0.044464402284776217 0 0.25102243244437311 0.053297338652025752 0 0.23928634064401511 0.040096757013566242 0 0.2320502206633881 0.021165953515508481 0 0.25044211127373811 0.032849993626191502 0 0.23928634064401511 0.040096757013566242 0 0.25044211127373811 0.032849993626191502 0 0.25174039047255609 0.044464402284776217 0 0.24426241142214139 0.049994713685017962 0 0.23928634064401511 0.040096757013566242 0 0.25174039047255609 0.044464402284776217 0 0.22618438235043381 0.038998837361733103 0 0.2320502206633881 0.021165953515508481 0 0.20963369093729961 0.03941564640516447 0 0.23928634064401511 0.040096757013566242 0 0.22618438235043381 0.038998837361733103 0 0.2320502206633881 0.021165953515508481 0 0.22618438235043381 0.038998837361733103 0 0.2310385276818335 0.053106641608170198 0 0.21456035850380811 0.046594403085467223 0 0.23928634064401511 0.040096757013566242 0 0.22618438235043381 0.038998837361733103 0 0.2310385276818335 0.053106641608170198 0 0.2310385276818335 0.053106641608170198 0 0.21456035850380811 0.046594403085467223 0 0.2248665156508784 0.061611733455129589 0 0.2310385276818335 0.053106641608170198 0 0.21456035850380811 0.046594403085467223 0 0.2248665156508784 0.061611733455129589 0 0.21456035850380811 0.046594403085467223 0 0.2330718446673557 0.064441819436705627 0 0.2248665156508784 0.061611733455129589 0 0.23150027442910881 0.059501590197602497 0 0.2248665156508784 0.061611733455129589 0 0.23150027442910881 0.059501590197602497 0 0.2310385276818335 0.053106641608170198 0 0.2330718446673557 0.064441819436705627 0 0.2376257901407148 0.059976102198904507 0 0.23150027442910881 0.059501590197602497 0 0.2376257901407148 0.059976102198904507 0 0.23150027442910881 0.059501590197602497 0 0.2310385276818335 0.053106641608170198 0 0.2320502206633881 0.021165953515508481 0 0.22999165343287109 0.0038227322559807589 0 0.25446675038947358 0.0029162606258486688 0 0.2320502206633881 0.021165953515508481 0 0.2600935707136679 0.019574361616358959 0 0.25446675038947358 0.0029162606258486688 0 0.22999165343287109 0.0038227322559807589 0 0.25446675038947358 0.0029162606258486688 0 0.24138147174972829 -0.0061427828714447699 0 0.2320502206633881 0.021165953515508481 0 0.25446675038947358 0.0029162606258486688 0 0.2320502206633881 0.021165953515508481 0 0.2600935707136679 0.019574361616358959 0 0.25044211127373811 0.032849993626191502 0 0.2320502206633881 0.021165953515508481 0 0.20963369093729961 0.03941564640516447 0 0.22999165343287109 0.0038227322559807589 0 0.21340461703840111 0.0096506044731711187 0 0.21351355446813719 -0.0021103410187178909 0 0.2320502206633881 0.021165953515508481 0 0.22999165343287109 0.0038227322559807589 0 0.21340461703840111 0.0096506044731711187 0 0.21340461703840111 0.0096506044731711187 0 0.1998105265397013 0.00335350757378736 0 0.21351355446813719 -0.0021103410187178909 0 0.21340461703840111 0.0096506044731711187 0 0.20371525389429951 0.01279949030761077 0 0.2082588668535221 0.02245160931237615 0 0.21340461703840111 0.0096506044731711187 0 0.20371525389429951 0.01279949030761077 0 0.1998105265397013 0.00335350757378736 0 0.2320502206633881 0.021165953515508481 0 0.2082588668535221 0.02245160931237615 0 0.20963369093729961 0.03941564640516447 0 0.2320502206633881 0.021165953515508481 0 0.21340461703840111 0.0096506044731711187 0 0.2082588668535221 0.02245160931237615 0 0.2082588668535221 0.02245160931237615 0 0.19338700514557339 0.015742239871108451 0 0.20963369093729961 0.03941564640516447 0 0.19338700514557339 0.015742239871108451 0 0.1989601287501698 0.040429129743079398 0 0.18048502430789731 0.01998114488410483 0 0.1989601287501698 0.040429129743079398 0 0.18048502430789731 0.01998114488410483 0 0.19338700514557339 0.015742239871108451 0 0.20963369093729961 0.03941564640516447 0 0.20371525389429951 0.01279949030761077 0 0.2082588668535221 0.02245160931237615 0 0.19338700514557339 0.015742239871108451 0 0.19338700514557339 0.015742239871108451 0 0.1998105265397013 0.00335350757378736 0 0.17714031935384769 -0.0079311666629475405 0 0.20371525389429951 0.01279949030761077 0 0.19338700514557339 0.015742239871108451 0 0.1998105265397013 0.00335350757378736 0 0.21450653174737461 0.057635669175196122 0 0.2029561920580818 0.044851916216142339 0 0.21450653174737461 0.057635669175196122 0 0.2029561920580818 0.044851916216142339 0 0.2021088015620611 0.053433964061651712 0 0.21450653174737461 0.057635669175196122 0 0.21456035850380811 0.046594403085467223 0 0.2029561920580818 0.044851916216142339 0 0.2082291800225603 0.066043280120252124 0 0.21450653174737461 0.057635669175196122 0 0.2021088015620611 0.053433964061651712 0 0.2248665156508784 0.061611733455129589 0 0.21450653174737461 0.057635669175196122 0 0.21456035850380811 0.046594403085467223 0 0.2082291800225603 0.066043280120252124 0 0.21450653174737461 0.057635669175196122 0 0.22618438235043381 0.038998837361733103 0 0.21456035850380811 0.046594403085467223 0 0.20963369093729961 0.03941564640516447 0 0.21456035850380811 0.046594403085467223 0 0.20963369093729961 0.03941564640516447 0 0.21456035850380811 0.046594403085467223 0 0.20530753189452691 0.042937648913457381 0 0.2029561920580818 0.044851916216142339 0 0.20963369093729961 0.03941564640516447 0 0.20530753189452691 0.042937648913457381 0 0.1989601287501698 0.040429129743079398 0 0.21456035850380811 0.046594403085467223 0 0.20530753189452691 0.042937648913457381 0 0.21456035850380811 0.046594403085467223 0 0.20963369093729961 0.03941564640516447 0 0.20530753189452691 0.042937648913457381 0 0.20963369093729961 0.03941564640516447 0 0.20530753189452691 0.042937648913457381 0 0.20530753189452691 0.042937648913457381 0 0.2029561920580818 0.044851916216142339 0 0.1989601287501698 0.040429129743079398 0 0.1774654858828027 0.031934360706524292 0 0.2029561920580818 0.044851916216142339 0 0.1989601287501698 0.040429129743079398 0 0.19971656766465989 0.047489351670260083 0 0.1989601287501698 0.040429129743079398 0 0.19133087755196571 0.045131483978966998 0 0.19971656766465989 0.047489351670260083 0 0.2029561920580818 0.044851916216142339 0 0.19971656766465989 0.047489351670260083 0 0.19338700514557339 0.015742239871108451 0 0.20963369093729961 0.03941564640516447 0 0.1989601287501698 0.040429129743079398 0 0.1989601287501698 0.040429129743079398 0 0.19133087755196571 0.045131483978966998 0 0.18298678422305309 0.040980100737508622 0 0.20530753189452691 0.042937648913457381 0 0.2029561920580818 0.044851916216142339 0 0.1989601287501698 0.040429129743079398 0 0.20530753189452691 0.042937648913457381 0 0.1989601287501698 0.040429129743079398 0 0.2029561920580818 0.044851916216142339 0 0.1989601287501698 0.040429129743079398 0 0.2082291800225603 0.066043280120252124 0 0.18513553631762919 0.051149603126408108 0 0.2021088015620611 0.053433964061651712 0 0.19971656766465989 0.047489351670260083 0 0.18513553631762919 0.051149603126408108 0 0.2082291800225603 0.066043280120252124 0 0.2021088015620611 0.053433964061651712 0 0.18513553631762919 0.051149603126408108 0 0.19067723801237901 0.065525043857756982 0 0.2082291800225603 0.066043280120252124 0 0.18513553631762919 0.051149603126408108 0 0.19133087755196571 0.045131483978966998 0 0.19971656766465989 0.047489351670260083 0 0.18513553631762919 0.051149603126408108 0 0.2029561920580818 0.044851916216142339 0 0.2021088015620611 0.053433964061651712 0 0.19971656766465989 0.047489351670260083 0 0.17734631865053521 0.060730067185729229 0 0.18513553631762919 0.051149603126408108 0 0.16725106424272049 0.052894846580172288 0 0.19067723801237901 0.065525043857756982 0 0.17734631865053521 0.060730067185729229 0 0.18513553631762919 0.051149603126408108 0 0.18298678422305309 0.040980100737508622 0 0.1774654858828027 0.031934360706524292 0 0.1620418926126978 0.036255926132564682 0 0.19133087755196571 0.045131483978966998 0 0.18513553631762919 0.051149603126408108 0 0.18298678422305309 0.040980100737508622 0 0.18513553631762919 0.051149603126408108 0 0.18298678422305309 0.040980100737508622 0 0.1620418926126978 0.036255926132564682 0 0.1989601287501698 0.040429129743079398 0 0.18298678422305309 0.040980100737508622 0 0.1774654858828027 0.031934360706524292 0 0.18513553631762919 0.051149603126408108 0 0.1620418926126978 0.036255926132564682 0 0.1620418926126978 0.036255926132564682 0 0.16725106424272049 0.052894846580172288 0 0.15541952745182569 0.04677658384696623 0 0.18513553631762919 0.051149603126408108 0 0.1620418926126978 0.036255926132564682 0 0.16725106424272049 0.052894846580172288 0 0.16725106424272049 0.052894846580172288 0 0.15507694825043991 0.057889849327421902 0 0.15541952745182569 0.04677658384696623 0 0.16725106424272049 0.052894846580172288 0 0.15507694825043991 0.057889849327421902 0 0.1653937448538241 0.067538194789913991 0 0.17734631865053521 0.060730067185729229 0 0.16725106424272049 0.052894846580172288 0 0.1653937448538241 0.067538194789913991 0 0.18048502430789731 0.01998114488410483 0 0.1657030786406338 0.0084270166623369204 0 0.17714031935384769 -0.0079311666629475405 0 0.19338700514557339 0.015742239871108451 0 0.17714031935384769 -0.0079311666629475405 0 0.19338700514557339 0.015742239871108451 0 0.18048502430789731 0.01998114488410483 0 0.17714031935384769 -0.0079311666629475405 0 0.1989601287501698 0.040429129743079398 0 0.1774654858828027 0.031934360706524292 0 0.18048502430789731 0.01998114488410483 0 0.1774654858828027 0.031934360706524292 0 0.18048502430789731 0.01998114488410483 0 0.16935520337559401 0.020657770454092759 0 0.1774654858828027 0.031934360706524292 0 0.15597084301543529 0.02343959166996953 0 0.1774654858828027 0.031934360706524292 0 0.1620418926126978 0.036255926132564682 0 0.15597084301543529 0.02343959166996953 0 0.1774654858828027 0.031934360706524292 0 0.16935520337559401 0.020657770454092759 0 0.15597084301543529 0.02343959166996953 0 0.16935520337559401 0.020657770454092759 0 0.1657030786406338 0.0084270166623369204 0 0.15597084301543529 0.02343959166996953 0 0.18048502430789731 0.01998114488410483 0 0.16935520337559401 0.020657770454092759 0 0.1657030786406338 0.0084270166623369204 0 0.1657030786406338 0.0084270166623369204 0 0.14883794818754281 0.01110572894874149 0 0.15480995508657039 -0.001084596553268768 0 0.1657030786406338 0.0084270166623369204 0 0.14883794818754281 0.01110572894874149 0 0.15597084301543529 0.02343959166996953 0 0.14883794818754281 0.01110572894874149 0 0.13464870039648349 0.00080453217212592717 0 0.15480995508657039 -0.001084596553268768 0 0.14883794818754281 0.01110572894874149 0 0.13894824890776639 0.02136224913872127 0 0.13464870039648349 0.00080453217212592717 0 0.1620418926126978 0.036255926132564682 0 0.13894824890776639 0.02136224913872127 0 0.14883794818754281 0.01110572894874149 0 0.15597084301543529 0.02343959166996953 0 0.13894824890776639 0.02136224913872127 0 0.1620418926126978 0.036255926132564682 0 0.15597084301543529 0.02343959166996953 0 0.13894824890776639 0.02136224913872127 0 0.11961069471150609 0.02296590295220987 0 0.13894824890776639 0.02136224913872127 0 0.12977361784467401 0.039215218793308727 0 0.1158546052028349 0.0064685721448778594 0 0.13894824890776639 0.02136224913872127 0 0.1158546052028349 0.0064685721448778594 0 0.13894824890776639 0.02136224913872127 0 0.13464870039648349 0.00080453217212592717 0 0.14278372382386809 0.048416123664777412 0 0.1428601767931531 0.062084067640591357 0 0.15507694825043991 0.057889849327421902 0 0.14278372382386809 0.048416123664777412 0 0.15507694825043991 0.057889849327421902 0 0.15541952745182569 0.04677658384696623 0 0.1620418926126978 0.036255926132564682 0 0.13894824890776639 0.02136224913872127 0 0.14579340212816641 0.038405220315267663 0 0.1620418926126978 0.036255926132564682 0 0.15541952745182569 0.04677658384696623 0 0.14579340212816641 0.038405220315267663 0 0.14278372382386809 0.048416123664777412 0 0.15541952745182569 0.04677658384696623 0 0.14579340212816641 0.038405220315267663 0 0.14278372382386809 0.048416123664777412 0 0.14579340212816641 0.038405220315267663 0 0.12977361784467401 0.039215218793308727 0 0.13894824890776639 0.02136224913872127 0 0.14579340212816641 0.038405220315267663 0 0.12977361784467401 0.039215218793308727 0 0.11550376979223601 0.054551475820320147 0 0.12977361784467401 0.039215218793308727 0 0.1326943019686847 0.054606112458038862 0 0.11550376979223601 0.054551475820320147 0 0.1326943019686847 0.054606112458038862 0 0.13255022158949201 0.068763676371196639 0 0.14278372382386809 0.048416123664777412 0 0.12977361784467401 0.039215218793308727 0 0.1326943019686847 0.054606112458038862 0 0.14278372382386809 0.048416123664777412 0 0.1428601767931531 0.062084067640591357 0 0.1326943019686847 0.054606112458038862 0 0.1428601767931531 0.062084067640591357 0 0.1326943019686847 0.054606112458038862 0 0.13255022158949201 0.068763676371196639 0 0.1207366242219714 0.074251990558816788 0 0.13255022158949201 0.068763676371196639 0 0.13578085374332971 0.077614708003019631 0 0.13255022158949201 0.068763676371196639 0 0.13578085374332971 0.077614708003019631 0 0.1430759120552613 0.073085192731263071 0 0.1428601767931531 0.062084067640591357 0 0.13255022158949201 0.068763676371196639 0 0.1430759120552613 0.073085192731263071 0 0.1428601767931531 0.062084067640591357 0 0.1430759120552613 0.073085192731263071 0 0.15260580868734391 0.069203578475014266 0 0.1430759120552613 0.073085192731263071 0 0.14969883640752091 0.076610515579137797 0 0.14563192422462459 0.083183778073064013 0 0.13578085374332971 0.077614708003019631 0 0.1430759120552613 0.073085192731263071 0 0.14563192422462459 0.083183778073064013 0 0.1430759120552613 0.073085192731263071 0 0.14969883640752091 0.076610515579137797 0 0.15260580868734391 0.069203578475014266 0 0.14969883640752091 0.076610515579137797 0 0.15260580868734391 0.069203578475014266 0 0.15677919641446331 0.080277826610221981 0 0.1428601767931531 0.062084067640591357 0 0.15507694825043991 0.057889849327421902 0 0.15260580868734391 0.069203578475014266 0 0.1506819444987289 0.088437751930635633 0 0.14868901735932749 0.09586058707093438 0 0.157853861938485 0.092527754269896317 0 0.1506819444987289 0.088437751930635633 0 0.15677919641446331 0.080277826610221981 0 0.157853861938485 0.092527754269896317 0 0.14969883640752091 0.076610515579137797 0 0.14563192422462459 0.083183778073064013 0 0.15677919641446331 0.080277826610221981 0 0.1506819444987289 0.088437751930635633 0 0.14563192422462459 0.083183778073064013 0 0.15677919641446331 0.080277826610221981 0 0.14563192422462459 0.083183778073064013 0 0.1444557225567443 0.090338813629061501 0 0.13888671887288589 0.088270852986767859 0 0.1506819444987289 0.088437751930635633 0 0.14563192422462459 0.083183778073064013 0 0.1444557225567443 0.090338813629061501 0 0.1444557225567443 0.090338813629061501 0 0.14209274384079601 0.094639397504520467 0 0.14868901735932749 0.09586058707093438 0 0.1506819444987289 0.088437751930635633 0 0.1444557225567443 0.090338813629061501 0 0.14868901735932749 0.09586058707093438 0 0.1444557225567443 0.090338813629061501 0 0.13888671887288589 0.088270852986767859 0 0.14209274384079601 0.094639397504520467 0 0.13888671887288589 0.088270852986767859 0 0.13668050292917741 0.098217611464673699 0 0.14209274384079601 0.094639397504520467 0 0.13888671887288589 0.088270852986767859 0 0.1300820653953097 0.084166932106396392 0 0.13668050292917741 0.098217611464673699 0 0.11116449005577619 0.086473750785835857 0 0.1300820653953097 0.084166932106396392 0 0.13668050292917741 0.098217611464673699 0 0.13578085374332971 0.077614708003019631 0 0.13888671887288589 0.088270852986767859 0 0.1300820653953097 0.084166932106396392 0 0.13578085374332971 0.077614708003019631 0 0.14563192422462459 0.083183778073064013 0 0.13888671887288589 0.088270852986767859 0 0.1207366242219714 0.074251990558816788 0 0.13578085374332971 0.077614708003019631 0 0.1300820653953097 0.084166932106396392 0 0.1216961693062274 0.1020981758197984 0 0.1302764983332621 0.10693497851168419 0 0.13668050292917741 0.098217611464673699 0 0.1302764983332621 0.10693497851168419 0 0.13758713408363871 0.1043360441680015 0 0.13668050292917741 0.098217611464673699 0 0.1302764983332621 0.10693497851168419 0 0.1360833458267342 0.1084620534226548 0 0.13758713408363871 0.1043360441680015 0 0.1360833458267342 0.1084620534226548 0 0.13758713408363871 0.1043360441680015 0 0.14314356584317489 0.10755645506983 0 0.13758713408363871 0.1043360441680015 0 0.13668050292917741 0.098217611464673699 0 0.14175175748584509 0.1005091223711649 0 0.13668050292917741 0.098217611464673699 0 0.14209274384079601 0.094639397504520467 0 0.14175175748584509 0.1005091223711649 0 0.12813823657366311 0.12049833089676459 0 0.13246275659848361 0.1130811342378658 0 0.13708322035591489 0.118794437000363 0 0.12212988809696081 0.1249307776834532 0 0.12788127083107459 0.1291064789800366 0 0.12813823657366311 0.12049833089676459 0 0.1197878353292403 0.1092484053650479 0 0.1302764983332621 0.10693497851168419 0 0.12624189261331301 0.1140678077034443 0 0.12813823657366311 0.12049833089676459 0 0.12624189261331301 0.1140678077034443 0 0.13246275659848361 0.1130811342378658 0 0.1302764983332621 0.10693497851168419 0 0.12624189261331301 0.1140678077034443 0 0.13246275659848361 0.1130811342378658 0 0.138866780176991 0.11235807520418389 0 0.13708322035591489 0.118794437000363 0 0.14572099158606311 0.1154247658161887 0 0.1360833458267342 0.1084620534226548 0 0.13246275659848361 0.1130811342378658 0 0.138866780176991 0.11235807520418389 0 0.1302764983332621 0.10693497851168419 0 0.1360833458267342 0.1084620534226548 0 0.13246275659848361 0.1130811342378658 0 0.1360833458267342 0.1084620534226548 0 0.138866780176991 0.11235807520418389 0 0.14314356584317489 0.10755645506983 0 0.13246275659848361 0.1130811342378658 0 0.138866780176991 0.11235807520418389 0 0.13708322035591489 0.118794437000363 0 0.13409394305489639 0.1257339851238449 0 0.14295710802469111 0.12768772724150559 0 0.13708322035591489 0.118794437000363 0 0.13409394305489639 0.1257339851238449 0 0.12813823657366311 0.12049833089676459 0 0.13708322035591489 0.118794437000363 0 0.14572099158606311 0.1154247658161887 0 0.15364605026385231 0.1227496740475859 0 0.15839207309433961 0.10550736800805539 0 0.14295710802469111 0.12768772724150559 0 0.13708322035591489 0.118794437000363 0 0.14572099158606311 0.1154247658161887 0 0.14295710802469111 0.12768772724150559 0 0.14572099158606311 0.1154247658161887 0 0.15364605026385231 0.1227496740475859 0 0.138866780176991 0.11235807520418389 0 0.14572099158606311 0.1154247658161887 0 0.14314356584317489 0.10755645506983 0 0.14572099158606311 0.1154247658161887 0 0.14314356584317489 0.10755645506983 0 0.15839207309433961 0.10550736800805539 0 0.14175175748584509 0.1005091223711649 0 0.15839207309433961 0.10550736800805539 0 0.14175175748584509 0.1005091223711649 0 0.14314356584317489 0.10755645506983 0 0.15839207309433961 0.10550736800805539 0 0.14175175748584509 0.1005091223711649 0 0.14868901735932749 0.09586058707093438 0 0.15839207309433961 0.10550736800805539 0 0.14209274384079601 0.094639397504520467 0 0.14175175748584509 0.1005091223711649 0 0.14868901735932749 0.09586058707093438 0 0.13758713408363871 0.1043360441680015 0 0.14175175748584509 0.1005091223711649 0 0.14314356584317489 0.10755645506983 0 0.14868901735932749 0.09586058707093438 0 0.15839207309433961 0.10550736800805539 0 0.157853861938485 0.092527754269896317 0 0.15839207309433961 0.10550736800805539 0 0.17503238870283441 0.11050561364494491 0 0.15839207309433961 0.10550736800805539 0 0.1705578526620479 0.095927182961129481 0 0.157853861938485 0.092527754269896317 0 0.15839207309433961 0.10550736800805539 0 0.1705578526620479 0.095927182961129481 0 0.17503238870283441 0.11050561364494491 0 0.16417220099380411 0.12505127510387981 0 0.15839207309433961 0.10550736800805539 0 0.17503238870283441 0.11050561364494491 0 0.16417220099380411 0.12505127510387981 0 0.15364605026385231 0.1227496740475859 0 0.15839207309433961 0.10550736800805539 0 0.16417220099380411 0.12505127510387981 0 0.17503238870283441 0.11050561364494491 0 0.18002451345814399 0.12716596121819479 0 0.16417220099380411 0.12505127510387981 0 0.17503238870283441 0.11050561364494491 0 0.18002451345814399 0.12716596121819479 0 0.2001236667938262 0.1180422718546187 0 0.17503238870283441 0.11050561364494491 0 0.1916307843626972 0.08827444688259839 0 0.1705578526620479 0.095927182961129481 0 0.17503238870283441 0.11050561364494491 0 0.1916307843626972 0.08827444688259839 0 0.17503238870283441 0.11050561364494491 0 0.1916307843626972 0.08827444688259839 0 0.17935943521264269 0.07135827912697662 0 0.16988015521188329 0.08282073200015258 0 0.1916307843626972 0.08827444688259839 0 0.1705578526620479 0.095927182961129481 0 0.16988015521188329 0.08282073200015258 0 0.19067723801237901 0.065525043857756982 0 0.1916307843626972 0.08827444688259839 0 0.17935943521264269 0.07135827912697662 0 0.19067723801237901 0.065525043857756982 0 0.17734631865053521 0.060730067185729229 0 0.17935943521264269 0.07135827912697662 0 0.17734631865053521 0.060730067185729229 0 0.17935943521264269 0.07135827912697662 0 0.1653937448538241 0.067538194789913991 0 0.17935943521264269 0.07135827912697662 0 0.1653937448538241 0.067538194789913991 0 0.16988015521188329 0.08282073200015258 0 0.15507694825043991 0.057889849327421902 0 0.15260580868734391 0.069203578475014266 0 0.1653937448538241 0.067538194789913991 0 0.15260580868734391 0.069203578475014266 0 0.1653937448538241 0.067538194789913991 0 0.15677919641446331 0.080277826610221981 0 0.1653937448538241 0.067538194789913991 0 0.15677919641446331 0.080277826610221981 0 0.16988015521188329 0.08282073200015258 0 0.15677919641446331 0.080277826610221981 0 0.157853861938485 0.092527754269896317 0 0.16988015521188329 0.08282073200015258 0 0.1705578526620479 0.095927182961129481 0 0.157853861938485 0.092527754269896317 0 0.16988015521188329 0.08282073200015258 0 0.099456207782380623 0.4822659283708195 0 0.1141892196830592 0.48396198267476093 0 0.11304725129434449 0.46767028325629811 0 0.099456207782380623 0.4822659283708195 0 0.11304725129434449 0.46767028325629811 0 0.096803680563272876 0.46646214520586099 0 0.099456207782380623 0.4822659283708195 0 0.10782601469385079 0.5 0 0.078267650747156567 0.50000000000000133 0 0.099456207782380623 0.4822659283708195 0 0.10782601469385079 0.5 0 0.1141892196830592 0.48396198267476093 0 0.10782601469385079 0.5 0 0.1249193769550877 0.49369376296818718 0 0.1141892196830592 0.48396198267476093 0 0.1249193769550877 0.49369376296818718 0 0.1141892196830592 0.48396198267476093 0 0.12569724768963239 0.47617993877849962 0 0.10782601469385079 0.5 0 0.1249193769550877 0.49369376296818718 0 0.13738437864054501 0.5 0 0.1141892196830592 0.48396198267476093 0 0.11304725129434449 0.46767028325629811 0 0.12569724768963239 0.47617993877849962 0 0.11304725129434449 0.46767028325629811 0 0.1267882431275838 0.46370707134437261 0 0.12569724768963239 0.47617993877849962 0 0.11304725129434449 0.46767028325629811 0 0.1221607865463437 0.4507156547582637 0 0.1004821270038239 0.44949914822431608 0 0.11304725129434449 0.46767028325629811 0 0.1221607865463437 0.4507156547582637 0 0.1267882431275838 0.46370707134437261 0 0.1221607865463437 0.4507156547582637 0 0.1004821270038239 0.44949914822431608 0 0.12259086230274099 0.42947812748907283 0 0.1004821270038239 0.44949914822431608 0 0.096803680563272876 0.46646214520586099 0 0.084307548883437972 0.45862843933572522 0 0.11304725129434449 0.46767028325629811 0 0.1004821270038239 0.44949914822431608 0 0.096803680563272876 0.46646214520586099 0 0.084307548883437972 0.45862843933572522 0 0.070120974899159305 0.46867166915081548 0 0.08254081050968877 0.47642281665818748 0 0.096803680563272876 0.46646214520586099 0 0.084307548883437972 0.45862843933572522 0 0.08254081050968877 0.47642281665818748 0 0.084307548883437972 0.45862843933572522 0 0.083205653112744402 0.44008551456546158 0 0.070599818540594342 0.45171728711773013 0 0.1004821270038239 0.44949914822431608 0 0.084307548883437972 0.45862843933572522 0 0.083205653112744402 0.44008551456546158 0 0.1004821270038239 0.44949914822431608 0 0.083205653112744402 0.44008551456546158 0 0.095892719888732866 0.42453745382262881 0 0.070599818540594342 0.45171728711773013 0 0.057347956450285731 0.44480695268810438 0 0.068330088192809502 0.43602814955066621 0 0.083205653112744402 0.44008551456546158 0 0.070599818540594342 0.45171728711773013 0 0.068330088192809502 0.43602814955066621 0 0.070599818540594342 0.45171728711773013 0 0.070120974899159305 0.46867166915081548 0 0.05832870883015126 0.45973880463956351 0 0.084307548883437972 0.45862843933572522 0 0.070599818540594342 0.45171728711773013 0 0.070120974899159305 0.46867166915081548 0 0.070120974899159305 0.46867166915081548 0 0.08254081050968877 0.47642281665818748 0 0.061557047466102868 0.48310025102256282 0 0.070120974899159305 0.46867166915081548 0 0.061557047466102868 0.48310025102256282 0 0.05832870883015126 0.45973880463956351 0 0.099456207782380623 0.4822659283708195 0 0.096803680563272876 0.46646214520586099 0 0.08254081050968877 0.47642281665818748 0 0.099456207782380623 0.4822659283708195 0 0.08254081050968877 0.47642281665818748 0 0.078267650747156567 0.50000000000000133 0 0.078267650747156567 0.50000000000000133 0 0.049166882519808157 0.5 0 0.061557047466102868 0.48310025102256282 0 0.08254081050968877 0.47642281665818748 0 0.078267650747156567 0.50000000000000133 0 0.061557047466102868 0.48310025102256282 0 0.078267650747156567 0.50000000000000133 0 0.061557047466102868 0.48310025102256282 0 0.049166882519808157 0.5 0 0.061557047466102868 0.48310025102256282 0 0.038208171894904559 0.48286056860770488 0 0.061557047466102868 0.48310025102256282 0 0.044846444185049857 0.46620050204512359 0 0.05832870883015126 0.45973880463956351 0 0.061557047466102868 0.48310025102256282 0 0.044846444185049857 0.46620050204512359 0 0.061557047466102868 0.48310025102256282 0 0.038208171894904559 0.48286056860770488 0 0.044846444185049857 0.46620050204512359 0 0.038208171894904559 0.48286056860770488 0 0.029572045059576241 0.469060477695939 0 0.044846444185049857 0.46620050204512359 0 0.049166882519808157 0.5 0 0.038208171894904559 0.48286056860770488 0 0.020066114292459799 0.5 0 0.038208171894904559 0.48286056860770488 0 0.020066114292459799 0.5 0 0.021055159894441029 0.48095839664786189 0 0.038208171894904559 0.48286056860770488 0 0.029572045059576241 0.469060477695939 0 0.021055159894441029 0.48095839664786189 0 0.029572045059576241 0.469060477695939 0 0.021055159894441029 0.48095839664786189 0 0.01561460841948897 0.46598216811131982 0 0.021055159894441029 0.48095839664786189 0 0.0030933759349822849 0.48266358315495572 0 0.01561460841948897 0.46598216811131982 0 0.0030933759349822849 0.48266358315495572 0 0.01561460841948897 0.46598216811131982 0 0.0036787250480955699 0.47408322248379448 0 0.0030933759349822849 0.48266358315495572 0 0.01561460841948897 0.46598216811131982 0 -0.0016340076521478781 0.48633642657919801 0 0.0036787250480955699 0.47408322248379448 0 0.0030933759349822849 0.48266358315495572 0 0.020066114292459799 0.5 0 0.021055159894441029 0.48095839664786189 0 0.0030933759349822849 0.48266358315495572 0 -0.0090346539348886701 0.5 0 -0.0016340076521478781 0.48633642657919801 0 0.020066114292459799 0.5 0 -0.0016340076521478781 0.48633642657919801 0 0.020066114292459799 0.5 0 0.0030933759349822849 0.48266358315495572 0 -0.0030841453677343121 0.43636499760021141 0 -0.002359076509941094 0.46135071208970457 0 0.010470448459028871 0.45111158928184719 0 -0.0030841453677343121 0.43636499760021141 0 0.010470448459028871 0.45111158928184719 0 0.017893296784651399 0.43894227458572882 0 -0.002359076509941094 0.46135071208970457 0 0.010470448459028871 0.45111158928184719 0 0.01561460841948897 0.46598216811131982 0 -0.002359076509941094 0.46135071208970457 0 0.0036787250480955699 0.47408322248379448 0 0.01561460841948897 0.46598216811131982 0 0.010470448459028871 0.45111158928184719 0 0.01561460841948897 0.46598216811131982 0 0.0281358409039968 0.44930075306768458 0 0.029572045059576241 0.469060477695939 0 0.01561460841948897 0.46598216811131982 0 0.0281358409039968 0.44930075306768458 0 0.01561460841948897 0.46598216811131982 0 0.0281358409039968 0.44930075306768458 0 0.010470448459028871 0.45111158928184719 0 0.0281358409039968 0.44930075306768458 0 0.017893296784651399 0.43894227458572882 0 0.0281358409039968 0.44930075306768458 0 0.017893296784651399 0.43894227458572882 0 0.03800042812263172 0.43615865433005307 0 0.0281358409039968 0.44930075306768458 0 0.017893296784651399 0.43894227458572882 0 0.0281358409039968 0.44930075306768458 0 0.04587361322417214 0.448769157871174 0 0.03800042812263172 0.43615865433005307 0 0.0281358409039968 0.44930075306768458 0 0.03800042812263172 0.43615865433005307 0 0.04587361322417214 0.448769157871174 0 0.049411209704934803 0.43621283219101809 0 0.03800042812263172 0.43615865433005307 0 0.029572045059576241 0.469060477695939 0 0.0281358409039968 0.44930075306768458 0 0.044846444185049857 0.46620050204512359 0 0.0281358409039968 0.44930075306768458 0 0.04587361322417214 0.448769157871174 0 0.044846444185049857 0.46620050204512359 0 0.0281358409039968 0.44930075306768458 0 0.044846444185049857 0.46620050204512359 0 0.04587361322417214 0.448769157871174 0 0.044846444185049857 0.46620050204512359 0 0.05832870883015126 0.45973880463956351 0 0.04587361322417214 0.448769157871174 0 0.057347956450285731 0.44480695268810438 0 0.049411209704934803 0.43621283219101809 0 0.04587361322417214 0.448769157871174 0 0.05832870883015126 0.45973880463956351 0 0.057347956450285731 0.44480695268810438 0 0.070599818540594342 0.45171728711773013 0 0.05832870883015126 0.45973880463956351 0 0.057347956450285731 0.44480695268810438 0 0.057347956450285731 0.44480695268810438 0 0.058238482531349368 0.43512174465279091 0 0.068330088192809502 0.43602814955066621 0 0.057347956450285731 0.44480695268810438 0 0.058238482531349368 0.43512174465279091 0 0.049411209704934803 0.43621283219101809 0 0.058238482531349368 0.43512174465279091 0 0.05412352915042095 0.42739076434297479 0 0.063786863135573219 0.4234822836218442 0 0.05412352915042095 0.42739076434297479 0 0.047865015341267358 0.42301655559242213 0 0.049411209704934803 0.43621283219101809 0 0.05412352915042095 0.42739076434297479 0 0.047865015341267358 0.42301655559242213 0 0.058238482531349368 0.43512174465279091 0 0.05412352915042095 0.42739076434297479 0 0.049411209704934803 0.43621283219101809 0 0.047865015341267358 0.42301655559242213 0 0.055388731832649349 0.41299308245440008 0 0.044385004541519633 0.40583709082877739 0 0.055388731832649349 0.41299308245440008 0 0.057103340742871267 0.4006394318358022 0 0.0691327228978319 0.40699071288372829 0 0.05412352915042095 0.42739076434297479 0 0.055388731832649349 0.41299308245440008 0 0.063786863135573219 0.4234822836218442 0 0.047865015341267358 0.42301655559242213 0 0.055388731832649349 0.41299308245440008 0 0.05412352915042095 0.42739076434297479 0 0.047865015341267358 0.42301655559242213 0 0.055388731832649349 0.41299308245440008 0 0.055388731832649349 0.41299308245440008 0 0.044385004541519633 0.40583709082877739 0 0.057103340742871267 0.4006394318358022 0 0.047865015341267358 0.42301655559242213 0 0.030398582533070099 0.41080889326869052 0 0.044385004541519633 0.40583709082877739 0 0.047865015341267358 0.42301655559242213 0 0.035686717363660143 0.42423985257235269 0 0.030398582533070099 0.41080889326869052 0 0.047865015341267358 0.42301655559242213 0 0.030398582533070099 0.41080889326869052 0 0.047865015341267358 0.42301655559242213 0 0.049411209704934803 0.43621283219101809 0 0.03800042812263172 0.43615865433005307 0 0.047865015341267358 0.42301655559242213 0 0.03800042812263172 0.43615865433005307 0 0.047865015341267358 0.42301655559242213 0 0.035686717363660143 0.42423985257235269 0 0.03800042812263172 0.43615865433005307 0 0.035686717363660143 0.42423985257235269 0 0.03800042812263172 0.43615865433005307 0 0.0264828434576714 0.42697530709824522 0 0.017893296784651399 0.43894227458572882 0 0.0264828434576714 0.42697530709824522 0 0.013451351612083251 0.42022136891186163 0 0.017893296784651399 0.43894227458572882 0 0.03800042812263172 0.43615865433005307 0 0.0264828434576714 0.42697530709824522 0 0.030398582533070099 0.41080889326869052 0 0.013451351612083251 0.42022136891186163 0 0.012932149724872831 0.39860123094495892 0 0.0264828434576714 0.42697530709824522 0 0.030398582533070099 0.41080889326869052 0 0.013451351612083251 0.42022136891186163 0 0.035686717363660143 0.42423985257235269 0 0.0264828434576714 0.42697530709824522 0 0.030398582533070099 0.41080889326869052 0 -0.0038092142255275289 0.41137928311071797 0 0.013451351612083251 0.42022136891186163 0 0.012932149724872831 0.39860123094495892 0 -0.0030841453677343121 0.43636499760021141 0 0.017893296784651399 0.43894227458572882 0 0.013451351612083251 0.42022136891186163 0 -0.0030841453677343121 0.43636499760021141 0 -0.0038092142255275289 0.41137928311071797 0 0.013451351612083251 0.42022136891186163 0 -0.0045342830833226501 0.3863935686212247 0 0.012932149724872831 0.39860123094495892 0 0.0079023355216259559 0.37348921158265391 0 0.012932149724872831 0.39860123094495892 0 0.025375843575522711 0.38021681034322929 0 0.0079023355216259559 0.37348921158265391 0 -0.0045342830833226501 0.3863935686212247 0 0.012932149724872831 0.39860123094495892 0 -0.0045342830833226501 0.3863935686212247 0 -0.0038092142255275289 0.41137928311071797 0 0.012932149724872831 0.39860123094495892 0 0.030398582533070099 0.41080889326869052 0 0.012932149724872831 0.39860123094495892 0 0.030398582533070099 0.41080889326869052 0 0.012932149724872831 0.39860123094495892 0 0.030218872497922818 0.39559608178221078 0 0.012932149724872831 0.39860123094495892 0 0.030218872497922818 0.39559608178221078 0 0.025375843575522711 0.38021681034322929 0 0.025375843575522711 0.38021681034322929 0 0.045236422390978262 0.39339421550307069 0 0.045418656597819553 0.37354288132317159 0 0.030218872497922818 0.39559608178221078 0 0.025375843575522711 0.38021681034322929 0 0.045236422390978262 0.39339421550307069 0 0.030398582533070099 0.41080889326869052 0 0.030218872497922818 0.39559608178221078 0 0.044385004541519633 0.40583709082877739 0 0.030218872497922818 0.39559608178221078 0 0.045236422390978262 0.39339421550307069 0 0.044385004541519633 0.40583709082877739 0 0.045236422390978262 0.39339421550307069 0 0.057103340742871267 0.4006394318358022 0 0.06607043693335328 0.38973814947632979 0 0.045236422390978262 0.39339421550307069 0 0.044385004541519633 0.40583709082877739 0 0.057103340742871267 0.4006394318358022 0 0.045236422390978262 0.39339421550307069 0 0.06607043693335328 0.38973814947632979 0 0.045418656597819553 0.37354288132317159 0 0.06607043693335328 0.38973814947632979 0 0.066778362586220691 0.36264744131756171 0 0.045418656597819553 0.37354288132317159 0 0.06607043693335328 0.38973814947632979 0 0.086713905658550791 0.37461406501925459 0 0.066778362586220691 0.36264744131756171 0 0.091303312773641829 0.3995757594209417 0 0.1025776524751303 0.38486691706586951 0 0.086713905658550791 0.37461406501925459 0 0.06607043693335328 0.38973814947632979 0 0.091303312773641829 0.3995757594209417 0 0.086713905658550791 0.37461406501925459 0 0.091303312773641829 0.3995757594209417 0 0.086713905658550791 0.37461406501925459 0 0.06607043693335328 0.38973814947632979 0 0.091303312773641829 0.3995757594209417 0 0.0691327228978319 0.40699071288372829 0 0.057103340742871267 0.4006394318358022 0 0.06607043693335328 0.38973814947632979 0 0.0691327228978319 0.40699071288372829 0 0.055388731832649349 0.41299308245440008 0 0.0691327228978319 0.40699071288372829 0 0.063786863135573219 0.4234822836218442 0 0.0691327228978319 0.40699071288372829 0 0.077714875811277062 0.4214876261871765 0 0.063786863135573219 0.4234822836218442 0 0.083205653112744402 0.44008551456546158 0 0.077714875811277062 0.4214876261871765 0 0.068330088192809502 0.43602814955066621 0 0.058238482531349368 0.43512174465279091 0 0.068330088192809502 0.43602814955066621 0 0.063786863135573219 0.4234822836218442 0 0.077714875811277062 0.4214876261871765 0 0.068330088192809502 0.43602814955066621 0 0.063786863135573219 0.4234822836218442 0 0.083205653112744402 0.44008551456546158 0 0.077714875811277062 0.4214876261871765 0 0.095892719888732866 0.42453745382262881 0 0.091303312773641829 0.3995757594209417 0 0.0691327228978319 0.40699071288372829 0 0.077714875811277062 0.4214876261871765 0 0.091303312773641829 0.3995757594209417 0 0.095892719888732866 0.42453745382262881 0 0.091303312773641829 0.3995757594209417 0 0.077714875811277062 0.4214876261871765 0 0.095892719888732866 0.42453745382262881 0 0.091303312773641829 0.3995757594209417 0 0.095892719888732866 0.42453745382262881 0 0.115428724103706 0.40267530492779557 0 0.1004821270038239 0.44949914822431608 0 0.095892719888732866 0.42453745382262881 0 0.12259086230274099 0.42947812748907283 0 0.1004821270038239 0.44949914822431608 0 0.095892719888732866 0.42453745382262881 0 0.095892719888732866 0.42453745382262881 0 0.12259086230274099 0.42947812748907283 0 0.115428724103706 0.40267530492779557 0 0.115428724103706 0.40267530492779557 0 0.119448870245615 0.38256434187866972 0 0.13692284990477191 0.38930777957628943 0 0.119448870245615 0.38256434187866972 0 0.1025776524751303 0.38486691706586951 0 0.1087205780393706 0.3656269003386084 0 0.115428724103706 0.40267530492779557 0 0.119448870245615 0.38256434187866972 0 0.1025776524751303 0.38486691706586951 0 0.1025776524751303 0.38486691706586951 0 0.1087205780393706 0.3656269003386084 0 0.086713905658550791 0.37461406501925459 0 0.091303312773641829 0.3995757594209417 0 0.115428724103706 0.40267530492779557 0 0.1025776524751303 0.38486691706586951 0 0.1087205780393706 0.3656269003386084 0 0.1202868522871179 0.34060046584014031 0 0.0915497208986496 0.34709204532757532 0 0.1087205780393706 0.3656269003386084 0 0.0915497208986496 0.34709204532757532 0 0.086713905658550791 0.37461406501925459 0 0.119448870245615 0.38256434187866972 0 0.1087205780393706 0.3656269003386084 0 0.13274728415341139 0.36410634055334368 0 0.1087205780393706 0.3656269003386084 0 0.1202868522871179 0.34060046584014031 0 0.13274728415341139 0.36410634055334368 0 0.1202868522871179 0.34060046584014031 0 0.1104734498024164 0.31171603628350752 0 0.14183880654046921 0.32250528078568202 0 0.1202868522871179 0.34060046584014031 0 0.1016552612267161 0.33013161519950079 0 0.1104734498024164 0.31171603628350752 0 0.1016552612267161 0.33013161519950079 0 0.081254576285268804 0.3210829637434266 0 0.1104734498024164 0.31171603628350752 0 0.1202868522871179 0.34060046584014031 0 0.1016552612267161 0.33013161519950079 0 0.0915497208986496 0.34709204532757532 0 0.081254576285268804 0.3210829637434266 0 0.072654821413094289 0.33942743407960763 0 0.0915497208986496 0.34709204532757532 0 0.1016552612267161 0.33013161519950079 0 0.081254576285268804 0.3210829637434266 0 0.0915497208986496 0.34709204532757532 0 0.081254576285268804 0.3210829637434266 0 0.06358813508901956 0.32234581427363851 0 0.071244474661197085 0.3036312559279935 0 0.081254576285268804 0.3210829637434266 0 0.06358813508901956 0.32234581427363851 0 0.072654821413094289 0.33942743407960763 0 0.06358813508901956 0.32234581427363851 0 0.072654821413094289 0.33942743407960763 0 0.055199983679349987 0.34246375673151652 0 0.072654821413094289 0.33942743407960763 0 0.066778362586220691 0.36264744131756171 0 0.055199983679349987 0.34246375673151652 0 0.072654821413094289 0.33942743407960763 0 0.0915497208986496 0.34709204532757532 0 0.066778362586220691 0.36264744131756171 0 0.0915497208986496 0.34709204532757532 0 0.086713905658550791 0.37461406501925459 0 0.066778362586220691 0.36264744131756171 0 0.066778362586220691 0.36264744131756171 0 0.044951457965310811 0.3555124197003488 0 0.045418656597819553 0.37354288132317159 0 0.066778362586220691 0.36264744131756171 0 0.044951457965310811 0.3555124197003488 0 0.055199983679349987 0.34246375673151652 0 0.044951457965310811 0.3555124197003488 0 0.021903196078839001 0.35746348141110651 0 0.035457090884324839 0.34144453771838768 0 0.044951457965310811 0.3555124197003488 0 0.035457090884324839 0.34144453771838768 0 0.055199983679349987 0.34246375673151652 0 0.044951457965310811 0.3555124197003488 0 0.045418656597819553 0.37354288132317159 0 0.021903196078839001 0.35746348141110651 0 0.025375843575522711 0.38021681034322929 0 0.021903196078839001 0.35746348141110651 0 0.0079023355216259559 0.37348921158265391 0 0.025375843575522711 0.38021681034322929 0 0.045418656597819553 0.37354288132317159 0 0.021903196078839001 0.35746348141110651 0 0.021903196078839001 0.35746348141110651 0 0.017151683724365509 0.3376665205351736 0 0.035457090884324839 0.34144453771838768 0 0.021903196078839001 0.35746348141110651 0 0.0095650341834115256 0.34490192427506011 0 0.017151683724365509 0.3376665205351736 0 0.021903196078839001 0.35746348141110651 0 0.0095650341834115256 0.34490192427506011 0 0.0061318462344260851 0.35417601161121459 0 -0.0050552824635438226 0.34569829691311771 0 0.0095650341834115256 0.34490192427506011 0 0.0061318462344260851 0.35417601161121459 0 0.021903196078839001 0.35746348141110651 0 0.0061318462344260851 0.35417601161121459 0 0.0079023355216259559 0.37348921158265391 0 -0.0052616759920083916 0.36132776784546622 0 0.0061318462344260851 0.35417601161121459 0 0.0079023355216259559 0.37348921158265391 0 0.0087281755863181168 0.33049580891976171 0 0.020410497070949891 0.30832150289807031 0 0.0056044744337335906 0.31412092038659428 0 0.0087281755863181168 0.33049580891976171 0 0.020410497070949891 0.30832150289807031 0 -0.003280447873963227 0.32161399115684158 0 0.0056044744337335906 0.31412092038659428 0 0.0087281755863181168 0.33049580891976171 0 0.0064742168078369342 0.3347740657525386 0 0.0087281755863181168 0.33049580891976171 0 -0.0050552824635438226 0.34569829691311771 0 0.0095650341834115256 0.34490192427506011 0 0.0064742168078369342 0.3347740657525386 0 0.0095650341834115256 0.34490192427506011 0 0.0064742168078369342 0.3347740657525386 0 0.017151683724365509 0.3376665205351736 0 0.0064742168078369342 0.3347740657525386 0 0.0087281755863181168 0.33049580891976171 0 0.017151683724365509 0.3376665205351736 0 0.0087281755863181168 0.33049580891976171 0 0.025353163704189718 0.33024288796319817 0 0.017151683724365509 0.3376665205351736 0 0.0087281755863181168 0.33049580891976171 0 0.025353163704189718 0.33024288796319817 0 0.025353163704189718 0.33024288796319817 0 0.017151683724365509 0.3376665205351736 0 0.035457090884324839 0.34144453771838768 0 0.0087281755863181168 0.33049580891976171 0 0.025353163704189718 0.33024288796319817 0 0.020410497070949891 0.30832150289807031 0 0.025353163704189718 0.33024288796319817 0 0.038017806832533571 0.30672300381527179 0 0.020410497070949891 0.30832150289807031 0 0.025353163704189718 0.33024288796319817 0 0.045812945845809312 0.32351293560108041 0 0.038017806832533571 0.30672300381527179 0 0.025353163704189718 0.33024288796319817 0 0.045812945845809312 0.32351293560108041 0 0.035457090884324839 0.34144453771838768 0 0.045812945845809312 0.32351293560108041 0 0.035457090884324839 0.34144453771838768 0 0.055199983679349987 0.34246375673151652 0 0.06358813508901956 0.32234581427363851 0 0.045812945845809312 0.32351293560108041 0 0.055199983679349987 0.34246375673151652 0 0.06358813508901956 0.32234581427363851 0 0.045812945845809312 0.32351293560108041 0 0.055148108477292443 0.3057593846019967 0 0.055148108477292443 0.3057593846019967 0 0.047586914097201803 0.29032131063477928 0 0.038017806832533571 0.30672300381527179 0 0.055148108477292443 0.3057593846019967 0 0.047586914097201803 0.29032131063477928 0 0.066935962560195753 0.28615893812798288 0 0.047586914097201803 0.29032131063477928 0 0.050578246113349837 0.27455429857722041 0 0.066935962560195753 0.28615893812798288 0 0.047586914097201803 0.29032131063477928 0 0.032092818555581597 0.28614719687637868 0 0.038017806832533571 0.30672300381527179 0 0.047586914097201803 0.29032131063477928 0 0.032092818555581597 0.28614719687637868 0 0.050578246113349837 0.27455429857722041 0 0.045812945845809312 0.32351293560108041 0 0.055148108477292443 0.3057593846019967 0 0.038017806832533571 0.30672300381527179 0 0.032092818555581597 0.28614719687637868 0 0.038017806832533571 0.30672300381527179 0 0.020410497070949891 0.30832150289807031 0 0.032092818555581597 0.28614719687637868 0 0.020410497070949891 0.30832150289807031 0 0.032092818555581597 0.28614719687637868 0 0.020410497070949891 0.30832150289807031 0 0.0083336089875100904 0.29343585490586271 0 0.032092818555581597 0.28614719687637868 0 0.0083336089875100904 0.29343585490586271 0 0.021382191810826279 0.2686960609189637 0 -0.0088759444352828343 0.31092800175718183 0 0.0056044744337335906 0.31412092038659428 0 0.0083336089875100904 0.29343585490586271 0 0.0056044744337335906 0.31412092038659428 0 0.020410497070949891 0.30832150289807031 0 0.0083336089875100904 0.29343585490586271 0 0.0073806355134042019 0.25529449578482938 0 3.3590645499582607e-05 0.27236849017123349 0 0.021382191810826279 0.2686960609189637 0 0.0083336089875100904 0.29343585490586271 0 3.3590645499582607e-05 0.27236849017123349 0 0.021382191810826279 0.2686960609189637 0 0.025149977659741599 0.24684982625080901 0 0.0073806355134042019 0.25529449578482938 0 0.021382191810826279 0.2686960609189637 0 0.025149977659741599 0.24684982625080901 0 0.021382191810826279 0.2686960609189637 0 0.043775140040213267 0.26397289085468728 0 0.025149977659741599 0.24684982625080901 0 0.045472231705318063 0.24424317023843681 0 0.050158093690384618 0.2598810672441918 0 0.025149977659741599 0.24684982625080901 0 0.050158093690384618 0.2598810672441918 0 0.025149977659741599 0.24684982625080901 0 0.043775140040213267 0.26397289085468728 0 0.050158093690384618 0.2598810672441918 0 0.032092818555581597 0.28614719687637868 0 0.043775140040213267 0.26397289085468728 0 0.032092818555581597 0.28614719687637868 0 0.021382191810826279 0.2686960609189637 0 0.043775140040213267 0.26397289085468728 0 0.032092818555581597 0.28614719687637868 0 0.043775140040213267 0.26397289085468728 0 0.050578246113349837 0.27455429857722041 0 0.050578246113349837 0.27455429857722041 0 0.063875668081316214 0.2678607518654692 0 0.066935962560195753 0.28615893812798288 0 0.043775140040213267 0.26397289085468728 0 0.050578246113349837 0.27455429857722041 0 0.050158093690384618 0.2598810672441918 0 0.050578246113349837 0.27455429857722041 0 0.056046126259945157 0.25263236173372139 0 0.063875668081316214 0.2678607518654692 0 0.050578246113349837 0.27455429857722041 0 0.050158093690384618 0.2598810672441918 0 0.056046126259945157 0.25263236173372139 0 0.045472231705318063 0.24424317023843681 0 0.050158093690384618 0.2598810672441918 0 0.056046126259945157 0.25263236173372139 0 0.050578246113349837 0.27455429857722041 0 0.056046126259945157 0.25263236173372139 0 0.078525547080241467 0.2465942846531784 0 0.067905867336300579 0.25358800162702 0 0.079567988853459573 0.27014218499250892 0 0.067905867336300579 0.25358800162702 0 0.079567988853459573 0.27014218499250892 0 0.063875668081316214 0.2678607518654692 0 0.056046126259945157 0.25263236173372139 0 0.067905867336300579 0.25358800162702 0 0.063875668081316214 0.2678607518654692 0 0.078525547080241467 0.2465942846531784 0 0.079567988853459573 0.27014218499250892 0 0.093798877441032588 0.2579700649065903 0 0.079567988853459573 0.27014218499250892 0 0.063875668081316214 0.2678607518654692 0 0.066935962560195753 0.28615893812798288 0 0.079567988853459573 0.27014218499250892 0 0.066935962560195753 0.28615893812798288 0 0.087430381393448858 0.29852998767476718 0 0.066935962560195753 0.28615893812798288 0 0.071244474661197085 0.3036312559279935 0 0.087430381393448858 0.29852998767476718 0 0.055148108477292443 0.3057593846019967 0 0.066935962560195753 0.28615893812798288 0 0.071244474661197085 0.3036312559279935 0 0.06358813508901956 0.32234581427363851 0 0.055148108477292443 0.3057593846019967 0 0.071244474661197085 0.3036312559279935 0 0.081254576285268804 0.3210829637434266 0 0.087430381393448858 0.29852998767476718 0 0.1104734498024164 0.31171603628350752 0 0.081254576285268804 0.3210829637434266 0 0.071244474661197085 0.3036312559279935 0 0.087430381393448858 0.29852998767476718 0 0.079567988853459573 0.27014218499250892 0 0.087430381393448858 0.29852998767476718 0 0.1079828451826004 0.27738565586056829 0 0.087430381393448858 0.29852998767476718 0 0.1104734498024164 0.31171603628350752 0 0.1079828451826004 0.27738565586056829 0 0.1104734498024164 0.31171603628350752 0 0.1079828451826004 0.27738565586056829 0 0.13401849175413849 0.29214957311260448 0 0.1079828451826004 0.27738565586056829 0 0.13401849175413849 0.29214957311260448 0 0.1100607559553454 0.25396994184181759 0 0.1079828451826004 0.27738565586056829 0 0.13366986361514199 0.26692500362740812 0 0.12787711237058769 0.24521089126939841 0 0.1100607559553454 0.25396994184181759 0 0.13366986361514199 0.26692500362740812 0 0.092857250133516089 0.24175825718487831 0 0.1100607559553454 0.25396994184181759 0 0.093798877441032588 0.2579700649065903 0 0.1100607559553454 0.25396994184181759 0 0.093798877441032588 0.2579700649065903 0 0.1079828451826004 0.27738565586056829 0 0.079567988853459573 0.27014218499250892 0 0.093798877441032588 0.2579700649065903 0 0.1079828451826004 0.27738565586056829 0 0.13366986361514199 0.26692500362740812 0 0.1558685034792309 0.28595093384994291 0 0.15959452244756481 0.26367036214955358 0 0.14702044576598061 0.2478904659134552 0 0.13366986361514199 0.26692500362740812 0 0.15959452244756481 0.26367036214955358 0 0.14702044576598061 0.2478904659134552 0 0.12787711237058769 0.24521089126939841 0 0.13366986361514199 0.26692500362740812 0 0.1079828451826004 0.27738565586056829 0 0.13366986361514199 0.26692500362740812 0 0.13401849175413849 0.29214957311260448 0 0.1104734498024164 0.31171603628350752 0 0.13401849175413849 0.29214957311260448 0 0.14183880654046921 0.32250528078568202 0 0.13401849175413849 0.29214957311260448 0 0.16005413832567669 0.30691349036464077 0 0.14183880654046921 0.32250528078568202 0 0.13401849175413849 0.29214957311260448 0 0.16005413832567669 0.30691349036464077 0 0.13401849175413849 0.29214957311260448 0 0.1558685034792309 0.28595093384994291 0 0.16005413832567669 0.30691349036464077 0 0.13366986361514199 0.26692500362740812 0 0.13401849175413849 0.29214957311260448 0 0.1558685034792309 0.28595093384994291 0 0.1558685034792309 0.28595093384994291 0 0.1700220001876428 0.28782965529906401 0 0.16005413832567669 0.30691349036464077 0 0.1558685034792309 0.28595093384994291 0 0.1700220001876428 0.28782965529906401 0 0.17370236977615991 0.27502287964280692 0 0.1700220001876428 0.28782965529906401 0 0.16005413832567669 0.30691349036464077 0 0.1764196225356903 0.29880027385689728 0 0.16005413832567669 0.30691349036464077 0 0.1764196225356903 0.29880027385689728 0 0.18686192329242929 0.31378732528256248 0 0.1764196225356903 0.29880027385689728 0 0.18674031124236579 0.30201460306836742 0 0.19086383386244751 0.2907864273273883 0 0.1764196225356903 0.29880027385689728 0 0.18674031124236579 0.30201460306836742 0 0.18686192329242929 0.31378732528256248 0 0.1700220001876428 0.28782965529906401 0 0.18013512871176271 0.28566990799825959 0 0.17370236977615991 0.27502287964280692 0 0.1700220001876428 0.28782965529906401 0 0.1764196225356903 0.29880027385689728 0 0.18013512871176271 0.28566990799825959 0 0.1764196225356903 0.29880027385689728 0 0.18013512871176271 0.28566990799825959 0 0.19086383386244751 0.2907864273273883 0 0.18013512871176271 0.28566990799825959 0 0.1896678171968729 0.27591030386514148 0 0.19086383386244751 0.2907864273273883 0 0.18251379545819379 0.26835647973838378 0 0.17370236977615991 0.27502287964280692 0 0.1896678171968729 0.27591030386514148 0 0.18013512871176271 0.28566990799825959 0 0.17370236977615991 0.27502287964280692 0 0.1896678171968729 0.27591030386514148 0 0.18251379545819379 0.26835647973838378 0 0.17370236977615991 0.27502287964280692 0 0.17699066645021869 0.2595722272450377 0 0.17370236977615991 0.27502287964280692 0 0.15959452244756481 0.26367036214955358 0 0.17699066645021869 0.2595722272450377 0 0.1558685034792309 0.28595093384994291 0 0.17370236977615991 0.27502287964280692 0 0.15959452244756481 0.26367036214955358 0 0.16774616909827719 0.2460930353984315 0 0.15959452244756481 0.26367036214955358 0 0.17699066645021869 0.2595722272450377 0 0.14702044576598061 0.2478904659134552 0 0.16774616909827719 0.2460930353984315 0 0.15959452244756481 0.26367036214955358 0 0.18692125413578081 0.24552837502103991 0 0.16774616909827719 0.2460930353984315 0 0.17699066645021869 0.2595722272450377 0 0.18692125413578081 0.24552837502103991 0 0.17699066645021869 0.2595722272450377 0 0.19242781921148469 0.26384338938458129 0 0.18251379545819379 0.26835647973838378 0 0.17699066645021869 0.2595722272450377 0 0.19242781921148469 0.26384338938458129 0 0.18692125413578081 0.24552837502103991 0 0.19242781921148469 0.26384338938458129 0 0.20107379594449931 0.25686311186437227 0 0.18692125413578081 0.24552837502103991 0 0.20107379594449931 0.25686311186437227 0 0.19242781921148469 0.26384338938458129 0 0.20107379594449931 0.25686311186437227 0 0.2008998280478862 0.26959186196165702 0 0.19242781921148469 0.26384338938458129 0 0.20107379594449931 0.25686311186437227 0 0.19242781921148469 0.26384338938458129 0 0.1896678171968729 0.27591030386514148 0 0.2008998280478862 0.26959186196165702 0 0.18251379545819379 0.26835647973838378 0 0.19242781921148469 0.26384338938458129 0 0.1896678171968729 0.27591030386514148 0 0.1896678171968729 0.27591030386514148 0 0.2008998280478862 0.26959186196165702 0 0.20354188417430641 0.281093168015905 0 0.2008998280478862 0.26959186196165702 0 0.2177878237122676 0.27024933667828532 0 0.20354188417430641 0.281093168015905 0 0.2177878237122676 0.27024933667828532 0 0.20354188417430641 0.281093168015905 0 0.2166033006779626 0.28924568688104418 0 0.21557305570370441 0.24515722135805329 0 0.20107379594449931 0.25686311186437227 0 0.2177878237122676 0.27024933667828532 0 0.20107379594449931 0.25686311186437227 0 0.2177878237122676 0.27024933667828532 0 0.20107379594449931 0.25686311186437227 0 0.2008998280478862 0.26959186196165702 0 0.2177878237122676 0.27024933667828532 0 0.21557305570370441 0.24515722135805329 0 0.20107379594449931 0.25686311186437227 0 0.21557305570370441 0.24515722135805329 0 0.2177878237122676 0.27024933667828532 0 0.23628031136540401 0.25597328662156199 0 0.2177878237122676 0.27024933667828532 0 0.23628031136540401 0.25597328662156199 0 0.23450185148003599 0.28363556149219821 0 0.2177878237122676 0.27024933667828532 0 0.23450185148003599 0.28363556149219821 0 0.2166033006779626 0.28924568688104418 0 0.2177878237122676 0.27024933667828532 0 0.23450185148003599 0.28363556149219821 0 0.23628031136540401 0.25597328662156199 0 0.23450185148003599 0.28363556149219821 0 0.25102838231212438 0.26850893423506528 0 0.23450185148003599 0.28363556149219821 0 0.25953152444998728 0.28294166139542631 0 0.25102838231212438 0.26850893423506528 0 0.23628031136540401 0.25597328662156199 0 0.25102838231212438 0.26850893423506528 0 0.26221447651104962 0.2479993693513689 0 0.2297645605960125 0.30261029929826411 0 0.25121587924780342 0.29702178630611242 0 0.2484846271056145 0.31037308609574782 0 0.2297645605960125 0.30261029929826411 0 0.23798581837376781 0.31938142953188831 0 0.2484846271056145 0.31037308609574782 0 0.2297645605960125 0.30261029929826411 0 0.25121587924780342 0.29702178630611242 0 0.23450185148003599 0.28363556149219821 0 0.2297645605960125 0.30261029929826411 0 0.25121587924780342 0.29702178630611242 0 0.23450185148003599 0.28363556149219821 0 0.25121587924780342 0.29702178630611242 0 0.23450185148003599 0.28363556149219821 0 0.25953152444998728 0.28294166139542631 0 0.25121587924780342 0.29702178630611242 0 0.23450185148003599 0.28363556149219821 0 0.2297645605960125 0.30261029929826411 0 0.2166033006779626 0.28924568688104418 0 0.2297645605960125 0.30261029929826411 0 0.20831324194422091 0.30819881229041318 0 0.2297645605960125 0.30261029929826411 0 0.20831324194422091 0.30819881229041318 0 0.21977364325038071 0.31928170538083578 0 0.20831324194422091 0.30819881229041318 0 0.2166033006779626 0.28924568688104418 0 0.20288664267638859 0.29424953150154581 0 0.2297645605960125 0.30261029929826411 0 0.20831324194422091 0.30819881229041318 0 0.2166033006779626 0.28924568688104418 0 0.20354188417430641 0.281093168015905 0 0.2166033006779626 0.28924568688104418 0 0.20288664267638859 0.29424953150154581 0 0.20354188417430641 0.281093168015905 0 0.20288664267638859 0.29424953150154581 0 0.19086383386244751 0.2907864273273883 0 0.20288664267638859 0.29424953150154581 0 0.19086383386244751 0.2907864273273883 0 0.19511095272300569 0.3019235629929784 0 0.1896678171968729 0.27591030386514148 0 0.20354188417430641 0.281093168015905 0 0.19086383386244751 0.2907864273273883 0 0.20831324194422091 0.30819881229041318 0 0.18686192329242929 0.31378732528256248 0 0.20831324194422091 0.30819881229041318 0 0.19511095272300569 0.3019235629929784 0 0.18686192329242929 0.31378732528256248 0 0.20831324194422091 0.30819881229041318 0 0.20288664267638859 0.29424953150154581 0 0.19511095272300569 0.3019235629929784 0 0.18674031124236579 0.30201460306836742 0 0.19086383386244751 0.2907864273273883 0 0.19511095272300569 0.3019235629929784 0 0.18674031124236579 0.30201460306836742 0 0.19511095272300569 0.3019235629929784 0 0.18686192329242929 0.31378732528256248 0 0.20141288137377081 0.31920030670374799 0 0.18686192329242929 0.31378732528256248 0 0.18608978489721489 0.32167740761667712 0 0.20831324194422091 0.30819881229041318 0 0.20141288137377081 0.31920030670374799 0 0.18686192329242929 0.31378732528256248 0 0.20141288137377081 0.31920030670374799 0 0.21212543146875301 0.33644132486871342 0 0.18608978489721489 0.32167740761667712 0 0.21212543146875301 0.33644132486871342 0 0.18608978489721489 0.32167740761667712 0 0.19231113454718349 0.34165597013868199 0 0.21212543146875301 0.33644132486871342 0 0.18608978489721489 0.32167740761667712 0 0.20831324194422091 0.30819881229041318 0 0.20141288137377081 0.31920030670374799 0 0.21977364325038071 0.31928170538083578 0 0.20141288137377081 0.31920030670374799 0 0.21212543146875301 0.33644132486871342 0 0.21977364325038071 0.31928170538083578 0 0.21977364325038071 0.31928170538083578 0 0.2290399257457596 0.32985805959198788 0 0.23798581837376781 0.31938142953188831 0 0.2297645605960125 0.30261029929826411 0 0.21977364325038071 0.31928170538083578 0 0.23798581837376781 0.31938142953188831 0 0.21212543146875301 0.33644132486871342 0 0.21977364325038071 0.31928170538083578 0 0.2290399257457596 0.32985805959198788 0 0.21212543146875301 0.33644132486871342 0 0.23060518033342339 0.33807106122714048 0 0.2290399257457596 0.32985805959198788 0 0.21212543146875301 0.33644132486871342 0 0.23060518033342339 0.33807106122714048 0 0.23816107804029091 0.35120524212074949 0 0.23060518033342339 0.33807106122714048 0 0.2290399257457596 0.32985805959198788 0 0.2430942860788903 0.33477961832711151 0 0.23060518033342339 0.33807106122714048 0 0.2430942860788903 0.33477961832711151 0 0.23816107804029091 0.35120524212074949 0 0.2484846271056145 0.31037308609574782 0 0.23798581837376781 0.31938142953188831 0 0.25508783524565293 0.32209220201309929 0 0.2430942860788903 0.33477961832711151 0 0.23798581837376781 0.31938142953188831 0 0.25508783524565293 0.32209220201309929 0 0.2290399257457596 0.32985805959198788 0 0.2430942860788903 0.33477961832711151 0 0.23798581837376781 0.31938142953188831 0 0.23439037865920059 0.35560025357312369 0 0.2386764282036242 0.37725286527910618 0 0.24311907173897271 0.36013203008567057 0 0.23439037865920059 0.35560025357312369 0 0.2386764282036242 0.37725286527910618 0 0.2492643002430574 0.365916522193315 0 0.24311907173897271 0.36013203008567057 0 0.2386764282036242 0.37725286527910618 0 0.2492643002430574 0.365916522193315 0 0.2386764282036242 0.37725286527910618 0 0.25383912625151372 0.37755129754335942 0 0.24311907173897271 0.36013203008567057 0 0.23816107804029091 0.35120524212074949 0 0.2641967246118288 0.36596915937278562 0 0.2430942860788903 0.33477961832711151 0 0.23816107804029091 0.35120524212074949 0 0.26173146881309822 0.35734024057335978 0 0.24311907173897271 0.36013203008567057 0 0.23816107804029091 0.35120524212074949 0 0.23439037865920059 0.35560025357312369 0 0.21212543146875301 0.33644132486871342 0 0.23816107804029091 0.35120524212074949 0 0.21848510057545151 0.35453686872473111 0 0.23816107804029091 0.35120524212074949 0 0.23439037865920059 0.35560025357312369 0 0.21848510057545151 0.35453686872473111 0 0.21212543146875301 0.33644132486871342 0 0.23816107804029091 0.35120524212074949 0 0.23439037865920059 0.35560025357312369 0 0.22513916990612379 0.36868200325308897 0 0.2386764282036242 0.37725286527910618 0 0.23439037865920059 0.35560025357312369 0 0.22513916990612379 0.36868200325308897 0 0.21848510057545151 0.35453686872473111 0 0.22513916990612379 0.36868200325308897 0 0.20931495008602691 0.36890180222237801 0 0.21961872799640589 0.38146559318592133 0 0.22513916990612379 0.36868200325308897 0 0.20931495008602691 0.36890180222237801 0 0.21848510057545151 0.35453686872473111 0 0.20931495008602691 0.36890180222237801 0 0.21848510057545151 0.35453686872473111 0 0.2018014651714847 0.35413555731190122 0 0.21212543146875301 0.33644132486871342 0 0.21848510057545151 0.35453686872473111 0 0.2018014651714847 0.35413555731190122 0 0.19231113454718349 0.34165597013868199 0 0.2018014651714847 0.35413555731190122 0 0.1832131523033072 0.3569188224833833 0 0.19231113454718349 0.34165597013868199 0 0.21212543146875301 0.33644132486871342 0 0.2018014651714847 0.35413555731190122 0 0.20931495008602691 0.36890180222237801 0 0.2018014651714847 0.35413555731190122 0 0.19217836357317111 0.36996972767433872 0 0.20931495008602691 0.36890180222237801 0 0.19217836357317111 0.36996972767433872 0 0.20289108470775991 0.38370682355227331 0 0.2018014651714847 0.35413555731190122 0 0.19217836357317111 0.36996972767433872 0 0.1832131523033072 0.3569188224833833 0 0.19217836357317111 0.36996972767433872 0 0.17197644233242751 0.37002706837148541 0 0.1832131523033072 0.3569188224833833 0 0.17197644233242751 0.37002706837148541 0 0.16866852787741549 0.35230522619665788 0 0.1832131523033072 0.3569188224833833 0 0.17197644233242751 0.37002706837148541 0 0.16866852787741549 0.35230522619665788 0 0.15186920095361911 0.35620033980905319 0 0.17197644233242751 0.37002706837148541 0 0.15186920095361911 0.35620033980905319 0 0.15185568245476189 0.37707061606136422 0 0.16866852787741549 0.35230522619665788 0 0.1579580049025659 0.33927316190663209 0 0.15186920095361911 0.35620033980905319 0 0.16866852787741549 0.35230522619665788 0 0.1832131523033072 0.3569188224833833 0 0.17832583889515771 0.33910673841273542 0 0.19231113454718349 0.34165597013868199 0 0.1832131523033072 0.3569188224833833 0 0.17832583889515771 0.33910673841273542 0 0.17832583889515771 0.33910673841273542 0 0.18608978489721489 0.32167740761667712 0 0.16647560889869609 0.32578562508456149 0 0.19231113454718349 0.34165597013868199 0 0.17832583889515771 0.33910673841273542 0 0.18608978489721489 0.32167740761667712 0 0.16005413832567669 0.30691349036464077 0 0.18608978489721489 0.32167740761667712 0 0.16005413832567669 0.30691349036464077 0 0.18686192329242929 0.31378732528256248 0 0.18608978489721489 0.32167740761667712 0 0.16005413832567669 0.30691349036464077 0 0.18608978489721489 0.32167740761667712 0 0.16647560889869609 0.32578562508456149 0 0.17832583889515771 0.33910673841273542 0 0.16647560889869609 0.32578562508456149 0 0.1579580049025659 0.33927316190663209 0 0.16866852787741549 0.35230522619665788 0 0.17832583889515771 0.33910673841273542 0 0.1579580049025659 0.33927316190663209 0 0.16647560889869609 0.32578562508456149 0 0.1579580049025659 0.33927316190663209 0 0.14183880654046921 0.32250528078568202 0 0.1579580049025659 0.33927316190663209 0 0.14183880654046921 0.32250528078568202 0 0.14054269679001921 0.34363296691054102 0 0.16005413832567669 0.30691349036464077 0 0.16647560889869609 0.32578562508456149 0 0.14183880654046921 0.32250528078568202 0 0.1202868522871179 0.34060046584014031 0 0.14183880654046921 0.32250528078568202 0 0.14054269679001921 0.34363296691054102 0 0.1202868522871179 0.34060046584014031 0 0.14054269679001921 0.34363296691054102 0 0.13274728415341139 0.36410634055334368 0 0.13274728415341139 0.36410634055334368 0 0.15186920095361911 0.35620033980905319 0 0.15185568245476189 0.37707061606136422 0 0.14054269679001921 0.34363296691054102 0 0.13274728415341139 0.36410634055334368 0 0.15186920095361911 0.35620033980905319 0 0.1579580049025659 0.33927316190663209 0 0.14054269679001921 0.34363296691054102 0 0.15186920095361911 0.35620033980905319 0 0.15352992747694119 0.40026604784697911 0 0.13692284990477191 0.38930777957628943 0 0.1397509022148696 0.40843688002483958 0 0.15352992747694119 0.40026604784697911 0 0.15185568245476189 0.37707061606136422 0 0.13692284990477191 0.38930777957628943 0 0.13274728415341139 0.36410634055334368 0 0.15185568245476189 0.37707061606136422 0 0.13692284990477191 0.38930777957628943 0 0.119448870245615 0.38256434187866972 0 0.13274728415341139 0.36410634055334368 0 0.13692284990477191 0.38930777957628943 0 0.115428724103706 0.40267530492779557 0 0.13692284990477191 0.38930777957628943 0 0.1397509022148696 0.40843688002483958 0 0.12259086230274099 0.42947812748907283 0 0.1397509022148696 0.40843688002483958 0 0.14363603346764281 0.42707530835579988 0 0.12259086230274099 0.42947812748907283 0 0.115428724103706 0.40267530492779557 0 0.1397509022148696 0.40843688002483958 0 0.12259086230274099 0.42947812748907283 0 0.14363603346764281 0.42707530835579988 0 0.13510526379757609 0.44116740875256688 0 0.14363603346764281 0.42707530835579988 0 0.16526304614212209 0.42908608809292892 0 0.1507341445198021 0.44370602134863157 0 0.14363603346764281 0.42707530835579988 0 0.15527295380072001 0.4153931176925994 0 0.16526304614212209 0.42908608809292892 0 0.14363603346764281 0.42707530835579988 0 0.1507341445198021 0.44370602134863157 0 0.13510526379757609 0.44116740875256688 0 0.1397509022148696 0.40843688002483958 0 0.14363603346764281 0.42707530835579988 0 0.15527295380072001 0.4153931176925994 0 0.15352992747694119 0.40026604784697911 0 0.1397509022148696 0.40843688002483958 0 0.15527295380072001 0.4153931176925994 0 0.15527295380072001 0.4153931176925994 0 0.1711416470664554 0.41062619466687539 0 0.16526304614212209 0.42908608809292892 0 0.15352992747694119 0.40026604784697911 0 0.15527295380072001 0.4153931176925994 0 0.1711416470664554 0.41062619466687539 0 0.16526304614212209 0.42908608809292892 0 0.1809560021812836 0.43814832633623357 0 0.16598328874466911 0.44273574664910909 0 0.16526304614212209 0.42908608809292892 0 0.18469425222239219 0.42125941149134333 0 0.1809560021812836 0.43814832633623357 0 0.1711416470664554 0.41062619466687539 0 0.16526304614212209 0.42908608809292892 0 0.18469425222239219 0.42125941149134333 0 0.1711416470664554 0.41062619466687539 0 0.18469425222239219 0.42125941149134333 0 0.1843100454414533 0.40126956181167389 0 0.1711416470664554 0.41062619466687539 0 0.1843100454414533 0.40126956181167389 0 0.16952276405911931 0.3912061138884545 0 0.1843100454414533 0.40126956181167389 0 0.16952276405911931 0.3912061138884545 0 0.18589276442329861 0.38606835492789338 0 0.15352992747694119 0.40026604784697911 0 0.1711416470664554 0.41062619466687539 0 0.16952276405911931 0.3912061138884545 0 0.15352992747694119 0.40026604784697911 0 0.15185568245476189 0.37707061606136422 0 0.16952276405911931 0.3912061138884545 0 0.17197644233242751 0.37002706837148541 0 0.15185568245476189 0.37707061606136422 0 0.16952276405911931 0.3912061138884545 0 0.17197644233242751 0.37002706837148541 0 0.16952276405911931 0.3912061138884545 0 0.18589276442329861 0.38606835492789338 0 0.19217836357317111 0.36996972767433872 0 0.17197644233242751 0.37002706837148541 0 0.18589276442329861 0.38606835492789338 0 0.18589276442329861 0.38606835492789338 0 0.20289108470775991 0.38370682355227331 0 0.19700705340585539 0.39579078134538831 0 0.19217836357317111 0.36996972767433872 0 0.18589276442329861 0.38606835492789338 0 0.20289108470775991 0.38370682355227331 0 0.19700705340585539 0.39579078134538831 0 0.21316338490038089 0.39704202397260657 0 0.19877798755638451 0.41086714246249401 0 0.1843100454414533 0.40126956181167389 0 0.19700705340585539 0.39579078134538831 0 0.19877798755638451 0.41086714246249401 0 0.1843100454414533 0.40126956181167389 0 0.18589276442329861 0.38606835492789338 0 0.19700705340585539 0.39579078134538831 0 0.20289108470775991 0.38370682355227331 0 0.19700705340585539 0.39579078134538831 0 0.21316338490038089 0.39704202397260657 0 0.20931495008602691 0.36890180222237801 0 0.20289108470775991 0.38370682355227331 0 0.21961872799640589 0.38146559318592133 0 0.20289108470775991 0.38370682355227331 0 0.21316338490038089 0.39704202397260657 0 0.21961872799640589 0.38146559318592133 0 0.22513916990612379 0.36868200325308897 0 0.21961872799640589 0.38146559318592133 0 0.2386764282036242 0.37725286527910618 0 0.21961872799640589 0.38146559318592133 0 0.22852735017452019 0.39320804083607441 0 0.2386764282036242 0.37725286527910618 0 0.21316338490038089 0.39704202397260657 0 0.21961872799640589 0.38146559318592133 0 0.22852735017452019 0.39320804083607441 0 0.21316338490038089 0.39704202397260657 0 0.22852735017452019 0.39320804083607441 0 0.22983145469658259 0.40925978250573319 0 0.21316338490038089 0.39704202397260657 0 0.22983145469658259 0.40925978250573319 0 0.22852735017452019 0.39320804083607441 0 0.2429624777480478 0.39890547698508871 0 0.22983145469658259 0.40925978250573319 0 0.2429624777480478 0.39890547698508871 0 0.2386764282036242 0.37725286527910618 0 0.22852735017452019 0.39320804083607441 0 0.2429624777480478 0.39890547698508871 0 0.2386764282036242 0.37725286527910618 0 0.2429624777480478 0.39890547698508871 0 0.2386764282036242 0.37725286527910618 0 0.25341304662754638 0.38974012394171498 0 0.2386764282036242 0.37725286527910618 0 0.25383912625151372 0.37755129754335942 0 0.25341304662754638 0.38974012394171498 0 0.24649952449278431 0.42147754103885982 0 0.22996656543308741 0.44177288309861867 0 0.24946733303660301 0.43176723098649622 0 0.24649952449278431 0.42147754103885982 0 0.22996656543308741 0.44177288309861867 0 0.24649952449278431 0.42147754103885982 0 0.22738899126970491 0.42458926785457718 0 0.22996656543308741 0.44177288309861867 0 0.24946733303660301 0.43176723098649622 0 0.24649952449278431 0.42147754103885982 0 0.2429624777480478 0.39890547698508871 0 0.24649952449278431 0.42147754103885982 0 0.24649952449278431 0.42147754103885982 0 0.22983145469658259 0.40925978250573319 0 0.22738899126970491 0.42458926785457718 0 0.24649952449278431 0.42147754103885982 0 0.22983145469658259 0.40925978250573319 0 0.2429624777480478 0.39890547698508871 0 0.24649952449278431 0.42147754103885982 0 0.22983145469658259 0.40925978250573319 0 0.21316338490038089 0.39704202397260657 0 0.22983145469658259 0.40925978250573319 0 0.21370806227123909 0.41789950377956148 0 0.22983145469658259 0.40925978250573319 0 0.22738899126970491 0.42458926785457718 0 0.21370806227123909 0.41789950377956148 0 0.22738899126970491 0.42458926785457718 0 0.21739304288862979 0.43200563017257382 0 0.22996656543308741 0.44177288309861867 0 0.22738899126970491 0.42458926785457718 0 0.21739304288862979 0.43200563017257382 0 0.21370806227123909 0.41789950377956148 0 0.21739304288862979 0.43200563017257382 0 0.1999317510848099 0.43097584272053618 0 0.2111195299095035 0.44359306409302351 0 0.21739304288862979 0.43200563017257382 0 0.21370806227123909 0.41789950377956148 0 0.1999317510848099 0.43097584272053618 0 0.21370806227123909 0.41789950377956148 0 0.19877798755638451 0.41086714246249401 0 0.1999317510848099 0.43097584272053618 0 0.21316338490038089 0.39704202397260657 0 0.21370806227123909 0.41789950377956148 0 0.19877798755638451 0.41086714246249401 0 0.18469425222239219 0.42125941149134333 0 0.19877798755638451 0.41086714246249401 0 0.1999317510848099 0.43097584272053618 0 0.18469425222239219 0.42125941149134333 0 0.1843100454414533 0.40126956181167389 0 0.19877798755638451 0.41086714246249401 0 0.18469425222239219 0.42125941149134333 0 0.1999317510848099 0.43097584272053618 0 0.1809560021812836 0.43814832633623357 0 0.1999317510848099 0.43097584272053618 0 0.19479511809318301 0.4526549487178691 0 0.2111195299095035 0.44359306409302351 0 0.1999317510848099 0.43097584272053618 0 0.19479511809318301 0.4526549487178691 0 0.1809560021812836 0.43814832633623357 0 0.19479511809318301 0.4526549487178691 0 0.213169792932182 0.46047172596691099 0 0.19211155850092579 0.47790980627879082 0 0.19479511809318301 0.4526549487178691 0 0.19211155850092579 0.47790980627879082 0 0.18348770279874721 0.46143911161818069 0 0.213169792932182 0.46047172596691099 0 0.2111195299095035 0.44359306409302351 0 0.22996656543308741 0.44177288309861867 0 0.19479511809318301 0.4526549487178691 0 0.213169792932182 0.46047172596691099 0 0.2111195299095035 0.44359306409302351 0 0.21739304288862979 0.43200563017257382 0 0.2111195299095035 0.44359306409302351 0 0.22996656543308741 0.44177288309861867 0 0.22996656543308741 0.44177288309861867 0 0.22854105436186559 0.46372788353366717 0 0.24141841662185301 0.45603819576859073 0 0.213169792932182 0.46047172596691099 0 0.22854105436186559 0.46372788353366717 0 0.221321310837439 0.47674074212904899 0 0.213169792932182 0.46047172596691099 0 0.22996656543308741 0.44177288309861867 0 0.22854105436186559 0.46372788353366717 0 0.24141841662185301 0.45603819576859073 0 0.23645949407781469 0.47608243786178739 0 0.25047151807745072 0.47036873115219768 0 0.22854105436186559 0.46372788353366717 0 0.24141841662185301 0.45603819576859073 0 0.23645949407781469 0.47608243786178739 0 0.24141841662185301 0.45603819576859073 0 0.25047151807745072 0.47036873115219768 0 0.25477099823403621 0.45804476415031298 0 0.24141841662185301 0.45603819576859073 0 0.25282491994113748 0.44831200937164878 0 0.25477099823403621 0.45804476415031298 0 0.22996656543308741 0.44177288309861867 0 0.24141841662185301 0.45603819576859073 0 0.24583280085865111 0.44361242472787987 0 0.24946733303660301 0.43176723098649622 0 0.22996656543308741 0.44177288309861867 0 0.24583280085865111 0.44361242472787987 0 0.24141841662185301 0.45603819576859073 0 0.24583280085865111 0.44361242472787987 0 0.25282491994113748 0.44831200937164878 0 0.24904418528453851 0.48634810883828161 0 0.23645949407781469 0.47608243786178739 0 0.23352830384551029 0.49999999999999978 0 0.24904418528453851 0.48634810883828161 0 0.23352830384551029 0.49999999999999978 0 0.25181722630913472 0.5 0 0.24904418528453851 0.48634810883828161 0 0.23645949407781469 0.47608243786178739 0 0.25047151807745072 0.47036873115219768 0 0.23645949407781469 0.47608243786178739 0 0.221321310837439 0.47674074212904899 0 0.23352830384551029 0.49999999999999978 0 0.22854105436186559 0.46372788353366717 0 0.23645949407781469 0.47608243786178739 0 0.221321310837439 0.47674074212904899 0 0.23352830384551029 0.49999999999999978 0 0.2128199311732181 0.48895490313939532 0 0.21702906166474581 0.5 0 0.23352830384551029 0.49999999999999978 0 0.2128199311732181 0.48895490313939532 0 0.221321310837439 0.47674074212904899 0 0.23352830384551029 0.49999999999999978 0 0.2128199311732181 0.48895490313939532 0 0.2128199311732181 0.48895490313939532 0 0.21702906166474581 0.5 0 0.20052981948398141 0.49999999999999989 0 0.213169792932182 0.46047172596691099 0 0.221321310837439 0.47674074212904899 0 0.19211155850092579 0.47790980627879082 0 0.221321310837439 0.47674074212904899 0 0.2128199311732181 0.48895490313939532 0 0.19211155850092579 0.47790980627879082 0 0.2128199311732181 0.48895490313939532 0 0.19211155850092579 0.47790980627879082 0 0.2128199311732181 0.48895490313939532 0 0.20052981948398141 0.49999999999999989 0 0.19295831529489699 0.4905304616351287 0 0.2128199311732181 0.48895490313939532 0 0.19211155850092579 0.47790980627879082 0 0.19295831529489699 0.4905304616351287 0 0.20052981948398141 0.49999999999999989 0 0.1839227339461352 0.49861489743603538 0 0.20052981948398141 0.49999999999999989 0 0.19295831529489699 0.4905304616351287 0 0.1839227339461352 0.49861489743603538 0 0.19211155850092579 0.47790980627879082 0 0.19295831529489699 0.4905304616351287 0 0.1809625144841838 0.48570342190566712 0 0.1839227339461352 0.49861489743603538 0 0.1809625144841838 0.48570342190566712 0 0.16731564840828889 0.49722979487207219 0 0.1839227339461352 0.49861489743603538 0 0.16731564840828889 0.49722979487207219 0 0.1839227339461352 0.49861489743603538 0 0.1669427425872391 0.49999999999999922 0 0.16731564840828889 0.49722979487207219 0 0.19295831529489699 0.4905304616351287 0 0.1839227339461352 0.49861489743603538 0 0.1809625144841838 0.48570342190566712 0 0.1809625144841838 0.48570342190566712 0 0.16731564840828889 0.49722979487207219 0 0.16935941711846161 0.48204725214512889 0 0.16731564840828889 0.49722979487207219 0 0.157708884996551 0.48584061526662409 0 0.14611751268168829 0.49546177892012921 0 0.16731564840828889 0.49722979487207219 0 0.14611751268168829 0.49546177892012921 0 0.1669427425872391 0.49999999999999922 0 0.16731564840828889 0.49722979487207219 0 0.14611751268168829 0.49546177892012921 0 0.1669427425872391 0.49999999999999922 0 0.16731564840828889 0.49722979487207219 0 0.16731564840828889 0.49722979487207219 0 0.16935941711846161 0.48204725214512889 0 0.16731564840828889 0.49722979487207219 0 0.157708884996551 0.48584061526662409 0 0.16935941711846161 0.48204725214512889 0 0.16382575626869561 0.4735735187060508 0 0.15802571703479451 0.46684670821381258 0 0.1531189490294651 0.47544631339495541 0 0.157708884996551 0.48584061526662409 0 0.16382575626869561 0.4735735187060508 0 0.1531189490294651 0.47544631339495541 0 0.157708884996551 0.48584061526662409 0 0.16382575626869561 0.4735735187060508 0 0.16935941711846161 0.48204725214512889 0 0.16935941711846161 0.48204725214512889 0 0.17140318582863401 0.46686470941818559 0 0.16382575626869561 0.4735735187060508 0 0.16935941711846161 0.48204725214512889 0 0.17140318582863401 0.46686470941818559 0 0.1809625144841838 0.48570342190566712 0 0.16935941711846161 0.48204725214512889 0 0.17140318582863401 0.46686470941818559 0 0.19211155850092579 0.47790980627879082 0 0.1809625144841838 0.48570342190566712 0 0.17140318582863401 0.46686470941818559 0 0.19211155850092579 0.47790980627879082 0 0.17140318582863401 0.46686470941818559 0 0.19479511809318301 0.4526549487178691 0 0.18348770279874721 0.46143911161818069 0 0.17341546959919829 0.45191605883299152 0 0.19211155850092579 0.47790980627879082 0 0.18348770279874721 0.46143911161818069 0 0.17140318582863401 0.46686470941818559 0 0.18348770279874721 0.46143911161818069 0 0.17341546959919829 0.45191605883299152 0 0.17140318582863401 0.46686470941818559 0 0.17341546959919829 0.45191605883299152 0 0.17140318582863401 0.46686470941818559 0 0.19479511809318301 0.4526549487178691 0 0.1809560021812836 0.43814832633623357 0 0.17341546959919829 0.45191605883299152 0 0.1809560021812836 0.43814832633623357 0 0.17341546959919829 0.45191605883299152 0 0.16598328874466911 0.44273574664910909 0 0.17341546959919829 0.45191605883299152 0 0.16598328874466911 0.44273574664910909 0 0.15954778128093949 0.4508222386347599 0 0.16598328874466911 0.44273574664910909 0 0.15954778128093949 0.4508222386347599 0 0.1507341445198021 0.44370602134863157 0 0.16526304614212209 0.42908608809292892 0 0.16598328874466911 0.44273574664910909 0 0.1507341445198021 0.44370602134863157 0 0.16382575626869561 0.4735735187060508 0 0.1651762257979181 0.46354347419730452 0 0.17140318582863401 0.46686470941818559 0 0.1651762257979181 0.46354347419730452 0 0.17140318582863401 0.46686470941818559 0 0.17341546959919829 0.45191605883299152 0 0.1651762257979181 0.46354347419730452 0 0.17140318582863401 0.46686470941818559 0 0.17341546959919829 0.45191605883299152 0 0.15954778128093949 0.4508222386347599 0 0.1651762257979181 0.46354347419730452 0 0.15954778128093949 0.4508222386347599 0 0.1651762257979181 0.46354347419730452 0 0.1582471669695637 0.45974252444074731 0 0.16382575626869561 0.4735735187060508 0 0.1651762257979181 0.46354347419730452 0 0.15802571703479451 0.46684670821381258 0 0.1651762257979181 0.46354347419730452 0 0.1582471669695637 0.45974252444074731 0 0.15802571703479451 0.46684670821381258 0 0.14976048710833001 0.46192771033000529 0 0.1507341445198021 0.44370602134863157 0 0.136404492151351 0.45486193181106682 0 0.1582471669695637 0.45974252444074731 0 0.15802571703479451 0.46684670821381258 0 0.14976048710833001 0.46192771033000529 0 0.15802571703479451 0.46684670821381258 0 0.14976048710833001 0.46192771033000529 0 0.1531189490294651 0.47544631339495541 0 0.15954778128093949 0.4508222386347599 0 0.1582471669695637 0.45974252444074731 0 0.14976048710833001 0.46192771033000529 0 0.14976048710833001 0.46192771033000529 0 0.136404492151351 0.45486193181106682 0 0.13663143795624749 0.46910754811773492 0 0.15954778128093949 0.4508222386347599 0 0.14976048710833001 0.46192771033000529 0 0.1507341445198021 0.44370602134863157 0 0.1507341445198021 0.44370602134863157 0 0.13510526379757609 0.44116740875256688 0 0.136404492151351 0.45486193181106682 0 0.1221607865463437 0.4507156547582637 0 0.12259086230274099 0.42947812748907283 0 0.13510526379757609 0.44116740875256688 0 0.1221607865463437 0.4507156547582637 0 0.13510526379757609 0.44116740875256688 0 0.136404492151351 0.45486193181106682 0 0.136404492151351 0.45486193181106682 0 0.1267882431275838 0.46370707134437261 0 0.13663143795624749 0.46910754811773492 0 0.1221607865463437 0.4507156547582637 0 0.136404492151351 0.45486193181106682 0 0.1267882431275838 0.46370707134437261 0 0.1267882431275838 0.46370707134437261 0 0.12569724768963239 0.47617993877849962 0 0.13663143795624749 0.46910754811773492 0 0.12569724768963239 0.47617993877849962 0 0.13663143795624749 0.46910754811773492 0 0.1364132019148096 0.48384982340983701 0 0.13663143795624749 0.46910754811773492 0 0.1364132019148096 0.48384982340983701 0 0.14361111091913481 0.47574478002545789 0 0.1249193769550877 0.49369376296818718 0 0.1364132019148096 0.48384982340983701 0 0.14611751268168829 0.49546177892012921 0 0.1249193769550877 0.49369376296818718 0 0.14611751268168829 0.49546177892012921 0 0.1249193769550877 0.49369376296818718 0 0.12569724768963239 0.47617993877849962 0 0.1364132019148096 0.48384982340983701 0 0.1249193769550877 0.49369376296818718 0 0.13738437864054501 0.5 0 0.14611751268168829 0.49546177892012921 0 0.1364132019148096 0.48384982340983701 0 0.14611751268168829 0.49546177892012921 0 0.14718343377546941 0.48347361591025501 0 0.1669427425872391 0.49999999999999922 0 0.13738437864054501 0.5 0 0.14611751268168829 0.49546177892012921 0 0.157708884996551 0.48584061526662409 0 0.14611751268168829 0.49546177892012921 0 0.14718343377546941 0.48347361591025501 0 0.157708884996551 0.48584061526662409 0 0.1531189490294651 0.47544631339495541 0 0.14718343377546941 0.48347361591025501 0 0.14976048710833001 0.46192771033000529 0 0.1531189490294651 0.47544631339495541 0 0.14361111091913481 0.47574478002545789 0 0.14976048710833001 0.46192771033000529 0 0.13663143795624749 0.46910754811773492 0 0.14361111091913481 0.47574478002545789 0 0.1364132019148096 0.48384982340983701 0 0.14361111091913481 0.47574478002545789 0 0.14718343377546941 0.48347361591025501 0 0.1531189490294651 0.47544631339495541 0 0.14361111091913481 0.47574478002545789 0 0.14718343377546941 0.48347361591025501 0 0.35832214194920592 0.47929915408112939 0 0.34611268429232461 0.46591887339206078 0 0.3375369348076922 0.4829399206954248 0 0.35832214194920592 0.47929915408112939 0 0.35850557312216419 0.5 0 0.3375369348076922 0.4829399206954248 0 0.35850557312216419 0.5 0 0.37801407526051067 0.48065415083330842 0 0.38797204790529932 0.5 0 0.35832214194920592 0.47929915408112939 0 0.35850557312216419 0.5 0 0.37801407526051067 0.48065415083330842 0 0.35832214194920592 0.47929915408112939 0 0.36980735363827261 0.46050290225189661 0 0.37801407526051067 0.48065415083330842 0 0.36980735363827261 0.46050290225189661 0 0.34502769605759259 0.44546544446971242 0 0.36959298495063608 0.43610817863788948 0 0.35832214194920592 0.47929915408112939 0 0.36980735363827261 0.46050290225189661 0 0.34611268429232461 0.46591887339206078 0 0.36980735363827261 0.46050290225189661 0 0.34502769605759259 0.44546544446971242 0 0.34611268429232461 0.46591887339206078 0 0.36980735363827261 0.46050290225189661 0 0.34611268429232461 0.46591887339206078 0 0.34611268429232461 0.46591887339206078 0 0.3317687487832644 0.45597005559148451 0 0.32241801494637662 0.47133484453222518 0 0.34502769605759259 0.44546544446971242 0 0.34611268429232461 0.46591887339206078 0 0.3317687487832644 0.45597005559148451 0 0.34611268429232461 0.46591887339206078 0 0.32241801494637662 0.47133484453222518 0 0.34502769605759259 0.44546544446971242 0 0.3317687487832644 0.45597005559148451 0 0.32480939915707069 0.44218818576869201 0 0.34502769605759259 0.44546544446971242 0 0.32480939915707069 0.44218818576869201 0 0.33523501366627878 0.43221560569608392 0 0.3107318966111981 0.4514989769174147 0 0.3227404476219688 0.42624713816244092 0 0.3317687487832644 0.45597005559148451 0 0.32480939915707069 0.44218818576869201 0 0.3107318966111981 0.4514989769174147 0 0.32480939915707069 0.44218818576869201 0 0.3107318966111981 0.4514989769174147 0 0.3227404476219688 0.42624713816244092 0 0.3317687487832644 0.45597005559148451 0 0.32241801494637662 0.47133484453222518 0 0.3107318966111981 0.4514989769174147 0 0.32241801494637662 0.47133484453222518 0 0.3375369348076922 0.4829399206954248 0 0.31372501333874958 0.48784291822244708 0 0.34611268429232461 0.46591887339206078 0 0.32241801494637662 0.47133484453222518 0 0.3375369348076922 0.4829399206954248 0 0.35850557312216419 0.5 0 0.3375369348076922 0.4829399206954248 0 0.32903909833902928 0.5 0 0.32903909833902928 0.5 0 0.31372501333874958 0.48784291822244708 0 0.29957262355589431 0.5 0 0.3375369348076922 0.4829399206954248 0 0.32903909833902928 0.5 0 0.31372501333874958 0.48784291822244708 0 0.31372501333874958 0.48784291822244708 0 0.30130976803097798 0.48891801032572652 0 0.29957262355589431 0.5 0 0.31372501333874958 0.48784291822244708 0 0.30130976803097798 0.48891801032572652 0 0.29872334560042851 0.47675081567238892 0 0.30130976803097798 0.48891801032572652 0 0.29957262355589431 0.5 0 0.28978827390519868 0.49553967616935518 0 0.32241801494637662 0.47133484453222518 0 0.29872334560042851 0.47675081567238892 0 0.32241801494637662 0.47133484453222518 0 0.31372501333874958 0.48784291822244708 0 0.29872334560042851 0.47675081567238892 0 0.29872334560042851 0.47675081567238892 0 0.28397488520641462 0.48012192141307769 0 0.28978827390519868 0.49553967616935518 0 0.29872334560042851 0.47675081567238892 0 0.28929399795500932 0.47058792179259418 0 0.29703527816799058 0.46117092995693892 0 0.29872334560042851 0.47675081567238892 0 0.28929399795500932 0.47058792179259418 0 0.28397488520641462 0.48012192141307769 0 0.29872334560042851 0.47675081567238892 0 0.28397488520641462 0.48012192141307769 0 0.28929399795500932 0.47058792179259418 0 0.28397488520641462 0.48012192141307769 0 0.27920072977811172 0.47805830749059319 0 0.28397488520641462 0.48012192141307769 0 0.28978827390519868 0.49553967616935518 0 0.27010614877275918 0.50000000000000067 0 0.29957262355589431 0.5 0 0.28978827390519868 0.49553967616935518 0 0.27010614877275918 0.50000000000000067 0 0.30130976803097798 0.48891801032572652 0 0.29872334560042851 0.47675081567238892 0 0.28978827390519868 0.49553967616935518 0 0.29872334560042851 0.47675081567238892 0 0.28978827390519868 0.49553967616935518 0 0.28397488520641462 0.48012192141307769 0 0.27010614877275918 0.50000000000000067 0 0.27920072977811172 0.47805830749059319 0 0.27010614877275918 0.50000000000000067 0 0.26909437115437917 0.48384867389528768 0 0.26130641782501518 0.49139676135406141 0 0.27010614877275918 0.50000000000000067 0 0.27920072977811172 0.47805830749059319 0 0.26909437115437917 0.48384867389528768 0 0.27010614877275918 0.50000000000000067 0 0.27920072977811172 0.47805830749059319 0 0.27920072977811172 0.47805830749059319 0 0.27306774476234302 0.47644699960251641 0 0.26909437115437917 0.48384867389528768 0 0.27920072977811172 0.47805830749059319 0 0.27306774476234302 0.47644699960251641 0 0.27643472525740193 0.46726539210963169 0 0.26824582816420722 0.47348896141386071 0 0.27306774476234302 0.47644699960251641 0 0.27643472525740193 0.46726539210963169 0 0.26824582816420722 0.47348896141386071 0 0.26909437115437917 0.48384867389528768 0 0.25993240985832161 0.47939275616227872 0 0.26824582816420722 0.47348896141386071 0 0.27306774476234302 0.47644699960251641 0 0.26909437115437917 0.48384867389528768 0 0.24904418528453851 0.48634810883828161 0 0.25993240985832161 0.47939275616227872 0 0.25047151807745072 0.47036873115219768 0 0.26824582816420722 0.47348896141386071 0 0.25993240985832161 0.47939275616227872 0 0.26165523792153211 0.46576309323832682 0 0.25993240985832161 0.47939275616227872 0 0.25047151807745072 0.47036873115219768 0 0.26165523792153211 0.46576309323832682 0 0.27010614877275918 0.50000000000000067 0 0.25181722630913472 0.5 0 0.26130641782501518 0.49139676135406141 0 0.24904418528453851 0.48634810883828161 0 0.25993240985832161 0.47939275616227872 0 0.26130641782501518 0.49139676135406141 0 0.24904418528453851 0.48634810883828161 0 0.25181722630913472 0.5 0 0.26130641782501518 0.49139676135406141 0 0.26909437115437917 0.48384867389528768 0 0.25993240985832161 0.47939275616227872 0 0.26130641782501518 0.49139676135406141 0 0.26490489917960358 0.45079530358348557 0 0.25548676926057468 0.44017180441404491 0 0.26331147225899149 0.43380076267102891 0 0.24946733303660301 0.43176723098649622 0 0.24583280085865111 0.44361242472787987 0 0.25548676926057468 0.44017180441404491 0 0.24583280085865111 0.44361242472787987 0 0.25548676926057468 0.44017180441404491 0 0.25282491994113748 0.44831200937164878 0 0.26490489917960358 0.45079530358348557 0 0.25548676926057468 0.44017180441404491 0 0.25282491994113748 0.44831200937164878 0 0.26490489917960358 0.45079530358348557 0 0.25282491994113748 0.44831200937164878 0 0.25477099823403621 0.45804476415031298 0 0.25047151807745072 0.47036873115219768 0 0.25477099823403621 0.45804476415031298 0 0.26165523792153211 0.46576309323832682 0 0.26490489917960358 0.45079530358348557 0 0.25477099823403621 0.45804476415031298 0 0.26165523792153211 0.46576309323832682 0 0.26490489917960358 0.45079530358348557 0 0.27160577401557351 0.46248804296782559 0 0.27679169795675967 0.45600994403837303 0 0.26490489917960358 0.45079530358348557 0 0.26165523792153211 0.46576309323832682 0 0.27160577401557351 0.46248804296782559 0 0.26824582816420722 0.47348896141386071 0 0.27160577401557351 0.46248804296782559 0 0.27643472525740193 0.46726539210963169 0 0.26824582816420722 0.47348896141386071 0 0.26165523792153211 0.46576309323832682 0 0.27160577401557351 0.46248804296782559 0 0.27160577401557351 0.46248804296782559 0 0.27643472525740193 0.46726539210963169 0 0.27679169795675967 0.45600994403837303 0 0.27643472525740193 0.46726539210963169 0 0.27679169795675967 0.45600994403837303 0 0.28829531078346382 0.45611661498118572 0 0.27903440424894049 0.4453257315987294 0 0.26331147225899149 0.43380076267102891 0 0.26490489917960358 0.45079530358348557 0 0.27903440424894049 0.4453257315987294 0 0.26331147225899149 0.43380076267102891 0 0.26490489917960358 0.45079530358348557 0 0.27679169795675967 0.45600994403837303 0 0.27903440424894049 0.4453257315987294 0 0.27903440424894049 0.4453257315987294 0 0.2917470315179379 0.44281751567604499 0 0.28179675760275558 0.42932557237874241 0 0.27679169795675967 0.45600994403837303 0 0.27903440424894049 0.4453257315987294 0 0.28829531078346382 0.45611661498118572 0 0.27903440424894049 0.4453257315987294 0 0.2917470315179379 0.44281751567604499 0 0.28829531078346382 0.45611661498118572 0 0.2917470315179379 0.44281751567604499 0 0.28829531078346382 0.45611661498118572 0 0.29813183988985342 0.45090032042111128 0 0.27920072977811172 0.47805830749059319 0 0.27643472525740193 0.46726539210963169 0 0.28829531078346382 0.45611661498118572 0 0.28929399795500932 0.47058792179259418 0 0.27920072977811172 0.47805830749059319 0 0.28829531078346382 0.45611661498118572 0 0.27920072977811172 0.47805830749059319 0 0.28829531078346382 0.45611661498118572 0 0.28829531078346382 0.45611661498118572 0 0.29703527816799058 0.46117092995693892 0 0.29813183988985342 0.45090032042111128 0 0.28929399795500932 0.47058792179259418 0 0.28829531078346382 0.45611661498118572 0 0.29703527816799058 0.46117092995693892 0 0.29872334560042851 0.47675081567238892 0 0.29703527816799058 0.46117092995693892 0 0.3107318966111981 0.4514989769174147 0 0.29872334560042851 0.47675081567238892 0 0.3107318966111981 0.4514989769174147 0 0.32241801494637662 0.47133484453222518 0 0.29872334560042851 0.47675081567238892 0 0.3107318966111981 0.4514989769174147 0 0.29703527816799058 0.46117092995693892 0 0.29813183988985342 0.45090032042111128 0 0.3107318966111981 0.4514989769174147 0 0.30159082278473881 0.44219288247638061 0 0.3107318966111981 0.4514989769174147 0 0.30884109342504262 0.43428586920116352 0 0.2917470315179379 0.44281751567604499 0 0.30159082278473881 0.44219288247638061 0 0.29850225247966211 0.43146173016616862 0 0.2917470315179379 0.44281751567604499 0 0.30159082278473881 0.44219288247638061 0 0.29813183988985342 0.45090032042111128 0 0.30159082278473881 0.44219288247638061 0 0.29813183988985342 0.45090032042111128 0 0.3107318966111981 0.4514989769174147 0 0.30884109342504262 0.43428586920116352 0 0.29850225247966211 0.43146173016616862 0 0.30862162828234507 0.42004495563460759 0 0.29850225247966211 0.43146173016616862 0 0.30862162828234507 0.42004495563460759 0 0.29547148538100448 0.41817397575591742 0 0.30159082278473881 0.44219288247638061 0 0.30884109342504262 0.43428586920116352 0 0.29850225247966211 0.43146173016616862 0 0.30862162828234507 0.42004495563460759 0 0.30304430461131138 0.40735012112542651 0 0.3196782615082488 0.40265332564926309 0 0.30862162828234507 0.42004495563460759 0 0.30304430461131138 0.40735012112542651 0 0.29547148538100448 0.41817397575591742 0 0.30304430461131138 0.40735012112542651 0 0.29062365375375682 0.40708788978866228 0 0.29547148538100448 0.41817397575591742 0 0.29062365375375682 0.40708788978866228 0 0.29547148538100448 0.41817397575591742 0 0.28288479604298378 0.41446876034122271 0 0.29547148538100448 0.41817397575591742 0 0.28288479604298378 0.41446876034122271 0 0.28179675760275558 0.42932557237874241 0 0.29062365375375682 0.40708788978866228 0 0.28288479604298378 0.41446876034122271 0 0.28001120465417539 0.40182109974822727 0 0.29850225247966211 0.43146173016616862 0 0.29547148538100448 0.41817397575591742 0 0.28179675760275558 0.42932557237874241 0 0.2917470315179379 0.44281751567604499 0 0.29850225247966211 0.43146173016616862 0 0.28179675760275558 0.42932557237874241 0 0.28179675760275558 0.42932557237874241 0 0.27042562322166658 0.41684269204638819 0 0.26331147225899149 0.43380076267102891 0 0.27903440424894049 0.4453257315987294 0 0.28179675760275558 0.42932557237874241 0 0.26331147225899149 0.43380076267102891 0 0.27042562322166658 0.41684269204638819 0 0.26380858941988822 0.4002294757553399 0 0.28001120465417539 0.40182109974822727 0 0.28288479604298378 0.41446876034122271 0 0.28179675760275558 0.42932557237874241 0 0.27042562322166658 0.41684269204638819 0 0.28288479604298378 0.41446876034122271 0 0.27042562322166658 0.41684269204638819 0 0.28001120465417539 0.40182109974822727 0 0.24649952449278431 0.42147754103885982 0 0.25492995388566009 0.41993008507457552 0 0.26380858941988822 0.4002294757553399 0 0.27042562322166658 0.41684269204638819 0 0.25492995388566009 0.41993008507457552 0 0.26380858941988822 0.4002294757553399 0 0.24649952449278431 0.42147754103885982 0 0.26380858941988822 0.4002294757553399 0 0.2429624777480478 0.39890547698508871 0 0.24649952449278431 0.42147754103885982 0 0.26380858941988822 0.4002294757553399 0 0.24946733303660301 0.43176723098649622 0 0.24649952449278431 0.42147754103885982 0 0.26331147225899149 0.43380076267102891 0 0.24649952449278431 0.42147754103885982 0 0.25492995388566009 0.41993008507457552 0 0.26331147225899149 0.43380076267102891 0 0.24649952449278431 0.42147754103885982 0 0.26331147225899149 0.43380076267102891 0 0.27042562322166658 0.41684269204638819 0 0.25492995388566009 0.41993008507457552 0 0.26331147225899149 0.43380076267102891 0 0.24946733303660301 0.43176723098649622 0 0.25548676926057468 0.44017180441404491 0 0.26331147225899149 0.43380076267102891 0 0.26350653962281989 0.38010735630523079 0 0.25341304662754638 0.38974012394171498 0 0.26380858941988822 0.4002294757553399 0 0.26350653962281989 0.38010735630523079 0 0.25383912625151372 0.37755129754335942 0 0.25710864090743918 0.37145542319719338 0 0.26350653962281989 0.38010735630523079 0 0.25383912625151372 0.37755129754335942 0 0.25341304662754638 0.38974012394171498 0 0.2429624777480478 0.39890547698508871 0 0.25341304662754638 0.38974012394171498 0 0.26380858941988822 0.4002294757553399 0 0.26380858941988822 0.4002294757553399 0 0.28001120465417539 0.40182109974822727 0 0.28036865154730628 0.37990086281960789 0 0.26350653962281989 0.38010735630523079 0 0.28036865154730628 0.37990086281960789 0 0.2641967246118288 0.36596915937278562 0 0.26380858941988822 0.4002294757553399 0 0.28036865154730628 0.37990086281960789 0 0.26350653962281989 0.38010735630523079 0 0.26380858941988822 0.4002294757553399 0 0.28036865154730628 0.37990086281960789 0 0.28036865154730628 0.37990086281960789 0 0.29170647807930872 0.39362549197251728 0 0.2987730087010142 0.37934426936791982 0 0.28036865154730628 0.37990086281960789 0 0.29170647807930872 0.39362549197251728 0 0.28001120465417539 0.40182109974822727 0 0.28036865154730628 0.37990086281960789 0 0.29170647807930872 0.39362549197251728 0 0.29062365375375682 0.40708788978866228 0 0.28001120465417539 0.40182109974822727 0 0.29170647807930872 0.39362549197251728 0 0.30304430461131138 0.40735012112542651 0 0.29062365375375682 0.40708788978866228 0 0.29170647807930872 0.39362549197251728 0 0.30304430461131138 0.40735012112542651 0 0.30637452063024528 0.39219955594670219 0 0.3196782615082488 0.40265332564926309 0 0.30304430461131138 0.40735012112542651 0 0.29170647807930872 0.39362549197251728 0 0.30304430461131138 0.40735012112542651 0 0.29170647807930872 0.39362549197251728 0 0.30637452063024528 0.39219955594670219 0 0.30637452063024528 0.39219955594670219 0 0.2987730087010142 0.37934426936791982 0 0.31661607539452802 0.37905951313608538 0 0.29170647807930872 0.39362549197251728 0 0.30637452063024528 0.39219955594670219 0 0.2987730087010142 0.37934426936791982 0 0.31661607539452802 0.37905951313608538 0 0.32905198958534931 0.38831461949406398 0 0.3196782615082488 0.40265332564926309 0 0.31661607539452802 0.37905951313608538 0 0.32905198958534931 0.38831461949406398 0 0.33389487655237682 0.3658352592629312 0 0.32905198958534931 0.38831461949406398 0 0.34270248502322931 0.38427053755298168 0 0.33389487655237682 0.3658352592629312 0 0.32905198958534931 0.38831461949406398 0 0.34270248502322931 0.38427053755298168 0 0.33272146632259869 0.40525883785771122 0 0.34270248502322931 0.38427053755298168 0 0.33272146632259869 0.40525883785771122 0 0.34270248502322931 0.38427053755298168 0 0.33272146632259869 0.40525883785771122 0 0.34670895149724801 0.40816004440777182 0 0.31661607539452802 0.37905951313608538 0 0.3196782615082488 0.40265332564926309 0 0.32905198958534931 0.38831461949406398 0 0.33272146632259869 0.40525883785771122 0 0.3196782615082488 0.40265332564926309 0 0.30637452063024528 0.39219955594670219 0 0.31661607539452802 0.37905951313608538 0 0.3196782615082488 0.40265332564926309 0 0.3196782615082488 0.40265332564926309 0 0.3227404476219688 0.42624713816244092 0 0.30862162828234507 0.42004495563460759 0 0.3196782615082488 0.40265332564926309 0 0.3227404476219688 0.42624713816244092 0 0.33272146632259869 0.40525883785771122 0 0.3196782615082488 0.40265332564926309 0 0.3227404476219688 0.42624713816244092 0 0.33272146632259869 0.40525883785771122 0 0.3227404476219688 0.42624713816244092 0 0.32480939915707069 0.44218818576869201 0 0.3227404476219688 0.42624713816244092 0 0.3107318966111981 0.4514989769174147 0 0.30884109342504262 0.43428586920116352 0 0.3227404476219688 0.42624713816244092 0 0.32480939915707069 0.44218818576869201 0 0.3227404476219688 0.42624713816244092 0 0.33523501366627878 0.43221560569608392 0 0.30884109342504262 0.43428586920116352 0 0.30862162828234507 0.42004495563460759 0 0.3227404476219688 0.42624713816244092 0 0.34502769605759259 0.44546544446971242 0 0.33523501366627878 0.43221560569608392 0 0.34795858503051302 0.425881111768525 0 0.3227404476219688 0.42624713816244092 0 0.33523501366627878 0.43221560569608392 0 0.33659904832278342 0.4201421825902541 0 0.33523501366627878 0.43221560569608392 0 0.33659904832278342 0.4201421825902541 0 0.34795858503051302 0.425881111768525 0 0.33272146632259869 0.40525883785771122 0 0.3227404476219688 0.42624713816244092 0 0.33659904832278342 0.4201421825902541 0 0.33272146632259869 0.40525883785771122 0 0.33659904832278342 0.4201421825902541 0 0.34670895149724801 0.40816004440777182 0 0.33659904832278342 0.4201421825902541 0 0.34670895149724801 0.40816004440777182 0 0.34795858503051302 0.425881111768525 0 0.34670895149724801 0.40816004440777182 0 0.34795858503051302 0.425881111768525 0 0.36336601300371613 0.41450991002864218 0 0.34670895149724801 0.40816004440777182 0 0.36336601300371613 0.41450991002864218 0 0.35690611128064731 0.3988976866485166 0 0.34502769605759259 0.44546544446971242 0 0.34795858503051302 0.425881111768525 0 0.36959298495063608 0.43610817863788948 0 0.34795858503051302 0.425881111768525 0 0.36959298495063608 0.43610817863788948 0 0.36336601300371613 0.41450991002864218 0 0.36959298495063608 0.43610817863788948 0 0.36336601300371613 0.41450991002864218 0 0.38530342098431941 0.41064856824057122 0 0.36336601300371613 0.41450991002864218 0 0.3736470799201031 0.39378130610698531 0 0.38530342098431941 0.41064856824057122 0 0.3736470799201031 0.39378130610698531 0 0.3601059063978746 0.38125551426405008 0 0.35690611128064731 0.3988976866485166 0 0.36336601300371613 0.41450991002864218 0 0.3736470799201031 0.39378130610698531 0 0.35690611128064731 0.3988976866485166 0 0.3736470799201031 0.39378130610698531 0 0.3601059063978746 0.38125551426405008 0 0.37414389550204002 0.36898578533419818 0 0.34270248502322931 0.38427053755298168 0 0.3601059063978746 0.38125551426405008 0 0.35690611128064731 0.3988976866485166 0 0.34270248502322931 0.38427053755298168 0 0.3601059063978746 0.38125551426405008 0 0.35268350372385993 0.36328223724825232 0 0.34270248502322931 0.38427053755298168 0 0.34670895149724801 0.40816004440777182 0 0.35690611128064731 0.3988976866485166 0 0.35268350372385993 0.36328223724825232 0 0.36266452242448938 0.34229393694352239 0 0.35030182712711511 0.35130594720886232 0 0.35268350372385993 0.36328223724825232 0 0.36266452242448938 0.34229393694352239 0 0.35030182712711511 0.35130594720886232 0 0.35146565257524442 0.34420791440797271 0 0.36266452242448938 0.34229393694352239 0 0.35030182712711511 0.35130594720886232 0 0.35146565257524442 0.34420791440797271 0 0.34269927497721508 0.34493512072036142 0 0.35030182712711511 0.35130594720886232 0 0.35268350372385993 0.36328223724825232 0 0.33389487655237682 0.3658352592629312 0 0.34270248502322931 0.38427053755298168 0 0.35268350372385993 0.36328223724825232 0 0.3601059063978746 0.38125551426405008 0 0.35268350372385993 0.36328223724825232 0 0.37414389550204002 0.36898578533419818 0 0.35268350372385993 0.36328223724825232 0 0.37414389550204002 0.36898578533419818 0 0.36300645299402812 0.35604351837507042 0 0.37414389550204002 0.36898578533419818 0 0.37228166628853332 0.35471301169251829 0 0.36300645299402812 0.35604351837507042 0 0.35268350372385993 0.36328223724825232 0 0.36300645299402812 0.35604351837507042 0 0.36266452242448938 0.34229393694352239 0 0.37228166628853332 0.35471301169251829 0 0.36300645299402812 0.35604351837507042 0 0.36840829020790361 0.34668560051738673 0 0.36300645299402812 0.35604351837507042 0 0.36840829020790361 0.34668560051738673 0 0.36266452242448938 0.34229393694352239 0 0.36840829020790361 0.34668560051738673 0 0.36266452242448938 0.34229393694352239 0 0.36587418437400321 0.34278907974668538 0 0.37228166628853332 0.35471301169251829 0 0.36840829020790361 0.34668560051738673 0 0.37486749369974542 0.34694596905823039 0 0.37486749369974542 0.34694596905823039 0 0.37256750073976291 0.34304532959464751 0 0.37670219357667811 0.34177383067972761 0 0.36840829020790361 0.34668560051738673 0 0.37486749369974542 0.34694596905823039 0 0.37256750073976291 0.34304532959464751 0 0.36124897776362869 0.33531944770056321 0 0.36266452242448938 0.34229393694352239 0 0.36411885078159001 0.32644375487552563 0 0.37256750073976291 0.34304532959464751 0 0.36916640720496519 0.34145859007673351 0 0.37369311900952262 0.33836265764115908 0 0.37256750073976291 0.34304532959464751 0 0.37369311900952262 0.33836265764115908 0 0.37670219357667811 0.34177383067972761 0 0.36266452242448938 0.34229393694352239 0 0.37014896644917339 0.316543878568457 0 0.36770298492566261 0.33637877995368609 0 0.36266452242448938 0.34229393694352239 0 0.37368960646642962 0.31911015363466272 0 0.36770298492566261 0.33637877995368609 0 0.36985494237623989 0.33311962493185521 0 0.37368960646642962 0.31911015363466272 0 0.36266452242448938 0.34229393694352239 0 0.37368960646642962 0.31911015363466272 0 0.36266452242448938 0.34229393694352239 0 0.37014896644917339 0.316543878568457 0 0.36411885078159001 0.32644375487552563 0 0.36840829020790361 0.34668560051738673 0 0.36916640720496519 0.34145859007673351 0 0.36587418437400321 0.34278907974668538 0 0.36840829020790361 0.34668560051738673 0 0.37256750073976291 0.34304532959464751 0 0.36916640720496519 0.34145859007673351 0 0.36916640720496519 0.34145859007673351 0 0.36587418437400321 0.34278907974668538 0 0.36708394454210669 0.33994961910346172 0 0.36916640720496519 0.34145859007673351 0 0.37010024416019238 0.33739894816112592 0 0.36708394454210669 0.33994961910346172 0 0.36916640720496519 0.34145859007673351 0 0.37010024416019238 0.33739894816112592 0 0.37369311900952262 0.33836265764115908 0 0.36770298492566261 0.33637877995368609 0 0.37010024416019238 0.33739894816112592 0 0.36708394454210669 0.33994961910346172 0 0.37010024416019238 0.33739894816112592 0 0.37369311900952262 0.33836265764115908 0 0.3722735272100694 0.33425106354392481 0 0.3722735272100694 0.33425106354392481 0 0.37245621682226088 0.32924087979990557 0 0.375263113682131 0.33313320718557798 0 0.37369311900952262 0.33836265764115908 0 0.3722735272100694 0.33425106354392481 0 0.375263113682131 0.33313320718557798 0 0.3722735272100694 0.33425106354392481 0 0.37245621682226088 0.32924087979990557 0 0.36985494237623989 0.33311962493185521 0 0.37245621682226088 0.32924087979990557 0 0.37577016905582622 0.32787937856968757 0 0.375263113682131 0.33313320718557798 0 0.37010024416019238 0.33739894816112592 0 0.3722735272100694 0.33425106354392481 0 0.36985494237623989 0.33311962493185521 0 0.36770298492566261 0.33637877995368609 0 0.37010024416019238 0.33739894816112592 0 0.36985494237623989 0.33311962493185521 0 0.36128237795215928 0.33126347269122047 0 0.36124897776362869 0.33531944770056321 0 0.36411885078159001 0.32644375487552563 0 0.36150631125237548 0.32912422255951068 0 0.36128237795215928 0.33126347269122047 0 0.36411885078159001 0.32644375487552563 0 0.36150631125237548 0.32912422255951068 0 0.35994194411877378 0.32646204206530971 0 0.35835984371964152 0.33045614064968309 0 0.36128237795215928 0.33126347269122047 0 0.35899626180536931 0.33430086833413269 0 0.35835984371964152 0.33045614064968309 0 0.36150631125237548 0.32912422255951068 0 0.36128237795215928 0.33126347269122047 0 0.35835984371964152 0.33045614064968309 0 0.36128237795215928 0.33126347269122047 0 0.36124897776362869 0.33531944770056321 0 0.35899626180536931 0.33430086833413269 0 0.36124897776362869 0.33531944770056321 0 0.36001134864139028 0.33778823672905661 0 0.35899626180536931 0.33430086833413269 0 0.36124897776362869 0.33531944770056321 0 0.36001134864139028 0.33778823672905661 0 0.36266452242448938 0.34229393694352239 0 0.36001134864139028 0.33778823672905661 0 0.36266452242448938 0.34229393694352239 0 0.3582225103283424 0.33883319475427592 0 0.36266452242448938 0.34229393694352239 0 0.36587418437400321 0.34278907974668538 0 0.36708394454210669 0.33994961910346172 0 0.36770298492566261 0.33637877995368609 0 0.36266452242448938 0.34229393694352239 0 0.36708394454210669 0.33994961910346172 0 0.36266452242448938 0.34229393694352239 0 0.37368960646642962 0.31911015363466272 0 0.37014896644917339 0.316543878568457 0 0.37014896644917339 0.316543878568457 0 0.36604953812300478 0.31497278055865852 0 0.36630954626425261 0.31087512405144152 0 0.37499251130121058 0.31593455150060828 0 0.37014896644917339 0.316543878568457 0 0.37695808612291098 0.31120865645681561 0 0.37499251130121058 0.31593455150060828 0 0.37368960646642962 0.31911015363466272 0 0.37014896644917339 0.316543878568457 0 0.37014896644917339 0.316543878568457 0 0.36646072203027302 0.32009490443849897 0 0.3659238024377004 0.31770243144255911 0 0.37014896644917339 0.316543878568457 0 0.3659238024377004 0.31770243144255911 0 0.36604953812300478 0.31497278055865852 0 0.37245621682226088 0.32924087979990557 0 0.36985494237623989 0.33311962493185521 0 0.37368960646642962 0.31911015363466272 0 0.37245621682226088 0.32924087979990557 0 0.37368960646642962 0.31911015363466272 0 0.37506056064123422 0.32471797871916308 0 0.37245621682226088 0.32924087979990557 0 0.37577016905582622 0.32787937856968757 0 0.37506056064123422 0.32471797871916308 0 0.37014896644917339 0.316543878568457 0 0.36411885078159001 0.32644375487552563 0 0.36646072203027302 0.32009490443849897 0 0.36411885078159001 0.32644375487552563 0 0.35994194411877378 0.32646204206530971 0 0.36132202517978662 0.32303080634539388 0 0.36150631125237548 0.32912422255951068 0 0.36411885078159001 0.32644375487552563 0 0.35994194411877378 0.32646204206530971 0 0.36132202517978662 0.32303080634539388 0 0.36348301458407639 0.32047903077872458 0 0.35962675317161102 0.31893041505789499 0 0.36411885078159001 0.32644375487552563 0 0.36132202517978662 0.32303080634539388 0 0.36348301458407639 0.32047903077872458 0 0.36411885078159001 0.32644375487552563 0 0.36348301458407639 0.32047903077872458 0 0.36646072203027302 0.32009490443849897 0 0.36348301458407639 0.32047903077872458 0 0.36646072203027302 0.32009490443849897 0 0.3659238024377004 0.31770243144255911 0 0.3659238024377004 0.31770243144255911 0 0.36344593390349789 0.31667187251247519 0 0.36604953812300478 0.31497278055865852 0 0.36348301458407639 0.32047903077872458 0 0.3659238024377004 0.31770243144255911 0 0.36344593390349789 0.31667187251247519 0 0.36348301458407639 0.32047903077872458 0 0.36344593390349789 0.31667187251247519 0 0.35962675317161102 0.31893041505789499 0 0.36344593390349789 0.31667187251247519 0 0.35962675317161102 0.31893041505789499 0 0.35878641637012221 0.31305233625990619 0 0.36344593390349789 0.31667187251247519 0 0.36331333565659901 0.31283202127524651 0 0.35878641637012221 0.31305233625990619 0 0.36331333565659901 0.31283202127524651 0 0.36604953812300478 0.31497278055865852 0 0.36630954626425261 0.31087512405144152 0 0.36344593390349789 0.31667187251247519 0 0.36331333565659901 0.31283202127524651 0 0.36604953812300478 0.31497278055865852 0 0.35878641637012221 0.31305233625990619 0 0.35512602374864599 0.31718053618965047 0 0.35090510471213721 0.31152713165908658 0 0.35512602374864599 0.31718053618965047 0 0.34983435518440159 0.31943204998396652 0 0.35090510471213721 0.31152713165908658 0 0.35962675317161102 0.31893041505789499 0 0.35878641637012221 0.31305233625990619 0 0.35512602374864599 0.31718053618965047 0 0.35962675317161102 0.31893041505789499 0 0.35512602374864599 0.31718053618965047 0 0.35673455485560862 0.32229528426682241 0 0.35512602374864599 0.31718053618965047 0 0.35673455485560862 0.32229528426682241 0 0.34983435518440159 0.31943204998396652 0 0.35673455485560862 0.32229528426682241 0 0.35060422568955008 0.32587015674736058 0 0.34983435518440159 0.31943204998396652 0 0.35994194411877378 0.32646204206530971 0 0.36132202517978662 0.32303080634539388 0 0.35673455485560862 0.32229528426682241 0 0.36132202517978662 0.32303080634539388 0 0.35962675317161102 0.31893041505789499 0 0.35673455485560862 0.32229528426682241 0 0.35994194411877378 0.32646204206530971 0 0.35673455485560862 0.32229528426682241 0 0.35627338036128769 0.32705738058013539 0 0.35994194411877378 0.32646204206530971 0 0.35627338036128769 0.32705738058013539 0 0.35835984371964152 0.33045614064968309 0 0.35627338036128769 0.32705738058013539 0 0.35060422568955008 0.32587015674736058 0 0.35398721241228231 0.33095327650953749 0 0.35673455485560862 0.32229528426682241 0 0.35627338036128769 0.32705738058013539 0 0.35060422568955008 0.32587015674736058 0 0.35060422568955008 0.32587015674736058 0 0.34514221143703899 0.32919058107390442 0 0.34284551192874652 0.32364904383841531 0 0.35060422568955008 0.32587015674736058 0 0.34983435518440159 0.31943204998396652 0 0.34284551192874652 0.32364904383841531 0 0.34983435518440159 0.31943204998396652 0 0.34480088275632298 0.31606258733578418 0 0.35090510471213721 0.31152713165908658 0 0.34983435518440159 0.31943204998396652 0 0.34480088275632298 0.31606258733578418 0 0.34284551192874652 0.32364904383841531 0 0.35146565257524442 0.34420791440797271 0 0.36266452242448938 0.34229393694352239 0 0.35562031764263757 0.34031424282986023 0 0.35302683950207769 0.33602013814058929 0 0.35562031764263757 0.34031424282986023 0 0.35672120529774148 0.33684362974708199 0 0.35202203774268331 0.33965573310897551 0 0.35302683950207769 0.33602013814058929 0 0.35562031764263757 0.34031424282986023 0 0.35146565257524442 0.34420791440797271 0 0.35202203774268331 0.33965573310897551 0 0.35562031764263757 0.34031424282986023 0 0.36266452242448938 0.34229393694352239 0 0.35562031764263757 0.34031424282986023 0 0.3582225103283424 0.33883319475427592 0 0.35562031764263757 0.34031424282986023 0 0.3582225103283424 0.33883319475427592 0 0.35672120529774148 0.33684362974708199 0 0.36001134864139028 0.33778823672905661 0 0.3582225103283424 0.33883319475427592 0 0.35672120529774148 0.33684362974708199 0 0.36001134864139028 0.33778823672905661 0 0.35672120529774148 0.33684362974708199 0 0.35899626180536931 0.33430086833413269 0 0.35899626180536931 0.33430086833413269 0 0.35641212776078268 0.33381706902087938 0 0.35835984371964152 0.33045614064968309 0 0.35672120529774148 0.33684362974708199 0 0.35899626180536931 0.33430086833413269 0 0.35641212776078268 0.33381706902087938 0 0.35627338036128769 0.32705738058013539 0 0.35835984371964152 0.33045614064968309 0 0.35398721241228231 0.33095327650953749 0 0.35641212776078268 0.33381706902087938 0 0.35835984371964152 0.33045614064968309 0 0.35398721241228231 0.33095327650953749 0 0.35302683950207769 0.33602013814058929 0 0.35641212776078268 0.33381706902087938 0 0.35398721241228231 0.33095327650953749 0 0.35302683950207769 0.33602013814058929 0 0.35398721241228231 0.33095327650953749 0 0.34924685744035389 0.33249877391857741 0 0.35302683950207769 0.33602013814058929 0 0.35672120529774148 0.33684362974708199 0 0.35641212776078268 0.33381706902087938 0 0.35302683950207769 0.33602013814058929 0 0.34924685744035389 0.33249877391857741 0 0.34788509595764172 0.33882226599831611 0 0.35060422568955008 0.32587015674736058 0 0.34924685744035389 0.33249877391857741 0 0.34514221143703899 0.32919058107390442 0 0.35060422568955008 0.32587015674736058 0 0.35398721241228231 0.33095327650953749 0 0.34924685744035389 0.33249877391857741 0 0.34924685744035389 0.33249877391857741 0 0.34514221143703899 0.32919058107390442 0 0.34474234507332802 0.33433591834825649 0 0.34924685744035389 0.33249877391857741 0 0.34474234507332802 0.33433591834825649 0 0.34788509595764172 0.33882226599831611 0 0.34474234507332802 0.33433591834825649 0 0.34788509595764172 0.33882226599831611 0 0.34057592936449049 0.33809639891542392 0 0.35146565257524442 0.34420791440797271 0 0.34788509595764172 0.33882226599831611 0 0.34269927497721508 0.34493512072036142 0 0.35202203774268331 0.33965573310897551 0 0.35302683950207769 0.33602013814058929 0 0.34788509595764172 0.33882226599831611 0 0.35146565257524442 0.34420791440797271 0 0.35202203774268331 0.33965573310897551 0 0.34788509595764172 0.33882226599831611 0 0.34057592936449049 0.33809639891542392 0 0.33318390910610529 0.34358855052096038 0 0.34269927497721508 0.34493512072036142 0 0.34788509595764172 0.33882226599831611 0 0.34057592936449049 0.33809639891542392 0 0.34269927497721508 0.34493512072036142 0 0.34474234507332802 0.33433591834825649 0 0.34057592936449049 0.33809639891542392 0 0.33946855119551672 0.33096103471374028 0 0.34514221143703899 0.32919058107390442 0 0.34474234507332802 0.33433591834825649 0 0.33946855119551672 0.33096103471374028 0 0.34057592936449049 0.33809639891542392 0 0.33946855119551672 0.33096103471374028 0 0.33283637980140879 0.33469331179832718 0 0.33946855119551672 0.33096103471374028 0 0.33283637980140879 0.33469331179832718 0 0.33464693517381472 0.32630086361949601 0 0.33283637980140879 0.33469331179832718 0 0.33464693517381472 0.32630086361949601 0 0.3250964778074269 0.32978689602061512 0 0.34057592936449049 0.33809639891542392 0 0.33283637980140879 0.33469331179832718 0 0.33318390910610529 0.34358855052096038 0 0.33283637980140879 0.33469331179832718 0 0.33318390910610529 0.34358855052096038 0 0.32611481079287369 0.33974729713420021 0 0.34480088275632298 0.31606258733578418 0 0.33769186663180051 0.31814262317354819 0 0.34192449374142192 0.30753297203612773 0 0.34480088275632298 0.31606258733578418 0 0.33769186663180051 0.31814262317354819 0 0.34284551192874652 0.32364904383841531 0 0.33946855119551672 0.33096103471374028 0 0.34284551192874652 0.32364904383841531 0 0.33464693517381472 0.32630086361949601 0 0.33769186663180051 0.31814262317354819 0 0.34284551192874652 0.32364904383841531 0 0.33464693517381472 0.32630086361949601 0 0.34514221143703899 0.32919058107390442 0 0.33946855119551672 0.33096103471374028 0 0.34284551192874652 0.32364904383841531 0 0.33769186663180051 0.31814262317354819 0 0.33464693517381472 0.32630086361949601 0 0.32994282367798861 0.32057227217232959 0 0.33464693517381472 0.32630086361949601 0 0.32994282367798861 0.32057227217232959 0 0.3250964778074269 0.32978689602061512 0 0.33769186663180051 0.31814262317354819 0 0.32994282367798861 0.32057227217232959 0 0.32867162081685902 0.31028670060733149 0 0.32176892132522322 0.32006025561378759 0 0.31440941436971798 0.31242774502049953 0 0.32867162081685902 0.31028670060733149 0 0.32994282367798861 0.32057227217232959 0 0.32176892132522322 0.32006025561378759 0 0.32867162081685902 0.31028670060733149 0 0.32176892132522322 0.32006025561378759 0 0.31484893044661 0.32778579360563193 0 0.3250964778074269 0.32978689602061512 0 0.32994282367798861 0.32057227217232959 0 0.32176892132522322 0.32006025561378759 0 0.3250964778074269 0.32978689602061512 0 0.32176892132522322 0.32006025561378759 0 0.31484893044661 0.32778579360563193 0 0.31440941436971798 0.31242774502049953 0 0.32611481079287369 0.33974729713420021 0 0.3250964778074269 0.32978689602061512 0 0.31767498628904178 0.33862919533695518 0 0.32611481079287369 0.33974729713420021 0 0.31767498628904178 0.33862919533695518 0 0.32336406622478242 0.34852958887145069 0 0.33283637980140879 0.33469331179832718 0 0.32611481079287369 0.33974729713420021 0 0.3250964778074269 0.32978689602061512 0 0.31484893044661 0.32778579360563193 0 0.31767498628904178 0.33862919533695518 0 0.30654896287530792 0.34033791233229299 0 0.31484893044661 0.32778579360563193 0 0.3250964778074269 0.32978689602061512 0 0.31767498628904178 0.33862919533695518 0 0.31767498628904178 0.33862919533695518 0 0.31315570067328902 0.3464643712977632 0 0.32336406622478242 0.34852958887145069 0 0.31315570067328902 0.3464643712977632 0 0.31355388928080707 0.35546570062290778 0 0.32336406622478242 0.34852958887145069 0 0.32336406622478242 0.34852958887145069 0 0.33442175170730049 0.35218858713626039 0 0.32437013183195901 0.3602157298059272 0 0.31355388928080707 0.35546570062290778 0 0.32336406622478242 0.34852958887145069 0 0.32437013183195901 0.3602157298059272 0 0.33318390910610529 0.34358855052096038 0 0.32611481079287369 0.33974729713420021 0 0.32336406622478242 0.34852958887145069 0 0.35030182712711511 0.35130594720886232 0 0.33442175170730049 0.35218858713626039 0 0.33389487655237682 0.3658352592629312 0 0.33318390910610529 0.34358855052096038 0 0.32336406622478242 0.34852958887145069 0 0.33442175170730049 0.35218858713626039 0 0.35030182712711511 0.35130594720886232 0 0.33442175170730049 0.35218858713626039 0 0.34269927497721508 0.34493512072036142 0 0.33318390910610529 0.34358855052096038 0 0.33442175170730049 0.35218858713626039 0 0.34269927497721508 0.34493512072036142 0 0.34270248502322931 0.38427053755298168 0 0.35268350372385993 0.36328223724825232 0 0.33389487655237682 0.3658352592629312 0 0.33442175170730049 0.35218858713626039 0 0.33389487655237682 0.3658352592629312 0 0.32437013183195901 0.3602157298059272 0 0.31661607539452802 0.37905951313608538 0 0.33389487655237682 0.3658352592629312 0 0.32437013183195901 0.3602157298059272 0 0.31661607539452802 0.37905951313608538 0 0.31355388928080707 0.35546570062290778 0 0.32437013183195901 0.3602157298059272 0 0.31661607539452802 0.37905951313608538 0 0.31355388928080707 0.35546570062290778 0 0.31661607539452802 0.37905951313608538 0 0.31355388928080707 0.35546570062290778 0 0.30541822204374358 0.36584678197342768 0 0.2987730087010142 0.37934426936791982 0 0.31661607539452802 0.37905951313608538 0 0.30541822204374358 0.36584678197342768 0 0.30541822204374358 0.36584678197342768 0 0.30393955747459928 0.35096595789874813 0 0.29215410451095353 0.36543341035917859 0 0.2987730087010142 0.37934426936791982 0 0.30541822204374358 0.36584678197342768 0 0.29215410451095353 0.36543341035917859 0 0.31315570067328902 0.3464643712977632 0 0.30393955747459928 0.35096595789874813 0 0.30654896287530792 0.34033791233229299 0 0.31315570067328902 0.3464643712977632 0 0.31355388928080707 0.35546570062290778 0 0.30393955747459928 0.35096595789874813 0 0.31355388928080707 0.35546570062290778 0 0.30541822204374358 0.36584678197342768 0 0.30393955747459928 0.35096595789874813 0 0.30393955747459928 0.35096595789874813 0 0.29215410451095353 0.36543341035917859 0 0.30393955747459928 0.35096595789874813 0 0.29720735802849829 0.34424744790442102 0 0.29027641861796738 0.35164951467646482 0 0.30393955747459928 0.35096595789874813 0 0.29720735802849829 0.34424744790442102 0 0.30654896287530792 0.34033791233229299 0 0.29720735802849829 0.34424744790442102 0 0.29027641861796738 0.35164951467646482 0 0.28998304713239348 0.34105976447064218 0 0.30393955747459928 0.35096595789874813 0 0.29027641861796738 0.35164951467646482 0 0.29215410451095353 0.36543341035917859 0 0.29027641861796738 0.35164951467646482 0 0.29215410451095353 0.36543341035917859 0 0.27920137084664282 0.3573603676334649 0 0.29027641861796738 0.35164951467646482 0 0.27920137084664282 0.3573603676334649 0 0.28068773357058369 0.34198453751068081 0 0.29027641861796738 0.35164951467646482 0 0.28068773357058369 0.34198453751068081 0 0.28998304713239348 0.34105976447064218 0 0.28036865154730628 0.37990086281960789 0 0.29215410451095353 0.36543341035917859 0 0.27920137084664282 0.3573603676334649 0 0.28036865154730628 0.37990086281960789 0 0.2987730087010142 0.37934426936791982 0 0.29215410451095353 0.36543341035917859 0 0.28036865154730628 0.37990086281960789 0 0.29215410451095353 0.36543341035917859 0 0.28036865154730628 0.37990086281960789 0 0.27920137084664282 0.3573603676334649 0 0.26173146881309822 0.35734024057335978 0 0.28036865154730628 0.37990086281960789 0 0.26173146881309822 0.35734024057335978 0 0.28036865154730628 0.37990086281960789 0 0.26173146881309822 0.35734024057335978 0 0.2641967246118288 0.36596915937278562 0 0.27920137084664282 0.3573603676334649 0 0.27030047393074008 0.3474963096498429 0 0.26173146881309822 0.35734024057335978 0 0.27920137084664282 0.3573603676334649 0 0.27030047393074008 0.3474963096498429 0 0.28068773357058369 0.34198453751068081 0 0.2430942860788903 0.33477961832711151 0 0.26173146881309822 0.35734024057335978 0 0.27030047393074008 0.3474963096498429 0 0.26173146881309822 0.35734024057335978 0 0.26240083601839698 0.33727672217147331 0 0.23816107804029091 0.35120524212074949 0 0.26173146881309822 0.35734024057335978 0 0.2641967246118288 0.36596915937278562 0 0.23816107804029091 0.35120524212074949 0 0.2641967246118288 0.36596915937278562 0 0.2492643002430574 0.365916522193315 0 0.24311907173897271 0.36013203008567057 0 0.2641967246118288 0.36596915937278562 0 0.2492643002430574 0.365916522193315 0 0.25710864090743918 0.37145542319719338 0 0.2641967246118288 0.36596915937278562 0 0.2492643002430574 0.365916522193315 0 0.25383912625151372 0.37755129754335942 0 0.25710864090743918 0.37145542319719338 0 0.26350653962281989 0.38010735630523079 0 0.25710864090743918 0.37145542319719338 0 0.2641967246118288 0.36596915937278562 0 0.2484846271056145 0.31037308609574782 0 0.25508783524565293 0.32209220201309929 0 0.26836904206483531 0.31075971332937607 0 0.25508783524565293 0.32209220201309929 0 0.26240083601839698 0.33727672217147331 0 0.26677092012209491 0.32204036282613252 0 0.25508783524565293 0.32209220201309929 0 0.26677092012209491 0.32204036282613252 0 0.26836904206483531 0.31075971332937607 0 0.2430942860788903 0.33477961832711151 0 0.25508783524565293 0.32209220201309929 0 0.26240083601839698 0.33727672217147331 0 0.2430942860788903 0.33477961832711151 0 0.26173146881309822 0.35734024057335978 0 0.26240083601839698 0.33727672217147331 0 0.26240083601839698 0.33727672217147331 0 0.27184092000699639 0.33891315949469752 0 0.27388917516664008 0.32964775149744319 0 0.26240083601839698 0.33727672217147331 0 0.27388917516664008 0.32964775149744319 0 0.26677092012209491 0.32204036282613252 0 0.27030047393074008 0.3474963096498429 0 0.26240083601839698 0.33727672217147331 0 0.27184092000699639 0.33891315949469752 0 0.27030047393074008 0.3474963096498429 0 0.27184092000699639 0.33891315949469752 0 0.28068773357058369 0.34198453751068081 0 0.27184092000699639 0.33891315949469752 0 0.28068773357058369 0.34198453751068081 0 0.27388917516664008 0.32964775149744319 0 0.28068773357058369 0.34198453751068081 0 0.27388917516664008 0.32964775149744319 0 0.28570907475377572 0.33188311037056872 0 0.27388917516664008 0.32964775149744319 0 0.26677092012209491 0.32204036282613252 0 0.28178409254690689 0.31684790712797722 0 0.27388917516664008 0.32964775149744319 0 0.28178409254690689 0.31684790712797722 0 0.28570907475377572 0.33188311037056872 0 0.26677092012209491 0.32204036282613252 0 0.28178409254690689 0.31684790712797722 0 0.26836904206483531 0.31075971332937607 0 0.28178409254690689 0.31684790712797722 0 0.29262159606390598 0.32453461147271162 0 0.29660332646403359 0.30785121346786842 0 0.28178409254690689 0.31684790712797722 0 0.29262159606390598 0.32453461147271162 0 0.28570907475377572 0.33188311037056872 0 0.28068773357058369 0.34198453751068081 0 0.28570907475377572 0.33188311037056872 0 0.28998304713239348 0.34105976447064218 0 0.29262159606390598 0.32453461147271162 0 0.28570907475377572 0.33188311037056872 0 0.29603465069114282 0.33553421189107618 0 0.29720735802849829 0.34424744790442102 0 0.29603465069114282 0.33553421189107618 0 0.28998304713239348 0.34105976447064218 0 0.28570907475377572 0.33188311037056872 0 0.29603465069114282 0.33553421189107618 0 0.28998304713239348 0.34105976447064218 0 0.29720735802849829 0.34424744790442102 0 0.29603465069114282 0.33553421189107618 0 0.30654896287530792 0.34033791233229299 0 0.29603465069114282 0.33553421189107618 0 0.30654896287530792 0.34033791233229299 0 0.30445412428221041 0.32558903425911379 0 0.29262159606390598 0.32453461147271162 0 0.29603465069114282 0.33553421189107618 0 0.30445412428221041 0.32558903425911379 0 0.31484893044661 0.32778579360563193 0 0.30654896287530792 0.34033791233229299 0 0.30445412428221041 0.32558903425911379 0 0.31767498628904178 0.33862919533695518 0 0.31315570067328902 0.3464643712977632 0 0.30654896287530792 0.34033791233229299 0 0.30445412428221041 0.32558903425911379 0 0.29660332646403359 0.30785121346786842 0 0.31440941436971798 0.31242774502049953 0 0.29262159606390598 0.32453461147271162 0 0.30445412428221041 0.32558903425911379 0 0.29660332646403359 0.30785121346786842 0 0.31484893044661 0.32778579360563193 0 0.30445412428221041 0.32558903425911379 0 0.31440941436971798 0.31242774502049953 0 0.30822946874662033 0.29998271616579031 0 0.29660332646403359 0.30785121346786842 0 0.31440941436971798 0.31242774502049953 0 0.30822946874662033 0.29998271616579031 0 0.30055108247350393 0.28416894361273021 0 0.29660332646403359 0.30785121346786842 0 0.30822946874662033 0.29998271616579031 0 0.30055108247350393 0.28416894361273021 0 0.32109763140443309 0.29547610107375327 0 0.30055108247350393 0.28416894361273021 0 0.29660332646403359 0.30785121346786842 0 0.27430616976337108 0.29100628718303567 0 0.30055108247350393 0.28416894361273021 0 0.27430616976337108 0.29100628718303567 0 0.28443506245096839 0.27205148705280008 0 0.30055108247350393 0.28416894361273021 0 0.27430616976337108 0.29100628718303567 0 0.28178409254690689 0.31684790712797722 0 0.29660332646403359 0.30785121346786842 0 0.27430616976337108 0.29100628718303567 0 0.28178409254690689 0.31684790712797722 0 0.26836904206483531 0.31075971332937607 0 0.27430616976337108 0.29100628718303567 0 0.28178409254690689 0.31684790712797722 0 0.27430616976337108 0.29100628718303567 0 0.27430616976337108 0.29100628718303567 0 0.25121587924780342 0.29702178630611242 0 0.27430616976337108 0.29100628718303567 0 0.25953152444998728 0.28294166139542631 0 0.25121587924780342 0.29702178630611242 0 0.26836904206483531 0.31075971332937607 0 0.27430616976337108 0.29100628718303567 0 0.25121587924780342 0.29702178630611242 0 0.26836904206483531 0.31075971332937607 0 0.25121587924780342 0.29702178630611242 0 0.2484846271056145 0.31037308609574782 0 0.26836904206483531 0.31075971332937607 0 0.25121587924780342 0.29702178630611242 0 0.25102838231212438 0.26850893423506528 0 0.26790857605335527 0.26889798384773289 0 0.26221447651104962 0.2479993693513689 0 0.26790857605335527 0.26889798384773289 0 0.26221447651104962 0.2479993693513689 0 0.25953152444998728 0.28294166139542631 0 0.25102838231212438 0.26850893423506528 0 0.26790857605335527 0.26889798384773289 0 0.27430616976337108 0.29100628718303567 0 0.26790857605335527 0.26889798384773289 0 0.28443506245096839 0.27205148705280008 0 0.27430616976337108 0.29100628718303567 0 0.25953152444998728 0.28294166139542631 0 0.26790857605335527 0.26889798384773289 0 0.27430616976337108 0.29100628718303567 0 0.26790857605335527 0.26889798384773289 0 0.26790857605335527 0.26889798384773289 0 0.28119448123381058 0.25405304303149878 0 0.26221447651104962 0.2479993693513689 0 0.26790857605335527 0.26889798384773289 0 0.28119448123381058 0.25405304303149878 0 0.28443506245096839 0.27205148705280008 0 0.28119448123381058 0.25405304303149878 0 0.28443506245096839 0.27205148705280008 0 0.2982150027308012 0.26213117758900317 0 0.28119448123381058 0.25405304303149878 0 0.2982150027308012 0.26213117758900317 0 0.30328699804120918 0.24394477185791469 0 0.30055108247350393 0.28416894361273021 0 0.28443506245096839 0.27205148705280008 0 0.2982150027308012 0.26213117758900317 0 0.30055108247350393 0.28416894361273021 0 0.2982150027308012 0.26213117758900317 0 0.31879452400631653 0.25919465198291952 0 0.2982150027308012 0.26213117758900317 0 0.31879452400631653 0.25919465198291952 0 0.30328699804120918 0.24394477185791469 0 0.31879452400631653 0.25919465198291952 0 0.33092809789354199 0.24744869965648561 0 0.31845456220733243 0.24449663650262579 0 0.31879452400631653 0.25919465198291952 0 0.33565265393095528 0.25675142138279861 0 0.33982225619875311 0.26765994074234428 0 0.31879452400631653 0.25919465198291952 0 0.33982225619875311 0.26765994074234428 0 0.31879452400631653 0.25919465198291952 0 0.33565265393095528 0.25675142138279861 0 0.33092809789354199 0.24744869965648561 0 0.33565265393095528 0.25675142138279861 0 0.33982225619875311 0.26765994074234428 0 0.34536281311255052 0.25941060478944128 0 0.33565265393095528 0.25675142138279861 0 0.3433555784436142 0.25004320974280247 0 0.33092809789354199 0.24744869965648561 0 0.33565265393095528 0.25675142138279861 0 0.3433555784436142 0.25004320974280247 0 0.34536281311255052 0.25941060478944128 0 0.31879452400631653 0.25919465198291952 0 0.33982225619875311 0.26765994074234428 0 0.32679599518363661 0.27733160004242491 0 0.33982225619875311 0.26765994074234428 0 0.32679599518363661 0.27733160004242491 0 0.34056182851336592 0.28206143899133118 0 0.30055108247350393 0.28416894361273021 0 0.32679599518363661 0.27733160004242491 0 0.30055108247350393 0.28416894361273021 0 0.31879452400631653 0.25919465198291952 0 0.32679599518363661 0.27733160004242491 0 0.32679599518363661 0.27733160004242491 0 0.32109763140443309 0.29547610107375327 0 0.33248404658197278 0.28876668272462419 0 0.30055108247350393 0.28416894361273021 0 0.32679599518363661 0.27733160004242491 0 0.32109763140443309 0.29547610107375327 0 0.32109763140443309 0.29547610107375327 0 0.31440941436971798 0.31242774502049953 0 0.32867162081685902 0.31028670060733149 0 0.30822946874662033 0.29998271616579031 0 0.32109763140443309 0.29547610107375327 0 0.31440941436971798 0.31242774502049953 0 0.32867162081685902 0.31028670060733149 0 0.33472549883669622 0.29791121211074773 0 0.34192449374142192 0.30753297203612773 0 0.32109763140443309 0.29547610107375327 0 0.32867162081685902 0.31028670060733149 0 0.33472549883669622 0.29791121211074773 0 0.33472549883669622 0.29791121211074773 0 0.34281583705185747 0.29966479619329672 0 0.34192449374142192 0.30753297203612773 0 0.33769186663180051 0.31814262317354819 0 0.32867162081685902 0.31028670060733149 0 0.34192449374142192 0.30753297203612773 0 0.32679599518363661 0.27733160004242491 0 0.33248404658197278 0.28876668272462419 0 0.34056182851336592 0.28206143899133118 0 0.32109763140443309 0.29547610107375327 0 0.33472549883669622 0.29791121211074773 0 0.33248404658197278 0.28876668272462419 0 0.33472549883669622 0.29791121211074773 0 0.33248404658197278 0.28876668272462419 0 0.34417327957572558 0.29277050597204329 0 0.33472549883669622 0.29791121211074773 0 0.34281583705185747 0.29966479619329672 0 0.34417327957572558 0.29277050597204329 0 0.33248404658197278 0.28876668272462419 0 0.34056182851336592 0.28206143899133118 0 0.34417327957572558 0.29277050597204329 0 0.34056182851336592 0.28206143899133118 0 0.34979868535227071 0.28728326233729501 0 0.34417327957572558 0.29277050597204329 0 0.34056182851336592 0.28206143899133118 0 0.34979868535227071 0.28728326233729501 0 0.35183199075491411 0.27966461044832719 0 0.34417327957572558 0.29277050597204329 0 0.35334053836337709 0.29410458558147129 0 0.34972900846361488 0.30172704795696642 0 0.34979868535227071 0.28728326233729501 0 0.34417327957572558 0.29277050597204329 0 0.35334053836337709 0.29410458558147129 0 0.34979868535227071 0.28728326233729501 0 0.35334053836337709 0.29410458558147129 0 0.35722235408413222 0.28831366276426512 0 0.35334053836337709 0.29410458558147129 0 0.35826071325737319 0.3003277240158499 0 0.36091512844171192 0.29433704443458902 0 0.35334053836337709 0.29410458558147129 0 0.35722235408413222 0.28831366276426512 0 0.36091512844171192 0.29433704443458902 0 0.34979868535227071 0.28728326233729501 0 0.35722235408413222 0.28831366276426512 0 0.35183199075491411 0.27966461044832719 0 0.35722235408413222 0.28831366276426512 0 0.36152496379752869 0.28359539021876212 0 0.35183199075491411 0.27966461044832719 0 0.34480088275632298 0.31606258733578418 0 0.34192449374142192 0.30753297203612773 0 0.35090510471213721 0.31152713165908658 0 0.34192449374142192 0.30753297203612773 0 0.35090510471213721 0.31152713165908658 0 0.34972900846361488 0.30172704795696642 0 0.34281583705185747 0.29966479619329672 0 0.34417327957572558 0.29277050597204329 0 0.34972900846361488 0.30172704795696642 0 0.34281583705185747 0.29966479619329672 0 0.34192449374142192 0.30753297203612773 0 0.34972900846361488 0.30172704795696642 0 0.34972900846361488 0.30172704795696642 0 0.35826071325737319 0.3003277240158499 0 0.35721607615581658 0.30656573559573969 0 0.35334053836337709 0.29410458558147129 0 0.34972900846361488 0.30172704795696642 0 0.35826071325737319 0.3003277240158499 0 0.35090510471213721 0.31152713165908658 0 0.34972900846361488 0.30172704795696642 0 0.35721607615581658 0.30656573559573969 0 0.35878641637012221 0.31305233625990619 0 0.35090510471213721 0.31152713165908658 0 0.35721607615581658 0.30656573559573969 0 0.37014896644917339 0.316543878568457 0 0.37763341047385651 0.29079382019339128 0 0.37014896644917339 0.316543878568457 0 0.37108481648816682 0.30013899891886681 0 0.36845835323010317 0.30596496181531441 0 0.37014896644917339 0.316543878568457 0 0.37763341047385651 0.29079382019339128 0 0.37695808612291098 0.31120865645681561 0 0.37014896644917339 0.316543878568457 0 0.37108481648816682 0.30013899891886681 0 0.37763341047385651 0.29079382019339128 0 0.36630954626425261 0.31087512405144152 0 0.36228941999803421 0.30896529616435242 0 0.36543096483439103 0.3064802843427199 0 0.36331333565659901 0.31283202127524651 0 0.36630954626425261 0.31087512405144152 0 0.36228941999803421 0.30896529616435242 0 0.36331333565659901 0.31283202127524651 0 0.35878641637012221 0.31305233625990619 0 0.36228941999803421 0.30896529616435242 0 0.35878641637012221 0.31305233625990619 0 0.35721607615581658 0.30656573559573969 0 0.36228941999803421 0.30896529616435242 0 0.35721607615581658 0.30656573559573969 0 0.36228941999803421 0.30896529616435242 0 0.36268018070702418 0.30398627546106088 0 0.36630954626425261 0.31087512405144152 0 0.36543096483439103 0.3064802843427199 0 0.36845835323010317 0.30596496181531441 0 0.36228941999803421 0.30896529616435242 0 0.36543096483439103 0.3064802843427199 0 0.36268018070702418 0.30398627546106088 0 0.36543096483439103 0.3064802843427199 0 0.36607900901995372 0.30349396637540749 0 0.36845835323010317 0.30596496181531441 0 0.36607900901995372 0.30349396637540749 0 0.36268018070702418 0.30398627546106088 0 0.36558719123160882 0.29969948119116269 0 0.36607900901995372 0.30349396637540749 0 0.36558719123160882 0.29969948119116269 0 0.36823835509664099 0.30133882906677939 0 0.36543096483439103 0.3064802843427199 0 0.36607900901995372 0.30349396637540749 0 0.36268018070702418 0.30398627546106088 0 0.35826071325737319 0.3003277240158499 0 0.35721607615581658 0.30656573559573969 0 0.36268018070702418 0.30398627546106088 0 0.35826071325737319 0.3003277240158499 0 0.36268018070702418 0.30398627546106088 0 0.36558719123160882 0.29969948119116269 0 0.35826071325737319 0.3003277240158499 0 0.36558719123160882 0.29969948119116269 0 0.36091512844171192 0.29433704443458902 0 0.36871223371641282 0.29817542324200702 0 0.37108481648816682 0.30013899891886681 0 0.37014933742706652 0.29575476169949788 0 0.36558719123160882 0.29969948119116269 0 0.36871223371641282 0.29817542324200702 0 0.36734652779664789 0.29411680932906442 0 0.36558719123160882 0.29969948119116269 0 0.36871223371641282 0.29817542324200702 0 0.36823835509664099 0.30133882906677939 0 0.36871223371641282 0.29817542324200702 0 0.37108481648816682 0.30013899891886681 0 0.36823835509664099 0.30133882906677939 0 0.37108481648816682 0.30013899891886681 0 0.36823835509664099 0.30133882906677939 0 0.36845835323010317 0.30596496181531441 0 0.36607900901995372 0.30349396637540749 0 0.36823835509664099 0.30133882906677939 0 0.36845835323010317 0.30596496181531441 0 0.37014896644917339 0.316543878568457 0 0.36630954626425261 0.31087512405144152 0 0.36845835323010317 0.30596496181531441 0 0.36812955944888692 0.28419813691800921 0 0.36084998839118931 0.2761252295017701 0 0.37969218042614078 0.28371066929036243 0 0.36152496379752869 0.28359539021876212 0 0.36812955944888692 0.28419813691800921 0 0.36084998839118931 0.2761252295017701 0 0.36414496955441777 0.28941104037434479 0 0.36911771796651938 0.28986917351547109 0 0.36812955944888692 0.28419813691800921 0 0.36152496379752869 0.28359539021876212 0 0.36414496955441777 0.28941104037434479 0 0.36812955944888692 0.28419813691800921 0 0.35722235408413222 0.28831366276426512 0 0.36152496379752869 0.28359539021876212 0 0.36414496955441777 0.28941104037434479 0 0.35722235408413222 0.28831366276426512 0 0.36091512844171192 0.29433704443458902 0 0.36414496955441777 0.28941104037434479 0 0.36558719123160882 0.29969948119116269 0 0.36091512844171192 0.29433704443458902 0 0.36734652779664789 0.29411680932906442 0 0.36091512844171192 0.29433704443458902 0 0.36414496955441777 0.28941104037434479 0 0.36734652779664789 0.29411680932906442 0 0.36414496955441777 0.28941104037434479 0 0.36911771796651938 0.28986917351547109 0 0.36734652779664789 0.29411680932906442 0 0.36911771796651938 0.28986917351547109 0 0.37026464520563152 0.29279186409727531 0 0.36734652779664789 0.29411680932906442 0 0.37108481648816682 0.30013899891886681 0 0.37306860395079622 0.29341917559567809 0 0.37763341047385651 0.29079382019339128 0 0.36911771796651938 0.28986917351547109 0 0.37026464520563152 0.29279186409727531 0 0.37237913536365119 0.29056320862162688 0 0.36871223371641282 0.29817542324200702 0 0.36734652779664789 0.29411680932906442 0 0.37014933742706652 0.29575476169949788 0 0.37026464520563152 0.29279186409727531 0 0.36734652779664789 0.29411680932906442 0 0.37014933742706652 0.29575476169949788 0 0.37108481648816682 0.30013899891886681 0 0.37014933742706652 0.29575476169949788 0 0.37306860395079622 0.29341917559567809 0 0.37026464520563152 0.29279186409727531 0 0.37014933742706652 0.29575476169949788 0 0.37306860395079622 0.29341917559567809 0 0.36911771796651938 0.28986917351547109 0 0.37237913536365119 0.29056320862162688 0 0.37333201972158658 0.2878654242033048 0 0.37306860395079622 0.29341917559567809 0 0.37237913536365119 0.29056320862162688 0 0.37763341047385651 0.29079382019339128 0 0.37237913536365119 0.29056320862162688 0 0.37333201972158658 0.2878654242033048 0 0.37763341047385651 0.29079382019339128 0 0.37026464520563152 0.29279186409727531 0 0.37306860395079622 0.29341917559567809 0 0.37237913536365119 0.29056320862162688 0 0.37333201972158658 0.2878654242033048 0 0.36812955944888692 0.28419813691800921 0 0.37969218042614078 0.28371066929036243 0 0.36911771796651938 0.28986917351547109 0 0.37333201972158658 0.2878654242033048 0 0.36812955944888692 0.28419813691800921 0 0.36084998839118931 0.2761252295017701 0 0.37969218042614078 0.28371066929036243 0 0.36084998839118931 0.2761252295017701 0 0.37017340450925651 0.266060206293324 0 0.3539366042426153 0.26554047293381039 0 0.36084998839118931 0.2761252295017701 0 0.38460708535355081 0.26680105137204091 0 0.36084998839118931 0.2761252295017701 0 0.37017340450925651 0.266060206293324 0 0.38460708535355081 0.26680105137204091 0 0.3539366042426153 0.26554047293381039 0 0.38129994004966872 0.25577407136566988 0 0.37169426656027921 0.24972740256563611 0 0.37017340450925651 0.266060206293324 0 0.3539366042426153 0.26554047293381039 0 0.38129994004966872 0.25577407136566988 0 0.3539366042426153 0.26554047293381039 0 0.37169426656027921 0.24972740256563611 0 0.36205361842742478 0.24882498742118489 0 0.3539366042426153 0.26554047293381039 0 0.38129994004966872 0.25577407136566988 0 0.3539366042426153 0.26554047293381039 0 0.35175757775775729 0.2532797976346674 0 0.36205361842742478 0.24882498742118489 0 0.3433555784436142 0.25004320974280247 0 0.35175757775775729 0.2532797976346674 0 0.34536281311255052 0.25941060478944128 0 0.33982225619875311 0.26765994074234428 0 0.3539366042426153 0.26554047293381039 0 0.34536281311255052 0.25941060478944128 0 0.3539366042426153 0.26554047293381039 0 0.35175757775775729 0.2532797976346674 0 0.34536281311255052 0.25941060478944128 0 0.33982225619875311 0.26765994074234428 0 0.36084998839118931 0.2761252295017701 0 0.33982225619875311 0.26765994074234428 0 0.36084998839118931 0.2761252295017701 0 0.3539366042426153 0.26554047293381039 0 0.33982225619875311 0.26765994074234428 0 0.36084998839118931 0.2761252295017701 0 0.35183199075491411 0.27966461044832719 0 0.33982225619875311 0.26765994074234428 0 0.34056182851336592 0.28206143899133118 0 0.35183199075491411 0.27966461044832719 0 0.36152496379752869 0.28359539021876212 0 0.36084998839118931 0.2761252295017701 0 0.35183199075491411 0.27966461044832719 0 0.36084998839118931 0.2761252295017701 0 0.35183199075491411 0.27966461044832719 0 0.39945440726228237 0.27350419034528239 0 0.38460708535355081 0.26680105137204091 0 0.40768566828284042 0.25774317622192677 0 0.39945440726228237 0.27350419034528239 0 0.4092682188351508 0.26816031590002881 0 0.40768566828284042 0.25774317622192677 0 0.39945440726228237 0.27350419034528239 0 0.38460708535355081 0.26680105137204091 0 0.3904751567012596 0.27530993325585928 0 0.39945440726228237 0.27350419034528239 0 0.3904751567012596 0.27530993325585928 0 0.39488150240831521 0.28173053148540511 0 0.39945440726228237 0.27350419034528239 0 0.40366985246608472 0.28285995447659418 0 0.40929088926209078 0.279020096056181 0 0.39945440726228237 0.27350419034528239 0 0.4092682188351508 0.26816031590002881 0 0.40929088926209078 0.279020096056181 0 0.39945440726228237 0.27350419034528239 0 0.39488150240831521 0.28173053148540511 0 0.40366985246608472 0.28285995447659418 0 0.38783836144724232 0.2556839199238965 0 0.38129994004966872 0.25577407136566988 0 0.40866327585672191 0.24600766979752939 0 0.38460708535355081 0.26680105137204091 0 0.40768566828284042 0.25774317622192677 0 0.38783836144724232 0.2556839199238965 0 0.40768566828284042 0.25774317622192677 0 0.40866327585672191 0.24600766979752939 0 0.38783836144724232 0.2556839199238965 0 0.38460708535355081 0.26680105137204091 0 0.40768566828284042 0.25774317622192677 0 0.38129994004966872 0.25577407136566988 0 0.40866327585672191 0.24600766979752939 0 0.38783836144724232 0.2556839199238965 0 0.38129994004966872 0.25577407136566988 0 0.38460708535355081 0.26680105137204091 0 0.38783836144724232 0.2556839199238965 0 0.38460708535355081 0.26680105137204091 0 0.38129994004966872 0.25577407136566988 0 0.37169426656027921 0.24972740256563611 0 0.38106847269238292 0.24536179082341181 0 0.37017340450925651 0.266060206293324 0 0.38129994004966872 0.25577407136566988 0 0.38460708535355081 0.26680105137204091 0 0.36084998839118931 0.2761252295017701 0 0.38460708535355081 0.26680105137204091 0 0.37969218042614078 0.28371066929036243 0 0.38460708535355081 0.26680105137204091 0 0.3904751567012596 0.27530993325585928 0 0.37969218042614078 0.28371066929036243 0 0.38460708535355081 0.26680105137204091 0 0.37969218042614078 0.28371066929036243 0 0.3904751567012596 0.27530993325585928 0 0.37969218042614078 0.28371066929036243 0 0.39488150240831521 0.28173053148540511 0 0.37969218042614078 0.28371066929036243 0 0.37763341047385651 0.29079382019339128 0 0.40259214502479168 0.29292967641552992 0 0.37763341047385651 0.29079382019339128 0 0.4027243230010164 0.30147339632314252 0 0.37969218042614078 0.28371066929036243 0 0.37763341047385651 0.29079382019339128 0 0.37333201972158658 0.2878654242033048 0 0.37969218042614078 0.28371066929036243 0 0.37763341047385651 0.29079382019339128 0 0.37763341047385651 0.29079382019339128 0 0.37695808612291098 0.31120865645681561 0 0.38599374742651271 0.30414296713942529 0 0.37763341047385651 0.29079382019339128 0 0.38599374742651271 0.30414296713942529 0 0.4027243230010164 0.30147339632314252 0 0.37695808612291098 0.31120865645681561 0 0.38599374742651271 0.30414296713942529 0 0.38754735899376969 0.31282171123814728 0 0.38599374742651271 0.30414296713942529 0 0.4027243230010164 0.30147339632314252 0 0.38754735899376969 0.31282171123814728 0 0.4027243230010164 0.30147339632314252 0 0.3956366020903157 0.32248231082130752 0 0.38754735899376969 0.31282171123814728 0 0.37969218042614078 0.28371066929036243 0 0.40259214502479168 0.29292967641552992 0 0.37969218042614078 0.28371066929036243 0 0.39488150240831521 0.28173053148540511 0 0.40259214502479168 0.29292967641552992 0 0.37763341047385651 0.29079382019339128 0 0.4027243230010164 0.30147339632314252 0 0.40259214502479168 0.29292967641552992 0 0.4027243230010164 0.30147339632314252 0 0.40259214502479168 0.29292967641552992 0 0.41139710839419091 0.29189735433941028 0 0.40259214502479168 0.29292967641552992 0 0.40366985246608472 0.28285995447659418 0 0.41139710839419091 0.29189735433941028 0 0.39488150240831521 0.28173053148540511 0 0.40259214502479168 0.29292967641552992 0 0.40366985246608472 0.28285995447659418 0 0.40366985246608472 0.28285995447659418 0 0.41139710839419091 0.29189735433941028 0 0.40929088926209078 0.279020096056181 0 0.41139710839419091 0.29189735433941028 0 0.42781523552817591 0.31215297245289481 0 0.42226183937510081 0.28327127115801121 0 0.41139710839419091 0.29189735433941028 0 0.42226183937510081 0.28327127115801121 0 0.40929088926209078 0.279020096056181 0 0.4027243230010164 0.30147339632314252 0 0.41139710839419091 0.29189735433941028 0 0.42781523552817591 0.31215297245289481 0 0.4027243230010164 0.30147339632314252 0 0.42781523552817591 0.31215297245289481 0 0.41357021602424721 0.32279281759874212 0 0.4027243230010164 0.30147339632314252 0 0.42781523552817591 0.31215297245289481 0 0.42781523552817591 0.31215297245289481 0 0.42226183937510081 0.28327127115801121 0 0.42781523552817591 0.31215297245289481 0 0.42226183937510081 0.28327127115801121 0 0.44120727567718632 0.28746005308771089 0 0.42226183937510081 0.28327127115801121 0 0.43023391716603732 0.27040224467912161 0 0.44120727567718632 0.28746005308771089 0 0.42226183937510081 0.28327127115801121 0 0.43023391716603732 0.27040224467912161 0 0.41664462513020523 0.25422696758609492 0 0.43023391716603732 0.27040224467912161 0 0.43692075095235122 0.26433370861442979 0 0.44373838257505849 0.27050131303512348 0 0.42226183937510081 0.28327127115801121 0 0.4092682188351508 0.26816031590002881 0 0.41664462513020523 0.25422696758609492 0 0.42226183937510081 0.28327127115801121 0 0.41664462513020523 0.25422696758609492 0 0.42226183937510081 0.28327127115801121 0 0.4092682188351508 0.26816031590002881 0 0.40929088926209078 0.279020096056181 0 0.40768566828284042 0.25774317622192677 0 0.41664462513020523 0.25422696758609492 0 0.40866327585672191 0.24600766979752939 0 0.40768566828284042 0.25774317622192677 0 0.41664462513020523 0.25422696758609492 0 0.4092682188351508 0.26816031590002881 0 0.40768566828284042 0.25774317622192677 0 0.41664462513020523 0.25422696758609492 0 0.42749544465446981 0.25699566217507153 0 0.45166362976964691 0.25106894999712381 0 0.43076425121212841 0.2486853010718087 0 0.41664462513020523 0.25422696758609492 0 0.42749544465446981 0.25699566217507153 0 0.43076425121212841 0.2486853010718087 0 0.43023391716603732 0.27040224467912161 0 0.41664462513020523 0.25422696758609492 0 0.42749544465446981 0.25699566217507153 0 0.41664462513020523 0.25422696758609492 0 0.43076425121212841 0.2486853010718087 0 0.42749544465446981 0.25699566217507153 0 0.43692075095235122 0.26433370861442979 0 0.44456450099631911 0.26043047377218492 0 0.43023391716603732 0.27040224467912161 0 0.42749544465446981 0.25699566217507153 0 0.43692075095235122 0.26433370861442979 0 0.42749544465446981 0.25699566217507153 0 0.45166362976964691 0.25106894999712381 0 0.42749544465446981 0.25699566217507153 0 0.44456450099631911 0.26043047377218492 0 0.45166362976964691 0.25106894999712381 0 0.43692075095235122 0.26433370861442979 0 0.44456450099631911 0.26043047377218492 0 0.44373838257505849 0.27050131303512348 0 0.44456450099631911 0.26043047377218492 0 0.44373838257505849 0.27050131303512348 0 0.45508065662597141 0.26402805921732958 0 0.44456450099631911 0.26043047377218492 0 0.45166362976964691 0.25106894999712381 0 0.45508065662597141 0.26402805921732958 0 0.44373838257505849 0.27050131303512348 0 0.45472874274978531 0.27586911806656422 0 0.44120727567718632 0.28746005308771089 0 0.43023391716603732 0.27040224467912161 0 0.44373838257505849 0.27050131303512348 0 0.44120727567718632 0.28746005308771089 0 0.44373838257505849 0.27050131303512348 0 0.45472874274978531 0.27586911806656422 0 0.45508065662597141 0.26402805921732958 0 0.45472874274978531 0.27586911806656422 0 0.46665275363318931 0.27127710252775639 0 0.46192346945889701 0.28817835066990299 0 0.45472874274978531 0.27586911806656422 0 0.46665275363318931 0.27127710252775639 0 0.45508065662597141 0.26402805921732958 0 0.45166362976964691 0.25106894999712381 0 0.46652816171208539 0.25830808769848879 0 0.47583181488482379 0.2451422378191761 0 0.45166362976964691 0.25106894999712381 0 0.45508065662597141 0.26402805921732958 0 0.46652816171208539 0.25830808769848879 0 0.46665275363318931 0.27127710252775639 0 0.45508065662597141 0.26402805921732958 0 0.46652816171208539 0.25830808769848879 0 0.46665275363318931 0.27127710252775639 0 0.46652816171208539 0.25830808769848879 0 0.48341195364679568 0.26002408893105827 0 0.46652816171208539 0.25830808769848879 0 0.48341195364679568 0.26002408893105827 0 0.47583181488482379 0.2451422378191761 0 0.46665275363318931 0.27127710252775639 0 0.48341195364679568 0.26002408893105827 0 0.48138518434246891 0.28130646820503019 0 0.46665275363318931 0.27127710252775639 0 0.48138518434246891 0.28130646820503019 0 0.46192346945889701 0.28817835066990299 0 0.5 0.26671351767664991 0 0.5 0.29421150971207138 0 0.48138518434246891 0.28130646820503019 0 0.48341195364679568 0.26002408893105827 0 0.5 0.26671351767664991 0 0.48138518434246891 0.28130646820503019 0 0.48341195364679568 0.26002408893105827 0 0.5 0.26671351767664991 0 0.50000000000000067 0.2392155256412283 0 0.5 0.29421150971207138 0 0.47556093647901088 0.30733800586058863 0 0.5 0.32170950174749302 0 0.5 0.29421150971207138 0 0.48138518434246891 0.28130646820503019 0 0.47556093647901088 0.30733800586058863 0 0.48138518434246891 0.28130646820503019 0 0.47556093647901088 0.30733800586058863 0 0.46192346945889701 0.28817835066990299 0 0.47556093647901088 0.30733800586058863 0 0.45214514511688908 0.30370412902975941 0 0.45421880844117613 0.32339126307769928 0 0.47556093647901088 0.30733800586058863 0 0.46192346945889701 0.28817835066990299 0 0.45214514511688908 0.30370412902975941 0 0.46192346945889701 0.28817835066990299 0 0.44120727567718632 0.28746005308771089 0 0.45214514511688908 0.30370412902975941 0 0.45472874274978531 0.27586911806656422 0 0.46192346945889701 0.28817835066990299 0 0.44120727567718632 0.28746005308771089 0 0.42781523552817591 0.31215297245289481 0 0.44120727567718632 0.28746005308771089 0 0.45214514511688908 0.30370412902975941 0 0.42781523552817591 0.31215297245289481 0 0.45421880844117613 0.32339126307769928 0 0.43298436918619881 0.33903622913929549 0 0.42781523552817591 0.31215297245289481 0 0.45214514511688908 0.30370412902975941 0 0.45421880844117613 0.32339126307769928 0 0.42781523552817591 0.31215297245289481 0 0.45421880844117613 0.32339126307769928 0 0.45421880844117613 0.32339126307769928 0 0.45970761232660212 0.34692044601787542 0 0.43298436918619881 0.33903622913929549 0 0.45421880844117613 0.32339126307769928 0 0.48062238135417568 0.33462955370250519 0 0.45421880844117613 0.32339126307769928 0 0.48062238135417568 0.33462955370250519 0 0.45970761232660212 0.34692044601787542 0 0.47556093647901088 0.30733800586058863 0 0.45421880844117613 0.32339126307769928 0 0.48062238135417568 0.33462955370250519 0 0.48062238135417568 0.33462955370250519 0 0.5 0.32170950174749302 0 0.5 0.34920749378291471 0 0.47556093647901088 0.30733800586058863 0 0.48062238135417568 0.33462955370250519 0 0.5 0.32170950174749302 0 0.5 0.34920749378291471 0 0.48254603458521478 0.3522402998402685 0 0.5 0.37670548581833618 0 0.48062238135417568 0.33462955370250519 0 0.5 0.34920749378291471 0 0.48254603458521478 0.3522402998402685 0 0.48254603458521478 0.3522402998402685 0 0.46972057754862501 0.36630584452178799 0 0.45970761232660212 0.34692044601787542 0 0.48062238135417568 0.33462955370250519 0 0.48254603458521478 0.3522402998402685 0 0.45970761232660212 0.34692044601787542 0 0.48254603458521478 0.3522402998402685 0 0.46972057754862501 0.36630584452178799 0 0.5 0.37670548581833618 0 0.46972057754862501 0.36630584452178799 0 0.43815350284422228 0.36591948582569622 0 0.45848938469160699 0.38276388730883248 0 0.46972057754862501 0.36630584452178799 0 0.45970761232660212 0.34692044601787542 0 0.43815350284422228 0.36591948582569622 0 0.45970761232660212 0.34692044601787542 0 0.43815350284422228 0.36591948582569622 0 0.43298436918619881 0.33903622913929549 0 0.43815350284422228 0.36591948582569622 0 0.4167242930516859 0.35972934744593471 0 0.42344095457037051 0.38268701701273461 0 0.4167242930516859 0.35972934744593471 0 0.40101385701800268 0.38518895784325291 0 0.4167242930516859 0.35972934744593471 0 0.40181680918128981 0.35947395412181382 0 0.40101385701800268 0.38518895784325291 0 0.4167242930516859 0.35972934744593471 0 0.40869055031553031 0.33881917925707022 0 0.40181680918128981 0.35947395412181382 0 0.4167242930516859 0.35972934744593471 0 0.43298436918619881 0.33903622913929549 0 0.40869055031553031 0.33881917925707022 0 0.43815350284422228 0.36591948582569622 0 0.4167242930516859 0.35972934744593471 0 0.43298436918619881 0.33903622913929549 0 0.43815350284422228 0.36591948582569622 0 0.43298436918619881 0.33903622913929549 0 0.42781523552817591 0.31215297245289481 0 0.43298436918619881 0.33903622913929549 0 0.42781523552817591 0.31215297245289481 0 0.43298436918619881 0.33903622913929549 0 0.41357021602424721 0.32279281759874212 0 0.43298436918619881 0.33903622913929549 0 0.41357021602424721 0.32279281759874212 0 0.40869055031553031 0.33881917925707022 0 0.40869055031553031 0.33881917925707022 0 0.39369601167170543 0.33564153172070438 0 0.39209274976778918 0.34814598654190299 0 0.40869055031553031 0.33881917925707022 0 0.39369601167170543 0.33564153172070438 0 0.3956366020903157 0.32248231082130752 0 0.39369601167170543 0.33564153172070438 0 0.3956366020903157 0.32248231082130752 0 0.38362385659697051 0.32926172455430031 0 0.39369601167170543 0.33564153172070438 0 0.38635485741833753 0.33883185827426582 0 0.39209274976778918 0.34814598654190299 0 0.41357021602424721 0.32279281759874212 0 0.40869055031553031 0.33881917925707022 0 0.3956366020903157 0.32248231082130752 0 0.4027243230010164 0.30147339632314252 0 0.41357021602424721 0.32279281759874212 0 0.3956366020903157 0.32248231082130752 0 0.3956366020903157 0.32248231082130752 0 0.38754735899376969 0.31282171123814728 0 0.38479800915553353 0.32074741934569512 0 0.38754735899376969 0.31282171123814728 0 0.38479800915553353 0.32074741934569512 0 0.37917338616632867 0.3168755173424983 0 0.3956366020903157 0.32248231082130752 0 0.38479800915553353 0.32074741934569512 0 0.38362385659697051 0.32926172455430031 0 0.38479800915553353 0.32074741934569512 0 0.37832625022041982 0.32264150287239662 0 0.38362385659697051 0.32926172455430031 0 0.37577016905582622 0.32787937856968757 0 0.37832625022041982 0.32264150287239662 0 0.38362385659697051 0.32926172455430031 0 0.37577016905582622 0.32787937856968757 0 0.37506056064123422 0.32471797871916308 0 0.37832625022041982 0.32264150287239662 0 0.37368960646642962 0.31911015363466272 0 0.37506056064123422 0.32471797871916308 0 0.37832625022041982 0.32264150287239662 0 0.37695808612291098 0.31120865645681561 0 0.38754735899376969 0.31282171123814728 0 0.37917338616632867 0.3168755173424983 0 0.38479800915553353 0.32074741934569512 0 0.37832625022041982 0.32264150287239662 0 0.37917338616632867 0.3168755173424983 0 0.37368960646642962 0.31911015363466272 0 0.37832625022041982 0.32264150287239662 0 0.37917338616632867 0.3168755173424983 0 0.37499251130121058 0.31593455150060828 0 0.37368960646642962 0.31911015363466272 0 0.37917338616632867 0.3168755173424983 0 0.37499251130121058 0.31593455150060828 0 0.37695808612291098 0.31120865645681561 0 0.37917338616632867 0.3168755173424983 0 0.38635485741833753 0.33883185827426582 0 0.3795813787571668 0.3363772241379393 0 0.38278029029805521 0.34473282441648212 0 0.39369601167170543 0.33564153172070438 0 0.38635485741833753 0.33883185827426582 0 0.38362385659697051 0.32926172455430031 0 0.38635485741833753 0.33883185827426582 0 0.38362385659697051 0.32926172455430031 0 0.3795813787571668 0.3363772241379393 0 0.37577016905582622 0.32787937856968757 0 0.38362385659697051 0.32926172455430031 0 0.37868435463470768 0.3315773541462857 0 0.38362385659697051 0.32926172455430031 0 0.37868435463470768 0.3315773541462857 0 0.3795813787571668 0.3363772241379393 0 0.37577016905582622 0.32787937856968757 0 0.37868435463470768 0.3315773541462857 0 0.375263113682131 0.33313320718557798 0 0.37868435463470768 0.3315773541462857 0 0.375263113682131 0.33313320718557798 0 0.3795813787571668 0.3363772241379393 0 0.37369311900952262 0.33836265764115908 0 0.3795813787571668 0.3363772241379393 0 0.37670219357667811 0.34177383067972761 0 0.3795813787571668 0.3363772241379393 0 0.37670219357667811 0.34177383067972761 0 0.38278029029805521 0.34473282441648212 0 0.37369311900952262 0.33836265764115908 0 0.375263113682131 0.33313320718557798 0 0.3795813787571668 0.3363772241379393 0 0.3809821990389497 0.35490418517770578 0 0.39056259575344082 0.36548629952090861 0 0.39209274976778918 0.34814598654190299 0 0.37486749369974542 0.34694596905823039 0 0.37670219357667811 0.34177383067972761 0 0.38278029029805521 0.34473282441648212 0 0.37486749369974542 0.34694596905823039 0 0.38278029029805521 0.34473282441648212 0 0.3809821990389497 0.35490418517770578 0 0.38278029029805521 0.34473282441648212 0 0.3809821990389497 0.35490418517770578 0 0.39209274976778918 0.34814598654190299 0 0.38635485741833753 0.33883185827426582 0 0.38278029029805521 0.34473282441648212 0 0.39209274976778918 0.34814598654190299 0 0.37228166628853332 0.35471301169251829 0 0.37486749369974542 0.34694596905823039 0 0.3809821990389497 0.35490418517770578 0 0.37414389550204002 0.36898578533419818 0 0.3809821990389497 0.35490418517770578 0 0.39056259575344082 0.36548629952090861 0 0.37414389550204002 0.36898578533419818 0 0.39056259575344082 0.36548629952090861 0 0.40101385701800268 0.38518895784325291 0 0.37414389550204002 0.36898578533419818 0 0.37228166628853332 0.35471301169251829 0 0.3809821990389497 0.35490418517770578 0 0.39056259575344082 0.36548629952090861 0 0.40181680918128981 0.35947395412181382 0 0.40101385701800268 0.38518895784325291 0 0.39056259575344082 0.36548629952090861 0 0.40181680918128981 0.35947395412181382 0 0.39209274976778918 0.34814598654190299 0 0.40869055031553031 0.33881917925707022 0 0.40181680918128981 0.35947395412181382 0 0.39209274976778918 0.34814598654190299 0 0.40101385701800268 0.38518895784325291 0 0.38530342098431941 0.41064856824057122 0 0.40101385701800268 0.38518895784325291 0 0.38530342098431941 0.41064856824057122 0 0.41521715527738928 0.40390661881175682 0 0.3736470799201031 0.39378130610698531 0 0.37414389550204002 0.36898578533419818 0 0.40101385701800268 0.38518895784325291 0 0.3736470799201031 0.39378130610698531 0 0.40101385701800268 0.38518895784325291 0 0.38530342098431941 0.41064856824057122 0 0.36959298495063608 0.43610817863788948 0 0.38530342098431941 0.41064856824057122 0 0.36959298495063608 0.43610817863788948 0 0.38530342098431941 0.41064856824057122 0 0.3889231515195431 0.43141286456833011 0 0.3889231515195431 0.43141286456833011 0 0.40362265567455102 0.42304679086704539 0 0.39942544658573009 0.43872588670818857 0 0.40362265567455102 0.42304679086704539 0 0.41248490446316177 0.43293377153942381 0 0.39942544658573009 0.43872588670818857 0 0.38530342098431941 0.41064856824057122 0 0.3889231515195431 0.43141286456833011 0 0.40362265567455102 0.42304679086704539 0 0.38530342098431941 0.41064856824057122 0 0.40362265567455102 0.42304679086704539 0 0.41521715527738928 0.40390661881175682 0 0.40362265567455102 0.42304679086704539 0 0.42233359500988371 0.42307221464191669 0 0.41521715527738928 0.40390661881175682 0 0.40362265567455102 0.42304679086704539 0 0.41248490446316177 0.43293377153942381 0 0.42233359500988371 0.42307221464191669 0 0.41248490446316177 0.43293377153942381 0 0.42233359500988371 0.42307221464191669 0 0.42326813014219627 0.43909650749986368 0 0.42233359500988371 0.42307221464191669 0 0.43681876433844857 0.43497208046478802 0 0.42326813014219627 0.43909650749986368 0 0.42233359500988371 0.42307221464191669 0 0.43681876433844857 0.43497208046478802 0 0.43655617137350622 0.42038510460191503 0 0.42233359500988371 0.42307221464191669 0 0.42830887421762198 0.41018013153495869 0 0.41521715527738928 0.40390661881175682 0 0.42233359500988371 0.42307221464191669 0 0.42830887421762198 0.41018013153495869 0 0.43655617137350622 0.42038510460191503 0 0.42830887421762198 0.41018013153495869 0 0.43655617137350622 0.42038510460191503 0 0.439625884597032 0.40642404903869822 0 0.42978568865087441 0.39901034440009059 0 0.42344095457037051 0.38268701701273461 0 0.4433226365022459 0.39280274251209668 0 0.42978568865087441 0.39901034440009059 0 0.41521715527738928 0.40390661881175682 0 0.42344095457037051 0.38268701701273461 0 0.42830887421762198 0.41018013153495869 0 0.42978568865087441 0.39901034440009059 0 0.439625884597032 0.40642404903869822 0 0.42830887421762198 0.41018013153495869 0 0.42978568865087441 0.39901034440009059 0 0.41521715527738928 0.40390661881175682 0 0.4167242930516859 0.35972934744593471 0 0.40101385701800268 0.38518895784325291 0 0.42344095457037051 0.38268701701273461 0 0.40101385701800268 0.38518895784325291 0 0.41521715527738928 0.40390661881175682 0 0.42344095457037051 0.38268701701273461 0 0.43815350284422228 0.36591948582569622 0 0.42344095457037051 0.38268701701273461 0 0.4433226365022459 0.39280274251209668 0 0.43815350284422228 0.36591948582569622 0 0.4433226365022459 0.39280274251209668 0 0.43815350284422228 0.36591948582569622 0 0.4433226365022459 0.39280274251209668 0 0.45848938469160699 0.38276388730883248 0 0.4433226365022459 0.39280274251209668 0 0.4587292321942566 0.40377894109977869 0 0.44849177016026981 0.41968599919849731 0 0.4433226365022459 0.39280274251209668 0 0.44849177016026981 0.41968599919849731 0 0.42978568865087441 0.39901034440009059 0 0.4433226365022459 0.39280274251209668 0 0.439625884597032 0.40642404903869822 0 0.4433226365022459 0.39280274251209668 0 0.4587292321942566 0.40377894109977869 0 0.45848938469160699 0.38276388730883248 0 0.4587292321942566 0.40377894109977869 0 0.45848938469160699 0.38276388730883248 0 0.47720201034463561 0.39055994944820821 0 0.46972057754862501 0.36630584452178799 0 0.45848938469160699 0.38276388730883248 0 0.47720201034463561 0.39055994944820821 0 0.46972057754862501 0.36630584452178799 0 0.47720201034463561 0.39055994944820821 0 0.5 0.37670548581833618 0 0.47720201034463561 0.39055994944820821 0 0.5 0.40420347785375749 0 0.47329291580914951 0.41490179660840648 0 0.4587292321942566 0.40377894109977869 0 0.47720201034463561 0.39055994944820821 0 0.47329291580914951 0.41490179660840648 0 0.47720201034463561 0.39055994944820821 0 0.5 0.40420347785375749 0 0.5 0.37670548581833618 0 0.48546521128148462 0.42572005307568972 0 0.49999999999999828 0.43170146988917901 0 0.48502495584706629 0.44181750450007778 0 0.49999999999999828 0.43170146988917901 0 0.48502495584706629 0.44181750450007778 0 0.5 0.40420347785375749 0 0.48546521128148462 0.42572005307568972 0 0.47329291580914951 0.41490179660840648 0 0.5 0.40420347785375749 0 0.48546521128148462 0.42572005307568972 0 0.49999999999999828 0.43170146988917901 0 0.48546521128148462 0.42572005307568972 0 0.47462076711180717 0.43403653248997731 0 0.48502495584706629 0.44181750450007778 0 0.47329291580914951 0.41490179660840648 0 0.47462076711180717 0.43403653248997731 0 0.45927084092720188 0.43580976915473651 0 0.48546521128148462 0.42572005307568972 0 0.47329291580914951 0.41490179660840648 0 0.47462076711180717 0.43403653248997731 0 0.45927084092720188 0.43580976915473651 0 0.44849177016026981 0.41968599919849731 0 0.47329291580914951 0.41490179660840648 0 0.45927084092720188 0.43580976915473651 0 0.44849177016026981 0.41968599919849731 0 0.45927084092720188 0.43580976915473651 0 0.44849177016026981 0.41968599919849731 0 0.45165089640657707 0.43611575462809582 0 0.4587292321942566 0.40377894109977869 0 0.47329291580914951 0.41490179660840648 0 0.44849177016026981 0.41968599919849731 0 0.4433226365022459 0.39280274251209668 0 0.44849177016026981 0.41968599919849731 0 0.439625884597032 0.40642404903869822 0 0.43655617137350622 0.42038510460191503 0 0.44849177016026981 0.41968599919849731 0 0.439625884597032 0.40642404903869822 0 0.44849177016026981 0.41968599919849731 0 0.439625884597032 0.40642404903869822 0 0.44849177016026981 0.41968599919849731 0 0.45165089640657707 0.43611575462809582 0 0.44386952542921521 0.4295111469185629 0 0.44849177016026981 0.41968599919849731 0 0.45165089640657707 0.43611575462809582 0 0.45165089640657707 0.43611575462809582 0 0.44386952542921521 0.4295111469185629 0 0.44519082659473158 0.43782150968735878 0 0.43655617137350622 0.42038510460191503 0 0.44849177016026981 0.41968599919849731 0 0.44386952542921521 0.4295111469185629 0 0.43681876433844857 0.43497208046478802 0 0.43655617137350622 0.42038510460191503 0 0.44386952542921521 0.4295111469185629 0 0.43681876433844857 0.43497208046478802 0 0.44386952542921521 0.4295111469185629 0 0.44519082659473158 0.43782150968735878 0 0.43681876433844857 0.43497208046478802 0 0.44519082659473158 0.43782150968735878 0 0.44362096681603608 0.44566090358066651 0 0.43681876433844857 0.43497208046478802 0 0.44362096681603608 0.44566090358066651 0 0.43343701099378978 0.44857281610427868 0 0.44362096681603608 0.44566090358066651 0 0.44110505044236059 0.45564825146568327 0 0.43343701099378978 0.44857281610427868 0 0.44362096681603608 0.44566090358066651 0 0.45255374853073171 0.45216262504332899 0 0.45221828903371142 0.44335246171580328 0 0.44362096681603608 0.44566090358066651 0 0.45255374853073171 0.45216262504332899 0 0.44110505044236059 0.45564825146568327 0 0.44519082659473158 0.43782150968735878 0 0.44362096681603608 0.44566090358066651 0 0.45221828903371142 0.44335246171580328 0 0.45165089640657707 0.43611575462809582 0 0.44519082659473158 0.43782150968735878 0 0.45221828903371142 0.44335246171580328 0 0.45255374853073171 0.45216262504332899 0 0.44518446721829791 0.46873079822848901 0 0.44110505044236059 0.45564825146568327 0 0.44518446721829791 0.46873079822848901 0 0.44110505044236059 0.45564825146568327 0 0.43072905865294731 0.46311411437165317 0 0.47284597636140308 0.45611600571247141 0 0.46302896313844299 0.47272331085799019 0 0.45255374853073171 0.45216262504332899 0 0.44518446721829791 0.46873079822848901 0 0.47004991169413368 0.45193353911097589 0 0.47004991169413368 0.45193353911097589 0 0.47284597636140308 0.45611600571247141 0 0.46302896313844299 0.47272331085799019 0 0.44518446721829791 0.46873079822848901 0 0.47004991169413368 0.45193353911097589 0 0.46302896313844299 0.47272331085799019 0 0.44518446721829791 0.46873079822848901 0 0.47004991169413368 0.45193353911097589 0 0.45927084092720188 0.43580976915473651 0 0.47004991169413368 0.45193353911097589 0 0.45927084092720188 0.43580976915473651 0 0.45930684530103161 0.44617181272829648 0 0.47004991169413368 0.45193353911097589 0 0.47462076711180717 0.43403653248997731 0 0.45927084092720188 0.43580976915473651 0 0.47004991169413368 0.45193353911097589 0 0.45255374853073171 0.45216262504332899 0 0.45930684530103161 0.44617181272829648 0 0.47004991169413368 0.45193353911097589 0 0.45927084092720188 0.43580976915473651 0 0.45221828903371142 0.44335246171580328 0 0.45930684530103161 0.44617181272829648 0 0.45927084092720188 0.43580976915473651 0 0.45165089640657707 0.43611575462809582 0 0.45221828903371142 0.44335246171580328 0 0.45255374853073171 0.45216262504332899 0 0.45221828903371142 0.44335246171580328 0 0.45930684530103161 0.44617181272829648 0 0.47462076711180717 0.43403653248997731 0 0.47004991169413368 0.45193353911097589 0 0.48502495584706629 0.44181750450007778 0 0.48189680466807888 0.45106209462173341 0 0.47450081081676521 0.45331654521044668 0 0.48502495584706629 0.44181750450007778 0 0.47004991169413368 0.45193353911097589 0 0.48502495584706629 0.44181750450007778 0 0.47004991169413368 0.45193353911097589 0 0.47450081081676521 0.45331654521044668 0 0.48502495584706629 0.44181750450007778 0 0.47284597636140308 0.45611600571247141 0 0.48050552008400071 0.46757346096286262 0 0.46302896313844299 0.47272331085799019 0 0.47004991169413368 0.45193353911097589 0 0.47284597636140308 0.45611600571247141 0 0.47004991169413368 0.45193353911097589 0 0.47450081081676521 0.45331654521044668 0 0.47284597636140308 0.45611600571247141 0 0.47450081081676521 0.45331654521044668 0 0.47284597636140308 0.45611600571247141 0 0.47951191807974908 0.45654698881850991 0 0.47450081081676521 0.45331654521044668 0 0.47284597636140308 0.45611600571247141 0 0.47284597636140308 0.45611600571247141 0 0.48050552008400071 0.46757346096286262 0 0.47284597636140308 0.45611600571247141 0 0.48050552008400071 0.46757346096286262 0 0.47951191807974908 0.45654698881850991 0 0.48189680466807888 0.45106209462173341 0 0.47951191807974908 0.45654698881850991 0 0.4878104784684959 0.4546668375850359 0 0.48050552008400071 0.46757346096286262 0 0.47951191807974908 0.45654698881850991 0 0.4878104784684959 0.4546668375850359 0 0.48189680466807888 0.45106209462173341 0 0.47450081081676521 0.45331654521044668 0 0.47951191807974908 0.45654698881850991 0 0.48050552008400071 0.46757346096286262 0 0.4878104784684959 0.4546668375850359 0 0.49999999999999928 0.46182898591187349 0 0.48050552008400071 0.46757346096286262 0 0.49999999999999928 0.46182898591187349 0 0.49999999999999828 0.43170146988917901 0 0.4878104784684959 0.4546668375850359 0 0.49999999999999928 0.46182898591187349 0 0.49999999999999828 0.43170146988917901 0 0.4878104784684959 0.4546668375850359 0 0.48502495584706629 0.44181750450007778 0 0.48189680466807888 0.45106209462173341 0 0.4878104784684959 0.4546668375850359 0 0.48502495584706629 0.44181750450007778 0 0.49999999999999928 0.46182898591187349 0 0.5 0.5 0 0.49753071700976492 0.4930404390193398 0 0.5 0.5 0 0.47501141284236448 0.48698608464618232 0 0.44690499747156931 0.4999999999999995 0 0.5 0.5 0 0.49753071700976492 0.4930404390193398 0 0.47501141284236448 0.48698608464618232 0 0.49753071700976492 0.4930404390193398 0 0.48901811854688337 0.4803069499911008 0 0.47501141284236448 0.48698608464618232 0 0.49753071700976492 0.4930404390193398 0 0.48901811854688337 0.4803069499911008 0 0.48050552008400071 0.46757346096286262 0 0.49999999999999928 0.46182898591187349 0 0.48901811854688337 0.4803069499911008 0 0.49999999999999928 0.46182898591187349 0 0.49753071700976492 0.4930404390193398 0 0.48901811854688337 0.4803069499911008 0 0.48050552008400071 0.46757346096286262 0 0.48901811854688337 0.4803069499911008 0 0.48050552008400071 0.46757346096286262 0 0.46302896313844299 0.47272331085799019 0 0.48901811854688337 0.4803069499911008 0 0.47689100365292297 0.47689745161453417 0 0.47501141284236448 0.48698608464618232 0 0.48050552008400071 0.46757346096286262 0 0.47689100365292297 0.47689745161453417 0 0.46302896313844299 0.47272331085799019 0 0.48050552008400071 0.46757346096286262 0 0.48901811854688337 0.4803069499911008 0 0.47689100365292297 0.47689745161453417 0 0.47689100365292297 0.47689745161453417 0 0.47501141284236448 0.48698608464618232 0 0.46302896313844299 0.47272331085799019 0 0.47501141284236448 0.48698608464618232 0 0.45496698030500621 0.48636165542899479 0 0.44690499747156931 0.4999999999999995 0 0.47501141284236448 0.48698608464618232 0 0.45496698030500621 0.48636165542899479 0 0.46302896313844299 0.47272331085799019 0 0.45496698030500621 0.48636165542899479 0 0.46302896313844299 0.47272331085799019 0 0.46302896313844299 0.47272331085799019 0 0.43620850627812668 0.48062654530969717 0 0.44518446721829791 0.46873079822848901 0 0.46302896313844299 0.47272331085799019 0 0.43620850627812668 0.48062654530969717 0 0.45496698030500621 0.48636165542899479 0 0.46302896313844299 0.47272331085799019 0 0.43620850627812668 0.48062654530969717 0 0.45496698030500621 0.48636165542899479 0 0.44690499747156931 0.4999999999999995 0 0.43620850627812668 0.48062654530969717 0 0.45496698030500621 0.48636165542899479 0 0.44690499747156931 0.4999999999999995 0 0.42031902274246069 0.48552805734600057 0 0.41743852268843429 0.5 0 0.43620850627812668 0.48062654530969717 0 0.44690499747156931 0.4999999999999995 0 0.41743852268843429 0.5 0 0.43620850627812668 0.48062654530969717 0 0.42031902274246069 0.48552805734600057 0 0.41743852268843429 0.5 0 0.40134209412993838 0.48520307466421098 0 0.42031902274246069 0.48552805734600057 0 0.40973563488985532 0.47579104778557152 0 0.40134209412993838 0.48520307466421098 0 0.42031902274246069 0.48552805734600057 0 0.40973563488985532 0.47579104778557152 0 0.41789473538963601 0.46705380048502582 0 0.44518446721829791 0.46873079822848901 0 0.42031902274246069 0.48552805734600057 0 0.43072905865294731 0.46311411437165317 0 0.44518446721829791 0.46873079822848901 0 0.42031902274246069 0.48552805734600057 0 0.43620850627812668 0.48062654530969717 0 0.44518446721829791 0.46873079822848901 0 0.42031902274246069 0.48552805734600057 0 0.42031902274246069 0.48552805734600057 0 0.43072905865294731 0.46311411437165317 0 0.41789473538963601 0.46705380048502582 0 0.44110505044236059 0.45564825146568327 0 0.43072905865294731 0.46311411437165317 0 0.43343701099378978 0.44857281610427868 0 0.43072905865294731 0.46311411437165317 0 0.43343701099378978 0.44857281610427868 0 0.42053980660522761 0.45341513910658388 0 0.43072905865294731 0.46311411437165317 0 0.41789473538963601 0.46705380048502582 0 0.42053980660522761 0.45341513910658388 0 0.43681876433844857 0.43497208046478802 0 0.43343701099378978 0.44857281610427868 0 0.42326813014219627 0.43909650749986368 0 0.43343701099378978 0.44857281610427868 0 0.42326813014219627 0.43909650749986368 0 0.42053980660522761 0.45341513910658388 0 0.41248490446316177 0.43293377153942381 0 0.42326813014219627 0.43909650749986368 0 0.41215324011006321 0.44426916471351768 0 0.42326813014219627 0.43909650749986368 0 0.41215324011006321 0.44426916471351768 0 0.42053980660522761 0.45341513910658388 0 0.41215324011006321 0.44426916471351768 0 0.42053980660522761 0.45341513910658388 0 0.40575666434273311 0.45838443146516472 0 0.41248490446316177 0.43293377153942381 0 0.41215324011006321 0.44426916471351768 0 0.39942544658573009 0.43872588670818857 0 0.40973563488985532 0.47579104778557152 0 0.41789473538963601 0.46705380048502582 0 0.40575666434273311 0.45838443146516472 0 0.41789473538963601 0.46705380048502582 0 0.42053980660522761 0.45341513910658388 0 0.40575666434273311 0.45838443146516472 0 0.40973563488985532 0.47579104778557152 0 0.40575666434273311 0.45838443146516472 0 0.39457326129307041 0.46924519202038539 0 0.40575666434273311 0.45838443146516472 0 0.38748492612950952 0.44892285829301931 0 0.39457326129307041 0.46924519202038539 0 0.40575666434273311 0.45838443146516472 0 0.39942544658573009 0.43872588670818857 0 0.38748492612950952 0.44892285829301931 0 0.3889231515195431 0.43141286456833011 0 0.39942544658573009 0.43872588670818857 0 0.38748492612950952 0.44892285829301931 0 0.41215324011006321 0.44426916471351768 0 0.40575666434273311 0.45838443146516472 0 0.39942544658573009 0.43872588670818857 0 0.36980735363827261 0.46050290225189661 0 0.36959298495063608 0.43610817863788948 0 0.38748492612950952 0.44892285829301931 0 0.36959298495063608 0.43610817863788948 0 0.3889231515195431 0.43141286456833011 0 0.38748492612950952 0.44892285829301931 0 0.36980735363827261 0.46050290225189661 0 0.38748492612950952 0.44892285829301931 0 0.39457326129307041 0.46924519202038539 0 0.36980735363827261 0.46050290225189661 0 0.37801407526051067 0.48065415083330842 0 0.39457326129307041 0.46924519202038539 0 0.37801407526051067 0.48065415083330842 0 0.38797204790529932 0.5 0 0.40134209412993838 0.48520307466421098 0 0.41743852268843429 0.5 0 0.38797204790529932 0.5 0 0.40134209412993838 0.48520307466421098 0 0.40973563488985532 0.47579104778557152 0 0.40134209412993838 0.48520307466421098 0 0.39457326129307041 0.46924519202038539 0 0.37801407526051067 0.48065415083330842 0 0.40134209412993838 0.48520307466421098 0 0.39457326129307041 0.46924519202038539 0 0.33471388977496319 0.083869725553476451 0 0.32003772732572838 0.080925826065863432 0 0.34163206045391592 0.099703108374672819 0 0.32003772732572838 0.080925826065863432 0 0.34163206045391592 0.099703108374672819 0 0.33471388977496319 0.083869725553476451 0 0.34163206045391592 0.099703108374672819 0 0.35085433501378249 0.086695181415402722 0 0.33471388977496319 0.083869725553476451 0 0.34209731100959018 0.06531632876058778 0 0.3490795063897344 0.076610282135673974 0 0.33471388977496319 0.083869725553476451 0 0.34209731100959018 0.06531632876058778 0 0.32721969837032222 0.069259436753723466 0 0.33471388977496319 0.083869725553476451 0 0.32721969837032222 0.069259436753723466 0 0.32003772732572838 0.080925826065863432 0 0.31518448171420999 0.065085558788002928 0 0.32721969837032222 0.069259436753723466 0 0.32003772732572838 0.080925826065863432 0 0.32003772732572838 0.080925826065863432 0 0.31657863646219547 0.093324099257994786 0 0.34163206045391592 0.099703108374672819 0 0.32003772732572838 0.080925826065863432 0 0.31657863646219547 0.093324099257994786 0 0.30227411453462139 0.089652133027170247 0 0.33471388977496319 0.083869725553476451 0 0.32003772732572838 0.080925826065863432 0 0.31657863646219547 0.093324099257994786 0 0.32025759602694659 0.1047776340902011 0 0.34163206045391592 0.099703108374672819 0 0.31657863646219547 0.093324099257994786 0 0.32025759602694659 0.1047776340902011 0 0.30640852481201453 0.1024735992044304 0 0.32025759602694659 0.1047776340902011 0 0.31114536757858358 0.11742006929579971 0 0.30640852481201453 0.1024735992044304 0 0.32606950933900308 0.1158177097477945 0 0.31114536757858358 0.11742006929579971 0 0.3195478300457561 0.1332621056988223 0 0.32025759602694659 0.1047776340902011 0 0.32606950933900308 0.1158177097477945 0 0.31114536757858358 0.11742006929579971 0 0.33761965874988609 0.1186889285033586 0 0.34163206045391592 0.099703108374672819 0 0.34956654336434939 0.1234914401014125 0 0.32606950933900308 0.1158177097477945 0 0.33761965874988609 0.1186889285033586 0 0.34163206045391592 0.099703108374672819 0 0.32606950933900308 0.1158177097477945 0 0.33761965874988609 0.1186889285033586 0 0.33436770153514289 0.13112975471366969 0 0.33761965874988609 0.1186889285033586 0 0.34956654336434939 0.1234914401014125 0 0.33436770153514289 0.13112975471366969 0 0.32025759602694659 0.1047776340902011 0 0.32606950933900308 0.1158177097477945 0 0.34163206045391592 0.099703108374672819 0 0.34163206045391592 0.099703108374672819 0 0.35755874922647762 0.098360434014750309 0 0.36322639358210312 0.11848039068348271 0 0.34163206045391592 0.099703108374672819 0 0.36322639358210312 0.11848039068348271 0 0.34163206045391592 0.099703108374672819 0 0.35755874922647762 0.098360434014750309 0 0.35085433501378249 0.086695181415402722 0 0.34163206045391592 0.099703108374672819 0 0.34956654336434939 0.1234914401014125 0 0.36322639358210312 0.11848039068348271 0 0.36322639358210312 0.11848039068348271 0 0.37045299287494049 0.09679375479102828 0 0.38005682511468147 0.12140739343396729 0 0.35755874922647762 0.098360434014750309 0 0.36322639358210312 0.11848039068348271 0 0.37045299287494049 0.09679375479102828 0 0.35755874922647762 0.098360434014750309 0 0.37045299287494049 0.09679375479102828 0 0.35979627253246887 0.087956112087811941 0 0.37045299287494049 0.09679375479102828 0 0.36986657419494789 0.075759843690150083 0 0.37682589963749002 0.081332762740894418 0 0.37045299287494049 0.09679375479102828 0 0.35979627253246887 0.087956112087811941 0 0.36084916063519962 0.072180116148089279 0 0.37045299287494049 0.09679375479102828 0 0.36084916063519962 0.072180116148089279 0 0.36986657419494789 0.075759843690150083 0 0.37045299287494049 0.09679375479102828 0 0.36084916063519962 0.072180116148089279 0 0.35755874922647762 0.098360434014750309 0 0.35979627253246887 0.087956112087811941 0 0.35085433501378249 0.086695181415402722 0 0.35979627253246887 0.087956112087811941 0 0.35560274156159061 0.081403828627082772 0 0.36084916063519962 0.072180116148089279 0 0.33471388977496319 0.083869725553476451 0 0.35085433501378249 0.086695181415402722 0 0.3490795063897344 0.076610282135673974 0 0.35979627253246887 0.087956112087811941 0 0.35560274156159061 0.081403828627082772 0 0.35085433501378249 0.086695181415402722 0 0.35560274156159061 0.081403828627082772 0 0.35085433501378249 0.086695181415402722 0 0.3490795063897344 0.076610282135673974 0 0.34209731100959018 0.06531632876058778 0 0.3490795063897344 0.076610282135673974 0 0.36084916063519962 0.072180116148089279 0 0.36448270712015302 0.068442951443566186 0 0.36084916063519962 0.072180116148089279 0 0.35124532839545858 0.047566477505150237 0 0.35560274156159061 0.081403828627082772 0 0.3490795063897344 0.076610282135673974 0 0.36084916063519962 0.072180116148089279 0 0.36448270712015302 0.068442951443566186 0 0.36084916063519962 0.072180116148089279 0 0.36986657419494789 0.075759843690150083 0 0.36986657419494789 0.075759843690150083 0 0.37596532967213542 0.069868995675824025 0 0.37682589963749002 0.081332762740894418 0 0.36448270712015302 0.068442951443566186 0 0.36986657419494789 0.075759843690150083 0 0.37084641292541748 0.06878424193773866 0 0.36986657419494789 0.075759843690150083 0 0.37084641292541748 0.06878424193773866 0 0.37596532967213542 0.069868995675824025 0 0.36448270712015302 0.068442951443566186 0 0.37084641292541748 0.06878424193773866 0 0.37307104071443398 0.061065176941414383 0 0.37084641292541748 0.06878424193773866 0 0.37307104071443398 0.061065176941414383 0 0.37596532967213542 0.069868995675824025 0 0.36448270712015302 0.068442951443566186 0 0.37307104071443398 0.061065176941414383 0 0.37146335928247548 0.04052602251159599 0 0.36448270712015302 0.068442951443566186 0 0.37146335928247548 0.04052602251159599 0 0.35124532839545858 0.047566477505150237 0 0.36448270712015302 0.068442951443566186 0 0.37146335928247548 0.04052602251159599 0 0.37146335928247548 0.04052602251159599 0 0.35572529983931911 0.032753521421585163 0 0.36312657459820519 0.022962182453169309 0 0.37146335928247548 0.04052602251159599 0 0.35572529983931911 0.032753521421585163 0 0.35124532839545858 0.047566477505150237 0 0.35572529983931911 0.032753521421585163 0 0.35124532839545858 0.047566477505150237 0 0.3321968515854315 0.028027004478648001 0 0.36084916063519962 0.072180116148089279 0 0.35124532839545858 0.047566477505150237 0 0.34209731100959018 0.06531632876058778 0 0.36084916063519962 0.072180116148089279 0 0.35124532839545858 0.047566477505150237 0 0.36312657459820519 0.022962182453169309 0 0.35936362748920009 0.0091271431172253586 0 0.37844401144479839 0.012609093579625891 0 0.35936362748920009 0.0091271431172253586 0 0.37844401144479839 0.012609093579625891 0 0.36665723294200347 -0.001883505129568449 0 0.35936362748920009 0.0091271431172253586 0 0.36665723294200347 -0.001883505129568449 0 0.35531676971978082 -0.0033532784323768001 0 0.37146335928247548 0.04052602251159599 0 0.36312657459820519 0.022962182453169309 0 0.37844401144479839 0.012609093579625891 0 0.37146335928247548 0.04052602251159599 0 0.37844401144479839 0.012609093579625891 0 0.35572529983931911 0.032753521421585163 0 0.35063657493523293 0.0197951316358141 0 0.3321968515854315 0.028027004478648001 0 0.35572529983931911 0.032753521421585163 0 0.36312657459820519 0.022962182453169309 0 0.35063657493523293 0.0197951316358141 0 0.36312657459820519 0.022962182453169309 0 0.35063657493523293 0.0197951316358141 0 0.35936362748920009 0.0091271431172253586 0 0.35936362748920009 0.0091271431172253586 0 0.33689267375143878 0.0039255003288513873 0 0.35531676971978082 -0.0033532784323768001 0 0.35063657493523293 0.0197951316358141 0 0.35936362748920009 0.0091271431172253586 0 0.33689267375143878 0.0039255003288513873 0 0.33689267375143878 0.0039255003288513873 0 0.3321968515854315 0.028027004478648001 0 0.30352242257352219 0.0039185454548519476 0 0.35063657493523293 0.0197951316358141 0 0.33689267375143878 0.0039255003288513873 0 0.3321968515854315 0.028027004478648001 0 0.3321968515854315 0.028027004478648001 0 0.32406508202711942 0.05109974460068676 0 0.30086563814790429 0.035038583275740692 0 0.34209731100959018 0.06531632876058778 0 0.32721969837032222 0.069259436753723466 0 0.32406508202711942 0.05109974460068676 0 0.34209731100959018 0.06531632876058778 0 0.35124532839545858 0.047566477505150237 0 0.32406508202711942 0.05109974460068676 0 0.35124532839545858 0.047566477505150237 0 0.3321968515854315 0.028027004478648001 0 0.32406508202711942 0.05109974460068676 0 0.31518448171420999 0.065085558788002928 0 0.32721969837032222 0.069259436753723466 0 0.32406508202711942 0.05109974460068676 0 0.31518448171420999 0.065085558788002928 0 0.32406508202711942 0.05109974460068676 0 0.29882370077581188 0.062479238108283437 0 0.32406508202711942 0.05109974460068676 0 0.29882370077581188 0.062479238108283437 0 0.30086563814790429 0.035038583275740692 0 0.32406508202711942 0.05109974460068676 0 0.30086563814790429 0.035038583275740692 0 0.30086563814790429 0.035038583275740692 0 0.28350496565293731 0.043820562147367653 0 0.27766619426868899 0.018977421950794569 0 0.29882370077581188 0.062479238108283437 0 0.30086563814790429 0.035038583275740692 0 0.28350496565293731 0.043820562147367653 0 0.29882370077581188 0.062479238108283437 0 0.28350496565293731 0.043820562147367653 0 0.28339325744793759 0.061338593161917712 0 0.3321968515854315 0.028027004478648001 0 0.30086563814790429 0.035038583275740692 0 0.30352242257352219 0.0039185454548519476 0 0.30086563814790429 0.035038583275740692 0 0.27766619426868899 0.018977421950794569 0 0.30086563814790429 0.035038583275740692 0 0.30352242257352219 0.0039185454548519476 0 0.27766619426868899 0.018977421950794569 0 0.30352242257352219 0.0039185454548519476 0 0.27766619426868899 0.018977421950794569 0 0.27708695819087842 -0.0025378708656911609 0 0.27766619426868899 0.018977421950794569 0 0.25446675038947358 0.0029162606258486688 0 0.27766619426868899 0.018977421950794569 0 0.26047117107291767 -0.0019720443344692288 0 0.27708695819087842 -0.0025378708656911609 0 0.27766619426868899 0.018977421950794569 0 0.2600935707136679 0.019574361616358959 0 0.26464981823601458 0.038183209123269009 0 0.2600935707136679 0.019574361616358959 0 0.26464981823601458 0.038183209123269009 0 0.25044211127373811 0.032849993626191502 0 0.27766619426868899 0.018977421950794569 0 0.2600935707136679 0.019574361616358959 0 0.25446675038947358 0.0029162606258486688 0 0.27766619426868899 0.018977421950794569 0 0.25446675038947358 0.0029162606258486688 0 0.26047117107291767 -0.0019720443344692288 0 0.25446675038947358 0.0029162606258486688 0 0.26047117107291767 -0.0019720443344692288 0 0.28339325744793759 0.061338593161917712 0 0.2699795556074106 0.054659435659755229 0 0.26514968559830832 0.069915803624621298 0 0.28350496565293731 0.043820562147367653 0 0.28339325744793759 0.061338593161917712 0 0.2699795556074106 0.054659435659755229 0 0.28350496565293731 0.043820562147367653 0 0.27766619426868899 0.018977421950794569 0 0.26464981823601458 0.038183209123269009 0 0.28350496565293731 0.043820562147367653 0 0.2699795556074106 0.054659435659755229 0 0.26464981823601458 0.038183209123269009 0 0.26464981823601458 0.038183209123269009 0 0.25174039047255609 0.044464402284776217 0 0.2585751734657834 0.052327775232976027 0 0.26464981823601458 0.038183209123269009 0 0.25044211127373811 0.032849993626191502 0 0.25174039047255609 0.044464402284776217 0 0.25174039047255609 0.044464402284776217 0 0.25102243244437311 0.053297338652025752 0 0.2585751734657834 0.052327775232976027 0 0.2699795556074106 0.054659435659755229 0 0.26464981823601458 0.038183209123269009 0 0.2585751734657834 0.052327775232976027 0 0.2699795556074106 0.054659435659755229 0 0.2585751734657834 0.052327775232976027 0 0.26000268679747079 0.061003988239662958 0 0.2699795556074106 0.054659435659755229 0 0.26000268679747079 0.061003988239662958 0 0.26514968559830832 0.069915803624621298 0 0.2585751734657834 0.052327775232976027 0 0.26000268679747079 0.061003988239662958 0 0.2530174900015254 0.0600809219264858 0 0.25102243244437311 0.053297338652025752 0 0.2585751734657834 0.052327775232976027 0 0.2530174900015254 0.0600809219264858 0 0.24751669685985911 0.059618880130872708 0 0.25102243244437311 0.053297338652025752 0 0.2530174900015254 0.0600809219264858 0 0.24853219730195361 0.063845178725116872 0 0.2530174900015254 0.0600809219264858 0 0.25274476311700622 0.067427493409812952 0 0.2530174900015254 0.0600809219264858 0 0.25274476311700622 0.067427493409812952 0 0.26000268679747079 0.061003988239662958 0 0.2530174900015254 0.0600809219264858 0 0.25274476311700622 0.067427493409812952 0 0.25274476311700622 0.067427493409812952 0 0.25243039498113262 0.075895774732197205 0 0.24842415088314279 0.069033451464499671 0 0.25274476311700622 0.067427493409812952 0 0.25243039498113262 0.075895774732197205 0 0.25274476311700622 0.067427493409812952 0 0.25243039498113262 0.075895774732197205 0 0.26514968559830832 0.069915803624621298 0 0.25243039498113262 0.075895774732197205 0 0.26514968559830832 0.069915803624621298 0 0.26417250328098718 0.085299079350852347 0 0.25243039498113262 0.075895774732197205 0 0.26514968559830832 0.069915803624621298 0 0.26000268679747079 0.061003988239662958 0 0.25274476311700622 0.067427493409812952 0 0.26514968559830832 0.069915803624621298 0 0.25274476311700622 0.067427493409812952 0 0.26514968559830832 0.069915803624621298 0 0.25243039498113262 0.075895774732197205 0 0.26417250328098718 0.085299079350852347 0 0.25158482098595109 0.098673396421397969 0 0.25243039498113262 0.075895774732197205 0 0.25158482098595109 0.098673396421397969 0 0.26417250328098718 0.085299079350852347 0 0.27563544099652842 0.091217529053328833 0 0.26597619666038957 0.098681263799979324 0 0.26417250328098718 0.085299079350852347 0 0.27658940398852799 0.081360569412953818 0 0.27563544099652842 0.091217529053328833 0 0.26514968559830832 0.069915803624621298 0 0.26417250328098718 0.085299079350852347 0 0.27658940398852799 0.081360569412953818 0 0.27658940398852799 0.081360569412953818 0 0.27563544099652842 0.091217529053328833 0 0.28742128170162778 0.087331448045782731 0 0.28339325744793759 0.061338593161917712 0 0.26514968559830832 0.069915803624621298 0 0.29259370646201821 0.075420814845242989 0 0.26514968559830832 0.069915803624621298 0 0.27658940398852799 0.081360569412953818 0 0.29259370646201821 0.075420814845242989 0 0.28339325744793759 0.061338593161917712 0 0.26514968559830832 0.069915803624621298 0 0.26514968559830832 0.069915803624621298 0 0.29259370646201821 0.075420814845242989 0 0.29882370077581188 0.062479238108283437 0 0.28339325744793759 0.061338593161917712 0 0.29259370646201821 0.075420814845242989 0 0.27658940398852799 0.081360569412953818 0 0.29259370646201821 0.075420814845242989 0 0.28742128170162778 0.087331448045782731 0 0.27563544099652842 0.091217529053328833 0 0.28742128170162778 0.087331448045782731 0 0.29001374252644291 0.099006193890217781 0 0.28742128170162778 0.087331448045782731 0 0.30227411453462139 0.089652133027170247 0 0.29001374252644291 0.099006193890217781 0 0.29259370646201821 0.075420814845242989 0 0.28742128170162778 0.087331448045782731 0 0.30227411453462139 0.089652133027170247 0 0.32003772732572838 0.080925826065863432 0 0.29259370646201821 0.075420814845242989 0 0.30227411453462139 0.089652133027170247 0 0.32003772732572838 0.080925826065863432 0 0.29259370646201821 0.075420814845242989 0 0.32003772732572838 0.080925826065863432 0 0.29882370077581188 0.062479238108283437 0 0.29259370646201821 0.075420814845242989 0 0.32003772732572838 0.080925826065863432 0 0.29882370077581188 0.062479238108283437 0 0.31518448171420999 0.065085558788002928 0 0.32003772732572838 0.080925826065863432 0 0.29882370077581188 0.062479238108283437 0 0.29818169174329712 0.11066146566519899 0 0.31114536757858358 0.11742006929579971 0 0.294250496481684 0.12267566802032639 0 0.31114536757858358 0.11742006929579971 0 0.294250496481684 0.12267566802032639 0 0.30313841955192899 0.13260249050964579 0 0.29818169174329712 0.11066146566519899 0 0.31114536757858358 0.11742006929579971 0 0.30640852481201453 0.1024735992044304 0 0.30227411453462139 0.089652133027170247 0 0.30640852481201453 0.1024735992044304 0 0.29001374252644291 0.099006193890217781 0 0.29818169174329712 0.11066146566519899 0 0.30640852481201453 0.1024735992044304 0 0.29001374252644291 0.099006193890217781 0 0.31657863646219547 0.093324099257994786 0 0.30227411453462139 0.089652133027170247 0 0.30640852481201453 0.1024735992044304 0 0.29818169174329712 0.11066146566519899 0 0.29001374252644291 0.099006193890217781 0 0.28729541733308872 0.1128284558108848 0 0.29001374252644291 0.099006193890217781 0 0.28729541733308872 0.1128284558108848 0 0.27577858748266387 0.1072301355245756 0 0.29818169174329712 0.11066146566519899 0 0.28729541733308872 0.1128284558108848 0 0.294250496481684 0.12267566802032639 0 0.28729541733308872 0.1128284558108848 0 0.294250496481684 0.12267566802032639 0 0.28067449336876182 0.1220521091494646 0 0.28067449336876182 0.1220521091494646 0 0.26956705708048567 0.1198361090660386 0 0.27577858748266387 0.1072301355245756 0 0.28729541733308872 0.1128284558108848 0 0.28067449336876182 0.1220521091494646 0 0.27577858748266387 0.1072301355245756 0 0.26956705708048567 0.1198361090660386 0 0.27577858748266387 0.1072301355245756 0 0.26270963055581759 0.11098617864974181 0 0.27563544099652842 0.091217529053328833 0 0.27577858748266387 0.1072301355245756 0 0.26597619666038957 0.098681263799979324 0 0.27563544099652842 0.091217529053328833 0 0.29001374252644291 0.099006193890217781 0 0.27577858748266387 0.1072301355245756 0 0.27577858748266387 0.1072301355245756 0 0.26597619666038957 0.098681263799979324 0 0.26270963055581759 0.11098617864974181 0 0.25158482098595109 0.098673396421397969 0 0.25094552198087999 0.11589449234768209 0 0.25158482098595109 0.098673396421397969 0 0.26270963055581759 0.11098617864974181 0 0.25094552198087999 0.11589449234768209 0 0.26417250328098718 0.085299079350852347 0 0.26597619666038957 0.098681263799979324 0 0.25158482098595109 0.098673396421397969 0 0.26597619666038957 0.098681263799979324 0 0.25158482098595109 0.098673396421397969 0 0.26270963055581759 0.11098617864974181 0 0.25158482098595109 0.098673396421397969 0 0.26270963055581759 0.11098617864974181 0 0.25094552198087999 0.11589449234768209 0 0.25030622297580962 0.13311558827396619 0 0.26022612795132161 0.12333036834530881 0 0.25094552198087999 0.11589449234768209 0 0.25030622297580962 0.13311558827396619 0 0.26956705708048567 0.1198361090660386 0 0.26022612795132161 0.12333036834530881 0 0.26270963055581759 0.11098617864974181 0 0.26022612795132161 0.12333036834530881 0 0.26270963055581759 0.11098617864974181 0 0.25094552198087999 0.11589449234768209 0 0.26956705708048567 0.1198361090660386 0 0.26022612795132161 0.12333036834530881 0 0.26675796828336718 0.1380571931171293 0 0.26022612795132161 0.12333036834530881 0 0.25030622297580962 0.13311558827396619 0 0.26675796828336718 0.1380571931171293 0 0.25030622297580962 0.13311558827396619 0 0.26675796828336718 0.1380571931171293 0 0.25030622297580962 0.13311558827396619 0 0.26675796828336718 0.1380571931171293 0 0.25638724149227848 0.14295410589973731 0 0.25004344172447263 0.14019424959050239 0 0.25030622297580962 0.13311558827396619 0 0.25638724149227848 0.14295410589973731 0 0.25004344172447263 0.14019424959050239 0 0.25030622297580962 0.13311558827396619 0 0.26675796828336718 0.1380571931171293 0 0.28320971359092417 0.1429987979602943 0 0.26675796828336718 0.1380571931171293 0 0.28666270206708028 0.1324408374186071 0 0.28320971359092417 0.1429987979602943 0 0.28067449336876182 0.1220521091494646 0 0.26956705708048567 0.1198361090660386 0 0.26675796828336718 0.1380571931171293 0 0.28067449336876182 0.1220521091494646 0 0.26675796828336718 0.1380571931171293 0 0.28666270206708028 0.1324408374186071 0 0.26675796828336718 0.1380571931171293 0 0.27436529468354132 0.15433220537778311 0 0.26010861073109098 0.15248373785575309 0 0.26675796828336718 0.1380571931171293 0 0.27436529468354132 0.15433220537778311 0 0.28320971359092417 0.1429987979602943 0 0.26675796828336718 0.1380571931171293 0 0.26010861073109098 0.15248373785575309 0 0.25638724149227848 0.14295410589973731 0 0.2496536413094039 0.15044712256699261 0 0.25004344172447263 0.14019424959050239 0 0.25638724149227848 0.14295410589973731 0 0.24653130607993951 0.16237692388552691 0 0.2496536413094039 0.15044712256699261 0 0.26010861073109098 0.15248373785575309 0 0.2496536413094039 0.15044712256699261 0 0.26010861073109098 0.15248373785575309 0 0.25638724149227848 0.14295410589973731 0 0.24653130607993951 0.16237692388552691 0 0.25292738168467233 0.17649485219682931 0 0.26638423851283249 0.16867758561061549 0 0.24653130607993951 0.16237692388552691 0 0.26010861073109098 0.15248373785575309 0 0.26638423851283249 0.16867758561061549 0 0.24528107816237801 0.1907036486386274 0 0.25292738168467233 0.17649485219682931 0 0.26633433714882182 0.18577592949096661 0 0.25292738168467233 0.17649485219682931 0 0.26633433714882182 0.18577592949096661 0 0.26638423851283249 0.16867758561061549 0 0.27723266788850742 0.181048228772968 0 0.26638423851283249 0.16867758561061549 0 0.28391425324491287 0.17071999404263091 0 0.26633433714882182 0.18577592949096661 0 0.27723266788850742 0.181048228772968 0 0.26638423851283249 0.16867758561061549 0 0.27436529468354132 0.15433220537778311 0 0.26010861073109098 0.15248373785575309 0 0.26638423851283249 0.16867758561061549 0 0.27436529468354132 0.15433220537778311 0 0.26638423851283249 0.16867758561061549 0 0.28391425324491287 0.17071999404263091 0 0.27436529468354132 0.15433220537778311 0 0.28391425324491287 0.17071999404263091 0 0.29097703849613438 0.15773848939083679 0 0.28391425324491287 0.17071999404263091 0 0.2931647794093819 0.16879209887591959 0 0.29097703849613438 0.15773848939083679 0 0.2931647794093819 0.16879209887591959 0 0.29097703849613438 0.15773848939083679 0 0.30040947706207388 0.16512632217721829 0 0.28391425324491287 0.17071999404263091 0 0.28743664533084129 0.187357279865842 0 0.29743995151898561 0.17866098634217961 0 0.27723266788850742 0.181048228772968 0 0.28391425324491287 0.17071999404263091 0 0.28743664533084129 0.187357279865842 0 0.28391425324491287 0.17071999404263091 0 0.2931647794093819 0.16879209887591959 0 0.29743995151898561 0.17866098634217961 0 0.28743664533084129 0.187357279865842 0 0.29743995151898561 0.17866098634217961 0 0.29971043857951379 0.19298806906372529 0 0.29743995151898561 0.17866098634217961 0 0.30929675685570829 0.1858318568065235 0 0.29971043857951379 0.19298806906372529 0 0.29743995151898561 0.17866098634217961 0 0.3101655001798202 0.17563615506282959 0 0.30040947706207388 0.16512632217721829 0 0.29743995151898561 0.17866098634217961 0 0.3101655001798202 0.17563615506282959 0 0.30929675685570829 0.1858318568065235 0 0.30040947706207388 0.16512632217721829 0 0.30453528129870422 0.15487579661148021 0 0.32848741365188411 0.1727716232507491 0 0.29097703849613438 0.15773848939083679 0 0.30040947706207388 0.16512632217721829 0 0.30453528129870422 0.15487579661148021 0 0.2931647794093819 0.16879209887591959 0 0.29743995151898561 0.17866098634217961 0 0.30040947706207388 0.16512632217721829 0 0.29097703849613438 0.15773848939083679 0 0.30453528129870422 0.15487579661148021 0 0.29618567382365713 0.14404403195872001 0 0.30453528129870422 0.15487579661148021 0 0.30873747279203018 0.14281046260302349 0 0.29618567382365713 0.14404403195872001 0 0.30453528129870422 0.15487579661148021 0 0.30873747279203018 0.14281046260302349 0 0.32007589174333823 0.14676000458717811 0 0.30873747279203018 0.14281046260302349 0 0.30313841955192899 0.13260249050964579 0 0.3195478300457561 0.1332621056988223 0 0.31114536757858358 0.11742006929579971 0 0.30313841955192899 0.13260249050964579 0 0.3195478300457561 0.1332621056988223 0 0.30873747279203018 0.14281046260302349 0 0.30313841955192899 0.13260249050964579 0 0.29618567382365713 0.14404403195872001 0 0.294250496481684 0.12267566802032639 0 0.30313841955192899 0.13260249050964579 0 0.28666270206708028 0.1324408374186071 0 0.30313841955192899 0.13260249050964579 0 0.28666270206708028 0.1324408374186071 0 0.29618567382365713 0.14404403195872001 0 0.294250496481684 0.12267566802032639 0 0.28067449336876182 0.1220521091494646 0 0.28666270206708028 0.1324408374186071 0 0.28666270206708028 0.1324408374186071 0 0.28320971359092417 0.1429987979602943 0 0.29618567382365713 0.14404403195872001 0 0.27436529468354132 0.15433220537778311 0 0.29097703849613438 0.15773848939083679 0 0.28320971359092417 0.1429987979602943 0 0.29097703849613438 0.15773848939083679 0 0.28320971359092417 0.1429987979602943 0 0.29618567382365713 0.14404403195872001 0 0.28119448123381058 0.25405304303149878 0 0.26221447651104962 0.2479993693513689 0 0.28440499104296979 0.23439140090611099 0 0.26221447651104962 0.2479993693513689 0 0.26853130556434218 0.23400660741274959 0 0.28440499104296979 0.23439140090611099 0 0.26221447651104962 0.2479993693513689 0 0.28440499104296979 0.23439140090611099 0 0.2457442494512444 0.24022391879071339 0 0.26221447651104962 0.2479993693513689 0 0.25511338863332461 0.22468137717712711 0 0.26221447651104962 0.2479993693513689 0 0.25511338863332461 0.22468137717712711 0 0.26853130556434218 0.23400660741274959 0 0.26221447651104962 0.2479993693513689 0 0.25511338863332461 0.22468137717712711 0 0.25511338863332461 0.22468137717712711 0 0.25242827713160498 0.21540237912569379 0 0.25511338863332461 0.22468137717712711 0 0.2794126892910288 0.21617120911671081 0 0.25511338863332461 0.22468137717712711 0 0.26853130556434218 0.23400660741274959 0 0.2794126892910288 0.21617120911671081 0 0.26853130556434218 0.23400660741274959 0 0.2794126892910288 0.21617120911671081 0 0.28440499104296979 0.23439140090611099 0 0.25511338863332461 0.22468137717712711 0 0.2794126892910288 0.21617120911671081 0 0.26644318031571418 0.20408753099865831 0 0.2794126892910288 0.21617120911671081 0 0.26644318031571418 0.20408753099865831 0 0.27722953884408802 0.19656269719262509 0 0.24528107816237801 0.1907036486386274 0 0.26644318031571418 0.20408753099865831 0 0.25242827713160498 0.21540237912569379 0 0.25511338863332461 0.22468137717712711 0 0.26644318031571418 0.20408753099865831 0 0.25242827713160498 0.21540237912569379 0 0.26644318031571418 0.20408753099865831 0 0.25242827713160498 0.21540237912569379 0 0.24528107816237801 0.1907036486386274 0 0.26633433714882182 0.18577592949096661 0 0.26644318031571418 0.20408753099865831 0 0.26633433714882182 0.18577592949096661 0 0.26644318031571418 0.20408753099865831 0 0.27722953884408802 0.19656269719262509 0 0.27723266788850742 0.181048228772968 0 0.28743664533084129 0.187357279865842 0 0.27722953884408802 0.19656269719262509 0 0.26633433714882182 0.18577592949096661 0 0.27723266788850742 0.181048228772968 0 0.27722953884408802 0.19656269719262509 0 0.28743664533084129 0.187357279865842 0 0.27722953884408802 0.19656269719262509 0 0.28939512316467059 0.2005252056429343 0 0.28743664533084129 0.187357279865842 0 0.28939512316467059 0.2005252056429343 0 0.29971043857951379 0.19298806906372529 0 0.30929675685570829 0.1858318568065235 0 0.29971043857951379 0.19298806906372529 0 0.31162694501442678 0.19735313208654229 0 0.29971043857951379 0.19298806906372529 0 0.31162694501442678 0.19735313208654229 0 0.30371198994873311 0.20766104105629449 0 0.28939512316467059 0.2005252056429343 0 0.29971043857951379 0.19298806906372529 0 0.30371198994873311 0.20766104105629449 0 0.2794126892910288 0.21617120911671081 0 0.30371198994873311 0.20766104105629449 0 0.2794126892910288 0.21617120911671081 0 0.30371198994873311 0.20766104105629449 0 0.30659550557489001 0.220783432460853 0 0.2794126892910288 0.21617120911671081 0 0.27722953884408802 0.19656269719262509 0 0.28939512316467059 0.2005252056429343 0 0.2794126892910288 0.21617120911671081 0 0.28939512316467059 0.2005252056429343 0 0.30371198994873311 0.20766104105629449 0 0.30659550557489001 0.220783432460853 0 0.28440499104296979 0.23439140090611099 0 0.2794126892910288 0.21617120911671081 0 0.30659550557489001 0.220783432460853 0 0.28440499104296979 0.23439140090611099 0 0.30659550557489001 0.220783432460853 0 0.30328699804120918 0.24394477185791469 0 0.28440499104296979 0.23439140090611099 0 0.30659550557489001 0.220783432460853 0 0.30328699804120918 0.24394477185791469 0 0.31607427666693672 0.2331905299380852 0 0.28119448123381058 0.25405304303149878 0 0.30328699804120918 0.24394477185791469 0 0.28440499104296979 0.23439140090611099 0 0.3433555784436142 0.25004320974280247 0 0.34183468199228573 0.23727684870966961 0 0.33092809789354199 0.24744869965648561 0 0.34183468199228573 0.23727684870966961 0 0.3288410404878227 0.2348757256337824 0 0.33092809789354199 0.24744869965648561 0 0.3288410404878227 0.2348757256337824 0 0.33092809789354199 0.24744869965648561 0 0.31845456220733243 0.24449663650262579 0 0.31879452400631653 0.25919465198291952 0 0.30328699804120918 0.24394477185791469 0 0.31845456220733243 0.24449663650262579 0 0.30328699804120918 0.24394477185791469 0 0.31845456220733243 0.24449663650262579 0 0.31607427666693672 0.2331905299380852 0 0.3288410404878227 0.2348757256337824 0 0.31845456220733243 0.24449663650262579 0 0.31607427666693672 0.2331905299380852 0 0.3288410404878227 0.2348757256337824 0 0.31607427666693672 0.2331905299380852 0 0.32372534117020862 0.22390137225637691 0 0.30659550557489001 0.220783432460853 0 0.31607427666693672 0.2331905299380852 0 0.32372534117020862 0.22390137225637691 0 0.3288410404878227 0.2348757256337824 0 0.32372534117020862 0.22390137225637691 0 0.33832986301458301 0.22348170923356889 0 0.34183468199228573 0.23727684870966961 0 0.3288410404878227 0.2348757256337824 0 0.33832986301458301 0.22348170923356889 0 0.32372534117020862 0.22390137225637691 0 0.33832986301458301 0.22348170923356889 0 0.32878602010681029 0.20717546401559489 0 0.33832986301458301 0.22348170923356889 0 0.32878602010681029 0.20717546401559489 0 0.35089693608391498 0.21212819010674691 0 0.32878602010681029 0.20717546401559489 0 0.35097653463873058 0.19356749557033681 0 0.35089693608391498 0.21212819010674691 0 0.30659550557489001 0.220783432460853 0 0.32372534117020862 0.22390137225637691 0 0.32878602010681029 0.20717546401559489 0 0.31162694501442678 0.19735313208654229 0 0.30371198994873311 0.20766104105629449 0 0.32878602010681029 0.20717546401559489 0 0.30371198994873311 0.20766104105629449 0 0.30659550557489001 0.220783432460853 0 0.32878602010681029 0.20717546401559489 0 0.30659550557489001 0.220783432460853 0 0.32878602010681029 0.20717546401559489 0 0.32878602010681029 0.20717546401559489 0 0.31972446529152482 0.19052244909679969 0 0.3336272658304279 0.18895925974375941 0 0.31162694501442678 0.19735313208654229 0 0.32878602010681029 0.20717546401559489 0 0.31972446529152482 0.19052244909679969 0 0.30929675685570829 0.1858318568065235 0 0.31162694501442678 0.19735313208654229 0 0.31972446529152482 0.19052244909679969 0 0.32878602010681029 0.20717546401559489 0 0.3336272658304279 0.18895925974375941 0 0.35097653463873058 0.19356749557033681 0 0.32878602010681029 0.20717546401559489 0 0.35097653463873058 0.19356749557033681 0 0.3336272658304279 0.18895925974375941 0 0.35097653463873058 0.19356749557033681 0 0.35656535024169428 0.1804169243242798 0 0.35097653463873058 0.19356749557033681 0 0.35896651107905142 0.20360726904620211 0 0.35089693608391498 0.21212819010674691 0 0.35097653463873058 0.19356749557033681 0 0.36405518175537521 0.19484170215684679 0 0.35896651107905142 0.20360726904620211 0 0.35097653463873058 0.19356749557033681 0 0.36405518175537521 0.19484170215684679 0 0.35656535024169428 0.1804169243242798 0 0.36405518175537521 0.19484170215684679 0 0.35656535024169428 0.1804169243242798 0 0.38464328683150451 0.18806222539781059 0 0.36405518175537521 0.19484170215684679 0 0.36923798170140371 0.20928007436804161 0 0.38464328683150451 0.18806222539781059 0 0.36405518175537521 0.19484170215684679 0 0.36923798170140371 0.20928007436804161 0 0.35896651107905142 0.20360726904620211 0 0.36923798170140371 0.20928007436804161 0 0.36132702422268731 0.21787493872225441 0 0.35896651107905142 0.20360726904620211 0 0.36923798170140371 0.20928007436804161 0 0.36132702422268731 0.21787493872225441 0 0.37292139258550783 0.22672254500020811 0 0.36132702422268731 0.21787493872225441 0 0.35896651107905142 0.20360726904620211 0 0.35089693608391498 0.21212819010674691 0 0.34183468199228573 0.23727684870966961 0 0.33832986301458301 0.22348170923356889 0 0.35524969613090918 0.22837961108452459 0 0.36132702422268731 0.21787493872225441 0 0.35089693608391498 0.21212819010674691 0 0.35524969613090918 0.22837961108452459 0 0.33832986301458301 0.22348170923356889 0 0.35089693608391498 0.21212819010674691 0 0.35524969613090918 0.22837961108452459 0 0.36132702422268731 0.21787493872225441 0 0.35524969613090918 0.22837961108452459 0 0.37292139258550783 0.22672254500020811 0 0.35524969613090918 0.22837961108452459 0 0.37292139258550783 0.22672254500020811 0 0.36587213359177301 0.2378375665458646 0 0.37292139258550783 0.22672254500020811 0 0.36587213359177301 0.2378375665458646 0 0.3757768555661396 0.240133652284411 0 0.36587213359177301 0.2378375665458646 0 0.37169426656027921 0.24972740256563611 0 0.3757768555661396 0.240133652284411 0 0.36587213359177301 0.2378375665458646 0 0.37169426656027921 0.24972740256563611 0 0.36205361842742478 0.24882498742118489 0 0.36587213359177301 0.2378375665458646 0 0.36205361842742478 0.24882498742118489 0 0.35356337405553911 0.24205426642971811 0 0.35175757775775729 0.2532797976346674 0 0.36205361842742478 0.24882498742118489 0 0.35356337405553911 0.24205426642971811 0 0.35524969613090918 0.22837961108452459 0 0.36587213359177301 0.2378375665458646 0 0.35356337405553911 0.24205426642971811 0 0.34183468199228573 0.23727684870966961 0 0.35524969613090918 0.22837961108452459 0 0.35356337405553911 0.24205426642971811 0 0.3433555784436142 0.25004320974280247 0 0.34183468199228573 0.23727684870966961 0 0.35356337405553911 0.24205426642971811 0 0.3433555784436142 0.25004320974280247 0 0.35175757775775729 0.2532797976346674 0 0.35356337405553911 0.24205426642971811 0 0.33379856680907583 0.1437068241164389 0 0.32007589174333823 0.14676000458717811 0 0.33365817402274128 0.15789089208148979 0 0.33379856680907583 0.1437068241164389 0 0.33365817402274128 0.15789089208148979 0 0.34780073530519279 0.14835628742565241 0 0.33379856680907583 0.1437068241164389 0 0.34780073530519279 0.14835628742565241 0 0.34586764947947463 0.1362539899128139 0 0.33379856680907583 0.1437068241164389 0 0.33436770153514289 0.13112975471366969 0 0.34586764947947463 0.1362539899128139 0 0.34956654336434939 0.1234914401014125 0 0.33436770153514289 0.13112975471366969 0 0.34586764947947463 0.1362539899128139 0 0.33379856680907583 0.1437068241164389 0 0.33436770153514289 0.13112975471366969 0 0.3195478300457561 0.1332621056988223 0 0.32606950933900308 0.1158177097477945 0 0.33436770153514289 0.13112975471366969 0 0.3195478300457561 0.1332621056988223 0 0.30873747279203018 0.14281046260302349 0 0.3195478300457561 0.1332621056988223 0 0.32007589174333823 0.14676000458717811 0 0.30453528129870422 0.15487579661148021 0 0.32007589174333823 0.14676000458717811 0 0.33365817402274128 0.15789089208148979 0 0.33379856680907583 0.1437068241164389 0 0.3195478300457561 0.1332621056988223 0 0.32007589174333823 0.14676000458717811 0 0.30453528129870422 0.15487579661148021 0 0.33365817402274128 0.15789089208148979 0 0.30453528129870422 0.15487579661148021 0 0.32848741365188411 0.1727716232507491 0 0.33365817402274128 0.15789089208148979 0 0.30040947706207388 0.16512632217721829 0 0.32848741365188411 0.1727716232507491 0 0.3101655001798202 0.17563615506282959 0 0.30040947706207388 0.16512632217721829 0 0.32848741365188411 0.1727716232507491 0 0.3101655001798202 0.17563615506282959 0 0.31983557186529732 0.18171103000860481 0 0.32848741365188411 0.1727716232507491 0 0.3336272658304279 0.18895925974375941 0 0.31983557186529732 0.18171103000860481 0 0.32848741365188411 0.1727716232507491 0 0.3101655001798202 0.17563615506282959 0 0.30929675685570829 0.1858318568065235 0 0.31983557186529732 0.18171103000860481 0 0.30929675685570829 0.1858318568065235 0 0.31972446529152482 0.19052244909679969 0 0.31983557186529732 0.18171103000860481 0 0.31972446529152482 0.19052244909679969 0 0.3336272658304279 0.18895925974375941 0 0.31983557186529732 0.18171103000860481 0 0.32848741365188411 0.1727716232507491 0 0.34507730906385942 0.16855187839241309 0 0.35656535024169428 0.1804169243242798 0 0.3336272658304279 0.18895925974375941 0 0.32848741365188411 0.1727716232507491 0 0.35656535024169428 0.1804169243242798 0 0.32848741365188411 0.1727716232507491 0 0.35656535024169428 0.1804169243242798 0 0.32848741365188411 0.1727716232507491 0 0.33365817402274128 0.15789089208148979 0 0.34507730906385942 0.16855187839241309 0 0.33365817402274128 0.15789089208148979 0 0.34507730906385942 0.16855187839241309 0 0.36278106674677829 0.1609059875514994 0 0.34507730906385942 0.16855187839241309 0 0.35656535024169428 0.1804169243242798 0 0.36278106674677829 0.1609059875514994 0 0.33365817402274128 0.15789089208148979 0 0.36278106674677829 0.1609059875514994 0 0.35656535024169428 0.1804169243242798 0 0.37356219856206202 0.1741215612114578 0 0.38464328683150451 0.18806222539781059 0 0.35656535024169428 0.1804169243242798 0 0.38464328683150451 0.18806222539781059 0 0.35656535024169428 0.1804169243242798 0 0.37356219856206202 0.1741215612114578 0 0.36278106674677829 0.1609059875514994 0 0.36278106674677829 0.1609059875514994 0 0.36531512046589693 0.1378839500987098 0 0.37680076681991098 0.15092733218095339 0 0.36278106674677829 0.1609059875514994 0 0.34780073530519279 0.14835628742565241 0 0.36531512046589693 0.1378839500987098 0 0.34780073530519279 0.14835628742565241 0 0.34586764947947463 0.1362539899128139 0 0.36531512046589693 0.1378839500987098 0 0.33365817402274128 0.15789089208148979 0 0.36278106674677829 0.1609059875514994 0 0.34780073530519279 0.14835628742565241 0 0.34956654336434939 0.1234914401014125 0 0.34586764947947463 0.1362539899128139 0 0.36531512046589693 0.1378839500987098 0 0.34956654336434939 0.1234914401014125 0 0.36322639358210312 0.11848039068348271 0 0.36531512046589693 0.1378839500987098 0 0.36322639358210312 0.11848039068348271 0 0.36531512046589693 0.1378839500987098 0 0.38482072671029011 0.13725767299229241 0 0.36322639358210312 0.11848039068348271 0 0.38482072671029011 0.13725767299229241 0 0.36322639358210312 0.11848039068348271 0 0.38482072671029011 0.13725767299229241 0 0.38005682511468147 0.12140739343396729 0 0.38482072671029011 0.13725767299229241 0 0.39398634319161102 0.12556361147638159 0 0.38005682511468147 0.12140739343396729 0 0.38482072671029011 0.13725767299229241 0 0.39398634319161102 0.12556361147638159 0 0.40386822996399702 0.1370092008917044 0 0.39398634319161102 0.12556361147638159 0 0.40386822996399702 0.1370092008917044 0 0.40630256149234217 0.12337914253670321 0 0.38482072671029011 0.13725767299229241 0 0.40641505983847698 0.15603495530110209 0 0.38482072671029011 0.13725767299229241 0 0.40386822996399702 0.1370092008917044 0 0.40641505983847698 0.15603495530110209 0 0.38482072671029011 0.13725767299229241 0 0.39190395947081519 0.16392108302150901 0 0.40641505983847698 0.15603495530110209 0 0.36531512046589693 0.1378839500987098 0 0.38482072671029011 0.13725767299229241 0 0.37680076681991098 0.15092733218095339 0 0.38482072671029011 0.13725767299229241 0 0.37680076681991098 0.15092733218095339 0 0.39190395947081519 0.16392108302150901 0 0.36278106674677829 0.1609059875514994 0 0.39190395947081519 0.16392108302150901 0 0.36278106674677829 0.1609059875514994 0 0.37680076681991098 0.15092733218095339 0 0.39190395947081519 0.16392108302150901 0 0.37356219856206202 0.1741215612114578 0 0.36278106674677829 0.1609059875514994 0 0.39190395947081519 0.16392108302150901 0 0.37356219856206202 0.1741215612114578 0 0.39190395947081519 0.16392108302150901 0 0.38464328683150451 0.18806222539781059 0 0.4059128807594603 0.17981630131623391 0 0.39190395947081519 0.16392108302150901 0 0.38464328683150451 0.18806222539781059 0 0.39190395947081519 0.16392108302150901 0 0.42102685219485209 0.16693617849151851 0 0.40641505983847698 0.15603495530110209 0 0.4059128807594603 0.17981630131623391 0 0.39190395947081519 0.16392108302150901 0 0.42102685219485209 0.16693617849151851 0 0.42102685219485209 0.16693617849151851 0 0.40641505983847698 0.15603495530110209 0 0.41490094777653419 0.14712571815411829 0 0.39190395947081519 0.16392108302150901 0 0.42102685219485209 0.16693617849151851 0 0.4059128807594603 0.17981630131623391 0 0.42102685219485209 0.16693617849151851 0 0.42759287120751482 0.1799189573059411 0 0.4059128807594603 0.17981630131623391 0 0.42759287120751482 0.1799189573059411 0 0.42045703890892938 0.19185412915784311 0 0.42102685219485209 0.16693617849151851 0 0.42759287120751482 0.1799189573059411 0 0.45014974491888898 0.16995127396152809 0 0.42759287120751482 0.1799189573059411 0 0.42045703890892938 0.19185412915784311 0 0.43799329450951457 0.1898848624547933 0 0.42102685219485209 0.16693617849151851 0 0.45014974491888898 0.16995127396152809 0 0.42102685219485209 0.16693617849151851 0 0.43641214087317609 0.15776157540708571 0 0.42820809332857229 0.14540676379554701 0 0.42102685219485209 0.16693617849151851 0 0.43641214087317609 0.15776157540708571 0 0.45014974491888898 0.16995127396152809 0 0.43641214087317609 0.15776157540708571 0 0.42820809332857229 0.14540676379554701 0 0.44305345270963392 0.14224085277467549 0 0.42820809332857229 0.14540676379554701 0 0.43267139290449452 0.12562392175117529 0 0.41815906511665779 0.13368892679480551 0 0.42820809332857229 0.14540676379554701 0 0.43267139290449452 0.12562392175117529 0 0.44305345270963392 0.14224085277467549 0 0.43267139290449452 0.12562392175117529 0 0.41815906511665779 0.13368892679480551 0 0.41840244549433692 0.1204435227777134 0 0.41815906511665779 0.13368892679480551 0 0.41840244549433692 0.1204435227777134 0 0.40630256149234217 0.12337914253670321 0 0.40386822996399702 0.1370092008917044 0 0.41815906511665779 0.13368892679480551 0 0.40630256149234217 0.12337914253670321 0 0.40386822996399702 0.1370092008917044 0 0.41815906511665779 0.13368892679480551 0 0.41490094777653419 0.14712571815411829 0 0.42102685219485209 0.16693617849151851 0 0.42820809332857229 0.14540676379554701 0 0.41490094777653419 0.14712571815411829 0 0.40386822996399702 0.1370092008917044 0 0.40641505983847698 0.15603495530110209 0 0.41490094777653419 0.14712571815411829 0 0.42820809332857229 0.14540676379554701 0 0.41815906511665779 0.13368892679480551 0 0.41490094777653419 0.14712571815411829 0 0.39196586341458151 0.242441409442547 0 0.40329821407583749 0.23025496453590971 0 0.40866327585672191 0.24600766979752939 0 0.38129994004966872 0.25577407136566988 0 0.39196586341458151 0.242441409442547 0 0.40866327585672191 0.24600766979752939 0 0.38129994004966872 0.25577407136566988 0 0.39196586341458151 0.242441409442547 0 0.38106847269238292 0.24536179082341181 0 0.37169426656027921 0.24972740256563611 0 0.38106847269238292 0.24536179082341181 0 0.3757768555661396 0.240133652284411 0 0.37292139258550783 0.22672254500020811 0 0.3757768555661396 0.240133652284411 0 0.38460543787124563 0.238732418458795 0 0.38106847269238292 0.24536179082341181 0 0.3757768555661396 0.240133652284411 0 0.38460543787124563 0.238732418458795 0 0.39196586341458151 0.242441409442547 0 0.38106847269238292 0.24536179082341181 0 0.38460543787124563 0.238732418458795 0 0.39196586341458151 0.242441409442547 0 0.38460543787124563 0.238732418458795 0 0.38844350160088592 0.2284985707660753 0 0.37292139258550783 0.22672254500020811 0 0.38460543787124563 0.238732418458795 0 0.38844350160088592 0.2284985707660753 0 0.37292139258550783 0.22672254500020811 0 0.38844350160088592 0.2284985707660753 0 0.38369130631537601 0.21297307403445409 0 0.38844350160088592 0.2284985707660753 0 0.39679964264504158 0.21937630878092959 0 0.38369130631537601 0.21297307403445409 0 0.38844350160088592 0.2284985707660753 0 0.39679964264504158 0.21937630878092959 0 0.40329821407583749 0.23025496453590971 0 0.39196586341458151 0.242441409442547 0 0.38844350160088592 0.2284985707660753 0 0.40329821407583749 0.23025496453590971 0 0.39679964264504158 0.21937630878092959 0 0.40329821407583749 0.23025496453590971 0 0.41066806580544729 0.2160617609406458 0 0.39598296716959969 0.20626700748070109 0 0.40513352984814438 0.19492560706685999 0 0.41066806580544729 0.2160617609406458 0 0.39679964264504158 0.21937630878092959 0 0.39598296716959969 0.20626700748070109 0 0.41066806580544729 0.2160617609406458 0 0.39679964264504158 0.21937630878092959 0 0.39598296716959969 0.20626700748070109 0 0.38369130631537601 0.21297307403445409 0 0.36923798170140371 0.20928007436804161 0 0.37292139258550783 0.22672254500020811 0 0.38369130631537601 0.21297307403445409 0 0.36923798170140371 0.20928007436804161 0 0.38369130631537601 0.21297307403445409 0 0.38464328683150451 0.18806222539781059 0 0.39598296716959969 0.20626700748070109 0 0.38369130631537601 0.21297307403445409 0 0.38464328683150451 0.18806222539781059 0 0.39598296716959969 0.20626700748070109 0 0.38464328683150451 0.18806222539781059 0 0.40513352984814438 0.19492560706685999 0 0.4059128807594603 0.17981630131623391 0 0.38464328683150451 0.18806222539781059 0 0.40513352984814438 0.19492560706685999 0 0.40513352984814438 0.19492560706685999 0 0.42045703890892938 0.19185412915784311 0 0.42444067869502011 0.20693424997503959 0 0.4059128807594603 0.17981630131623391 0 0.40513352984814438 0.19492560706685999 0 0.42045703890892938 0.19185412915784311 0 0.42045703890892938 0.19185412915784311 0 0.42444067869502011 0.20693424997503959 0 0.43799329450951457 0.1898848624547933 0 0.42444067869502011 0.20693424997503959 0 0.44184419378540352 0.2076794424592901 0 0.43799329450951457 0.1898848624547933 0 0.42444067869502011 0.20693424997503959 0 0.4302098735549707 0.2206458244329694 0 0.44184419378540352 0.2076794424592901 0 0.42444067869502011 0.20693424997503959 0 0.41066806580544729 0.2160617609406458 0 0.4302098735549707 0.2206458244329694 0 0.40513352984814438 0.19492560706685999 0 0.42444067869502011 0.20693424997503959 0 0.41066806580544729 0.2160617609406458 0 0.41066806580544729 0.2160617609406458 0 0.41777320819135039 0.22984229758728861 0 0.4302098735549707 0.2206458244329694 0 0.40329821407583749 0.23025496453590971 0 0.41066806580544729 0.2160617609406458 0 0.41777320819135039 0.22984229758728861 0 0.4302098735549707 0.2206458244329694 0 0.43602661166377499 0.2362412682293889 0 0.44584438813649652 0.2203436080528294 0 0.41777320819135039 0.22984229758728861 0 0.4302098735549707 0.2206458244329694 0 0.43602661166377499 0.2362412682293889 0 0.43602661166377499 0.2362412682293889 0 0.43076425121212841 0.2486853010718087 0 0.40866327585672191 0.24600766979752939 0 0.43602661166377499 0.2362412682293889 0 0.40866327585672191 0.24600766979752939 0 0.41777320819135039 0.22984229758728861 0 0.43602661166377499 0.2362412682293889 0 0.40866327585672191 0.24600766979752939 0 0.41664462513020523 0.25422696758609492 0 0.43076425121212841 0.2486853010718087 0 0.40866327585672191 0.24600766979752939 0 0.40329821407583749 0.23025496453590971 0 0.41777320819135039 0.22984229758728861 0 0.40866327585672191 0.24600766979752939 0 0.45166362976964691 0.25106894999712381 0 0.45384283414141641 0.23962742592169059 0 0.47583181488482379 0.2451422378191761 0 0.45166362976964691 0.25106894999712381 0 0.47583181488482379 0.2451422378191761 0 0.45384283414141641 0.23962742592169059 0 0.47692141707070451 0.23056955077157251 0 0.45166362976964691 0.25106894999712381 0 0.43076425121212841 0.2486853010718087 0 0.45384283414141641 0.23962742592169059 0 0.43602661166377499 0.2362412682293889 0 0.43076425121212841 0.2486853010718087 0 0.45384283414141641 0.23962742592169059 0 0.43076425121212841 0.2486853010718087 0 0.45384283414141641 0.23962742592169059 0 0.43602661166377499 0.2362412682293889 0 0.46338994747082818 0.22647486666124839 0 0.43602661166377499 0.2362412682293889 0 0.44584438813649652 0.2203436080528294 0 0.46338994747082818 0.22647486666124839 0 0.43602661166377499 0.2362412682293889 0 0.45384283414141641 0.23962742592169059 0 0.46338994747082818 0.22647486666124839 0 0.44584438813649652 0.2203436080528294 0 0.46338994747082818 0.22647486666124839 0 0.4574246187180494 0.20998202225832771 0 0.45384283414141641 0.23962742592169059 0 0.46338994747082818 0.22647486666124839 0 0.47692141707070451 0.23056955077157251 0 0.46338994747082818 0.22647486666124839 0 0.4574246187180494 0.20998202225832771 0 0.47311107537994651 0.21060674662752529 0 0.4574246187180494 0.20998202225832771 0 0.46861366351278472 0.19789432193598561 0 0.47311107537994651 0.21060674662752529 0 0.44584438813649652 0.2203436080528294 0 0.4574246187180494 0.20998202225832771 0 0.44184419378540352 0.2076794424592901 0 0.4302098735549707 0.2206458244329694 0 0.44584438813649652 0.2203436080528294 0 0.44184419378540352 0.2076794424592901 0 0.4574246187180494 0.20998202225832771 0 0.44184419378540352 0.2076794424592901 0 0.45120510308892831 0.19507838461398491 0 0.44184419378540352 0.2076794424592901 0 0.43799329450951457 0.1898848624547933 0 0.45120510308892831 0.19507838461398491 0 0.4574246187180494 0.20998202225832771 0 0.45120510308892831 0.19507838461398491 0 0.46861366351278472 0.19789432193598561 0 0.45120510308892831 0.19507838461398491 0 0.46861366351278472 0.19789432193598561 0 0.45014974491888898 0.16995127396152809 0 0.46861366351278472 0.19789432193598561 0 0.48377650321145821 0.20030440734603891 0 0.47890777313388699 0.17818810929941131 0 0.46861366351278472 0.19789432193598561 0 0.48377650321145821 0.20030440734603891 0 0.47311107537994651 0.21060674662752529 0 0.48377650321145821 0.20030440734603891 0 0.5 0.19442179120654851 0 0.47890777313388699 0.17818810929941131 0 0.48377650321145821 0.20030440734603891 0 0.5 0.19442179120654851 0 0.49075328327788142 0.2167084650931079 0 0.5 0.19442179120654851 0 0.49075328327788142 0.2167084650931079 0 0.49999999999999339 0.2215116756214566 0 0.48377650321145821 0.20030440734603891 0 0.49075328327788142 0.2167084650931079 0 0.47311107537994651 0.21060674662752529 0 0.46338994747082818 0.22647486666124839 0 0.49075328327788142 0.2167084650931079 0 0.47311107537994651 0.21060674662752529 0 0.46338994747082818 0.22647486666124839 0 0.49075328327788142 0.2167084650931079 0 0.46338994747082818 0.22647486666124839 0 0.49075328327788142 0.2167084650931079 0 0.47692141707070451 0.23056955077157251 0 0.47692141707070451 0.23056955077157251 0 0.49999999999999339 0.2215116756214566 0 0.50000000000000067 0.2392155256412283 0 0.49075328327788142 0.2167084650931079 0 0.47692141707070451 0.23056955077157251 0 0.49999999999999339 0.2215116756214566 0 0.47692141707070451 0.23056955077157251 0 0.49999999999999339 0.2215116756214566 0 0.50000000000000067 0.2392155256412283 0 0.47583181488482379 0.2451422378191761 0 0.48341195364679568 0.26002408893105827 0 0.50000000000000067 0.2392155256412283 0 0.47583181488482379 0.2451422378191761 0 0.47692141707070451 0.23056955077157251 0 0.50000000000000067 0.2392155256412283 0 0.47583181488482379 0.2451422378191761 0 0.45384283414141641 0.23962742592169059 0 0.47692141707070451 0.23056955077157251 0 0.47583181488482379 0.2451422378191761 0 0.46053260521531592 0.14091734283165991 0 0.45014974491888898 0.16995127396152809 0 0.47759274938693741 0.15337993901402261 0 0.46053260521531592 0.14091734283165991 0 0.47596637305353268 0.1236489788231635 0 0.45094723062946279 0.12208098845927939 0 0.46053260521531592 0.14091734283165991 0 0.44305345270963392 0.14224085277467549 0 0.45094723062946279 0.12208098845927939 0 0.43267139290449452 0.12562392175117529 0 0.44305345270963392 0.14224085277467549 0 0.45094723062946279 0.12208098845927939 0 0.46053260521531592 0.14091734283165991 0 0.44305345270963392 0.14224085277467549 0 0.45014974491888898 0.16995127396152809 0 0.43641214087317609 0.15776157540708571 0 0.44305345270963392 0.14224085277467549 0 0.45014974491888898 0.16995127396152809 0 0.42759287120751482 0.1799189573059411 0 0.43799329450951457 0.1898848624547933 0 0.45014974491888898 0.16995127396152809 0 0.43799329450951457 0.1898848624547933 0 0.45120510308892831 0.19507838461398491 0 0.45014974491888898 0.16995127396152809 0 0.46861366351278472 0.19789432193598561 0 0.45014974491888898 0.16995127396152809 0 0.47890777313388699 0.17818810929941131 0 0.45014974491888898 0.16995127396152809 0 0.47890777313388699 0.17818810929941131 0 0.47759274938693741 0.15337993901402261 0 0.5 0.19442179120654851 0 0.47890777313388699 0.17818810929941131 0 0.5 0.16733190679164031 0 0.47890777313388699 0.17818810929941131 0 0.5 0.16733190679164031 0 0.47759274938693741 0.15337993901402261 0 0.5 0.16733190679164031 0 0.47759274938693741 0.15337993901402261 0 0.5 0.14024202237673219 0 0.46053260521531592 0.14091734283165991 0 0.47759274938693741 0.15337993901402261 0 0.47596637305353268 0.1236489788231635 0 0.5 0.14024202237673219 0 0.5 0.11315213796182411 0 0.47596637305353268 0.1236489788231635 0 0.47759274938693741 0.15337993901402261 0 0.5 0.14024202237673219 0 0.47596637305353268 0.1236489788231635 0 0.5 0.11315213796182411 0 0.48146508414057748 0.097867616362435003 0 0.47596637305353268 0.1236489788231635 0 0.5 0.11315213796182411 0 0.48146508414057748 0.097867616362435003 0 0.5 0.08606225354691599 0 0.48146508414057748 0.097867616362435003 0 0.46684480345772023 0.083704774648097419 0 0.46085076100455152 0.1051260388446932 0 0.48146508414057748 0.097867616362435003 0 0.47596637305353268 0.1236489788231635 0 0.46085076100455152 0.1051260388446932 0 0.5 0.08606225354691599 0 0.48297411160829701 0.071419164250366693 0 0.5 0.058972369132007867 0 0.48146508414057748 0.097867616362435003 0 0.5 0.08606225354691599 0 0.48297411160829701 0.071419164250366693 0 0.48146508414057748 0.097867616362435003 0 0.48297411160829701 0.071419164250366693 0 0.46684480345772023 0.083704774648097419 0 0.48297411160829701 0.071419164250366693 0 0.46368779630991369 0.062884433647911922 0 0.46684480345772023 0.083704774648097419 0 0.46368779630991369 0.062884433647911922 0 0.4455316944648699 0.078385408113317706 0 0.46368779630991369 0.062884433647911922 0 0.46684480345772023 0.083704774648097419 0 0.4455316944648699 0.078385408113317706 0 0.46684480345772023 0.083704774648097419 0 0.4455316944648699 0.078385408113317706 0 0.46085076100455152 0.1051260388446932 0 0.4455316944648699 0.078385408113317706 0 0.46085076100455152 0.1051260388446932 0 0.43655847815144871 0.087567909291679069 0 0.4455316944648699 0.078385408113317706 0 0.43655847815144871 0.087567909291679069 0 0.43300293116684879 0.070359854062556224 0 0.4455316944648699 0.078385408113317706 0 0.43300293116684879 0.070359854062556224 0 0.44432728466234178 0.059795406129610977 0 0.46368779630991369 0.062884433647911922 0 0.4455316944648699 0.078385408113317706 0 0.44432728466234178 0.059795406129610977 0 0.47596637305353268 0.1236489788231635 0 0.46085076100455152 0.1051260388446932 0 0.45094723062946279 0.12208098845927939 0 0.46085076100455152 0.1051260388446932 0 0.43655847815144871 0.087567909291679069 0 0.46085076100455152 0.1051260388446932 0 0.43845481143497073 0.110031162788742 0 0.43302597451412722 0.09911942802672713 0 0.46085076100455152 0.1051260388446932 0 0.43302597451412722 0.09911942802672713 0 0.43655847815144871 0.087567909291679069 0 0.43267139290449452 0.12562392175117529 0 0.45094723062946279 0.12208098845927939 0 0.43845481143497073 0.110031162788742 0 0.46085076100455152 0.1051260388446932 0 0.45094723062946279 0.12208098845927939 0 0.43845481143497073 0.110031162788742 0 0.43267139290449452 0.12562392175117529 0 0.43845481143497073 0.110031162788742 0 0.42512360996164289 0.1101942667169049 0 0.43267139290449452 0.12562392175117529 0 0.42512360996164289 0.1101942667169049 0 0.41840244549433692 0.1204435227777134 0 0.42512360996164289 0.1101942667169049 0 0.41840244549433692 0.1204435227777134 0 0.41145911669595331 0.1096997076075869 0 0.41840244549433692 0.1204435227777134 0 0.41145911669595331 0.1096997076075869 0 0.40630256149234217 0.12337914253670321 0 0.41145911669595331 0.1096997076075869 0 0.41782870111656589 0.098086010242617663 0 0.40188519574572068 0.098349840232826835 0 0.41782870111656589 0.098086010242617663 0 0.41132824907511162 0.087668761689670915 0 0.40188519574572068 0.098349840232826835 0 0.42512360996164289 0.1101942667169049 0 0.41145911669595331 0.1096997076075869 0 0.41782870111656589 0.098086010242617663 0 0.41782870111656589 0.098086010242617663 0 0.43302597451412722 0.09911942802672713 0 0.42198136315300161 0.08812274721924529 0 0.42512360996164289 0.1101942667169049 0 0.41782870111656589 0.098086010242617663 0 0.43302597451412722 0.09911942802672713 0 0.43845481143497073 0.110031162788742 0 0.42512360996164289 0.1101942667169049 0 0.43302597451412722 0.09911942802672713 0 0.43655847815144871 0.087567909291679069 0 0.42198136315300161 0.08812274721924529 0 0.41226619529834591 0.070009779738664735 0 0.43655847815144871 0.087567909291679069 0 0.41226619529834591 0.070009779738664735 0 0.43302597451412722 0.09911942802672713 0 0.43655847815144871 0.087567909291679069 0 0.42198136315300161 0.08812274721924529 0 0.43300293116684879 0.070359854062556224 0 0.41226619529834591 0.070009779738664735 0 0.42739758089851382 0.054541393999090262 0 0.43655847815144871 0.087567909291679069 0 0.43300293116684879 0.070359854062556224 0 0.41226619529834591 0.070009779738664735 0 0.42198136315300161 0.08812274721924529 0 0.41226619529834591 0.070009779738664735 0 0.41132824907511162 0.087668761689670915 0 0.41226619529834591 0.070009779738664735 0 0.41132824907511162 0.087668761689670915 0 0.39992923875424519 0.082621500021195282 0 0.41782870111656589 0.098086010242617663 0 0.42198136315300161 0.08812274721924529 0 0.41132824907511162 0.087668761689670915 0 0.41132824907511162 0.087668761689670915 0 0.39992923875424519 0.082621500021195282 0 0.40188519574572068 0.098349840232826835 0 0.39992923875424519 0.082621500021195282 0 0.38759228221014619 0.095233220303727467 0 0.40188519574572068 0.098349840232826835 0 0.39992923875424519 0.082621500021195282 0 0.38759228221014619 0.095233220303727467 0 0.41226619529834591 0.070009779738664735 0 0.39707386889515511 0.070908779594843374 0 0.39683376059791597 0.058855427163935138 0 0.41226619529834591 0.070009779738664735 0 0.39683376059791597 0.058855427163935138 0 0.41226619529834591 0.070009779738664735 0 0.39992923875424519 0.082621500021195282 0 0.41226619529834591 0.070009779738664735 0 0.39992923875424519 0.082621500021195282 0 0.39707386889515511 0.070908779594843374 0 0.39992923875424519 0.082621500021195282 0 0.39707386889515511 0.070908779594843374 0 0.38583977896057609 0.075316135258006081 0 0.39707386889515511 0.070908779594843374 0 0.38282045226763678 0.060547433734587333 0 0.39683376059791597 0.058855427163935138 0 0.39707386889515511 0.070908779594843374 0 0.38583977896057609 0.075316135258006081 0 0.38282045226763678 0.060547433734587333 0 0.38583977896057609 0.075316135258006081 0 0.37596532967213542 0.069868995675824025 0 0.37682589963749002 0.081332762740894418 0 0.37307104071443398 0.061065176941414383 0 0.37596532967213542 0.069868995675824025 0 0.38282045226763678 0.060547433734587333 0 0.38583977896057609 0.075316135258006081 0 0.37596532967213542 0.069868995675824025 0 0.38282045226763678 0.060547433734587333 0 0.39992923875424519 0.082621500021195282 0 0.38412803848747967 0.086259474622970303 0 0.38759228221014619 0.095233220303727467 0 0.39992923875424519 0.082621500021195282 0 0.38583977896057609 0.075316135258006081 0 0.38412803848747967 0.086259474622970303 0 0.37045299287494049 0.09679375479102828 0 0.38412803848747967 0.086259474622970303 0 0.38759228221014619 0.095233220303727467 0 0.38583977896057609 0.075316135258006081 0 0.38412803848747967 0.086259474622970303 0 0.37682589963749002 0.081332762740894418 0 0.37045299287494049 0.09679375479102828 0 0.38412803848747967 0.086259474622970303 0 0.37682589963749002 0.081332762740894418 0 0.37045299287494049 0.09679375479102828 0 0.38005682511468147 0.12140739343396729 0 0.37045299287494049 0.09679375479102828 0 0.38759228221014619 0.095233220303727467 0 0.38890959528695412 0.1083938038889192 0 0.37045299287494049 0.09679375479102828 0 0.38890959528695412 0.1083938038889192 0 0.38005682511468147 0.12140739343396729 0 0.39398634319161102 0.12556361147638159 0 0.38890959528695412 0.1083938038889192 0 0.38005682511468147 0.12140739343396729 0 0.39398634319161102 0.12556361147638159 0 0.38890959528695412 0.1083938038889192 0 0.39948393258462489 0.11301500309558379 0 0.39398634319161102 0.12556361147638159 0 0.40630256149234217 0.12337914253670321 0 0.39948393258462489 0.11301500309558379 0 0.41145911669595331 0.1096997076075869 0 0.40630256149234217 0.12337914253670321 0 0.39948393258462489 0.11301500309558379 0 0.41145911669595331 0.1096997076075869 0 0.39948393258462489 0.11301500309558379 0 0.40188519574572068 0.098349840232826835 0 0.38759228221014619 0.095233220303727467 0 0.38890959528695412 0.1083938038889192 0 0.40188519574572068 0.098349840232826835 0 0.38890959528695412 0.1083938038889192 0 0.39948393258462489 0.11301500309558379 0 0.40188519574572068 0.098349840232826835 0 0.3912475249538237 0.025882868266216091 0 0.40325323122183843 0.024352223252143548 0 0.39536881189699241 0.01378873843063998 0 0.3912475249538237 0.025882868266216091 0 0.40325323122183843 0.024352223252143548 0 0.39805180056669343 0.032772735105760037 0 0.40325323122183843 0.024352223252143548 0 0.39805180056669343 0.032772735105760037 0 0.40655765028286611 0.035582104639029083 0 0.40325323122183843 0.024352223252143548 0 0.39536881189699241 0.01378873843063998 0 0.40720094273855439 0.01372602960598159 0 0.40060323373222451 0.0042547197705496897 0 0.39536881189699241 0.01378873843063998 0 0.40720094273855439 0.01372602960598159 0 0.40060323373222451 0.0042547197705496897 0 0.41081432206005303 0.0037114498956348132 0 0.4046584776842293 -0.0050702490882302163 0 0.40060323373222451 0.0042547197705496897 0 0.41081432206005303 0.0037114498956348132 0 0.40720094273855439 0.01372602960598159 0 0.40060323373222451 0.0042547197705496897 0 0.39025836247721268 0.0036292771787240202 0 0.39531848553630572 -0.0042569273994520467 0 0.40060323373222451 0.0042547197705496897 0 0.39536881189699241 0.01378873843063998 0 0.39025836247721268 0.0036292771787240202 0 0.37844401144479839 0.012609093579625891 0 0.38356146703633898 -0.0078565650350033434 0 0.37844401144479839 0.012609093579625891 0 0.39025836247721268 0.0036292771787240202 0 0.38356146703633898 -0.0078565650350033434 0 0.39536881189699241 0.01378873843063998 0 0.37844401144479839 0.012609093579625891 0 0.39025836247721268 0.0036292771787240202 0 0.3912475249538237 0.025882868266216091 0 0.37844401144479839 0.012609093579625891 0 0.38063223185621792 0.036578263657106522 0 0.37844401144479839 0.012609093579625891 0 0.38063223185621792 0.036578263657106522 0 0.37146335928247548 0.04052602251159599 0 0.37844401144479839 0.012609093579625891 0 0.38063223185621792 0.036578263657106522 0 0.3912475249538237 0.025882868266216091 0 0.39536881189699241 0.01378873843063998 0 0.37844401144479839 0.012609093579625891 0 0.37146335928247548 0.04052602251159599 0 0.38063223185621792 0.036578263657106522 0 0.38282045226763678 0.060547433734587333 0 0.3912475249538237 0.025882868266216091 0 0.38063223185621792 0.036578263657106522 0 0.3908528121234538 0.035995570554822158 0 0.38063223185621792 0.036578263657106522 0 0.38791705742610771 0.044539104287684539 0 0.3908528121234538 0.035995570554822158 0 0.38791705742610771 0.044539104287684539 0 0.38282045226763678 0.060547433734587333 0 0.39079668350586277 0.051215399393808793 0 0.37307104071443398 0.061065176941414383 0 0.37146335928247548 0.04052602251159599 0 0.38282045226763678 0.060547433734587333 0 0.38063223185621792 0.036578263657106522 0 0.38791705742610771 0.044539104287684539 0 0.38282045226763678 0.060547433734587333 0 0.38063223185621792 0.036578263657106522 0 0.38282045226763678 0.060547433734587333 0 0.38282045226763678 0.060547433734587333 0 0.39683376059791597 0.058855427163935138 0 0.39079668350586277 0.051215399393808793 0 0.41226619529834591 0.070009779738664735 0 0.39683376059791597 0.058855427163935138 0 0.40948896714378957 0.05055434744181983 0 0.39683376059791597 0.058855427163935138 0 0.39079668350586277 0.051215399393808793 0 0.39674782008621368 0.04348041067995833 0 0.39683376059791597 0.058855427163935138 0 0.39674782008621368 0.04348041067995833 0 0.40948896714378957 0.05055434744181983 0 0.3908528121234538 0.035995570554822158 0 0.39805180056669343 0.032772735105760037 0 0.39674782008621368 0.04348041067995833 0 0.3912475249538237 0.025882868266216091 0 0.3908528121234538 0.035995570554822158 0 0.39805180056669343 0.032772735105760037 0 0.38791705742610771 0.044539104287684539 0 0.3908528121234538 0.035995570554822158 0 0.39674782008621368 0.04348041067995833 0 0.38791705742610771 0.044539104287684539 0 0.39079668350586277 0.051215399393808793 0 0.39674782008621368 0.04348041067995833 0 0.39674782008621368 0.04348041067995833 0 0.40655765028286611 0.035582104639029083 0 0.40948896714378957 0.05055434744181983 0 0.39805180056669343 0.032772735105760037 0 0.39674782008621368 0.04348041067995833 0 0.40655765028286611 0.035582104639029083 0 0.40655765028286611 0.035582104639029083 0 0.41713079569888262 0.040856968430241461 0 0.41557099838193923 0.024039796491718179 0 0.41713079569888262 0.040856968430241461 0 0.42755741698364552 0.032815777208855347 0 0.41557099838193923 0.024039796491718179 0 0.40655765028286611 0.035582104639029083 0 0.41713079569888262 0.040856968430241461 0 0.40948896714378957 0.05055434744181983 0 0.41226619529834591 0.070009779738664735 0 0.40948896714378957 0.05055434744181983 0 0.42739758089851382 0.054541393999090262 0 0.41713079569888262 0.040856968430241461 0 0.40948896714378957 0.05055434744181983 0 0.42739758089851382 0.054541393999090262 0 0.41226619529834591 0.070009779738664735 0 0.42739758089851382 0.054541393999090262 0 0.43300293116684879 0.070359854062556224 0 0.42739758089851382 0.054541393999090262 0 0.44432728466234178 0.059795406129610977 0 0.41713079569888262 0.040856968430241461 0 0.42739758089851382 0.054541393999090262 0 0.42755741698364552 0.032815777208855347 0 0.42739758089851382 0.054541393999090262 0 0.42755741698364552 0.032815777208855347 0 0.44252896649868317 0.039073008259517338 0 0.42739758089851382 0.054541393999090262 0 0.44252896649868317 0.039073008259517338 0 0.42755741698364552 0.032815777208855347 0 0.4358194844604939 0.024219735287320941 0 0.44252896649868317 0.039073008259517338 0 0.42755741698364552 0.032815777208855347 0 0.41557099838193923 0.024039796491718179 0 0.4265644217351573 0.014684511896395219 0 0.4358194844604939 0.024219735287320941 0 0.4265644217351573 0.014684511896395219 0 0.44548351627008242 0.01642882659412407 0 0.42755741698364552 0.032815777208855347 0 0.4358194844604939 0.024219735287320941 0 0.4265644217351573 0.014684511896395219 0 0.41557099838193923 0.024039796491718179 0 0.4165272652869268 0.01155925859927168 0 0.4265644217351573 0.014684511896395219 0 0.41557099838193923 0.024039796491718179 0 0.40720094273855439 0.01372602960598159 0 0.4165272652869268 0.01155925859927168 0 0.40325323122183843 0.024352223252143548 0 0.41557099838193923 0.024039796491718179 0 0.40720094273855439 0.01372602960598159 0 0.40325323122183843 0.024352223252143548 0 0.40655765028286611 0.035582104639029083 0 0.41557099838193923 0.024039796491718179 0 0.41081432206005303 0.0037114498956348132 0 0.40720094273855439 0.01372602960598159 0 0.4165272652869268 0.01155925859927168 0 0.4165272652869268 0.01155925859927168 0 0.42248564151892998 0.0016345051066286029 0 0.4265644217351573 0.014684511896395219 0 0.41081432206005303 0.0037114498956348132 0 0.4165272652869268 0.01155925859927168 0 0.42248564151892998 0.0016345051066286029 0 0.42248564151892998 0.0016345051066286029 0 0.4265644217351573 0.014684511896395219 0 0.4382820622288856 -0.0014159552958160841 0 0.4265644217351573 0.014684511896395219 0 0.44548351627008242 0.01642882659412407 0 0.4382820622288856 -0.0014159552958160841 0 0.45100246047295739 0.0046664116742636159 0 0.44548351627008242 0.01642882659412407 0 0.4382820622288856 -0.0014159552958160841 0 0.45100246047295739 0.0046664116742636159 0 0.44548351627008242 0.01642882659412407 0 0.4580470330794123 0.0188547641718908 0 0.4358194844604939 0.024219735287320941 0 0.4514029071021442 0.02821869916314456 0 0.44548351627008242 0.01642882659412407 0 0.4358194844604939 0.024219735287320941 0 0.4514029071021442 0.02821869916314456 0 0.44252896649868317 0.039073008259517338 0 0.4514029071021442 0.02821869916314456 0 0.44548351627008242 0.01642882659412407 0 0.4580470330794123 0.0188547641718908 0 0.4514029071021442 0.02821869916314456 0 0.4580470330794123 0.0188547641718908 0 0.46553563141862692 0.027383902935855992 0 0.4580470330794123 0.0188547641718908 0 0.46553563141862692 0.027383902935855992 0 0.471035018561343 0.01684384088441979 0 0.4580470330794123 0.0188547641718908 0 0.4620271672997433 0.0081957990277541914 0 0.471035018561343 0.01684384088441979 0 0.4620271672997433 0.0081957990277541914 0 0.47207727543944228 0.0077163925679632076 0 0.45540766643685782 -0.0078732224449345398 0 0.4620271672997433 0.0081957990277541914 0 0.47207727543944228 0.0077163925679632076 0 0.471035018561343 0.01684384088441979 0 0.45100246047295739 0.0046664116742636159 0 0.4620271672997433 0.0081957990277541914 0 0.45540766643685782 -0.0078732224449345398 0 0.45100246047295739 0.0046664116742636159 0 0.4580470330794123 0.0188547641718908 0 0.4620271672997433 0.0081957990277541914 0 0.42739758089851382 0.054541393999090262 0 0.44432728466234178 0.059795406129610977 0 0.44252896649868317 0.039073008259517338 0 0.44432728466234178 0.059795406129610977 0 0.44252896649868317 0.039073008259517338 0 0.46100281088556699 0.043351957730158222 0 0.4514029071021442 0.02821869916314456 0 0.44252896649868317 0.039073008259517338 0 0.46100281088556699 0.043351957730158222 0 0.4514029071021442 0.02821869916314456 0 0.46553563141862692 0.027383902935855992 0 0.46100281088556699 0.043351957730158222 0 0.46553563141862692 0.027383902935855992 0 0.46100281088556699 0.043351957730158222 0 0.4764725540003833 0.035303178421407518 0 0.46368779630991369 0.062884433647911922 0 0.44432728466234178 0.059795406129610977 0 0.46100281088556699 0.043351957730158222 0 0.48297411160829701 0.071419164250366693 0 0.46368779630991369 0.062884433647911922 0 0.48184389815495748 0.047383459182506117 0 0.46368779630991369 0.062884433647911922 0 0.46100281088556699 0.043351957730158222 0 0.48184389815495748 0.047383459182506117 0 0.46368779630991369 0.062884433647911922 0 0.48184389815495748 0.047383459182506117 0 0.46100281088556699 0.043351957730158222 0 0.48184389815495748 0.047383459182506117 0 0.4764725540003833 0.035303178421407518 0 0.48184389815495748 0.047383459182506117 0 0.50000000000000089 0.031882484717099757 0 0.48184389815495748 0.047383459182506117 0 0.50000000000000089 0.031882484717099757 0 0.5 0.058972369132007867 0 0.48184389815495748 0.047383459182506117 0 0.4764725540003833 0.035303178421407518 0 0.50000000000000089 0.031882484717099757 0 0.48297411160829701 0.071419164250366693 0 0.48184389815495748 0.047383459182506117 0 0.5 0.058972369132007867 0 0.48173822001607031 0.002441982684480838 0 0.47207727543944228 0.0077163925679632076 0 0.45540766643685782 -0.0078732224449345398 0 0.48073089036299149 0.01447516008145705 0 0.48088876464914698 0.0066420825236524483 0 0.47207727543944228 0.0077163925679632076 0 0.48088876464914698 0.0066420825236524483 0 0.48173822001607031 0.002441982684480838 0 0.48944624590280772 0.014576472087587141 0 0.48073089036299149 0.01447516008145705 0 0.48088876464914698 0.0066420825236524483 0 0.48944624590280772 0.014576472087587141 0 0.48088876464914698 0.0066420825236524483 0 0.48173822001607031 0.002441982684480838 0 0.47207727543944228 0.0077163925679632076 0 0.48088876464914698 0.0066420825236524483 0 0.48173822001607031 0.002441982684480838 0 0.48073089036299149 0.01447516008145705 0 0.47207727543944228 0.0077163925679632076 0 0.471035018561343 0.01684384088441979 0 0.46553563141862692 0.027383902935855992 0 0.471035018561343 0.01684384088441979 0 0.48098968552297122 0.023479159592672289 0 0.46553563141862692 0.027383902935855992 0 0.4764725540003833 0.035303178421407518 0 0.48098968552297122 0.023479159592672289 0 0.48073089036299149 0.01447516008145705 0 0.471035018561343 0.01684384088441979 0 0.48098968552297122 0.023479159592672289 0 0.48073089036299149 0.01447516008145705 0 0.48098968552297122 0.023479159592672289 0 0.48944624590280772 0.014576472087587141 0 0.50000000000000089 0.031882484717099757 0 0.50000000000000044 0.0095961811708810997 0 0.48944624590280772 0.014576472087587141 0 0.4764725540003833 0.035303178421407518 0 0.50000000000000089 0.031882484717099757 0 0.48098968552297122 0.023479159592672289 0 0.50000000000000089 0.031882484717099757 0 0.48098968552297122 0.023479159592672289 0 0.48944624590280772 0.014576472087587141 0 0.48173822001607031 0.002441982684480838 0 0.50000000000000044 0.0095961811708810997 0 0.48944624590280772 0.014576472087587141 0 0.48173822001607031 0.002441982684480838 0 0.50000000000000044 0.0095961811708810997 0 0.48173822001607031 0.002441982684480838 0 0.50000000000000044 0.0095961811708810997 0 0.5 -0.01553848795347695 0 0.48173822001607031 0.002441982684480838 0 0.5 -0.01553848795347695 0 0.48723509010938909 -0.024737082977995831 0 0.48173822001607031 0.002441982684480838 0 0.48723509010938909 -0.024737082977995831 0 0.48173822001607031 0.002441982684480838 0 0.46944239540012012 -0.021901386132034111 0 0.45540766643685782 -0.0078732224449345398 0 0.48173822001607031 0.002441982684480838 0 0.46944239540012012 -0.021901386132034111 0 0.48723509010938909 -0.024737082977995831 0 0.46944239540012012 -0.021901386132034111 0 0.48723509010938909 -0.024737082977995831 0 0.47311684284700922 -0.039980301183512167 0 0.5 -0.01553848795347695 0 0.48723509010938909 -0.024737082977995831 0 0.5 -0.040673157077835087 0 0.48723509010938909 -0.024737082977995831 0 0.49273196020270971 -0.051916148640471983 0 0.48034048547664182 -0.050194577481915269 0 0.48723509010938909 -0.024737082977995831 0 0.49273196020270971 -0.051916148640471983 0 0.48723509010938909 -0.024737082977995831 0 0.5 -0.040673157077835087 0 0.49273196020270971 -0.051916148640471983 0 0.5 -0.040673157077835087 0 0.49273196020270971 -0.051916148640471983 0 0.5 -0.065807826202193331 0 0.49273196020270971 -0.051916148640471983 0 0.48384360039889979 -0.062204599920787272 0 0.48034048547664182 -0.050194577481915269 0 0.48034048547664182 -0.050194577481915269 0 0.47035120232490191 -0.060528185902064997 0 0.47311684284700922 -0.039980301183512167 0 0.47035120232490191 -0.060528185902064997 0 0.47311684284700922 -0.039980301183512167 0 0.48384360039889979 -0.062204599920787272 0 0.48034048547664182 -0.050194577481915269 0 0.47035120232490191 -0.060528185902064997 0 0.48723509010938909 -0.024737082977995831 0 0.48034048547664182 -0.050194577481915269 0 0.47311684284700922 -0.039980301183512167 0 0.46944239540012012 -0.021901386132034111 0 0.47311684284700922 -0.039980301183512167 0 0.44971415759127392 -0.039358306738208573 0 0.47035120232490191 -0.060528185902064997 0 0.47311684284700922 -0.039980301183512167 0 0.44971415759127392 -0.039358306738208573 0 0.47035120232490191 -0.060528185902064997 0 0.44971415759127392 -0.039358306738208573 0 0.47035120232490191 -0.060528185902064997 0 0.43963483674523918 -0.055334607978488382 0 0.44971415759127392 -0.039358306738208573 0 0.43963483674523918 -0.055334607978488382 0 0.44971415759127392 -0.039358306738208573 0 0.42419530264354072 -0.042652000491910397 0 0.46944239540012012 -0.021901386132034111 0 0.44971415759127392 -0.039358306738208573 0 0.45540766643685782 -0.0078732224449345398 0 0.44971415759127392 -0.039358306738208573 0 0.42907711285764621 -0.01818842757435184 0 0.44971415759127392 -0.039358306738208573 0 0.45540766643685782 -0.0078732224449345398 0 0.42907711285764621 -0.01818842757435184 0 0.45540766643685782 -0.0078732224449345398 0 0.42907711285764621 -0.01818842757435184 0 0.45100246047295739 0.0046664116742636159 0 0.4382820622288856 -0.0014159552958160841 0 0.45540766643685782 -0.0078732224449345398 0 0.4382820622288856 -0.0014159552958160841 0 0.45540766643685782 -0.0078732224449345398 0 0.42907711285764621 -0.01818842757435184 0 0.48173822001607031 0.002441982684480838 0 0.45540766643685782 -0.0078732224449345398 0 0.47129126618897188 -0.1223351355815797 0 0.47148248434309947 -0.114916285604633 0 0.48087269318342413 -0.1216818802472065 0 0.47148248434309947 -0.114916285604633 0 0.48087269318342413 -0.1216818802472065 0 0.47838814501791832 -0.1066654575105275 0 0.48087269318342413 -0.1216818802472065 0 0.48924328608656842 -0.1141618265083332 0 0.47838814501791832 -0.1066654575105275 0 0.5 -0.1122204549214597 0 0.48924328608656842 -0.1141618265083332 0 0.5 -0.13349841451636779 0 0.48087269318342413 -0.1216818802472065 0 0.48924328608656842 -0.1141618265083332 0 0.5 -0.13349841451636779 0 0.5 -0.1122204549214597 0 0.48924328608656842 -0.1141618265083332 0 0.48827073793524339 -0.097774102912636218 0 0.48924328608656842 -0.1141618265083332 0 0.48827073793524339 -0.097774102912636218 0 0.47838814501791832 -0.1066654575105275 0 0.5 -0.1122204549214597 0 0.48827073793524339 -0.097774102912636218 0 0.50000000000000266 -0.090942495326551576 0 0.47652975213937199 -0.091635549067057065 0 0.46683976751390588 -0.086617099886465918 0 0.46456669494636288 -0.10350535152343909 0 0.48827073793524339 -0.097774102912636218 0 0.47838814501791832 -0.1066654575105275 0 0.47652975213937199 -0.091635549067057065 0 0.47148248434309947 -0.114916285604633 0 0.47838814501791832 -0.1066654575105275 0 0.46456669494636288 -0.10350535152343909 0 0.47838814501791832 -0.1066654575105275 0 0.47652975213937199 -0.091635549067057065 0 0.46456669494636288 -0.10350535152343909 0 0.48827073793524339 -0.097774102912636218 0 0.47652975213937199 -0.091635549067057065 0 0.48517560116245317 -0.075735340614307423 0 0.47652975213937199 -0.091635549067057065 0 0.48517560116245317 -0.075735340614307423 0 0.46683976751390588 -0.086617099886465918 0 0.47652975213937199 -0.091635549067057065 0 0.46683976751390588 -0.086617099886465918 0 0.50000000000000266 -0.090942495326551576 0 0.49822883029603021 -0.079095214302948247 0 0.5 -0.065807826202193331 0 0.48827073793524339 -0.097774102912636218 0 0.50000000000000266 -0.090942495326551576 0 0.48517560116245317 -0.075735340614307423 0 0.50000000000000266 -0.090942495326551576 0 0.48517560116245317 -0.075735340614307423 0 0.50000000000000266 -0.090942495326551576 0 0.49822883029603021 -0.079095214302948247 0 0.48517560116245317 -0.075735340614307423 0 0.49273196020270971 -0.051916148640471983 0 0.49822883029603021 -0.079095214302948247 0 0.48384360039889979 -0.062204599920787272 0 0.49822883029603021 -0.079095214302948247 0 0.48517560116245317 -0.075735340614307423 0 0.49273196020270971 -0.051916148640471983 0 0.48384360039889979 -0.062204599920787272 0 0.49822883029603021 -0.079095214302948247 0 0.49273196020270971 -0.051916148640471983 0 0.49822883029603021 -0.079095214302948247 0 0.5 -0.065807826202193331 0 0.47035120232490191 -0.060528185902064997 0 0.48517560116245317 -0.075735340614307423 0 0.47035120232490191 -0.060528185902064997 0 0.48517560116245317 -0.075735340614307423 0 0.46683976751390588 -0.086617099886465918 0 0.48384360039889979 -0.062204599920787272 0 0.47035120232490191 -0.060528185902064997 0 0.48517560116245317 -0.075735340614307423 0 0.47035120232490191 -0.060528185902064997 0 0.46683976751390588 -0.086617099886465918 0 0.47035120232490191 -0.060528185902064997 0 0.44249197108241189 -0.074007360679063244 0 0.46683976751390588 -0.086617099886465918 0 0.47035120232490191 -0.060528185902064997 0 0.43963483674523918 -0.055334607978488382 0 0.44249197108241189 -0.074007360679063244 0 0.44249197108241189 -0.074007360679063244 0 0.46683976751390588 -0.086617099886465918 0 0.4490662803509099 -0.094083529251462475 0 0.44249197108241189 -0.074007360679063244 0 0.4490662803509099 -0.094083529251462475 0 0.42834270349958448 -0.099226311759436261 0 0.44249197108241189 -0.074007360679063244 0 0.46683976751390588 -0.086617099886465918 0 0.46683976751390588 -0.086617099886465918 0 0.46456669494636288 -0.10350535152343909 0 0.4490662803509099 -0.094083529251462475 0 0.46683976751390588 -0.086617099886465918 0 0.46456669494636288 -0.10350535152343909 0 0.46456669494636288 -0.10350535152343909 0 0.4490662803509099 -0.094083529251462475 0 0.44386094964032902 -0.11054798122052439 0 0.4490662803509099 -0.094083529251462475 0 0.44386094964032902 -0.11054798122052439 0 0.42834270349958448 -0.099226311759436261 0 0.44386094964032902 -0.11054798122052439 0 0.46257396642688631 -0.12529077885077469 0 0.45239247298790419 -0.125419693033265 0 0.44386094964032902 -0.11054798122052439 0 0.42916935431308728 -0.1205456085246996 0 0.4435038969132965 -0.12540022695152131 0 0.44386094964032902 -0.11054798122052439 0 0.45239247298790419 -0.125419693033265 0 0.4435038969132965 -0.12540022695152131 0 0.44386094964032902 -0.11054798122052439 0 0.46229362237882032 -0.1203936031604123 0 0.46257396642688631 -0.12529077885077469 0 0.46456669494636288 -0.10350535152343909 0 0.46229362237882032 -0.1203936031604123 0 0.46456669494636288 -0.10350535152343909 0 0.44386094964032902 -0.11054798122052439 0 0.46229362237882032 -0.1203936031604123 0 0.44386094964032902 -0.11054798122052439 0 0.46257396642688631 -0.12529077885077469 0 0.47148248434309947 -0.114916285604633 0 0.46456669494636288 -0.10350535152343909 0 0.46229362237882032 -0.1203936031604123 0 0.47129126618897188 -0.1223351355815797 0 0.46229362237882032 -0.1203936031604123 0 0.46257396642688631 -0.12529077885077469 0 0.47129126618897188 -0.1223351355815797 0 0.47148248434309947 -0.114916285604633 0 0.46229362237882032 -0.1203936031604123 0 0.44386094964032902 -0.11054798122052439 0 0.42916935431308728 -0.1205456085246996 0 0.42834270349958448 -0.099226311759436261 0 0.41143930547928681 -0.11934523636421419 0 0.42916935431308728 -0.1205456085246996 0 0.42834270349958448 -0.099226311759436261 0 0.41143930547928681 -0.11934523636421419 0 0.40555832972599831 -0.095826118330896617 0 0.41143930547928681 -0.11934523636421419 0 0.42834270349958448 -0.099226311759436261 0 0.40555832972599831 -0.095826118330896617 0 0.42834270349958448 -0.099226311759436261 0 0.41884290658632428 -0.080552882507727325 0 0.40555832972599831 -0.095826118330896617 0 0.41884290658632428 -0.080552882507727325 0 0.39967735397270959 -0.072307000297579083 0 0.40555832972599831 -0.095826118330896617 0 0.44249197108241189 -0.074007360679063244 0 0.42834270349958448 -0.099226311759436261 0 0.41884290658632428 -0.080552882507727325 0 0.44249197108241189 -0.074007360679063244 0 0.41814417465091752 -0.061397621471661459 0 0.43963483674523918 -0.055334607978488382 0 0.44249197108241189 -0.074007360679063244 0 0.41814417465091752 -0.061397621471661459 0 0.44249197108241189 -0.074007360679063244 0 0.41884290658632428 -0.080552882507727325 0 0.41814417465091752 -0.061397621471661459 0 0.41884290658632428 -0.080552882507727325 0 0.39967735397270959 -0.072307000297579083 0 0.41814417465091752 -0.061397621471661459 0 0.39967735397270959 -0.072307000297579083 0 0.38669795957132042 -0.057310603286660967 0 0.37240766699872252 -0.068318548019290964 0 0.39967735397270959 -0.072307000297579083 0 0.37781097748786241 -0.089314889372882261 0 0.37240766699872252 -0.068318548019290964 0 0.39967735397270959 -0.072307000297579083 0 0.37781097748786241 -0.089314889372882261 0 0.40555832972599831 -0.095826118330896617 0 0.39967735397270959 -0.072307000297579083 0 0.40555832972599831 -0.095826118330896617 0 0.40555832972599831 -0.095826118330896617 0 0.38953803654933628 -0.10754997095337659 0 0.39823574772599779 -0.11763079726210079 0 0.37781097748786241 -0.089314889372882261 0 0.40555832972599831 -0.095826118330896617 0 0.38953803654933628 -0.10754997095337659 0 0.37781097748786241 -0.089314889372882261 0 0.38953803654933628 -0.10754997095337659 0 0.37644505785585192 -0.1058120404938334 0 0.38953803654933628 -0.10754997095337659 0 0.37644505785585192 -0.1058120404938334 0 0.37720890243704291 -0.12310924361699779 0 0.38953803654933628 -0.10754997095337659 0 0.37720890243704291 -0.12310924361699779 0 0.38918813321375051 -0.12739880168557821 0 0.38953803654933628 -0.10754997095337659 0 0.39823574772599779 -0.11763079726210079 0 0.38918813321375051 -0.12739880168557821 0 0.41143930547928681 -0.11934523636421419 0 0.39823574772599779 -0.11763079726210079 0 0.40257569972698831 -0.13396225485532559 0 0.41143930547928681 -0.11934523636421419 0 0.40555832972599831 -0.095826118330896617 0 0.39823574772599779 -0.11763079726210079 0 0.42011428296152808 -0.02169968792975261 0 0.41401194260749391 -0.028450411104576211 0 0.41343304557213612 -0.018371446868227208 0 0.42011428296152808 -0.02169968792975261 0 0.41343304557213612 -0.018371446868227208 0 0.41928481904255338 -0.01548900553927589 0 0.42011428296152808 -0.02169968792975261 0 0.41928481904255338 -0.01548900553927589 0 0.42542521438275183 -0.0144422395697206 0 0.42011428296152808 -0.02169968792975261 0 0.41401194260749391 -0.028450411104576211 0 0.42742255973229643 -0.030069766767760062 0 0.41401194260749391 -0.028450411104576211 0 0.40522076275047969 -0.019933987949522329 0 0.40044964155059998 -0.029094842751199331 0 0.41401194260749391 -0.028450411104576211 0 0.41343304557213612 -0.018371446868227208 0 0.40522076275047969 -0.019933987949522329 0 0.41343304557213612 -0.018371446868227208 0 0.40806592415966281 -0.01253819616599721 0 0.40522076275047969 -0.019933987949522329 0 0.40806592415966281 -0.01253819616599721 0 0.4135204533098043 -0.0054466611181140526 0 0.41498054603746559 -0.011947546426581419 0 0.41343304557213612 -0.018371446868227208 0 0.40806592415966281 -0.01253819616599721 0 0.41498054603746559 -0.011947546426581419 0 0.41081432206005303 0.0037114498956348132 0 0.4135204533098043 -0.0054466611181140526 0 0.4046584776842293 -0.0050702490882302163 0 0.40806592415966281 -0.01253819616599721 0 0.4135204533098043 -0.0054466611181140526 0 0.4046584776842293 -0.0050702490882302163 0 0.41081432206005303 0.0037114498956348132 0 0.42248564151892998 0.0016345051066286029 0 0.4135204533098043 -0.0054466611181140526 0 0.42248564151892998 0.0016345051066286029 0 0.4135204533098043 -0.0054466611181140526 0 0.42119781252485211 -0.0083000839364812864 0 0.41343304557213612 -0.018371446868227208 0 0.41498054603746559 -0.011947546426581419 0 0.41928481904255338 -0.01548900553927589 0 0.4135204533098043 -0.0054466611181140526 0 0.41498054603746559 -0.011947546426581419 0 0.42119781252485211 -0.0083000839364812864 0 0.41498054603746559 -0.011947546426581419 0 0.42119781252485211 -0.0083000839364812864 0 0.41928481904255338 -0.01548900553927589 0 0.42542521438275183 -0.0144422395697206 0 0.42820760236351979 -0.0076976995852137747 0 0.42907711285764621 -0.01818842757435184 0 0.4382820622288856 -0.0014159552958160841 0 0.42820760236351979 -0.0076976995852137747 0 0.42907711285764621 -0.01818842757435184 0 0.42119781252485211 -0.0083000839364812864 0 0.41928481904255338 -0.01548900553927589 0 0.42542521438275183 -0.0144422395697206 0 0.42248564151892998 0.0016345051066286029 0 0.4382820622288856 -0.0014159552958160841 0 0.42820760236351979 -0.0076976995852137747 0 0.42119781252485211 -0.0083000839364812864 0 0.42542521438275183 -0.0144422395697206 0 0.42820760236351979 -0.0076976995852137747 0 0.42248564151892998 0.0016345051066286029 0 0.42119781252485211 -0.0083000839364812864 0 0.42820760236351979 -0.0076976995852137747 0 0.44971415759127392 -0.039358306738208573 0 0.42907711285764621 -0.01818842757435184 0 0.42742255973229643 -0.030069766767760062 0 0.42011428296152808 -0.02169968792975261 0 0.42907711285764621 -0.01818842757435184 0 0.42742255973229643 -0.030069766767760062 0 0.42011428296152808 -0.02169968792975261 0 0.42542521438275183 -0.0144422395697206 0 0.42907711285764621 -0.01818842757435184 0 0.42011428296152808 -0.02169968792975261 0 0.42907711285764621 -0.01818842757435184 0 0.42542521438275183 -0.0144422395697206 0 0.42907711285764621 -0.01818842757435184 0 0.44971415759127392 -0.039358306738208573 0 0.42742255973229643 -0.030069766767760062 0 0.42419530264354072 -0.042652000491910397 0 0.41401194260749391 -0.028450411104576211 0 0.42742255973229643 -0.030069766767760062 0 0.42419530264354072 -0.042652000491910397 0 0.43963483674523918 -0.055334607978488382 0 0.42419530264354072 -0.042652000491910397 0 0.41814417465091752 -0.061397621471661459 0 0.41814417465091752 -0.061397621471661459 0 0.41107184061272262 -0.047596707948501772 0 0.39379637821942232 -0.04878788226426127 0 0.42419530264354072 -0.042652000491910397 0 0.41814417465091752 -0.061397621471661459 0 0.41107184061272262 -0.047596707948501772 0 0.41401194260749391 -0.028450411104576211 0 0.42419530264354072 -0.042652000491910397 0 0.40815150693701141 -0.037549327566173699 0 0.42419530264354072 -0.042652000491910397 0 0.41107184061272262 -0.047596707948501772 0 0.40815150693701141 -0.037549327566173699 0 0.41401194260749391 -0.028450411104576211 0 0.40815150693701141 -0.037549327566173699 0 0.40044964155059998 -0.029094842751199331 0 0.41107184061272262 -0.047596707948501772 0 0.40815150693701141 -0.037549327566173699 0 0.39379637821942232 -0.04878788226426127 0 0.40815150693701141 -0.037549327566173699 0 0.39379637821942232 -0.04878788226426127 0 0.40044964155059998 -0.029094842751199331 0 0.39379637821942232 -0.04878788226426127 0 0.38867892262788012 -0.028322223649632432 0 0.39379637821942232 -0.04878788226426127 0 0.38867892262788012 -0.028322223649632432 0 0.40044964155059998 -0.029094842751199331 0 0.39967735397270959 -0.072307000297579083 0 0.39379637821942232 -0.04878788226426127 0 0.38669795957132042 -0.057310603286660967 0 0.41814417465091752 -0.061397621471661459 0 0.39379637821942232 -0.04878788226426127 0 0.39967735397270959 -0.072307000297579083 0 0.39379637821942232 -0.04878788226426127 0 0.39967735397270959 -0.072307000297579083 0 0.41814417465091752 -0.061397621471661459 0 0.39379637821942232 -0.04878788226426127 0 0.39379637821942232 -0.04878788226426127 0 0.38896036142985008 -0.046283306103098283 0 0.38669795957132042 -0.057310603286660967 0 0.37839056082150663 -0.050608978831784571 0 0.37240766699872252 -0.068318548019290964 0 0.38669795957132042 -0.057310603286660967 0 0.37839056082150663 -0.050608978831784571 0 0.38896036142985008 -0.046283306103098283 0 0.39379637821942232 -0.04878788226426127 0 0.38669795957132042 -0.057310603286660967 0 0.38896036142985008 -0.046283306103098283 0 0.39379637821942232 -0.04878788226426127 0 0.38896036142985008 -0.046283306103098283 0 0.38867892262788012 -0.028322223649632432 0 0.3834615598562825 -0.037386722635115492 0 0.38896036142985008 -0.046283306103098283 0 0.38867892262788012 -0.028322223649632432 0 0.37839056082150663 -0.050608978831784571 0 0.3834615598562825 -0.037386722635115492 0 0.38896036142985008 -0.046283306103098283 0 0.37839056082150663 -0.050608978831784571 0 0.3834615598562825 -0.037386722635115492 0 0.37356965880113402 -0.040783236975350308 0 0.38867892262788012 -0.028322223649632432 0 0.38356146703633898 -0.0078565650350033434 0 0.3834615598562825 -0.037386722635115492 0 0.37600683512296651 -0.014087071697862221 0 0.37356965880113402 -0.040783236975350308 0 0.3834615598562825 -0.037386722635115492 0 0.38867892262788012 -0.028322223649632432 0 0.37600683512296651 -0.014087071697862221 0 0.38867892262788012 -0.028322223649632432 0 0.37600683512296651 -0.014087071697862221 0 0.38356146703633898 -0.0078565650350033434 0 0.38867892262788012 -0.028322223649632432 0 0.39658225960386179 -0.014459285545308009 0 0.38356146703633898 -0.0078565650350033434 0 0.38867892262788012 -0.028322223649632432 0 0.40044964155059998 -0.029094842751199331 0 0.39658225960386179 -0.014459285545308009 0 0.40522076275047969 -0.019933987949522329 0 0.40044964155059998 -0.029094842751199331 0 0.39658225960386179 -0.014459285545308009 0 0.40806592415966281 -0.01253819616599721 0 0.40522076275047969 -0.019933987949522329 0 0.39658225960386179 -0.014459285545308009 0 0.40060323373222451 0.0042547197705496897 0 0.4046584776842293 -0.0050702490882302163 0 0.39531848553630572 -0.0042569273994520467 0 0.40806592415966281 -0.01253819616599721 0 0.4046584776842293 -0.0050702490882302163 0 0.39658225960386179 -0.014459285545308009 0 0.4046584776842293 -0.0050702490882302163 0 0.39658225960386179 -0.014459285545308009 0 0.39531848553630572 -0.0042569273994520467 0 0.39658225960386179 -0.014459285545308009 0 0.39531848553630572 -0.0042569273994520467 0 0.38356146703633898 -0.0078565650350033434 0 0.39025836247721268 0.0036292771787240202 0 0.39531848553630572 -0.0042569273994520467 0 0.38356146703633898 -0.0078565650350033434 0 0.37844401144479839 0.012609093579625891 0 0.37600683512296651 -0.014087071697862221 0 0.37844401144479839 0.012609093579625891 0 0.37600683512296651 -0.014087071697862221 0 0.38356146703633898 -0.0078565650350033434 0 0.37600683512296651 -0.014087071697862221 0 0.36665723294200347 -0.001883505129568449 0 0.35850646790810559 -0.01395473468271459 0 0.37844401144479839 0.012609093579625891 0 0.37600683512296651 -0.014087071697862221 0 0.36665723294200347 -0.001883505129568449 0 0.36665723294200347 -0.001883505129568449 0 0.35531676971978082 -0.0033532784323768001 0 0.35850646790810559 -0.01395473468271459 0 0.37600683512296651 -0.014087071697862221 0 0.37356965880113402 -0.040783236975350308 0 0.37600683512296651 -0.014087071697862221 0 0.36404947753274258 -0.026706798856440471 0 0.35850646790810559 -0.01395473468271459 0 0.37600683512296651 -0.014087071697862221 0 0.36404947753274258 -0.026706798856440471 0 0.37356965880113402 -0.040783236975350308 0 0.34748556133762742 -0.02738266599094942 0 0.35850646790810559 -0.01395473468271459 0 0.34370628527030811 -0.0115647124322744 0 0.36404947753274258 -0.026706798856440471 0 0.34748556133762742 -0.02738266599094942 0 0.35850646790810559 -0.01395473468271459 0 0.36404947753274258 -0.026706798856440471 0 0.34748556133762742 -0.02738266599094942 0 0.36012817770438982 -0.039413746555128387 0 0.33689267375143878 0.0039255003288513873 0 0.35531676971978082 -0.0033532784323768001 0 0.34370628527030811 -0.0115647124322744 0 0.35531676971978082 -0.0033532784323768001 0 0.35850646790810559 -0.01395473468271459 0 0.34370628527030811 -0.0115647124322744 0 0.33689267375143878 0.0039255003288513873 0 0.34370628527030811 -0.0115647124322744 0 0.32469666258817742 -0.019557632270551 0 0.33689267375143878 0.0039255003288513873 0 0.30352242257352219 0.0039185454548519476 0 0.32469666258817742 -0.019557632270551 0 0.34748556133762742 -0.02738266599094942 0 0.34370628527030811 -0.0115647124322744 0 0.32469666258817742 -0.019557632270551 0 0.34748556133762742 -0.02738266599094942 0 0.32469666258817742 -0.019557632270551 0 0.33457477032001748 -0.043965109755099818 0 0.31326255248553708 -0.043768501277314603 0 0.32924913997341337 -0.063603686862235317 0 0.31014365419524398 -0.06072536978512106 0 0.31326255248553708 -0.043768501277314603 0 0.32924913997341337 -0.063603686862235317 0 0.31326255248553708 -0.043768501277314603 0 0.33457477032001748 -0.043965109755099818 0 0.32924913997341337 -0.063603686862235317 0 0.32469666258817742 -0.019557632270551 0 0.31326255248553708 -0.043768501277314603 0 0.33457477032001748 -0.043965109755099818 0 0.33457477032001748 -0.043965109755099818 0 0.34313363496153881 -0.061193084728204693 0 0.35029003257871461 -0.048624574981710279 0 0.33457477032001748 -0.043965109755099818 0 0.34313363496153881 -0.061193084728204693 0 0.32924913997341337 -0.063603686862235317 0 0.35029003257871461 -0.048624574981710279 0 0.36524615827173029 -0.053571455971191423 0 0.35631850447425872 -0.066333179594821989 0 0.34313363496153881 -0.061193084728204693 0 0.35029003257871461 -0.048624574981710279 0 0.35631850447425872 -0.066333179594821989 0 0.35029003257871461 -0.048624574981710279 0 0.36012817770438982 -0.039413746555128387 0 0.36524615827173029 -0.053571455971191423 0 0.34748556133762742 -0.02738266599094942 0 0.33457477032001748 -0.043965109755099818 0 0.35029003257871461 -0.048624574981710279 0 0.34748556133762742 -0.02738266599094942 0 0.35029003257871461 -0.048624574981710279 0 0.36012817770438982 -0.039413746555128387 0 0.36404947753274258 -0.026706798856440471 0 0.36012817770438982 -0.039413746555128387 0 0.37356965880113402 -0.040783236975350308 0 0.36012817770438982 -0.039413746555128387 0 0.37356965880113402 -0.040783236975350308 0 0.36524615827173029 -0.053571455971191423 0 0.37839056082150663 -0.050608978831784571 0 0.36524615827173029 -0.053571455971191423 0 0.37240766699872252 -0.068318548019290964 0 0.37839056082150663 -0.050608978831784571 0 0.37356965880113402 -0.040783236975350308 0 0.36524615827173029 -0.053571455971191423 0 0.36524615827173029 -0.053571455971191423 0 0.37240766699872252 -0.068318548019290964 0 0.35631850447425872 -0.066333179594821989 0 0.37240766699872252 -0.068318548019290964 0 0.36259903827425999 -0.08213590949324566 0 0.35631850447425872 -0.066333179594821989 0 0.37781097748786241 -0.089314889372882261 0 0.37240766699872252 -0.068318548019290964 0 0.36259903827425999 -0.08213590949324566 0 0.37781097748786241 -0.089314889372882261 0 0.36259903827425999 -0.08213590949324566 0 0.3612223149491664 -0.1032740580320769 0 0.34523572746128989 -0.083438872447156087 0 0.3612223149491664 -0.1032740580320769 0 0.36259903827425999 -0.08213590949324566 0 0.34523572746128989 -0.083438872447156087 0 0.3612223149491664 -0.1032740580320769 0 0.34313363496153881 -0.061193084728204693 0 0.34523572746128989 -0.083438872447156087 0 0.35631850447425872 -0.066333179594821989 0 0.36259903827425999 -0.08213590949324566 0 0.34523572746128989 -0.083438872447156087 0 0.35631850447425872 -0.066333179594821989 0 0.37720890243704291 -0.12310924361699779 0 0.36253108037134668 -0.1248744885805331 0 0.3612223149491664 -0.1032740580320769 0 0.37644505785585192 -0.1058120404938334 0 0.37720890243704291 -0.12310924361699779 0 0.3612223149491664 -0.1032740580320769 0 0.37720890243704291 -0.12310924361699779 0 0.3612223149491664 -0.1032740580320769 0 0.37781097748786241 -0.089314889372882261 0 0.37644505785585192 -0.1058120404938334 0 0.3612223149491664 -0.1032740580320769 0 0.34523572746128989 -0.083438872447156087 0 0.3612223149491664 -0.1032740580320769 0 0.33932087337301742 -0.1007066993955318 0 0.3612223149491664 -0.1032740580320769 0 0.34941185211170689 -0.1127717253903176 0 0.33932087337301742 -0.1007066993955318 0 0.36253108037134668 -0.1248744885805331 0 0.33587402752894302 -0.122350175475488 0 0.36253108037134668 -0.1248744885805331 0 0.34941185211170689 -0.1127717253903176 0 0.33587402752894302 -0.122350175475488 0 0.36253108037134668 -0.1248744885805331 0 0.3612223149491664 -0.1032740580320769 0 0.34941185211170689 -0.1127717253903176 0 0.34941185211170689 -0.1127717253903176 0 0.33587402752894302 -0.122350175475488 0 0.33932087337301742 -0.1007066993955318 0 0.33587402752894302 -0.122350175475488 0 0.33932087337301742 -0.1007066993955318 0 0.31943204723016899 -0.10139701157958859 0 0.33932087337301742 -0.1007066993955318 0 0.31943204723016899 -0.10139701157958859 0 0.32474927095682959 -0.081008353448563344 0 0.33587402752894302 -0.122350175475488 0 0.31943204723016899 -0.10139701157958859 0 0.3092169746865393 -0.1198258623704429 0 0.33587402752894302 -0.122350175475488 0 0.3092169746865393 -0.1198258623704429 0 0.34523572746128989 -0.083438872447156087 0 0.32924913997341337 -0.063603686862235317 0 0.32474927095682959 -0.081008353448563344 0 0.34523572746128989 -0.083438872447156087 0 0.32924913997341337 -0.063603686862235317 0 0.34313363496153881 -0.061193084728204693 0 0.34523572746128989 -0.083438872447156087 0 0.32924913997341337 -0.063603686862235317 0 0.34523572746128989 -0.083438872447156087 0 0.33932087337301742 -0.1007066993955318 0 0.32474927095682959 -0.081008353448563344 0 0.31943204723016899 -0.10139701157958859 0 0.32474927095682959 -0.081008353448563344 0 0.31117343018006932 -0.08835554327446378 0 0.32474927095682959 -0.081008353448563344 0 0.30201438303726968 -0.075929904193525521 0 0.32474927095682959 -0.081008353448563344 0 0.30201438303726968 -0.075929904193525521 0 0.31117343018006932 -0.08835554327446378 0 0.32924913997341337 -0.063603686862235317 0 0.32474927095682959 -0.081008353448563344 0 0.31014365419524398 -0.06072536978512106 0 0.32474927095682959 -0.081008353448563344 0 0.30201438303726968 -0.075929904193525521 0 0.31014365419524398 -0.06072536978512106 0 0.30201438303726968 -0.075929904193525521 0 0.31014365419524398 -0.06072536978512106 0 0.29222542489931519 -0.060978945333093171 0 0.31117343018006932 -0.08835554327446378 0 0.29442961060618023 -0.089764156713605506 0 0.30306705175182019 -0.101009202806625 0 0.30201438303726968 -0.075929904193525521 0 0.31117343018006932 -0.08835554327446378 0 0.29442961060618023 -0.089764156713605506 0 0.29442961060618023 -0.089764156713605506 0 0.28691460331806928 -0.079185378374353493 0 0.27734124638624891 -0.089737863242296378 0 0.30201438303726968 -0.075929904193525521 0 0.29442961060618023 -0.089764156713605506 0 0.28691460331806928 -0.079185378374353493 0 0.30201438303726968 -0.075929904193525521 0 0.27927949511770961 -0.070851454938488739 0 0.29222542489931519 -0.060978945333093171 0 0.30201438303726968 -0.075929904193525521 0 0.27927949511770961 -0.070851454938488739 0 0.30201438303726968 -0.075929904193525521 0 0.28691460331806928 -0.079185378374353493 0 0.27927949511770961 -0.070851454938488739 0 0.28691460331806928 -0.079185378374353493 0 0.27927949511770961 -0.070851454938488739 0 0.27809334201771629 -0.079209584513290715 0 0.28691460331806928 -0.079185378374353493 0 0.27927949511770961 -0.070851454938488739 0 0.27927949511770961 -0.070851454938488739 0 0.27868582307562201 -0.055886184139343542 0 0.29222542489931519 -0.060978945333093171 0 0.31943204723016899 -0.10139701157958859 0 0.3092169746865393 -0.1198258623704429 0 0.30306705175182019 -0.101009202806625 0 0.3092169746865393 -0.1198258623704429 0 0.30306705175182019 -0.101009202806625 0 0.28879183359809052 -0.10393054527906551 0 0.31943204723016899 -0.10139701157958859 0 0.31117343018006932 -0.08835554327446378 0 0.30306705175182019 -0.101009202806625 0 0.28879183359809052 -0.10393054527906551 0 0.28255992184413548 -0.11730154926539781 0 0.27267591943638608 -0.1048970298088977 0 0.29442961060618023 -0.089764156713605506 0 0.28879183359809052 -0.10393054527906551 0 0.27734124638624891 -0.089737863242296378 0 0.29442961060618023 -0.089764156713605506 0 0.30306705175182019 -0.101009202806625 0 0.28879183359809052 -0.10393054527906551 0 0.3092169746865393 -0.1198258623704429 0 0.28255992184413548 -0.11730154926539781 0 0.3092169746865393 -0.1198258623704429 0 0.28879183359809052 -0.10393054527906551 0 0.28255992184413548 -0.11730154926539781 0 0.3092169746865393 -0.1198258623704429 0 0.28255992184413548 -0.11730154926539781 0 0.28721398294742878 -0.13035474923543569 0 0.28255992184413548 -0.11730154926539781 0 0.26776517015272971 -0.1222840496799191 0 0.28721398294742878 -0.13035474923543569 0 0.28255992184413548 -0.11730154926539781 0 0.26776517015272971 -0.1222840496799191 0 0.27267591943638608 -0.1048970298088977 0 0.26776517015272971 -0.1222840496799191 0 0.27267591943638608 -0.1048970298088977 0 0.26047800574605201 -0.11084537767631369 0 0.28879183359809052 -0.10393054527906551 0 0.27267591943638608 -0.1048970298088977 0 0.27734124638624891 -0.089737863242296378 0 0.27267591943638608 -0.1048970298088977 0 0.27734124638624891 -0.089737863242296378 0 0.26256105175446781 -0.092679464148907056 0 0.25771864553297669 -0.099620140202181948 0 0.26047800574605201 -0.11084537767631369 0 0.24375228786211539 -0.116580291014256 0 0.27267591943638608 -0.1048970298088977 0 0.25771864553297669 -0.099620140202181948 0 0.26256105175446781 -0.092679464148907056 0 0.25771864553297669 -0.099620140202181948 0 0.25304747237378489 -0.090741332181114118 0 0.24292322406264641 -0.096552741650977186 0 0.25771864553297669 -0.099620140202181948 0 0.26256105175446781 -0.092679464148907056 0 0.25304747237378489 -0.090741332181114118 0 0.27267591943638608 -0.1048970298088977 0 0.25771864553297669 -0.099620140202181948 0 0.26047800574605201 -0.11084537767631369 0 0.26776517015272971 -0.1222840496799191 0 0.26153006621115998 -0.13421007507225571 0 0.24375228786211539 -0.116580291014256 0 0.26776517015272971 -0.1222840496799191 0 0.24375228786211539 -0.116580291014256 0 0.26776517015272971 -0.1222840496799191 0 0.26047800574605201 -0.11084537767631369 0 0.24375228786211539 -0.116580291014256 0 0.27927949511770961 -0.070851454938488739 0 0.25811154610651499 -0.066123023671663908 0 0.26329678137076351 -0.053405898285071182 0 0.27927949511770961 -0.070851454938488739 0 0.25811154610651499 -0.066123023671663908 0 0.26883802324883782 -0.077063641498024305 0 0.27927949511770961 -0.070851454938488739 0 0.25811154610651499 -0.066123023671663908 0 0.26883802324883782 -0.077063641498024305 0 0.27927949511770961 -0.070851454938488739 0 0.27809334201771629 -0.079209584513290715 0 0.26883802324883782 -0.077063641498024305 0 0.27809334201771629 -0.079209584513290715 0 0.27734124638624891 -0.089737863242296378 0 0.26883802324883782 -0.077063641498024305 0 0.27734124638624891 -0.089737863242296378 0 0.25202197504294188 -0.078400955310045109 0 0.28691460331806928 -0.079185378374353493 0 0.27809334201771629 -0.079209584513290715 0 0.27734124638624891 -0.089737863242296378 0 0.27734124638624891 -0.089737863242296378 0 0.26256105175446781 -0.092679464148907056 0 0.25202197504294188 -0.078400955310045109 0 0.27734124638624891 -0.089737863242296378 0 0.25202197504294188 -0.078400955310045109 0 0.26256105175446781 -0.092679464148907056 0 0.25304747237378489 -0.090741332181114118 0 0.25202197504294188 -0.078400955310045109 0 0.25304747237378489 -0.090741332181114118 0 0.25202197504294188 -0.078400955310045109 0 0.24624903761231479 -0.086847438891893419 0 0.26883802324883782 -0.077063641498024305 0 0.25202197504294188 -0.078400955310045109 0 0.25811154610651499 -0.066123023671663908 0 0.25811154610651499 -0.066123023671663908 0 0.26329678137076351 -0.053405898285071182 0 0.24870160087168189 -0.052882304334001928 0 0.26329678137076351 -0.053405898285071182 0 0.24870160087168189 -0.052882304334001928 0 0.24731406762381819 -0.035960341631652723 0 0.27927949511770961 -0.070851454938488739 0 0.26329678137076351 -0.053405898285071182 0 0.27868582307562201 -0.055886184139343542 0 0.27927949511770961 -0.070851454938488739 0 0.26329678137076351 -0.053405898285071182 0 0.26329678137076351 -0.053405898285071182 0 0.27868582307562201 -0.055886184139343542 0 0.27337213238318842 -0.044040078526876879 0 0.27868582307562201 -0.055886184139343542 0 0.27337213238318842 -0.044040078526876879 0 0.28525528160713332 -0.050154543613187753 0 0.26329678137076351 -0.053405898285071182 0 0.27337213238318842 -0.044040078526876879 0 0.26311483972878968 -0.036713614733010089 0 0.27337213238318842 -0.044040078526876879 0 0.27217486102646721 -0.027861542379398439 0 0.28494473946257981 -0.034556038004921102 0 0.27337213238318842 -0.044040078526876879 0 0.26311483972878968 -0.036713614733010089 0 0.27217486102646721 -0.027861542379398439 0 0.27337213238318842 -0.044040078526876879 0 0.28525528160713332 -0.050154543613187753 0 0.28494473946257981 -0.034556038004921102 0 0.26311483972878968 -0.036713614733010089 0 0.25941635623971138 -0.02230021284205122 0 0.24731406762381819 -0.035960341631652723 0 0.26329678137076351 -0.053405898285071182 0 0.24731406762381819 -0.035960341631652723 0 0.26329678137076351 -0.053405898285071182 0 0.26311483972878968 -0.036713614733010089 0 0.24731406762381819 -0.035960341631652723 0 0.25941635623971138 -0.02230021284205122 0 0.24731406762381819 -0.035960341631652723 0 0.2482857443068576 -0.021714794414400052 0 0.25941635623971138 -0.02230021284205122 0 0.25508119948702751 -0.010083838205662381 0 0.2482857443068576 -0.021714794414400052 0 0.26311483972878968 -0.036713614733010089 0 0.25941635623971138 -0.02230021284205122 0 0.27217486102646721 -0.027861542379398439 0 0.2541426920980116 -0.0036136263454906951 0 0.25508119948702751 -0.010083838205662381 0 0.24138147174972829 -0.0061427828714447699 0 0.2541426920980116 -0.0036136263454906951 0 0.25508119948702751 -0.010083838205662381 0 0.26047117107291767 -0.0019720443344692288 0 0.25446675038947358 0.0029162606258486688 0 0.2541426920980116 -0.0036136263454906951 0 0.26047117107291767 -0.0019720443344692288 0 0.25941635623971138 -0.02230021284205122 0 0.25508119948702751 -0.010083838205662381 0 0.26474460583379889 -0.01023883548432745 0 0.25941635623971138 -0.02230021284205122 0 0.26474460583379889 -0.01023883548432745 0 0.27166734417845928 -0.01430021117376327 0 0.25508119948702751 -0.010083838205662381 0 0.26474460583379889 -0.01023883548432745 0 0.26047117107291767 -0.0019720443344692288 0 0.26474460583379889 -0.01023883548432745 0 0.26047117107291767 -0.0019720443344692288 0 0.27708695819087842 -0.0025378708656911609 0 0.26474460583379889 -0.01023883548432745 0 0.27166734417845928 -0.01430021117376327 0 0.27708695819087842 -0.0025378708656911609 0 0.27166734417845928 -0.01430021117376327 0 0.27708695819087842 -0.0025378708656911609 0 0.28469269166600031 -0.01545933141113482 0 0.27217486102646721 -0.027861542379398439 0 0.28469269166600031 -0.01545933141113482 0 0.28494473946257981 -0.034556038004921102 0 0.25941635623971138 -0.02230021284205122 0 0.27166734417845928 -0.01430021117376327 0 0.27217486102646721 -0.027861542379398439 0 0.27166734417845928 -0.01430021117376327 0 0.27217486102646721 -0.027861542379398439 0 0.28469269166600031 -0.01545933141113482 0 0.28469269166600031 -0.01545933141113482 0 0.29727596499766062 -0.023933315692393788 0 0.28494473946257981 -0.034556038004921102 0 0.30352242257352219 0.0039185454548519476 0 0.28469269166600031 -0.01545933141113482 0 0.29727596499766062 -0.023933315692393788 0 0.30352242257352219 0.0039185454548519476 0 0.27708695819087842 -0.0025378708656911609 0 0.28469269166600031 -0.01545933141113482 0 0.30352242257352219 0.0039185454548519476 0 0.32469666258817742 -0.019557632270551 0 0.29727596499766062 -0.023933315692393788 0 0.32469666258817742 -0.019557632270551 0 0.31326255248553708 -0.043768501277314603 0 0.29727596499766062 -0.023933315692393788 0 0.31326255248553708 -0.043768501277314603 0 0.29727596499766062 -0.023933315692393788 0 0.2968975050950291 -0.045887416406534938 0 0.31326255248553708 -0.043768501277314603 0 0.29727596499766062 -0.023933315692393788 0 0.31326255248553708 -0.043768501277314603 0 0.2968975050950291 -0.045887416406534938 0 0.31014365419524398 -0.06072536978512106 0 0.2968975050950291 -0.045887416406534938 0 0.31014365419524398 -0.06072536978512106 0 0.29222542489931519 -0.060978945333093171 0 0.2968975050950291 -0.045887416406534938 0 0.29222542489931519 -0.060978945333093171 0 0.28525528160713332 -0.050154543613187753 0 0.27868582307562201 -0.055886184139343542 0 0.29222542489931519 -0.060978945333093171 0 0.28525528160713332 -0.050154543613187753 0 0.2968975050950291 -0.045887416406534938 0 0.28525528160713332 -0.050154543613187753 0 0.28494473946257981 -0.034556038004921102 0 0.29727596499766062 -0.023933315692393788 0 0.2968975050950291 -0.045887416406534938 0 0.28494473946257981 -0.034556038004921102 0 0.29579617193404978 -0.19432558104056491 0 0.30588539897632072 -0.22256652654210629 0 0.2776594049058328 -0.2175861504380624 0 0.29579617193404978 -0.19432558104056491 0 0.2776594049058328 -0.2175861504380624 0 0.2764107852420567 -0.19644220614923899 0 0.29579617193404978 -0.19432558104056491 0 0.2764107852420567 -0.19644220614923899 0 0.2792899687438003 -0.18116405860585089 0 0.29579617193404978 -0.19432558104056491 0 0.31045946319455608 -0.20263901644370941 0 0.31057073564158039 -0.17760626025882659 0 0.29579617193404978 -0.19432558104056491 0 0.30588539897632072 -0.22256652654210629 0 0.31045946319455608 -0.20263901644370941 0 0.30588539897632072 -0.22256652654210629 0 0.32020032842118662 -0.2136972324735969 0 0.29579617193404978 -0.19432558104056491 0 0.31045946319455608 -0.20263901644370941 0 0.30588539897632072 -0.22256652654210629 0 0.29681701546221179 -0.23419681124085551 0 0.31597462601859122 -0.25080747204364812 0 0.30111904597271899 -0.2536098058489899 0 0.30588539897632072 -0.22256652654210629 0 0.29681701546221179 -0.23419681124085551 0 0.31597462601859122 -0.25080747204364812 0 0.30588539897632072 -0.22256652654210629 0 0.31597462601859122 -0.25080747204364812 0 0.29681701546221179 -0.23419681124085551 0 0.31597462601859122 -0.25080747204364812 0 0.29681701546221179 -0.23419681124085551 0 0.30111904597271899 -0.2536098058489899 0 0.28456511698073272 -0.25518130134833977 0 0.29681701546221179 -0.23419681124085551 0 0.27830026498091959 -0.23745462562099759 0 0.28456511698073272 -0.25518130134833977 0 0.30588539897632072 -0.22256652654210629 0 0.29681701546221179 -0.23419681124085551 0 0.2776594049058328 -0.2175861504380624 0 0.29681701546221179 -0.23419681124085551 0 0.27830026498091959 -0.23745462562099759 0 0.2776594049058328 -0.2175861504380624 0 0.29681701546221179 -0.23419681124085551 0 0.2776594049058328 -0.2175861504380624 0 0.26584409390649738 -0.23415831621220631 0 0.27830026498091959 -0.23745462562099759 0 0.2776594049058328 -0.2175861504380624 0 0.26584409390649738 -0.23415831621220631 0 0.25658827463044448 -0.2222138965281123 0 0.2776594049058328 -0.2175861504380624 0 0.27830026498091959 -0.23745462562099759 0 0.28456511698073272 -0.25518130134833977 0 0.26629969424128969 -0.25192769388052821 0 0.26584409390649738 -0.23415831621220631 0 0.27830026498091959 -0.23745462562099759 0 0.26629969424128969 -0.25192769388052821 0 0.26584409390649738 -0.23415831621220631 0 0.25037283077400019 -0.2416092145933311 0 0.26629969424128969 -0.25192769388052821 0 0.25037283077400019 -0.2416092145933311 0 0.25658827463044448 -0.2222138965281123 0 0.2446094219978813 -0.2276121794933563 0 0.26584409390649738 -0.23415831621220631 0 0.25037283077400019 -0.2416092145933311 0 0.25658827463044448 -0.2222138965281123 0 0.25658827463044448 -0.2222138965281123 0 0.2776594049058328 -0.2175861504380624 0 0.25850179434945381 -0.20097548963526929 0 0.25658827463044448 -0.2222138965281123 0 0.25850179434945381 -0.20097548963526929 0 0.23907695871134879 -0.21289681242661959 0 0.2776594049058328 -0.2175861504380624 0 0.25850179434945381 -0.20097548963526929 0 0.2776594049058328 -0.2175861504380624 0 0.2764107852420567 -0.19644220614923899 0 0.25850179434945381 -0.20097548963526929 0 0.2764107852420567 -0.19644220614923899 0 0.25850179434945381 -0.20097548963526929 0 0.26539786460737957 -0.18100391429238191 0 0.25850179434945381 -0.20097548963526929 0 0.26539786460737957 -0.18100391429238191 0 0.23934418379307471 -0.18436482883247621 0 0.26539786460737957 -0.18100391429238191 0 0.25449645062408999 -0.16331052089379791 0 0.23934418379307471 -0.18436482883247621 0 0.26539786460737957 -0.18100391429238191 0 0.25449645062408999 -0.16331052089379791 0 0.27043371620885309 -0.16438603764101259 0 0.25449645062408999 -0.16331052089379791 0 0.27043371620885309 -0.16438603764101259 0 0.2633734196266177 -0.15149826902969399 0 0.27043371620885309 -0.16438603764101259 0 0.2792899687438003 -0.18116405860585089 0 0.28570694489177878 -0.1660846355390232 0 0.27043371620885309 -0.16438603764101259 0 0.27930784456020519 -0.15183985913025491 0 0.28570694489177878 -0.1660846355390232 0 0.26539786460737957 -0.18100391429238191 0 0.27043371620885309 -0.16438603764101259 0 0.2792899687438003 -0.18116405860585089 0 0.2764107852420567 -0.19644220614923899 0 0.26539786460737957 -0.18100391429238191 0 0.2792899687438003 -0.18116405860585089 0 0.26153006621115998 -0.13421007507225571 0 0.24375228786211539 -0.116580291014256 0 0.24955680073527009 -0.143898101237383 0 0.26153006621115998 -0.13421007507225571 0 0.24375228786211539 -0.116580291014256 0 0.25449645062408999 -0.16331052089379791 0 0.2633734196266177 -0.15149826902969399 0 0.24955680073527009 -0.143898101237383 0 0.26153006621115998 -0.13421007507225571 0 0.2633734196266177 -0.15149826902969399 0 0.24955680073527009 -0.143898101237383 0 0.27043371620885309 -0.16438603764101259 0 0.2633734196266177 -0.15149826902969399 0 0.27930784456020519 -0.15183985913025491 0 0.27561771784950778 -0.13784369003748159 0 0.28570694489177878 -0.1660846355390232 0 0.26153006621115998 -0.13421007507225571 0 0.27930784456020519 -0.15183985913025491 0 0.27561771784950778 -0.13784369003748159 0 0.27930784456020519 -0.15183985913025491 0 0.27561771784950778 -0.13784369003748159 0 0.28570694489177878 -0.1660846355390232 0 0.26153006621115998 -0.13421007507225571 0 0.2633734196266177 -0.15149826902969399 0 0.27930784456020519 -0.15183985913025491 0 0.26153006621115998 -0.13421007507225571 0 0.27930784456020519 -0.15183985913025491 0 0.26776517015272971 -0.1222840496799191 0 0.27561771784950778 -0.13784369003748159 0 0.28721398294742878 -0.13035474923543569 0 0.26776517015272971 -0.1222840496799191 0 0.26153006621115998 -0.13421007507225571 0 0.27561771784950778 -0.13784369003748159 0 0.27561771784950778 -0.13784369003748159 0 0.28721398294742878 -0.13035474923543569 0 0.28891568690104508 -0.14625428249578579 0 0.28721398294742878 -0.13035474923543569 0 0.28891568690104508 -0.14625428249578579 0 0.29920842625061578 -0.1386190615635868 0 0.28891568690104508 -0.14625428249578579 0 0.29920842625061578 -0.1386190615635868 0 0.29789574789403661 -0.15876522012859751 0 0.27561771784950778 -0.13784369003748159 0 0.28891568690104508 -0.14625428249578579 0 0.28570694489177878 -0.1660846355390232 0 0.30985117626407932 -0.1486491484402036 0 0.29920842625061578 -0.1386190615635868 0 0.29789574789403661 -0.15876522012859751 0 0.30985117626407932 -0.1486491484402036 0 0.29789574789403661 -0.15876522012859751 0 0.3134799250960158 -0.16133035304856411 0 0.30985117626407932 -0.1486491484402036 0 0.29920842625061578 -0.1386190615635868 0 0.31980994510895661 -0.13408045692276491 0 0.3092169746865393 -0.1198258623704429 0 0.28721398294742878 -0.13035474923543569 0 0.29920842625061578 -0.1386190615635868 0 0.3092169746865393 -0.1198258623704429 0 0.29920842625061578 -0.1386190615635868 0 0.31980994510895661 -0.13408045692276491 0 0.29579617193404978 -0.19432558104056491 0 0.2792899687438003 -0.18116405860585089 0 0.28570694489177878 -0.1660846355390232 0 0.29579617193404978 -0.19432558104056491 0 0.28570694489177878 -0.1660846355390232 0 0.29579617193404978 -0.19432558104056491 0 0.28570694489177878 -0.1660846355390232 0 0.29784246694311001 -0.17248502473641619 0 0.28891568690104508 -0.14625428249578579 0 0.28570694489177878 -0.1660846355390232 0 0.29789574789403661 -0.15876522012859751 0 0.28570694489177878 -0.1660846355390232 0 0.29789574789403661 -0.15876522012859751 0 0.29784246694311001 -0.17248502473641619 0 0.29789574789403661 -0.15876522012859751 0 0.31057073564158039 -0.17760626025882659 0 0.3134799250960158 -0.16133035304856411 0 0.29789574789403661 -0.15876522012859751 0 0.31057073564158039 -0.17760626025882659 0 0.29784246694311001 -0.17248502473641619 0 0.29789574789403661 -0.15876522012859751 0 0.31057073564158039 -0.17760626025882659 0 0.29579617193404978 -0.19432558104056491 0 0.31057073564158039 -0.17760626025882659 0 0.29784246694311001 -0.17248502473641619 0 0.31057073564158039 -0.17760626025882659 0 0.33117051957001492 -0.16690810347740409 0 0.33960500058918919 -0.18923554211963439 0 0.31057073564158039 -0.17760626025882659 0 0.32324572338912438 -0.19644730038905581 0 0.3134799250960158 -0.16133035304856411 0 0.33117051957001492 -0.16690810347740409 0 0.32297156368297691 -0.15191279281852399 0 0.31057073564158039 -0.17760626025882659 0 0.3134799250960158 -0.16133035304856411 0 0.33117051957001492 -0.16690810347740409 0 0.33117051957001492 -0.16690810347740409 0 0.34312821131240068 -0.1490342399984359 0 0.35150112372442083 -0.17432517416681301 0 0.33117051957001492 -0.16690810347740409 0 0.35150112372442083 -0.17432517416681301 0 0.33960500058918919 -0.18923554211963439 0 0.33587402752894302 -0.122350175475488 0 0.3092169746865393 -0.1198258623704429 0 0.31980994510895661 -0.13408045692276491 0 0.30985117626407932 -0.1486491484402036 0 0.31980994510895661 -0.13408045692276491 0 0.32297156368297691 -0.15191279281852399 0 0.30985117626407932 -0.1486491484402036 0 0.3134799250960158 -0.16133035304856411 0 0.32297156368297691 -0.15191279281852399 0 0.33117051957001492 -0.16690810347740409 0 0.32297156368297691 -0.15191279281852399 0 0.34312821131240068 -0.1490342399984359 0 0.31980994510895661 -0.13408045692276491 0 0.32297156368297691 -0.15191279281852399 0 0.34312821131240068 -0.1490342399984359 0 0.33587402752894302 -0.122350175475488 0 0.31980994510895661 -0.13408045692276491 0 0.34312821131240068 -0.1490342399984359 0 0.36253108037134668 -0.1248744885805331 0 0.33587402752894302 -0.122350175475488 0 0.3555623608711499 -0.1359942506039106 0 0.33587402752894302 -0.122350175475488 0 0.34312821131240068 -0.1490342399984359 0 0.3555623608711499 -0.1359942506039106 0 0.34312821131240068 -0.1490342399984359 0 0.3555623608711499 -0.1359942506039106 0 0.36858459771950869 -0.15733985743645959 0 0.3555623608711499 -0.1359942506039106 0 0.36652086356581781 -0.12946943863695781 0 0.36858459771950869 -0.15733985743645959 0 0.36652086356581781 -0.12946943863695781 0 0.36858459771950869 -0.15733985743645959 0 0.36652086356581781 -0.12946943863695781 0 0.36858459771950869 -0.15733985743645959 0 0.3787995421462832 -0.1425544525875144 0 0.36652086356581781 -0.12946943863695781 0 0.37808333446084269 -0.1309391893982525 0 0.3787995421462832 -0.1425544525875144 0 0.36253108037134668 -0.1248744885805331 0 0.36652086356581781 -0.12946943863695781 0 0.37808333446084269 -0.1309391893982525 0 0.36253108037134668 -0.1248744885805331 0 0.3555623608711499 -0.1359942506039106 0 0.36652086356581781 -0.12946943863695781 0 0.35150112372442083 -0.17432517416681301 0 0.37064833187319962 -0.1852102762359614 0 0.35587008128221181 -0.19822302573298239 0 0.35150112372442083 -0.17432517416681301 0 0.35587008128221181 -0.19822302573298239 0 0.33960500058918919 -0.18923554211963439 0 0.34312821131240068 -0.1490342399984359 0 0.35150112372442083 -0.17432517416681301 0 0.36858459771950869 -0.15733985743645959 0 0.36858459771950869 -0.15733985743645959 0 0.37064833187319962 -0.1852102762359614 0 0.35150112372442083 -0.17432517416681301 0 0.36858459771950869 -0.15733985743645959 0 0.37064833187319962 -0.1852102762359614 0 0.36858459771950869 -0.15733985743645959 0 0.37064833187319962 -0.1852102762359614 0 0.3834788620725188 -0.17954848884060079 0 0.37064833187319962 -0.1852102762359614 0 0.37271206602689039 -0.21308069503546309 0 0.38139900114097952 -0.20469292352659629 0 0.37064833187319962 -0.1852102762359614 0 0.37271206602689039 -0.21308069503546309 0 0.37064833187319962 -0.1852102762359614 0 0.37271206602689039 -0.21308069503546309 0 0.35587008128221181 -0.19822302573298239 0 0.37271206602689039 -0.21308069503546309 0 0.35603419272415182 -0.2169366224123114 0 0.35587008128221181 -0.19822302573298239 0 0.35603419272415182 -0.2169366224123114 0 0.35587008128221181 -0.19822302573298239 0 0.33592071113666833 -0.21528834051928489 0 0.35587008128221181 -0.19822302573298239 0 0.33960500058918919 -0.18923554211963439 0 0.33592071113666833 -0.21528834051928489 0 0.33960500058918919 -0.18923554211963439 0 0.33592071113666833 -0.21528834051928489 0 0.32324572338912438 -0.19644730038905581 0 0.33592071113666833 -0.21528834051928489 0 0.32324572338912438 -0.19644730038905581 0 0.33592071113666833 -0.21528834051928489 0 0.32020032842118662 -0.2136972324735969 0 0.32324572338912438 -0.19644730038905581 0 0.31045946319455608 -0.20263901644370941 0 0.32020032842118662 -0.2136972324735969 0 0.32324572338912438 -0.19644730038905581 0 0.31057073564158039 -0.17760626025882659 0 0.33960500058918919 -0.18923554211963439 0 0.32324572338912438 -0.19644730038905581 0 0.31045946319455608 -0.20263901644370941 0 0.31057073564158039 -0.17760626025882659 0 0.32324572338912438 -0.19644730038905581 0 0.32549034540926353 -0.23154497847382799 0 0.33517615116993849 -0.24743488902137309 0 0.31597462601859122 -0.25080747204364812 0 0.30588539897632072 -0.22256652654210629 0 0.32549034540926353 -0.23154497847382799 0 0.31597462601859122 -0.25080747204364812 0 0.30588539897632072 -0.22256652654210629 0 0.32020032842118662 -0.2136972324735969 0 0.32549034540926353 -0.23154497847382799 0 0.33592071113666833 -0.21528834051928489 0 0.32020032842118662 -0.2136972324735969 0 0.32549034540926353 -0.23154497847382799 0 0.33592071113666833 -0.21528834051928489 0 0.32549034540926353 -0.23154497847382799 0 0.34859569888421221 -0.23412938064951411 0 0.33592071113666833 -0.21528834051928489 0 0.34859569888421221 -0.23412938064951411 0 0.32549034540926353 -0.23154497847382799 0 0.33517615116993849 -0.24743488902137309 0 0.34859569888421221 -0.23412938064951411 0 0.33517615116993849 -0.24743488902137309 0 0.34859569888421221 -0.23412938064951411 0 0.35185333732921159 -0.25428502110151557 0 0.34859569888421221 -0.23412938064951411 0 0.36075586336603621 -0.2426037127049111 0 0.35185333732921159 -0.25428502110151557 0 0.34859569888421221 -0.23412938064951411 0 0.36291464790978972 -0.22902601310760301 0 0.36075586336603621 -0.2426037127049111 0 0.35603419272415182 -0.2169366224123114 0 0.34859569888421221 -0.23412938064951411 0 0.36291464790978972 -0.22902601310760301 0 0.35603419272415182 -0.2169366224123114 0 0.33592071113666833 -0.21528834051928489 0 0.34859569888421221 -0.23412938064951411 0 0.37271206602689039 -0.21308069503546309 0 0.35603419272415182 -0.2169366224123114 0 0.36291464790978972 -0.22902601310760301 0 0.37271206602689039 -0.21308069503546309 0 0.37477580018058132 -0.24095111383496479 0 0.37555308153547928 -0.22286467051027881 0 0.37271206602689039 -0.21308069503546309 0 0.37477580018058132 -0.24095111383496479 0 0.37271206602689039 -0.21308069503546309 0 0.36291464790978972 -0.22902601310760301 0 0.37477580018058132 -0.24095111383496479 0 0.36075586336603621 -0.2426037127049111 0 0.37477580018058132 -0.24095111383496479 0 0.36563983252638571 -0.25462703483095822 0 0.36291464790978972 -0.22902601310760301 0 0.36075586336603621 -0.2426037127049111 0 0.37477580018058132 -0.24095111383496479 0 0.37477580018058132 -0.24095111383496479 0 0.39321551516580561 -0.23618023300957031 0 0.38725375881062551 -0.25185160038302579 0 0.39321551516580561 -0.23618023300957031 0 0.41087794879613182 -0.2494957955088617 0 0.40741230325918792 -0.23450562481703699 0 0.39321551516580561 -0.23618023300957031 0 0.41087794879613182 -0.2494957955088617 0 0.39321551516580561 -0.23618023300957031 0 0.38725375881062551 -0.25185160038302579 0 0.39640803358832022 -0.25154779433757402 0 0.39321551516580561 -0.23618023300957031 0 0.41087794879613182 -0.2494957955088617 0 0.39640803358832022 -0.25154779433757402 0 0.4055308246994358 -0.22407667781788709 0 0.39424069285124719 -0.22310079746779379 0 0.40434357831770951 -0.21487406561090469 0 0.4055308246994358 -0.22407667781788709 0 0.39424069285124719 -0.22310079746779379 0 0.40741230325918792 -0.23450562481703699 0 0.39321551516580561 -0.23618023300957031 0 0.39424069285124719 -0.22310079746779379 0 0.40741230325918792 -0.23450562481703699 0 0.37477580018058132 -0.24095111383496479 0 0.39321551516580561 -0.23618023300957031 0 0.37555308153547928 -0.22286467051027881 0 0.39424069285124719 -0.22310079746779379 0 0.37555308153547928 -0.22286467051027881 0 0.38300691860546521 -0.21527996176244341 0 0.39321551516580561 -0.23618023300957031 0 0.37555308153547928 -0.22286467051027881 0 0.39321551516580561 -0.23618023300957031 0 0.39424069285124719 -0.22310079746779379 0 0.37555308153547928 -0.22286467051027881 0 0.37271206602689039 -0.21308069503546309 0 0.37555308153547928 -0.22286467051027881 0 0.38300691860546521 -0.21527996176244341 0 0.37271206602689039 -0.21308069503546309 0 0.38139900114097952 -0.20469292352659629 0 0.38300691860546521 -0.21527996176244341 0 0.38139900114097952 -0.20469292352659629 0 0.39078770323730427 -0.19674260859680251 0 0.39112975147272949 -0.2126607222720846 0 0.38139900114097952 -0.20469292352659629 0 0.38300691860546521 -0.21527996176244341 0 0.39112975147272949 -0.2126607222720846 0 0.39424069285124719 -0.22310079746779379 0 0.38300691860546521 -0.21527996176244341 0 0.39112975147272949 -0.2126607222720846 0 0.37064833187319962 -0.1852102762359614 0 0.38139900114097952 -0.20469292352659629 0 0.39078770323730427 -0.19674260859680251 0 0.39078770323730427 -0.19674260859680251 0 0.40475141021500721 -0.1910589369573561 0 0.39510197637232292 -0.1839605883432579 0 0.39078770323730427 -0.19674260859680251 0 0.40426546228868082 -0.20108352786525729 0 0.397631623829106 -0.20634023108626229 0 0.39078770323730427 -0.19674260859680251 0 0.40426546228868082 -0.20108352786525729 0 0.40475141021500721 -0.1910589369573561 0 0.39078770323730427 -0.19674260859680251 0 0.39112975147272949 -0.2126607222720846 0 0.397631623829106 -0.20634023108626229 0 0.39112975147272949 -0.2126607222720846 0 0.397631623829106 -0.20634023108626229 0 0.40434357831770951 -0.21487406561090469 0 0.39424069285124719 -0.22310079746779379 0 0.39112975147272949 -0.2126607222720846 0 0.40434357831770951 -0.21487406561090469 0 0.40426546228868082 -0.20108352786525729 0 0.397631623829106 -0.20634023108626229 0 0.40434357831770951 -0.21487406561090469 0 0.40434357831770951 -0.21487406561090469 0 0.41713092845542321 -0.20900944133272009 0 0.41612672436959858 -0.22382622337581301 0 0.40426546228868082 -0.20108352786525729 0 0.40434357831770951 -0.21487406561090469 0 0.41713092845542321 -0.20900944133272009 0 0.41713092845542321 -0.20900944133272009 0 0.42330136258736267 -0.2174116668913772 0 0.41612672436959858 -0.22382622337581301 0 0.40475141021500721 -0.1910589369573561 0 0.41487892771890261 -0.19826025474908979 0 0.4146572714410397 -0.186958864794112 0 0.40426546228868082 -0.20108352786525729 0 0.41713092845542321 -0.20900944133272009 0 0.41487892771890261 -0.19826025474908979 0 0.40426546228868082 -0.20108352786525729 0 0.40475141021500721 -0.1910589369573561 0 0.41487892771890261 -0.19826025474908979 0 0.41713092845542321 -0.20900944133272009 0 0.41487892771890261 -0.19826025474908979 0 0.42701217502226602 -0.19751647228806199 0 0.41487892771890261 -0.19826025474908979 0 0.42053294087941678 -0.1923617771039739 0 0.42701217502226602 -0.19751647228806199 0 0.42053294087941678 -0.1923617771039739 0 0.4146572714410397 -0.186958864794112 0 0.42558338933545942 -0.1867115165846317 0 0.41487892771890261 -0.19826025474908979 0 0.42053294087941678 -0.1923617771039739 0 0.4146572714410397 -0.186958864794112 0 0.42701217502226602 -0.19751647228806199 0 0.43844209377108118 -0.18689286854296691 0 0.44355474576021348 -0.2050869029196882 0 0.42053294087941678 -0.1923617771039739 0 0.42701217502226602 -0.19751647228806199 0 0.42558338933545942 -0.1867115165846317 0 0.42701217502226602 -0.19751647228806199 0 0.42558338933545942 -0.1867115165846317 0 0.43844209377108118 -0.18689286854296691 0 0.42701217502226602 -0.19751647228806199 0 0.43006687167525981 -0.21185300334864521 0 0.44355474576021348 -0.2050869029196882 0 0.41713092845542321 -0.20900944133272009 0 0.42330136258736267 -0.2174116668913772 0 0.43006687167525981 -0.21185300334864521 0 0.42330136258736267 -0.2174116668913772 0 0.43006687167525981 -0.21185300334864521 0 0.42988092584916948 -0.2249579995083304 0 0.41713092845542321 -0.20900944133272009 0 0.42701217502226602 -0.19751647228806199 0 0.43006687167525981 -0.21185300334864521 0 0.43006687167525981 -0.21185300334864521 0 0.42988092584916948 -0.2249579995083304 0 0.44009267276725389 -0.2176624614444449 0 0.42330136258736267 -0.2174116668913772 0 0.42988092584916948 -0.2249579995083304 0 0.41612672436959858 -0.22382622337581301 0 0.42988092584916948 -0.2249579995083304 0 0.43458399188612801 -0.2397076170126072 0 0.42159465327244361 -0.23640953485310751 0 0.42988092584916948 -0.2249579995083304 0 0.42159465327244361 -0.23640953485310751 0 0.41612672436959858 -0.22382622337581301 0 0.42988092584916948 -0.2249579995083304 0 0.43458399188612801 -0.2397076170126072 0 0.44416109061426973 -0.22983272991065171 0 0.43458399188612801 -0.2397076170126072 0 0.42656562700980838 -0.24831468624349931 0 0.4372088962240912 -0.25169219704383999 0 0.43458399188612801 -0.2397076170126072 0 0.42656562700980838 -0.24831468624349931 0 0.42159465327244361 -0.23640953485310751 0 0.42656562700980838 -0.24831468624349931 0 0.42159465327244361 -0.23640953485310751 0 0.41087794879613182 -0.2494957955088617 0 0.42159465327244361 -0.23640953485310751 0 0.41087794879613182 -0.2494957955088617 0 0.40741230325918792 -0.23450562481703699 0 0.4055308246994358 -0.22407667781788709 0 0.40741230325918792 -0.23450562481703699 0 0.41612672436959858 -0.22382622337581301 0 0.4055308246994358 -0.22407667781788709 0 0.40434357831770951 -0.21487406561090469 0 0.41612672436959858 -0.22382622337581301 0 0.42159465327244361 -0.23640953485310751 0 0.40741230325918792 -0.23450562481703699 0 0.41612672436959858 -0.22382622337581301 0 0.39823574772599779 -0.11763079726210079 0 0.40257569972698831 -0.13396225485532559 0 0.38918813321375051 -0.12739880168557821 0 0.40257569972698831 -0.13396225485532559 0 0.38918813321375051 -0.12739880168557821 0 0.39017348084279901 -0.13955387731924049 0 0.38918813321375051 -0.12739880168557821 0 0.37808333446084269 -0.1309391893982525 0 0.39017348084279901 -0.13955387731924049 0 0.37720890243704291 -0.12310924361699779 0 0.36253108037134668 -0.1248744885805331 0 0.38918813321375051 -0.12739880168557821 0 0.36253108037134668 -0.1248744885805331 0 0.38918813321375051 -0.12739880168557821 0 0.37808333446084269 -0.1309391893982525 0 0.36253108037134668 -0.1248744885805331 0 0.38918813321375051 -0.12739880168557821 0 0.37808333446084269 -0.1309391893982525 0 0.39017348084279901 -0.13955387731924049 0 0.3787995421462832 -0.1425544525875144 0 0.36858459771950869 -0.15733985743645959 0 0.3787995421462832 -0.1425544525875144 0 0.38535727780346091 -0.1527557998392445 0 0.39017348084279901 -0.13955387731924049 0 0.3787995421462832 -0.1425544525875144 0 0.38535727780346091 -0.1527557998392445 0 0.40257569972698831 -0.13396225485532559 0 0.39822107621443897 -0.1501202070538992 0 0.41732028123257531 -0.14286435439753159 0 0.40257569972698831 -0.13396225485532559 0 0.39017348084279901 -0.13955387731924049 0 0.39822107621443897 -0.1501202070538992 0 0.39017348084279901 -0.13955387731924049 0 0.38535727780346091 -0.1527557998392445 0 0.39822107621443897 -0.1501202070538992 0 0.39822107621443897 -0.1501202070538992 0 0.39107178753907162 -0.16851380255406381 0 0.40713652226246821 -0.16744863749245631 0 0.39107178753907162 -0.16851380255406381 0 0.40713652226246821 -0.16744863749245631 0 0.38535727780346091 -0.1527557998392445 0 0.39822107621443897 -0.1501202070538992 0 0.39107178753907162 -0.16851380255406381 0 0.39107178753907162 -0.16851380255406381 0 0.40460499843718001 -0.17902112385493851 0 0.40713652226246821 -0.16744863749245631 0 0.36858459771950869 -0.15733985743645959 0 0.38535727780346091 -0.1527557998392445 0 0.39107178753907162 -0.16851380255406381 0 0.36858459771950869 -0.15733985743645959 0 0.39107178753907162 -0.16851380255406381 0 0.3834788620725188 -0.17954848884060079 0 0.39107178753907162 -0.16851380255406381 0 0.3834788620725188 -0.17954848884060079 0 0.39510197637232292 -0.1839605883432579 0 0.39078770323730427 -0.19674260859680251 0 0.3834788620725188 -0.17954848884060079 0 0.39510197637232292 -0.1839605883432579 0 0.37064833187319962 -0.1852102762359614 0 0.39078770323730427 -0.19674260859680251 0 0.3834788620725188 -0.17954848884060079 0 0.39107178753907162 -0.16851380255406381 0 0.39510197637232292 -0.1839605883432579 0 0.40460499843718001 -0.17902112385493851 0 0.40475141021500721 -0.1910589369573561 0 0.39510197637232292 -0.1839605883432579 0 0.40460499843718001 -0.17902112385493851 0 0.40475141021500721 -0.1910589369573561 0 0.40460499843718001 -0.17902112385493851 0 0.4146572714410397 -0.186958864794112 0 0.40460499843718001 -0.17902112385493851 0 0.41491102279317088 -0.17618591298838529 0 0.4146572714410397 -0.186958864794112 0 0.40460499843718001 -0.17902112385493851 0 0.41491102279317088 -0.17618591298838529 0 0.40713652226246821 -0.16744863749245631 0 0.41491102279317088 -0.17618591298838529 0 0.42527009306055918 -0.1746571334479238 0 0.4232012569858648 -0.16638347243084889 0 0.41491102279317088 -0.17618591298838529 0 0.42095079563492938 -0.18072636251124541 0 0.42527009306055918 -0.1746571334479238 0 0.41491102279317088 -0.17618591298838529 0 0.42095079563492938 -0.18072636251124541 0 0.4146572714410397 -0.186958864794112 0 0.42095079563492938 -0.18072636251124541 0 0.4146572714410397 -0.186958864794112 0 0.42558338933545942 -0.1867115165846317 0 0.43180268423531071 -0.1802632517690351 0 0.42527009306055918 -0.1746571334479238 0 0.44880083799057491 -0.164686103644653 0 0.42095079563492938 -0.18072636251124541 0 0.42558338933545942 -0.1867115165846317 0 0.43180268423531071 -0.1802632517690351 0 0.42558338933545942 -0.1867115165846317 0 0.43180268423531071 -0.1802632517690351 0 0.43844209377108118 -0.18689286854296691 0 0.42095079563492938 -0.18072636251124541 0 0.43180268423531071 -0.1802632517690351 0 0.42527009306055918 -0.1746571334479238 0 0.42527009306055918 -0.1746571334479238 0 0.4232012569858648 -0.16638347243084889 0 0.44880083799057491 -0.164686103644653 0 0.4232012569858648 -0.16638347243084889 0 0.43334283997313311 -0.15135273030925811 0 0.44880083799057491 -0.164686103644653 0 0.4232012569858648 -0.16638347243084889 0 0.44880083799057491 -0.164686103644653 0 0.42527009306055918 -0.1746571334479238 0 0.4232012569858648 -0.16638347243084889 0 0.4232012569858648 -0.16638347243084889 0 0.40713652226246821 -0.16744863749245631 0 0.41732028123257531 -0.14286435439753159 0 0.41491102279317088 -0.17618591298838529 0 0.4232012569858648 -0.16638347243084889 0 0.40713652226246821 -0.16744863749245631 0 0.4232012569858648 -0.16638347243084889 0 0.40713652226246821 -0.16744863749245631 0 0.4232012569858648 -0.16638347243084889 0 0.41732028123257531 -0.14286435439753159 0 0.39822107621443897 -0.1501202070538992 0 0.40713652226246821 -0.16744863749245631 0 0.41732028123257531 -0.14286435439753159 0 0.41732028123257531 -0.14286435439753159 0 0.43334283997313311 -0.15135273030925811 0 0.43763345530417341 -0.13584027725706749 0 0.4232012569858648 -0.16638347243084889 0 0.41732028123257531 -0.14286435439753159 0 0.43334283997313311 -0.15135273030925811 0 0.42916935431308728 -0.1205456085246996 0 0.41732028123257531 -0.14286435439753159 0 0.43763345530417341 -0.13584027725706749 0 0.42916935431308728 -0.1205456085246996 0 0.4435038969132965 -0.12540022695152131 0 0.43763345530417341 -0.13584027725706749 0 0.41143930547928681 -0.11934523636421419 0 0.42916935431308728 -0.1205456085246996 0 0.41732028123257531 -0.14286435439753159 0 0.41143930547928681 -0.11934523636421419 0 0.40257569972698831 -0.13396225485532559 0 0.41732028123257531 -0.14286435439753159 0 0.41143930547928681 -0.11934523636421419 0 0.41732028123257531 -0.14286435439753159 0 0.46257396642688631 -0.12529077885077469 0 0.46381730130484328 -0.1363472541609663 0 0.4585659370706795 -0.1308283620105129 0 0.46381730130484328 -0.1363472541609663 0 0.4585659370706795 -0.1308283620105129 0 0.45274550479158487 -0.1345999168850856 0 0.46381730130484328 -0.1363472541609663 0 0.45274550479158487 -0.1345999168850856 0 0.46138481906560302 -0.14686228775601681 0 0.46257396642688631 -0.12529077885077469 0 0.4585659370706795 -0.1308283620105129 0 0.45239247298790419 -0.125419693033265 0 0.4585659370706795 -0.1308283620105129 0 0.45239247298790419 -0.125419693033265 0 0.45274550479158487 -0.1345999168850856 0 0.45239247298790419 -0.125419693033265 0 0.4435038969132965 -0.12540022695152131 0 0.45274550479158487 -0.1345999168850856 0 0.4435038969132965 -0.12540022695152131 0 0.43763345530417341 -0.13584027725706749 0 0.45274550479158487 -0.1345999168850856 0 0.43763345530417341 -0.13584027725706749 0 0.45274550479158487 -0.1345999168850856 0 0.44678149142501389 -0.1466682631704162 0 0.43334283997313311 -0.15135273030925811 0 0.44678149142501389 -0.1466682631704162 0 0.44880083799057491 -0.164686103644653 0 0.44678149142501389 -0.1466682631704162 0 0.46138481906560302 -0.14686228775601681 0 0.44880083799057491 -0.164686103644653 0 0.43334283997313311 -0.15135273030925811 0 0.43763345530417341 -0.13584027725706749 0 0.44678149142501389 -0.1466682631704162 0 0.45274550479158487 -0.1345999168850856 0 0.44678149142501389 -0.1466682631704162 0 0.46138481906560302 -0.14686228775601681 0 0.46138481906560302 -0.14686228775601681 0 0.44880083799057491 -0.164686103644653 0 0.47440041899528501 -0.16298873485845719 0 0.44880083799057491 -0.164686103644653 0 0.46834799031954211 -0.17915452781490099 0 0.47440041899528501 -0.16298873485845719 0 0.44880083799057491 -0.164686103644653 0 0.47440041899528501 -0.16298873485845719 0 0.43180268423531071 -0.1802632517690351 0 0.44880083799057491 -0.164686103644653 0 0.43844209377108118 -0.18689286854296691 0 0.44880083799057491 -0.164686103644653 0 0.43844209377108118 -0.18689286854296691 0 0.45508032593701309 -0.1914137801830845 0 0.44880083799057491 -0.164686103644653 0 0.46834799031954211 -0.17915452781490099 0 0.45508032593701309 -0.1914137801830845 0 0.46834799031954211 -0.17915452781490099 0 0.48419704391512092 -0.17843144908975531 0 0.47440041899528501 -0.16298873485845719 0 0.46834799031954211 -0.17915452781490099 0 0.48419704391512092 -0.17843144908975531 0 0.47823681026078202 -0.19812675643970101 0 0.48419704391512092 -0.17843144908975531 0 0.49999999999999523 -0.16129136607226169 0 0.5 -0.1905958602634561 0 0.49999999999999523 -0.16129136607226169 0 0.47440041899528501 -0.16298873485845719 0 0.50000000000000067 -0.1547763741112759 0 0.48419704391512092 -0.17843144908975531 0 0.49999999999999523 -0.16129136607226169 0 0.47440041899528501 -0.16298873485845719 0 0.49999999999999523 -0.16129136607226169 0 0.47440041899528501 -0.16298873485845719 0 0.46138481906560302 -0.14686228775601681 0 0.47440041899528501 -0.16298873485845719 0 0.48128698321344371 -0.14003357648102521 0 0.46381730130484328 -0.1363472541609663 0 0.46138481906560302 -0.14686228775601681 0 0.48128698321344371 -0.14003357648102521 0 0.50000000000000067 -0.1547763741112759 0 0.48128698321344371 -0.14003357648102521 0 0.50000000000000067 -0.1547763741112759 0 0.5 -0.13349841451636779 0 0.48128698321344371 -0.14003357648102521 0 0.47440041899528501 -0.16298873485845719 0 0.50000000000000067 -0.1547763741112759 0 0.48128698321344371 -0.14003357648102521 0 0.48087269318342413 -0.1216818802472065 0 0.5 -0.13349841451636779 0 0.48128698321344371 -0.14003357648102521 0 0.46257396642688631 -0.12529077885077469 0 0.48128698321344371 -0.14003357648102521 0 0.46257396642688631 -0.12529077885077469 0 0.46381730130484328 -0.1363472541609663 0 0.48128698321344371 -0.14003357648102521 0 0.47129126618897188 -0.1223351355815797 0 0.48087269318342413 -0.1216818802472065 0 0.48128698321344371 -0.14003357648102521 0 0.47129126618897188 -0.1223351355815797 0 0.46257396642688631 -0.12529077885077469 0 0.48128698321344371 -0.14003357648102521 0 0.46029750420545162 -0.23134667767863379 0 0.45079963313025367 -0.219495204315066 0 0.46126535540865482 -0.21094244298034759 0 0.46029750420545162 -0.23134667767863379 0 0.46126535540865482 -0.21094244298034759 0 0.47937109712497578 -0.22608105856418539 0 0.46029750420545162 -0.23134667767863379 0 0.44856132313442931 -0.24393079079591279 0 0.47387431588802909 -0.25499376211151131 0 0.46029750420545162 -0.23134667767863379 0 0.44856132313442931 -0.24393079079591279 0 0.44416109061426973 -0.22983272991065171 0 0.43458399188612801 -0.2397076170126072 0 0.44856132313442931 -0.24393079079591279 0 0.4372088962240912 -0.25169219704383999 0 0.43458399188612801 -0.2397076170126072 0 0.44856132313442931 -0.24393079079591279 0 0.44416109061426973 -0.22983272991065171 0 0.46029750420545162 -0.23134667767863379 0 0.44416109061426973 -0.22983272991065171 0 0.45079963313025367 -0.219495204315066 0 0.44416109061426973 -0.22983272991065171 0 0.45079963313025367 -0.219495204315066 0 0.44009267276725389 -0.2176624614444449 0 0.42988092584916948 -0.2249579995083304 0 0.44416109061426973 -0.22983272991065171 0 0.44009267276725389 -0.2176624614444449 0 0.45079963313025367 -0.219495204315066 0 0.44355474576021348 -0.2050869029196882 0 0.46126535540865482 -0.21094244298034759 0 0.43006687167525981 -0.21185300334864521 0 0.44009267276725389 -0.2176624614444449 0 0.44355474576021348 -0.2050869029196882 0 0.45079963313025367 -0.219495204315066 0 0.44009267276725389 -0.2176624614444449 0 0.44355474576021348 -0.2050869029196882 0 0.43844209377108118 -0.18689286854296691 0 0.44355474576021348 -0.2050869029196882 0 0.45508032593701309 -0.1914137801830845 0 0.46834799031954211 -0.17915452781490099 0 0.45508032593701309 -0.1914137801830845 0 0.47823681026078202 -0.19812675643970101 0 0.44355474576021348 -0.2050869029196882 0 0.45508032593701309 -0.1914137801830845 0 0.46126535540865482 -0.21094244298034759 0 0.45508032593701309 -0.1914137801830845 0 0.46126535540865482 -0.21094244298034759 0 0.47823681026078202 -0.19812675643970101 0 0.46126535540865482 -0.21094244298034759 0 0.47823681026078202 -0.19812675643970101 0 0.47937109712497578 -0.22608105856418539 0 0.48419704391512092 -0.17843144908975531 0 0.47823681026078202 -0.19812675643970101 0 0.5 -0.1905958602634561 0 0.47823681026078202 -0.19812675643970101 0 0.5 -0.1905958602634561 0 0.5 -0.21990035445465039 0 0.47823681026078202 -0.19812675643970101 0 0.5 -0.21990035445465039 0 0.47937109712497578 -0.22608105856418539 0 0.5 -0.21990035445465039 0 0.47937109712497578 -0.22608105856418539 0 0.50000000000000444 -0.24920484864584491 0 0.46029750420545162 -0.23134667767863379 0 0.47937109712497578 -0.22608105856418539 0 0.47387431588802909 -0.25499376211151131 0 0.47937109712497578 -0.22608105856418539 0 0.50000000000000444 -0.24920484864584491 0 0.47387431588802909 -0.25499376211151131 0 0.50000000000000444 -0.24920484864584491 0 0.4915669900217115 -0.25615479242606781 0 0.5 -0.27170772691138367 0 0.50000000000000444 -0.24920484864584491 0 0.4915669900217115 -0.25615479242606781 0 0.47387431588802909 -0.25499376211151131 0 0.50000000000000444 -0.24920484864584491 0 0.47387431588802909 -0.25499376211151131 0 0.4915669900217115 -0.25615479242606781 0 0.48280749151585822 -0.27129304150170008 0 0.47954864786353962 -0.26301133191085868 0 0.4915669900217115 -0.25615479242606781 0 0.5 -0.27170772691138367 0 0.48280749151585822 -0.27129304150170008 0 0.5 -0.27170772691138367 0 0.48280749151585822 -0.27129304150170008 0 0.48951500520952212 -0.28458010338455908 0 0.48280749151585822 -0.27129304150170008 0 0.47474596181800061 -0.28621450290334632 0 0.48951500520952212 -0.28458010338455908 0 0.48280749151585822 -0.27129304150170008 0 0.47416229901770612 -0.26612875971404459 0 0.47954864786353962 -0.26301133191085868 0 0.48280749151585822 -0.27129304150170008 0 0.47416229901770612 -0.26612875971404459 0 0.47052118473631321 -0.27447720361836658 0 0.47416229901770612 -0.26612875971404459 0 0.47052118473631321 -0.27447720361836658 0 0.46319689217890331 -0.26835660325056299 0 0.48280749151585822 -0.27129304150170008 0 0.47052118473631321 -0.27447720361836658 0 0.47474596181800061 -0.28621450290334632 0 0.4915669900217115 -0.25615479242606781 0 0.46965781089888248 -0.25846873400162218 0 0.4915669900217115 -0.25615479242606781 0 0.47387431588802909 -0.25499376211151131 0 0.46965781089888248 -0.25846873400162218 0 0.4915669900217115 -0.25615479242606781 0 0.47954864786353962 -0.26301133191085868 0 0.46965781089888248 -0.25846873400162218 0 0.47416229901770612 -0.26612875971404459 0 0.47954864786353962 -0.26301133191085868 0 0.46965781089888248 -0.25846873400162218 0 0.47416229901770612 -0.26612875971404459 0 0.46965781089888248 -0.25846873400162218 0 0.46319689217890331 -0.26835660325056299 0 0.46965781089888248 -0.25846873400162218 0 0.46319689217890331 -0.26835660325056299 0 0.4477486317760534 -0.26078267557717671 0 0.44856132313442931 -0.24393079079591279 0 0.47387431588802909 -0.25499376211151131 0 0.4477486317760534 -0.26078267557717671 0 0.47387431588802909 -0.25499376211151131 0 0.4477486317760534 -0.26078267557717671 0 0.46965781089888248 -0.25846873400162218 0 0.4477486317760534 -0.26078267557717671 0 0.47387431588802909 -0.25499376211151131 0 0.46965781089888248 -0.25846873400162218 0 0.4477486317760534 -0.26078267557717671 0 0.47052118473631321 -0.27447720361836658 0 0.45389453446556111 -0.28192564334160541 0 0.47474596181800061 -0.28621450290334632 0 0.47052118473631321 -0.27447720361836658 0 0.46319689217890331 -0.26835660325056299 0 0.45389453446556111 -0.28192564334160541 0 0.46319689217890331 -0.26835660325056299 0 0.4477486317760534 -0.26078267557717671 0 0.45389453446556111 -0.28192564334160541 0 0.45389453446556111 -0.28192564334160541 0 0.430823863629894 -0.26453285558412298 0 0.45389453446556111 -0.28192564334160541 0 0.430823863629894 -0.26453285558412298 0 0.43570592202634773 -0.28205449164250063 0 0.4477486317760534 -0.26078267557717671 0 0.45389453446556111 -0.28192564334160541 0 0.430823863629894 -0.26453285558412298 0 0.4477486317760534 -0.26078267557717671 0 0.42854038242645709 -0.26281135800815408 0 0.44856132313442931 -0.24393079079591279 0 0.4477486317760534 -0.26078267557717671 0 0.4372088962240912 -0.25169219704383999 0 0.4477486317760534 -0.26078267557717671 0 0.42854038242645709 -0.26281135800815408 0 0.4372088962240912 -0.25169219704383999 0 0.4477486317760534 -0.26078267557717671 0 0.430823863629894 -0.26453285558412298 0 0.44815314542162782 -0.30273998798419938 0 0.44271266904340639 -0.31513600928105973 0 0.43092107089682352 -0.30573631325696571 0 0.44815314542162782 -0.30273998798419938 0 0.43874415768382158 -0.29310671547163403 0 0.43092107089682352 -0.30573631325696571 0 0.43874415768382158 -0.29310671547163403 0 0.45389453446556111 -0.28192564334160541 0 0.43570592202634773 -0.28205449164250063 0 0.44815314542162782 -0.30273998798419938 0 0.43874415768382158 -0.29310671547163403 0 0.45389453446556111 -0.28192564334160541 0 0.45389453446556111 -0.28192564334160541 0 0.46668010371271101 -0.29937682325086112 0 0.47474596181800061 -0.28621450290334632 0 0.44815314542162782 -0.30273998798419938 0 0.45389453446556111 -0.28192564334160541 0 0.46668010371271101 -0.29937682325086112 0 0.46668010371271101 -0.29937682325086112 0 0.45907432653114449 -0.32014896664993769 0 0.44815314542162782 -0.30273998798419938 0 0.46668010371271101 -0.29937682325086112 0 0.45907432653114449 -0.32014896664993769 0 0.46668010371271101 -0.29937682325086112 0 0.48375110351916628 -0.30725513966339157 0 0.45907432653114449 -0.32014896664993769 0 0.46668010371271101 -0.29937682325086112 0 0.48375110351916628 -0.30725513966339157 0 0.47474596181800061 -0.28621450290334632 0 0.48375110351916628 -0.30725513966339157 0 0.47474596181800061 -0.28621450290334632 0 0.48951500520952212 -0.28458010338455908 0 0.48375110351916628 -0.30725513966339157 0 0.5 -0.29421060517692271 0 0.48951500520952212 -0.28458010338455908 0 0.5 -0.27170772691138367 0 0.5 -0.29421060517692271 0 0.48951500520952212 -0.28458010338455908 0 0.48375110351916628 -0.30725513966339157 0 0.5 -0.29421060517692271 0 0.49999999999999972 -0.31671348344246159 0 0.48375110351916628 -0.30725513966339157 0 0.49999999999999972 -0.31671348344246159 0 0.48658745812515303 -0.32591538654610069 0 0.49999999999999972 -0.31671348344246159 0 0.49107839048707969 -0.33844651150006611 0 0.49999999999999972 -0.31671348344246159 0 0.48658745812515303 -0.32591538654610069 0 0.49107839048707969 -0.33844651150006611 0 0.49999999999999972 -0.31671348344246159 0 0.5 -0.34354646621870782 0 0.49107839048707969 -0.33844651150006611 0 0.48658745812515303 -0.32591538654610069 0 0.49107839048707969 -0.33844651150006611 0 0.48013111160135669 -0.33592777501669763 0 0.48658745812515303 -0.32591538654610069 0 0.48013111160135669 -0.33592777501669763 0 0.47588582758327369 -0.32632043512378739 0 0.48013111160135669 -0.33592777501669763 0 0.46883970942210401 -0.33989811375075968 0 0.47588582758327369 -0.32632043512378739 0 0.48375110351916628 -0.30725513966339157 0 0.48658745812515303 -0.32591538654610069 0 0.47588582758327369 -0.32632043512378739 0 0.48375110351916628 -0.30725513966339157 0 0.47588582758327369 -0.32632043512378739 0 0.45907432653114449 -0.32014896664993769 0 0.5 -0.37037944899495368 0 0.48466784746851571 -0.3739080713738358 0 0.48215678097416009 -0.36017953955767068 0 0.5 -0.34354646621870782 0 0.49107839048707969 -0.33844651150006611 0 0.48215678097416009 -0.36017953955767068 0 0.49107839048707969 -0.33844651150006611 0 0.48013111160135669 -0.33592777501669763 0 0.48215678097416009 -0.36017953955767068 0 0.5 -0.34354646621870782 0 0.5 -0.37037944899495368 0 0.48215678097416009 -0.36017953955767068 0 0.49107839048707969 -0.33844651150006611 0 0.48215678097416009 -0.36017953955767068 0 0.48013111160135669 -0.33592777501669763 0 0.46883970942210401 -0.33989811375075968 0 0.48215678097416009 -0.36017953955767068 0 0.46883970942210401 -0.33989811375075968 0 0.48215678097416009 -0.36017953955767068 0 0.46166172922915721 -0.35810144835948332 0 0.48215678097416009 -0.36017953955767068 0 0.47323517146124039 -0.38191256761527542 0 0.48215678097416009 -0.36017953955767068 0 0.4671179630262795 -0.37324494563770522 0 0.47323517146124039 -0.38191256761527542 0 0.48466784746851571 -0.3739080713738358 0 0.48215678097416009 -0.36017953955767068 0 0.47323517146124039 -0.38191256761527542 0 0.48215678097416009 -0.36017953955767068 0 0.4671179630262795 -0.37324494563770522 0 0.46166172922915721 -0.35810144835948332 0 0.45652460043480969 -0.37267172771365881 0 0.46166172922915721 -0.35810144835948332 0 0.44386277216801179 -0.36169325344809122 0 0.45652460043480969 -0.37267172771365881 0 0.4671179630262795 -0.37324494563770522 0 0.46166172922915721 -0.35810144835948332 0 0.46883970942210401 -0.33989811375075968 0 0.46166172922915721 -0.35810144835948332 0 0.45146854934957792 -0.34092111004901438 0 0.43963091224731599 -0.34751792105314822 0 0.44386277216801179 -0.36169325344809122 0 0.45146854934957792 -0.34092111004901438 0 0.44386277216801179 -0.36169325344809122 0 0.45146854934957792 -0.34092111004901438 0 0.46166172922915721 -0.35810144835948332 0 0.44386277216801179 -0.36169325344809122 0 0.45146854934957792 -0.34092111004901438 0 0.44386277216801179 -0.36169325344809122 0 0.43376943787959182 -0.36708850497004442 0 0.43808065797110041 -0.37748478958974491 0 0.45652460043480969 -0.37267172771365881 0 0.44386277216801179 -0.36169325344809122 0 0.44783900322824399 -0.38008781189722518 0 0.44386277216801179 -0.36169325344809122 0 0.43808065797110041 -0.37748478958974491 0 0.44386277216801179 -0.36169325344809122 0 0.43808065797110041 -0.37748478958974491 0 0.44783900322824399 -0.38008781189722518 0 0.45652460043480969 -0.37267172771365881 0 0.44386277216801179 -0.36169325344809122 0 0.46883970942210401 -0.33989811375075968 0 0.45907432653114449 -0.32014896664993769 0 0.45146854934957792 -0.34092111004901438 0 0.45907432653114449 -0.32014896664993769 0 0.45146854934957792 -0.34092111004901438 0 0.46883970942210401 -0.33989811375075968 0 0.47588582758327369 -0.32632043512378739 0 0.45907432653114449 -0.32014896664993769 0 0.43963091224731599 -0.34751792105314822 0 0.45146854934957792 -0.34092111004901438 0 0.43565299676263758 -0.3352386806192425 0 0.45146854934957792 -0.34092111004901438 0 0.44493724809618768 -0.32603283426431229 0 0.43565299676263758 -0.3352386806192425 0 0.45907432653114449 -0.32014896664993769 0 0.45146854934957792 -0.34092111004901438 0 0.44493724809618768 -0.32603283426431229 0 0.45907432653114449 -0.32014896664993769 0 0.44493724809618768 -0.32603283426431229 0 0.44271266904340639 -0.31513600928105973 0 0.44493724809618768 -0.32603283426431229 0 0.44271266904340639 -0.31513600928105973 0 0.43047755427124879 -0.32102194424988317 0 0.44815314542162782 -0.30273998798419938 0 0.45907432653114449 -0.32014896664993769 0 0.44271266904340639 -0.31513600928105973 0 0.44271266904340639 -0.31513600928105973 0 0.43047755427124879 -0.32102194424988317 0 0.43092107089682352 -0.30573631325696571 0 0.43047755427124879 -0.32102194424988317 0 0.41919911313656122 -0.31385112706466711 0 0.41739686236043672 -0.32199345155319897 0 0.43047755427124879 -0.32102194424988317 0 0.41919911313656122 -0.31385112706466711 0 0.43092107089682352 -0.30573631325696571 0 0.43047755427124879 -0.32102194424988317 0 0.42053718701310799 -0.32957674384091618 0 0.41739686236043672 -0.32199345155319897 0 0.44493724809618768 -0.32603283426431229 0 0.43047755427124879 -0.32102194424988317 0 0.43565299676263758 -0.3352386806192425 0 0.43565299676263758 -0.3352386806192425 0 0.42053718701310799 -0.32957674384091618 0 0.4250793590774925 -0.34540704162396091 0 0.43963091224731599 -0.34751792105314822 0 0.43565299676263758 -0.3352386806192425 0 0.4250793590774925 -0.34540704162396091 0 0.43047755427124879 -0.32102194424988317 0 0.43565299676263758 -0.3352386806192425 0 0.42053718701310799 -0.32957674384091618 0 0.4062959459869725 -0.32912082979983148 0 0.4250793590774925 -0.34540704162396091 0 0.41055923831377589 -0.34398547157316572 0 0.42053718701310799 -0.32957674384091618 0 0.4062959459869725 -0.32912082979983148 0 0.4250793590774925 -0.34540704162396091 0 0.4062959459869725 -0.32912082979983148 0 0.4250793590774925 -0.34540704162396091 0 0.42053718701310799 -0.32957674384091618 0 0.4062959459869725 -0.32912082979983148 0 0.40802480504278882 -0.32457497099322458 0 0.4062959459869725 -0.32912082979983148 0 0.40802480504278882 -0.32457497099322458 0 0.4062959459869725 -0.32912082979983148 0 0.40802480504278882 -0.32457497099322458 0 0.40572459905769331 -0.31910551143285631 0 0.40802480504278882 -0.32457497099322458 0 0.4119015194344513 -0.31818912214386269 0 0.41739686236043672 -0.32199345155319897 0 0.40802480504278882 -0.32457497099322458 0 0.4119015194344513 -0.31818912214386269 0 0.40572459905769331 -0.31910551143285631 0 0.4119015194344513 -0.31818912214386269 0 0.41919911313656122 -0.31385112706466711 0 0.40916221757477672 -0.31142054967536659 0 0.4119015194344513 -0.31818912214386269 0 0.40572459905769331 -0.31910551143285631 0 0.40916221757477672 -0.31142054967536659 0 0.4119015194344513 -0.31818912214386269 0 0.41919911313656122 -0.31385112706466711 0 0.41739686236043672 -0.32199345155319897 0 0.42053718701310799 -0.32957674384091618 0 0.40802480504278882 -0.32457497099322458 0 0.41739686236043672 -0.32199345155319897 0 0.44386277216801179 -0.36169325344809122 0 0.43376943787959182 -0.36708850497004442 0 0.42728564025893462 -0.35958684797927032 0 0.42489657602010461 -0.37065940299189432 0 0.43376943787959182 -0.36708850497004442 0 0.43808065797110041 -0.37748478958974491 0 0.42489657602010461 -0.37065940299189432 0 0.43376943787959182 -0.36708850497004442 0 0.42728564025893462 -0.35958684797927032 0 0.44386277216801179 -0.36169325344809122 0 0.4250793590774925 -0.34540704162396091 0 0.43963091224731599 -0.34751792105314822 0 0.44386277216801179 -0.36169325344809122 0 0.4250793590774925 -0.34540704162396091 0 0.44386277216801179 -0.36169325344809122 0 0.42728564025893462 -0.35958684797927032 0 0.4250793590774925 -0.34540704162396091 0 0.42728564025893462 -0.35958684797927032 0 0.4250793590774925 -0.34540704162396091 0 0.41069622259092692 -0.35617360609135817 0 0.4250793590774925 -0.34540704162396091 0 0.41055923831377589 -0.34398547157316572 0 0.41069622259092692 -0.35617360609135817 0 0.41055923831377589 -0.34398547157316572 0 0.41069622259092692 -0.35617360609135817 0 0.40016542559971202 -0.34524040877751239 0 0.42489657602010461 -0.37065940299189432 0 0.42728564025893462 -0.35958684797927032 0 0.41069622259092692 -0.35617360609135817 0 0.42489657602010461 -0.37065940299189432 0 0.41069622259092692 -0.35617360609135817 0 0.4070765621089808 -0.37107032214525337 0 0.42489657602010461 -0.37065940299189432 0 0.41069622259092692 -0.35617360609135817 0 0.39585190457779329 -0.37201308858561799 0 0.3940349052124521 -0.36135998775519362 0 0.38601585554704992 -0.38244526212700758 0 0.41069622259092692 -0.35617360609135817 0 0.4070765621089808 -0.37107032214525337 0 0.3940349052124521 -0.36135998775519362 0 0.4070765621089808 -0.37107032214525337 0 0.39585190457779329 -0.37201308858561799 0 0.3940349052124521 -0.36135998775519362 0 0.39585190457779329 -0.37201308858561799 0 0.3940349052124521 -0.36135998775519362 0 0.3940349052124521 -0.36135998775519362 0 0.40016542559971202 -0.34524040877751239 0 0.38974443050024338 -0.33620485529262373 0 0.3940349052124521 -0.36135998775519362 0 0.38974443050024338 -0.33620485529262373 0 0.3940349052124521 -0.36135998775519362 0 0.40016542559971202 -0.34524040877751239 0 0.41069622259092692 -0.35617360609135817 0 0.3940349052124521 -0.36135998775519362 0 0.40016542559971202 -0.34524040877751239 0 0.3940349052124521 -0.36135998775519362 0 0.38974443050024338 -0.33620485529262373 0 0.37368731816096312 -0.34897020548070451 0 0.3940349052124521 -0.36135998775519362 0 0.38601585554704992 -0.38244526212700758 0 0.3940349052124521 -0.36135998775519362 0 0.38601585554704992 -0.38244526212700758 0 0.3689120952668708 -0.37284951495870189 0 0.3940349052124521 -0.36135998775519362 0 0.3689120952668708 -0.37284951495870189 0 0.37368731816096312 -0.34897020548070451 0 0.4062959459869725 -0.32912082979983148 0 0.40572459905769331 -0.31910551143285631 0 0.39816778062817881 -0.31191488097197773 0 0.4062959459869725 -0.32912082979983148 0 0.38974443050024338 -0.33620485529262373 0 0.38545395578803499 -0.31104972283005378 0 0.4062959459869725 -0.32912082979983148 0 0.38545395578803499 -0.31104972283005378 0 0.4062959459869725 -0.32912082979983148 0 0.38545395578803499 -0.31104972283005378 0 0.39816778062817881 -0.31191488097197773 0 0.40572459905769331 -0.31910551143285631 0 0.39816778062817881 -0.31191488097197773 0 0.40916221757477672 -0.31142054967536659 0 0.4062959459869725 -0.32912082979983148 0 0.40016542559971202 -0.34524040877751239 0 0.38974443050024338 -0.33620485529262373 0 0.4062959459869725 -0.32912082979983148 0 0.40016542559971202 -0.34524040877751239 0 0.4062959459869725 -0.32912082979983148 0 0.41055923831377589 -0.34398547157316572 0 0.40016542559971202 -0.34524040877751239 0 0.38974443050024338 -0.33620485529262373 0 0.36945761595668469 -0.32738841673247931 0 0.37368731816096312 -0.34897020548070451 0 0.38974443050024338 -0.33620485529262373 0 0.38545395578803499 -0.31104972283005378 0 0.36945761595668469 -0.32738841673247931 0 0.38974443050024338 -0.33620485529262373 0 0.38545395578803499 -0.31104972283005378 0 0.38545395578803499 -0.31104972283005378 0 0.38245755150739558 -0.29348174920317632 0 0.37101427446782781 -0.29852975601036341 0 0.38545395578803499 -0.31104972283005378 0 0.38245755150739558 -0.29348174920317632 0 0.38545395578803499 -0.31104972283005378 0 0.37101427446782781 -0.29852975601036341 0 0.38545395578803499 -0.31104972283005378 0 0.39567659353887108 -0.29306988619604551 0 0.38245755150739558 -0.29348174920317632 0 0.39816778062817881 -0.31191488097197773 0 0.40563314249086863 -0.30155395497769039 0 0.39567659353887108 -0.29306988619604551 0 0.38545395578803499 -0.31104972283005378 0 0.39816778062817881 -0.31191488097197773 0 0.39567659353887108 -0.29306988619604551 0 0.39816778062817881 -0.31191488097197773 0 0.40563314249086863 -0.30155395497769039 0 0.40916221757477672 -0.31142054967536659 0 0.39567659353887108 -0.29306988619604551 0 0.40514250542832608 -0.27022331558021301 0 0.41160024963212011 -0.28933460066763711 0 0.40563314249086863 -0.30155395497769039 0 0.39567659353887108 -0.29306988619604551 0 0.41160024963212011 -0.28933460066763711 0 0.38245755150739558 -0.29348174920317632 0 0.37946114722675722 -0.27591377557629859 0 0.39567659353887108 -0.29306988619604551 0 0.38245755150739558 -0.29348174920317632 0 0.37946114722675722 -0.27591377557629859 0 0.38245755150739558 -0.29348174920317632 0 0.37795999762798671 -0.28395322059410122 0 0.37946114722675722 -0.27591377557629859 0 0.37519981906117678 -0.29055939022370142 0 0.38245755150739558 -0.29348174920317632 0 0.37101427446782781 -0.29852975601036341 0 0.37519981906117678 -0.29055939022370142 0 0.38245755150739558 -0.29348174920317632 0 0.37795999762798671 -0.28395322059410122 0 0.37795999762798671 -0.28395322059410122 0 0.37946114722675722 -0.27591377557629859 0 0.37739853904771847 -0.27637080706343392 0 0.37739853904771847 -0.27637080706343392 0 0.37683953433427181 -0.26882153263446662 0 0.37273728942595791 -0.27740364396778311 0 0.37795999762798671 -0.28395322059410122 0 0.37739853904771847 -0.27637080706343392 0 0.37273728942595791 -0.27740364396778311 0 0.37946114722675722 -0.27591377557629859 0 0.38774772661347989 -0.26664574742688191 0 0.3964002279028962 -0.26984905957103239 0 0.37946114722675722 -0.27591377557629859 0 0.3964002279028962 -0.26984905957103239 0 0.37795999762798671 -0.28395322059410122 0 0.37739853904771847 -0.27637080706343392 0 0.37739853904771847 -0.27637080706343392 0 0.37273728942595791 -0.27740364396778311 0 0.37946114722675722 -0.27591377557629859 0 0.37739853904771847 -0.27637080706343392 0 0.37683953433427181 -0.26882153263446662 0 0.37946114722675722 -0.27591377557629859 0 0.37739853904771847 -0.27637080706343392 0 0.37946114722675722 -0.27591377557629859 0 0.37843581040967561 -0.26746760801825881 0 0.38284686623937531 -0.26497045393317709 0 0.37946114722675722 -0.27591377557629859 0 0.37683953433427181 -0.26882153263446662 0 0.37843581040967561 -0.26746760801825881 0 0.37739853904771847 -0.27637080706343392 0 0.37683953433427181 -0.26882153263446662 0 0.37683953433427181 -0.26882153263446662 0 0.37843581040967561 -0.26746760801825881 0 0.37946114722675722 -0.27591377557629859 0 0.38774772661347989 -0.26664574742688191 0 0.38284686623937531 -0.26497045393317709 0 0.37477580018058132 -0.24095111383496479 0 0.37683953433427181 -0.26882153263446662 0 0.38107906364546162 -0.25934379353391329 0 0.37477580018058132 -0.24095111383496479 0 0.37683953433427181 -0.26882153263446662 0 0.37477580018058132 -0.24095111383496479 0 0.38107906364546162 -0.25934379353391329 0 0.38725375881062551 -0.25185160038302579 0 0.37843581040967561 -0.26746760801825881 0 0.38107906364546162 -0.25934379353391329 0 0.38284686623937531 -0.26497045393317709 0 0.37683953433427181 -0.26882153263446662 0 0.37843581040967561 -0.26746760801825881 0 0.38107906364546162 -0.25934379353391329 0 0.38107906364546162 -0.25934379353391329 0 0.38632261189823958 -0.26200045239958702 0 0.38284686623937531 -0.26497045393317709 0 0.38774772661347989 -0.26664574742688191 0 0.38632261189823958 -0.26200045239958702 0 0.38284686623937531 -0.26497045393317709 0 0.38774772661347989 -0.26664574742688191 0 0.38955528694719099 -0.2630172622662057 0 0.39295554709344072 -0.26445586107842978 0 0.38774772661347989 -0.26664574742688191 0 0.38632261189823958 -0.26200045239958702 0 0.38955528694719099 -0.2630172622662057 0 0.38632261189823958 -0.26200045239958702 0 0.38955528694719099 -0.2630172622662057 0 0.39119526218360401 -0.25896698815992442 0 0.38632261189823958 -0.26200045239958702 0 0.38725375881062551 -0.25185160038302579 0 0.39119526218360401 -0.25896698815992442 0 0.38107906364546162 -0.25934379353391329 0 0.38632261189823958 -0.26200045239958702 0 0.38725375881062551 -0.25185160038302579 0 0.40314688718896508 -0.2619981766022052 0 0.39707581272688741 -0.26613449373937459 0 0.41345304600685079 -0.26440480953867462 0 0.39707581272688741 -0.26613449373937459 0 0.41345304600685079 -0.26440480953867462 0 0.38725375881062551 -0.25185160038302579 0 0.39640803358832022 -0.25154779433757402 0 0.39119526218360401 -0.25896698815992442 0 0.39640803358832022 -0.25154779433757402 0 0.39702034872720737 -0.26014738253762237 0 0.39119526218360401 -0.25896698815992442 0 0.39702034872720737 -0.26014738253762237 0 0.39119526218360401 -0.25896698815992442 0 0.39295554709344072 -0.26445586107842978 0 0.38955528694719099 -0.2630172622662057 0 0.39119526218360401 -0.25896698815992442 0 0.39295554709344072 -0.26445586107842978 0 0.39702034872720737 -0.26014738253762237 0 0.39295554709344072 -0.26445586107842978 0 0.39707581272688741 -0.26613449373937459 0 0.39702034872720737 -0.26014738253762237 0 0.40314688718896508 -0.2619981766022052 0 0.39707581272688741 -0.26613449373937459 0 0.40314688718896508 -0.2619981766022052 0 0.40257909468765629 -0.25704117102420471 0 0.40998094690083942 -0.2590606397541646 0 0.39702034872720737 -0.26014738253762237 0 0.40314688718896508 -0.2619981766022052 0 0.40257909468765629 -0.25704117102420471 0 0.39640803358832022 -0.25154779433757402 0 0.39702034872720737 -0.26014738253762237 0 0.40257909468765629 -0.25704117102420471 0 0.41087794879613182 -0.2494957955088617 0 0.39640803358832022 -0.25154779433757402 0 0.40257909468765629 -0.25704117102420471 0 0.40514250542832608 -0.27022331558021301 0 0.3964002279028962 -0.26984905957103239 0 0.41345304600685079 -0.26440480953867462 0 0.37946114722675722 -0.27591377557629859 0 0.40514250542832608 -0.27022331558021301 0 0.3964002279028962 -0.26984905957103239 0 0.39707581272688741 -0.26613449373937459 0 0.3964002279028962 -0.26984905957103239 0 0.41345304600685079 -0.26440480953867462 0 0.37946114722675722 -0.27591377557629859 0 0.40514250542832608 -0.27022331558021301 0 0.3964002279028962 -0.26984905957103239 0 0.41345304600685079 -0.26440480953867462 0 0.39567659353887108 -0.29306988619604551 0 0.37946114722675722 -0.27591377557629859 0 0.40514250542832608 -0.27022331558021301 0 0.38774772661347989 -0.26664574742688191 0 0.39295554709344072 -0.26445586107842978 0 0.3964002279028962 -0.26984905957103239 0 0.39295554709344072 -0.26445586107842978 0 0.39707581272688741 -0.26613449373937459 0 0.3964002279028962 -0.26984905957103239 0 0.40514250542832608 -0.27022331558021301 0 0.41345304600685079 -0.26440480953867462 0 0.430823863629894 -0.26453285558412298 0 0.40514250542832608 -0.27022331558021301 0 0.430823863629894 -0.26453285558412298 0 0.40514250542832608 -0.27022331558021301 0 0.42166373126508722 -0.27984448092147479 0 0.41160024963212011 -0.28933460066763711 0 0.40514250542832608 -0.27022331558021301 0 0.42166373126508722 -0.27984448092147479 0 0.430823863629894 -0.26453285558412298 0 0.41087794879613182 -0.2494957955088617 0 0.41984775782459283 -0.2623632460968765 0 0.42854038242645709 -0.26281135800815408 0 0.41087794879613182 -0.2494957955088617 0 0.42854038242645709 -0.26281135800815408 0 0.41087794879613182 -0.2494957955088617 0 0.40257909468765629 -0.25704117102420471 0 0.40998094690083942 -0.2590606397541646 0 0.41087794879613182 -0.2494957955088617 0 0.40998094690083942 -0.2590606397541646 0 0.41984775782459283 -0.2623632460968765 0 0.40314688718896508 -0.2619981766022052 0 0.40998094690083942 -0.2590606397541646 0 0.41345304600685079 -0.26440480953867462 0 0.41345304600685079 -0.26440480953867462 0 0.41984775782459283 -0.2623632460968765 0 0.42854038242645709 -0.26281135800815408 0 0.40998094690083942 -0.2590606397541646 0 0.41345304600685079 -0.26440480953867462 0 0.41984775782459283 -0.2623632460968765 0 0.41345304600685079 -0.26440480953867462 0 0.42854038242645709 -0.26281135800815408 0 0.41345304600685079 -0.26440480953867462 0 0.41984775782459283 -0.2623632460968765 0 0.42656562700980838 -0.24831468624349931 0 0.41087794879613182 -0.2494957955088617 0 0.42854038242645709 -0.26281135800815408 0 0.4477486317760534 -0.26078267557717671 0 0.42854038242645709 -0.26281135800815408 0 0.430823863629894 -0.26453285558412298 0 0.41345304600685079 -0.26440480953867462 0 0.42854038242645709 -0.26281135800815408 0 0.430823863629894 -0.26453285558412298 0 0.42854038242645709 -0.26281135800815408 0 0.430823863629894 -0.26453285558412298 0 0.42656562700980838 -0.24831468624349931 0 0.42854038242645709 -0.26281135800815408 0 0.4372088962240912 -0.25169219704383999 0 0.42166373126508722 -0.27984448092147479 0 0.430823863629894 -0.26453285558412298 0 0.43570592202634773 -0.28205449164250063 0 0.42166373126508722 -0.27984448092147479 0 0.43570592202634773 -0.28205449164250063 0 0.42504611560874761 -0.29307714113289868 0 0.43874415768382158 -0.29310671547163403 0 0.43570592202634773 -0.28205449164250063 0 0.42504611560874761 -0.29307714113289868 0 0.43874415768382158 -0.29310671547163403 0 0.42504611560874761 -0.29307714113289868 0 0.43092107089682352 -0.30573631325696571 0 0.41919911313656122 -0.31385112706466711 0 0.43092107089682352 -0.30573631325696571 0 0.41692698488998292 -0.30249561446253759 0 0.42504611560874761 -0.29307714113289868 0 0.43092107089682352 -0.30573631325696571 0 0.41692698488998292 -0.30249561446253759 0 0.41919911313656122 -0.31385112706466711 0 0.41692698488998292 -0.30249561446253759 0 0.40916221757477672 -0.31142054967536659 0 0.40563314249086863 -0.30155395497769039 0 0.41692698488998292 -0.30249561446253759 0 0.40916221757477672 -0.31142054967536659 0 0.40563314249086863 -0.30155395497769039 0 0.41692698488998292 -0.30249561446253759 0 0.41160024963212011 -0.28933460066763711 0 0.42166373126508722 -0.27984448092147479 0 0.42504611560874761 -0.29307714113289868 0 0.41160024963212011 -0.28933460066763711 0 0.42504611560874761 -0.29307714113289868 0 0.41692698488998292 -0.30249561446253759 0 0.41160024963212011 -0.28933460066763711 0 0.5 -0.5 0 0.47532784176218862 -0.47257481327436679 0 0.43264288253940292 -0.48275234633568048 0 0.5 -0.5 0 0.41749257905485199 -0.50000000000000033 0 0.43264288253940292 -0.48275234633568048 0 0.47532784176218862 -0.47257481327436679 0 0.44779318602395363 -0.46550469267136052 0 0.43264288253940292 -0.48275234633568048 0 0.44779318602395363 -0.46550469267136052 0 0.43264288253940292 -0.48275234633568048 0 0.5 -0.5 0 0.47532784176218862 -0.47257481327436679 0 0.49999999999999828 -0.44642064777577001 0 0.47532784176218862 -0.47257481327436679 0 0.47918453573141367 -0.4495963838019249 0 0.46294348950850428 -0.44825703900704061 0 0.47532784176218862 -0.47257481327436679 0 0.49999999999999828 -0.44642064777577001 0 0.47918453573141367 -0.4495963838019249 0 0.49999999999999828 -0.44642064777577001 0 0.47846681165496419 -0.4311330351505217 0 0.49999999999999828 -0.44642064777577001 0 0.47918453573141367 -0.4495963838019249 0 0.47846681165496419 -0.4311330351505217 0 0.47918453573141367 -0.4495963838019249 0 0.46294348950850428 -0.44825703900704061 0 0.47846681165496419 -0.4311330351505217 0 0.46294348950850428 -0.44825703900704061 0 0.44442683605218691 -0.44583817528272968 0 0.45721208074107311 -0.43281318479414382 0 0.46294348950850428 -0.44825703900704061 0 0.44779318602395363 -0.46550469267136052 0 0.47532784176218862 -0.47257481327436679 0 0.46294348950850428 -0.44825703900704061 0 0.44779318602395363 -0.46550469267136052 0 0.44779318602395363 -0.46550469267136052 0 0.44442683605218691 -0.44583817528272968 0 0.43057418754349119 -0.46211781715143319 0 0.46294348950850428 -0.44825703900704061 0 0.44779318602395363 -0.46550469267136052 0 0.44442683605218691 -0.44583817528272968 0 0.44442683605218691 -0.44583817528272968 0 0.44324354583686831 -0.42153379012121539 0 0.45721208074107311 -0.43281318479414382 0 0.44442683605218691 -0.44583817528272968 0 0.44324354583686831 -0.42153379012121539 0 0.42653452723640378 -0.44279137365393179 0 0.44324354583686831 -0.42153379012121539 0 0.45693362330993059 -0.41584542252527262 0 0.45721208074107311 -0.43281318479414382 0 0.45693362330993059 -0.41584542252527262 0 0.4354004349648965 -0.40055780990002432 0 0.44324354583686831 -0.42153379012121539 0 0.45693362330993059 -0.41584542252527262 0 0.4354004349648965 -0.40055780990002432 0 0.45693362330993059 -0.41584542252527262 0 0.46461049463358839 -0.41117161714406408 0 0.47846681165496419 -0.4311330351505217 0 0.45693362330993059 -0.41584542252527262 0 0.46461049463358839 -0.41117161714406408 0 0.45329728287846061 -0.39963099679296588 0 0.46294348950850428 -0.44825703900704061 0 0.45721208074107311 -0.43281318479414382 0 0.47846681165496419 -0.4311330351505217 0 0.45693362330993059 -0.41584542252527262 0 0.45721208074107311 -0.43281318479414382 0 0.47846681165496419 -0.4311330351505217 0 0.45693362330993059 -0.41584542252527262 0 0.47846681165496419 -0.4311330351505217 0 0.49999999999999828 -0.44642064777577001 0 0.47846681165496419 -0.4311330351505217 0 0.5 -0.42181653977348488 0 0.5 -0.42181653977348488 0 0.48394518954555588 -0.41195106762427058 0 0.49999999999999789 -0.3972124317711998 0 0.47846681165496419 -0.4311330351505217 0 0.5 -0.42181653977348488 0 0.48394518954555588 -0.41195106762427058 0 0.46461049463358839 -0.41117161714406408 0 0.47846681165496419 -0.4311330351505217 0 0.48394518954555588 -0.41195106762427058 0 0.46461049463358839 -0.41117161714406408 0 0.48394518954555588 -0.41195106762427058 0 0.47664864143922919 -0.39842171428208217 0 0.47664864143922919 -0.39842171428208217 0 0.47975395238035062 -0.3854291032725421 0 0.46812846895096999 -0.38912968091376021 0 0.47664864143922919 -0.39842171428208217 0 0.49999999999999789 -0.3972124317711998 0 0.48779058149940679 -0.38751051868815611 0 0.48394518954555588 -0.41195106762427058 0 0.47664864143922919 -0.39842171428208217 0 0.49999999999999789 -0.3972124317711998 0 0.47664864143922919 -0.39842171428208217 0 0.49999999999999789 -0.3972124317711998 0 0.5 -0.37037944899495368 0 0.49999999999999789 -0.3972124317711998 0 0.48779058149940679 -0.38751051868815611 0 0.5 -0.37037944899495368 0 0.48466784746851571 -0.3739080713738358 0 0.48779058149940679 -0.38751051868815611 0 0.48466784746851571 -0.3739080713738358 0 0.47975395238035062 -0.3854291032725421 0 0.47323517146124039 -0.38191256761527542 0 0.48466784746851571 -0.3739080713738358 0 0.48779058149940679 -0.38751051868815611 0 0.47975395238035062 -0.3854291032725421 0 0.47664864143922919 -0.39842171428208217 0 0.48779058149940679 -0.38751051868815611 0 0.47975395238035062 -0.3854291032725421 0 0.47975395238035062 -0.3854291032725421 0 0.47323517146124039 -0.38191256761527542 0 0.46812846895096999 -0.38912968091376021 0 0.46918642870160698 -0.38365020197922722 0 0.47323517146124039 -0.38191256761527542 0 0.46812846895096999 -0.38912968091376021 0 0.4671179630262795 -0.37324494563770522 0 0.46918642870160698 -0.38365020197922722 0 0.47323517146124039 -0.38191256761527542 0 0.45652460043480969 -0.37267172771365881 0 0.4671179630262795 -0.37324494563770522 0 0.46918642870160698 -0.38365020197922722 0 0.45652460043480969 -0.37267172771365881 0 0.46918642870160698 -0.38365020197922722 0 0.45652460043480969 -0.37267172771365881 0 0.45606522570456098 -0.38599652494351028 0 0.44783900322824399 -0.38008781189722518 0 0.45652460043480969 -0.37267172771365881 0 0.46918642870160698 -0.38365020197922722 0 0.45606522570456098 -0.38599652494351028 0 0.46918642870160698 -0.38365020197922722 0 0.45606522570456098 -0.38599652494351028 0 0.46812846895096999 -0.38912968091376021 0 0.46461049463358839 -0.41117161714406408 0 0.47664864143922919 -0.39842171428208217 0 0.45329728287846061 -0.39963099679296588 0 0.47664864143922919 -0.39842171428208217 0 0.45329728287846061 -0.39963099679296588 0 0.47664864143922919 -0.39842171428208217 0 0.46812846895096999 -0.38912968091376021 0 0.45329728287846061 -0.39963099679296588 0 0.46461049463358839 -0.41117161714406408 0 0.45329728287846061 -0.39963099679296588 0 0.45606522570456098 -0.38599652494351028 0 0.46812846895096999 -0.38912968091376021 0 0.45329728287846061 -0.39963099679296588 0 0.45693362330993059 -0.41584542252527262 0 0.45329728287846061 -0.39963099679296588 0 0.4354004349648965 -0.40055780990002432 0 0.45329728287846061 -0.39963099679296588 0 0.4354004349648965 -0.40055780990002432 0 0.45329728287846061 -0.39963099679296588 0 0.4390969294492823 -0.3851451998924304 0 0.4354004349648965 -0.40055780990002432 0 0.45329728287846061 -0.39963099679296588 0 0.4390969294492823 -0.3851451998924304 0 0.45606522570456098 -0.38599652494351028 0 0.4390969294492823 -0.3851451998924304 0 0.44783900322824399 -0.38008781189722518 0 0.45606522570456098 -0.38599652494351028 0 0.45329728287846061 -0.39963099679296588 0 0.4390969294492823 -0.3851451998924304 0 0.4390969294492823 -0.3851451998924304 0 0.43808065797110041 -0.37748478958974491 0 0.44783900322824399 -0.38008781189722518 0 0.42782015831496062 -0.38505662608606978 0 0.4354004349648965 -0.40055780990002432 0 0.41188669282555868 -0.38386409155992901 0 0.42489657602010461 -0.37065940299189432 0 0.4390969294492823 -0.3851451998924304 0 0.42782015831496062 -0.38505662608606978 0 0.42489657602010461 -0.37065940299189432 0 0.4390969294492823 -0.3851451998924304 0 0.43808065797110041 -0.37748478958974491 0 0.42489657602010461 -0.37065940299189432 0 0.4390969294492823 -0.3851451998924304 0 0.4390969294492823 -0.3851451998924304 0 0.42782015831496062 -0.38505662608606978 0 0.4354004349648965 -0.40055780990002432 0 0.4354004349648965 -0.40055780990002432 0 0.41188669282555868 -0.38386409155992901 0 0.4354004349648965 -0.40055780990002432 0 0.40669862042327182 -0.40204417319942209 0 0.4354004349648965 -0.40055780990002432 0 0.40669862042327182 -0.40204417319942209 0 0.41188669282555868 -0.38386409155992901 0 0.42489657602010461 -0.37065940299189432 0 0.42782015831496062 -0.38505662608606978 0 0.41188669282555868 -0.38386409155992901 0 0.42489657602010461 -0.37065940299189432 0 0.4070765621089808 -0.37107032214525337 0 0.41188669282555868 -0.38386409155992901 0 0.4070765621089808 -0.37107032214525337 0 0.39585190457779329 -0.37201308858561799 0 0.39886607975096749 -0.38470810625682389 0 0.40669862042327182 -0.40204417319942209 0 0.41188669282555868 -0.38386409155992901 0 0.39886607975096749 -0.38470810625682389 0 0.4070765621089808 -0.37107032214525337 0 0.41188669282555868 -0.38386409155992901 0 0.39886607975096749 -0.38470810625682389 0 0.39585190457779329 -0.37201308858561799 0 0.39886607975096749 -0.38470810625682389 0 0.38601585554704992 -0.38244526212700758 0 0.39886607975096749 -0.38470810625682389 0 0.38601585554704992 -0.38244526212700758 0 0.37799680588164719 -0.40353053649882148 0 0.38601585554704992 -0.38244526212700758 0 0.37799680588164719 -0.40353053649882148 0 0.38601585554704992 -0.38244526212700758 0 0.37799680588164719 -0.40353053649882148 0 0.36816388811638329 -0.39545065246060412 0 0.37799680588164719 -0.40353053649882148 0 0.37635446215448021 -0.40784891206015261 0 0.37799680588164719 -0.40353053649882148 0 0.37505152225636262 -0.40368306209891941 0 0.37635446215448021 -0.40784891206015261 0 0.37799680588164719 -0.40353053649882148 0 0.37505152225636262 -0.40368306209891941 0 0.40669862042327182 -0.40204417319942209 0 0.39886607975096749 -0.38470810625682389 0 0.37799680588164719 -0.40353053649882148 0 0.40669862042327182 -0.40204417319942209 0 0.37799680588164719 -0.40353053649882148 0 0.40669862042327182 -0.40204417319942209 0 0.38553791301154328 -0.41840677215457472 0 0.40567792500840172 -0.4277251834563135 0 0.40669862042327182 -0.40204417319942209 0 0.37799680588164719 -0.40353053649882148 0 0.38553791301154328 -0.41840677215457472 0 0.38553791301154328 -0.41840677215457472 0 0.36905142820508552 -0.42917232846767789 0 0.37241381966677689 -0.417360225696081 0 0.38553791301154328 -0.41840677215457472 0 0.37635446215448021 -0.40784891206015261 0 0.37241381966677689 -0.417360225696081 0 0.37799680588164719 -0.40353053649882148 0 0.38553791301154328 -0.41840677215457472 0 0.37635446215448021 -0.40784891206015261 0 0.38553791301154328 -0.41840677215457472 0 0.38807715457860831 -0.4388905332329941 0 0.36905142820508552 -0.42917232846767789 0 0.38553791301154328 -0.41840677215457472 0 0.40567792500840172 -0.4277251834563135 0 0.38807715457860831 -0.4388905332329941 0 0.40567792500840172 -0.4277251834563135 0 0.42351101069396863 -0.41893046606618117 0 0.42653452723640378 -0.44279137365393179 0 0.4354004349648965 -0.40055780990002432 0 0.40669862042327182 -0.40204417319942209 0 0.42351101069396863 -0.41893046606618117 0 0.40669862042327182 -0.40204417319942209 0 0.40567792500840172 -0.4277251834563135 0 0.42351101069396863 -0.41893046606618117 0 0.44324354583686831 -0.42153379012121539 0 0.4354004349648965 -0.40055780990002432 0 0.42351101069396863 -0.41893046606618117 0 0.44324354583686831 -0.42153379012121539 0 0.42653452723640378 -0.44279137365393179 0 0.44324354583686831 -0.42153379012121539 0 0.42351101069396863 -0.41893046606618117 0 0.42653452723640378 -0.44279137365393179 0 0.44442683605218691 -0.44583817528272968 0 0.42653452723640378 -0.44279137365393179 0 0.43057418754349119 -0.46211781715143319 0 0.42653452723640378 -0.44279137365393179 0 0.43057418754349119 -0.46211781715143319 0 0.40982550863593931 -0.46404895718664829 0 0.42653452723640378 -0.44279137365393179 0 0.40982550863593931 -0.46404895718664829 0 0.42653452723640378 -0.44279137365393179 0 0.40982550863593931 -0.46404895718664829 0 0.4036378289262339 -0.44671034290208689 0 0.40567792500840172 -0.4277251834563135 0 0.42653452723640378 -0.44279137365393179 0 0.4036378289262339 -0.44671034290208689 0 0.40567792500840172 -0.4277251834563135 0 0.4036378289262339 -0.44671034290208689 0 0.38807715457860831 -0.4388905332329941 0 0.4036378289262339 -0.44671034290208689 0 0.38807715457860831 -0.4388905332329941 0 0.38807402917181633 -0.46009566698054732 0 0.38807715457860831 -0.4388905332329941 0 0.3733961412993268 -0.45022493016754961 0 0.36905142820508552 -0.42917232846767789 0 0.38807715457860831 -0.4388905332329941 0 0.38807402917181633 -0.46009566698054732 0 0.3733961412993268 -0.45022493016754961 0 0.38807402917181633 -0.46009566698054732 0 0.36593927904035028 -0.47432204071884282 0 0.3733961412993268 -0.45022493016754961 0 0.40982550863593931 -0.46404895718664829 0 0.4036378289262339 -0.44671034290208689 0 0.38807402917181633 -0.46009566698054732 0 0.40982550863593931 -0.46404895718664829 0 0.39311649003547477 -0.48530654071936469 0 0.40982550863593931 -0.46404895718664829 0 0.38807402917181633 -0.46009566698054732 0 0.39311649003547477 -0.48530654071936469 0 0.38807402917181633 -0.46009566698054732 0 0.39311649003547477 -0.48530654071936469 0 0.36593927904035028 -0.47432204071884282 0 0.37603974257992701 -0.49999999999999978 0 0.39311649003547477 -0.48530654071936469 0 0.36593927904035028 -0.47432204071884282 0 0.37603974257992701 -0.49999999999999978 0 0.39676616081738958 -0.5 0 0.39311649003547477 -0.48530654071936469 0 0.39676616081738958 -0.5 0 0.39311649003547477 -0.48530654071936469 0 0.41749257905485199 -0.50000000000000033 0 0.40982550863593931 -0.46404895718664829 0 0.41749257905485199 -0.50000000000000033 0 0.43264288253940292 -0.48275234633568048 0 0.40982550863593931 -0.46404895718664829 0 0.39311649003547477 -0.48530654071936469 0 0.41749257905485199 -0.50000000000000033 0 0.43057418754349119 -0.46211781715143319 0 0.40982550863593931 -0.46404895718664829 0 0.43264288253940292 -0.48275234633568048 0 0.44779318602395363 -0.46550469267136052 0 0.43057418754349119 -0.46211781715143319 0 0.43264288253940292 -0.48275234633568048 0 0.41749257905485199 -0.50000000000000033 0 0.43264288253940292 -0.48275234633568048 0 0.32215468257820618 -0.5 0 0.33760568703239408 -0.47417818032706111 0 0.31005432530219129 -0.48106067464861729 0 0.33760568703239408 -0.47417818032706111 0 0.3189449745883719 -0.46117016543644002 0 0.31005432530219129 -0.48106067464861729 0 0.32215468257820618 -0.5 0 0.33760568703239408 -0.47417818032706111 0 0.34909721257906662 -0.5 0 0.37603974257992701 -0.49999999999999978 0 0.34909721257906662 -0.5 0 0.36593927904035028 -0.47432204071884282 0 0.37603974257992701 -0.49999999999999978 0 0.36593927904035028 -0.47432204071884282 0 0.33760568703239408 -0.47417818032706111 0 0.34909721257906662 -0.5 0 0.36593927904035028 -0.47432204071884282 0 0.33760568703239408 -0.47417818032706111 0 0.36593927904035028 -0.47432204071884282 0 0.35583881550077368 -0.44864408143768569 0 0.36593927904035028 -0.47432204071884282 0 0.35583881550077368 -0.44864408143768569 0 0.36593927904035028 -0.47432204071884282 0 0.3733961412993268 -0.45022493016754961 0 0.35583881550077368 -0.44864408143768569 0 0.3733961412993268 -0.45022493016754961 0 0.35583881550077368 -0.44864408143768569 0 0.36905142820508552 -0.42917232846767789 0 0.35583881550077368 -0.44864408143768569 0 0.33540415989768779 -0.44905252560006492 0 0.34573835196119679 -0.42296612215652868 0 0.33760568703239408 -0.47417818032706111 0 0.35583881550077368 -0.44864408143768569 0 0.33540415989768779 -0.44905252560006492 0 0.33760568703239408 -0.47417818032706111 0 0.33540415989768779 -0.44905252560006492 0 0.3189449745883719 -0.46117016543644002 0 0.33540415989768779 -0.44905252560006492 0 0.3189449745883719 -0.46117016543644002 0 0.32126124445813709 -0.43429719032362252 0 0.3189449745883719 -0.46117016543644002 0 0.32126124445813709 -0.43429719032362252 0 0.30480654487456732 -0.44641521679941309 0 0.32126124445813709 -0.43429719032362252 0 0.3193156137706864 -0.40941365839269389 0 0.29937418247959258 -0.41817563384508599 0 0.3193156137706864 -0.40941365839269389 0 0.34573835196119679 -0.42296612215652868 0 0.33563788842162012 -0.39728816287537172 0 0.34573835196119679 -0.42296612215652868 0 0.33563788842162012 -0.39728816287537172 0 0.33540415989768779 -0.44905252560006492 0 0.32126124445813709 -0.43429719032362252 0 0.34573835196119679 -0.42296612215652868 0 0.32126124445813709 -0.43429719032362252 0 0.3193156137706864 -0.40941365839269389 0 0.34573835196119679 -0.42296612215652868 0 0.35583881550077368 -0.44864408143768569 0 0.34573835196119679 -0.42296612215652868 0 0.36905142820508552 -0.42917232846767789 0 0.35583881550077368 -0.44864408143768569 0 0.34573835196119679 -0.42296612215652868 0 0.36905142820508552 -0.42917232846767789 0 0.37241381966677689 -0.417360225696081 0 0.36195200988480669 -0.41065981681110758 0 0.36990343230398692 -0.40830781576793279 0 0.37241381966677689 -0.417360225696081 0 0.36195200988480669 -0.41065981681110758 0 0.37635446215448021 -0.40784891206015261 0 0.36990343230398692 -0.40830781576793279 0 0.37241381966677689 -0.417360225696081 0 0.37505152225636262 -0.40368306209891941 0 0.37635446215448021 -0.40784891206015261 0 0.36990343230398692 -0.40830781576793279 0 0.36990343230398692 -0.40830781576793279 0 0.36195200988480669 -0.41065981681110758 0 0.36876771314038492 -0.40452533678464098 0 0.34573835196119679 -0.42296612215652868 0 0.36195200988480669 -0.41065981681110758 0 0.35211107663302149 -0.40015425695529971 0 0.34573835196119679 -0.42296612215652868 0 0.36905142820508552 -0.42917232846767789 0 0.36195200988480669 -0.41065981681110758 0 0.34573835196119679 -0.42296612215652868 0 0.35211107663302149 -0.40015425695529971 0 0.33563788842162012 -0.39728816287537172 0 0.35211107663302149 -0.40015425695529971 0 0.35352794608594401 -0.38791341326287138 0 0.33563788842162012 -0.39728816287537172 0 0.35211107663302149 -0.40015425695529971 0 0.36816388811638329 -0.39545065246060412 0 0.35352794608594401 -0.38791341326287138 0 0.36195200988480669 -0.41065981681110758 0 0.36816388811638329 -0.39545065246060412 0 0.36876771314038492 -0.40452533678464098 0 0.36195200988480669 -0.41065981681110758 0 0.35211107663302149 -0.40015425695529971 0 0.36816388811638329 -0.39545065246060412 0 0.37505152225636262 -0.40368306209891941 0 0.36816388811638329 -0.39545065246060412 0 0.36876771314038492 -0.40452533678464098 0 0.37799680588164719 -0.40353053649882148 0 0.37505152225636262 -0.40368306209891941 0 0.36816388811638329 -0.39545065246060412 0 0.37505152225636262 -0.40368306209891941 0 0.36990343230398692 -0.40830781576793279 0 0.36876771314038492 -0.40452533678464098 0 0.38601585554704992 -0.38244526212700758 0 0.36816388811638329 -0.39545065246060412 0 0.3689120952668708 -0.37284951495870189 0 0.36816388811638329 -0.39545065246060412 0 0.35352794608594401 -0.38791341326287138 0 0.3689120952668708 -0.37284951495870189 0 0.35352794608594401 -0.38791341326287138 0 0.33563788842162012 -0.39728816287537172 0 0.34467783115022588 -0.37252705130409253 0 0.35352794608594401 -0.38791341326287138 0 0.3689120952668708 -0.37284951495870189 0 0.34467783115022588 -0.37252705130409253 0 0.33563788842162012 -0.39728816287537172 0 0.3255374248820434 -0.37161020359421471 0 0.33563788842162012 -0.39728816287537172 0 0.34467783115022588 -0.37252705130409253 0 0.3255374248820434 -0.37161020359421471 0 0.3193156137706864 -0.40941365839269389 0 0.33563788842162012 -0.39728816287537172 0 0.30534853388527528 -0.38930881101125692 0 0.33563788842162012 -0.39728816287537172 0 0.30534853388527528 -0.38930881101125692 0 0.3255374248820434 -0.37161020359421471 0 0.30534853388527528 -0.38930881101125692 0 0.3255374248820434 -0.37161020359421471 0 0.30525369772634148 -0.37164386163485291 0 0.30534853388527528 -0.38930881101125692 0 0.28783989868818821 -0.37644057584389279 0 0.30525369772634148 -0.37164386163485291 0 0.3193156137706864 -0.40941365839269389 0 0.30534853388527528 -0.38930881101125692 0 0.29937418247959258 -0.41817563384508599 0 0.30534853388527528 -0.38930881101125692 0 0.28922044672054198 -0.39637746652331562 0 0.29937418247959258 -0.41817563384508599 0 0.28922044672054198 -0.39637746652331562 0 0.27510086349567708 -0.39798721671617321 0 0.28320928432356041 -0.41012407252970262 0 0.28922044672054198 -0.39637746652331562 0 0.28783989868818821 -0.37644057584389279 0 0.27924907625512951 -0.38731579260330862 0 0.30534853388527528 -0.38930881101125692 0 0.28922044672054198 -0.39637746652331562 0 0.28783989868818821 -0.37644057584389279 0 0.30534853388527528 -0.38930881101125692 0 0.28783989868818821 -0.37644057584389279 0 0.28783989868818821 -0.37644057584389279 0 0.27447250226623809 -0.37821124143188289 0 0.27924907625512951 -0.38731579260330862 0 0.27447250226623809 -0.37821124143188289 0 0.27924907625512951 -0.38731579260330862 0 0.26961167010500181 -0.38756246250127813 0 0.27447250226623809 -0.37821124143188289 0 0.26961167010500181 -0.38756246250127813 0 0.26423397132697279 -0.37890457124200982 0 0.26961167010500181 -0.38756246250127813 0 0.26423397132697279 -0.37890457124200982 0 0.25687819372407023 -0.38903915957053298 0 0.26423397132697279 -0.37890457124200982 0 0.25687819372407023 -0.38903915957053298 0 0.24987622704845311 -0.37613765202982719 0 0.25108303853213881 -0.40002667887407228 0 0.26390234922262928 -0.39930308446362528 0 0.256136481120742 -0.41447562176841068 0 0.25687819372407023 -0.38903915957053298 0 0.25108303853213881 -0.40002667887407228 0 0.24309899287842279 -0.39271330151873202 0 0.25687819372407023 -0.38903915957053298 0 0.25108303853213881 -0.40002667887407228 0 0.26390234922262928 -0.39930308446362528 0 0.26961167010500181 -0.38756246250127813 0 0.25687819372407023 -0.38903915957053298 0 0.26390234922262928 -0.39930308446362528 0 0.26390234922262928 -0.39930308446362528 0 0.27510086349567708 -0.39798721671617321 0 0.2708804648698091 -0.41009655218672442 0 0.26961167010500181 -0.38756246250127813 0 0.26390234922262928 -0.39930308446362528 0 0.27510086349567708 -0.39798721671617321 0 0.28922044672054198 -0.39637746652331562 0 0.27924907625512951 -0.38731579260330862 0 0.27510086349567708 -0.39798721671617321 0 0.27924907625512951 -0.38731579260330862 0 0.26961167010500181 -0.38756246250127813 0 0.27510086349567708 -0.39798721671617321 0 0.27510086349567708 -0.39798721671617321 0 0.2708804648698091 -0.41009655218672442 0 0.28320928432356041 -0.41012407252970262 0 0.2708804648698091 -0.41009655218672442 0 0.256136481120742 -0.41447562176841068 0 0.27433621812851161 -0.42550461519375637 0 0.2708804648698091 -0.41009655218672442 0 0.27433621812851161 -0.42550461519375637 0 0.28320928432356041 -0.41012407252970262 0 0.26390234922262928 -0.39930308446362528 0 0.2708804648698091 -0.41009655218672442 0 0.256136481120742 -0.41447562176841068 0 0.25108303853213881 -0.40002667887407228 0 0.256136481120742 -0.41447562176841068 0 0.24629253832767661 -0.41022035877505542 0 0.256136481120742 -0.41447562176841068 0 0.25513396950241118 -0.43290986753561628 0 0.2453827316299185 -0.42192330194190181 0 0.256136481120742 -0.41447562176841068 0 0.25513396950241118 -0.43290986753561628 0 0.27433621812851161 -0.42550461519375637 0 0.25513396950241118 -0.43290986753561628 0 0.27433621812851161 -0.42550461519375637 0 0.26752346795397081 -0.44788636482661331 0 0.27433621812851161 -0.42550461519375637 0 0.29937418247959258 -0.41817563384508599 0 0.28546596250580908 -0.44246723239800262 0 0.29937418247959258 -0.41817563384508599 0 0.30480654487456732 -0.44641521679941309 0 0.28546596250580908 -0.44246723239800262 0 0.28922044672054198 -0.39637746652331562 0 0.28320928432356041 -0.41012407252970262 0 0.29937418247959258 -0.41817563384508599 0 0.27433621812851161 -0.42550461519375637 0 0.28320928432356041 -0.41012407252970262 0 0.29937418247959258 -0.41817563384508599 0 0.32126124445813709 -0.43429719032362252 0 0.29937418247959258 -0.41817563384508599 0 0.30480654487456732 -0.44641521679941309 0 0.3189449745883719 -0.46117016543644002 0 0.30480654487456732 -0.44641521679941309 0 0.28880919487484108 -0.4658549053918814 0 0.30480654487456732 -0.44641521679941309 0 0.28880919487484108 -0.4658549053918814 0 0.28546596250580908 -0.44246723239800262 0 0.27433621812851161 -0.42550461519375637 0 0.28546596250580908 -0.44246723239800262 0 0.26752346795397081 -0.44788636482661331 0 0.28880919487484108 -0.4658549053918814 0 0.28546596250580908 -0.44246723239800262 0 0.26752346795397081 -0.44788636482661331 0 0.25513396950241118 -0.43290986753561628 0 0.26752346795397081 -0.44788636482661331 0 0.24480843210435321 -0.45079661158300749 0 0.26752346795397081 -0.44788636482661331 0 0.2588368117714554 -0.46700690363883102 0 0.24480843210435321 -0.45079661158300749 0 0.28880919487484108 -0.4658549053918814 0 0.26752346795397081 -0.44788636482661331 0 0.2588368117714554 -0.46700690363883102 0 0.28880919487484108 -0.4658549053918814 0 0.2588368117714554 -0.46700690363883102 0 0.27227655507569209 -0.48076744006000099 0 0.2588368117714554 -0.46700690363883102 0 0.27227655507569209 -0.48076744006000099 0 0.25270961841775552 -0.48460016746525392 0 0.2588368117714554 -0.46700690363883102 0 0.25270961841775552 -0.48460016746525392 0 0.23949561189523169 -0.47426551941090739 0 0.25270961841775552 -0.48460016746525392 0 0.26826962257648529 -0.5 0 0.2413270925756249 -0.5 0 0.27227655507569209 -0.48076744006000099 0 0.25270961841775552 -0.48460016746525392 0 0.26826962257648529 -0.5 0 0.27227655507569209 -0.48076744006000099 0 0.26826962257648529 -0.5 0 0.29521215257734579 -0.5 0 0.28880919487484108 -0.4658549053918814 0 0.27227655507569209 -0.48076744006000099 0 0.29521215257734579 -0.5 0 0.28880919487484108 -0.4658549053918814 0 0.29521215257734579 -0.5 0 0.31005432530219129 -0.48106067464861729 0 0.3189449745883719 -0.46117016543644002 0 0.28880919487484108 -0.4658549053918814 0 0.31005432530219129 -0.48106067464861729 0 0.32215468257820618 -0.5 0 0.29521215257734579 -0.5 0 0.31005432530219129 -0.48106067464861729 0 0.33463237856908817 -0.28956894479377399 0 0.33485830675890288 -0.30442904333306592 0 0.35657459314761941 -0.2860097891906741 0 0.33463237856908817 -0.28956894479377399 0 0.32894302133540282 -0.28710755170783531 0 0.35195887039823659 -0.28200771363307098 0 0.32894302133540282 -0.28710755170783531 0 0.35195887039823659 -0.28200771363307098 0 0.32894302133540282 -0.28710755170783531 0 0.33255663915089151 -0.29722249741805129 0 0.33463237856908817 -0.28956894479377399 0 0.32894302133540282 -0.28710755170783531 0 0.33255663915089151 -0.29722249741805129 0 0.32894302133540282 -0.28710755170783531 0 0.33255663915089151 -0.29722249741805129 0 0.32301709761150521 -0.2972128627914089 0 0.33485830675890288 -0.30442904333306592 0 0.34824447571033601 -0.30253517369681238 0 0.34533870308018377 -0.31598934501886372 0 0.33485830675890288 -0.30442904333306592 0 0.33255663915089151 -0.29722249741805129 0 0.32434770264142349 -0.30499280498860082 0 0.33463237856908817 -0.28956894479377399 0 0.33485830675890288 -0.30442904333306592 0 0.33255663915089151 -0.29722249741805129 0 0.32301709761150521 -0.2972128627914089 0 0.32434770264142349 -0.30499280498860082 0 0.3171485971304504 -0.30589952111326829 0 0.32434770264142349 -0.30499280498860082 0 0.3171485971304504 -0.30589952111326829 0 0.31314202037018413 -0.32284829747545468 0 0.33485830675890288 -0.30442904333306592 0 0.32434770264142349 -0.30499280498860082 0 0.31314202037018413 -0.32284829747545468 0 0.33255663915089151 -0.29722249741805129 0 0.32301709761150521 -0.2972128627914089 0 0.32434770264142349 -0.30499280498860082 0 0.3171485971304504 -0.30589952111326829 0 0.31208952779935789 -0.2908419387292881 0 0.30833746379913463 -0.30503745501229762 0 0.32301709761150521 -0.2972128627914089 0 0.3171485971304504 -0.30589952111326829 0 0.31208952779935789 -0.2908419387292881 0 0.32894302133540282 -0.28710755170783531 0 0.31611371382327402 -0.28007222207304999 0 0.31208952779935789 -0.2908419387292881 0 0.32894302133540282 -0.28710755170783531 0 0.32301709761150521 -0.2972128627914089 0 0.31208952779935789 -0.2908419387292881 0 0.32894302133540282 -0.28710755170783531 0 0.31208952779935789 -0.2908419387292881 0 0.32894302133540282 -0.28710755170783531 0 0.32245882367699719 -0.26895751187574157 0 0.32894302133540282 -0.28710755170783531 0 0.31611371382327402 -0.28007222207304999 0 0.32245882367699719 -0.26895751187574157 0 0.31611371382327402 -0.28007222207304999 0 0.32245882367699719 -0.26895751187574157 0 0.30706455279928557 -0.27339796693147528 0 0.32245882367699719 -0.26895751187574157 0 0.30981211567343969 -0.26250129009931661 0 0.30706455279928557 -0.27339796693147528 0 0.32245882367699719 -0.26895751187574157 0 0.31597462601859122 -0.25080747204364812 0 0.32245882367699719 -0.26895751187574157 0 0.31597462601859122 -0.25080747204364812 0 0.30981211567343969 -0.26250129009931661 0 0.32245882367699719 -0.26895751187574157 0 0.31597462601859122 -0.25080747204364812 0 0.33396674820841349 -0.26640759283836002 0 0.31597462601859122 -0.25080747204364812 0 0.33396674820841349 -0.26640759283836002 0 0.33517615116993849 -0.24743488902137309 0 0.33396674820841349 -0.26640759283836002 0 0.35185333732921159 -0.25428502110151557 0 0.33517615116993849 -0.24743488902137309 0 0.31597462601859122 -0.25080747204364812 0 0.33396674820841349 -0.26640759283836002 0 0.32894302133540282 -0.28710755170783531 0 0.32245882367699719 -0.26895751187574157 0 0.33396674820841349 -0.26640759283836002 0 0.33396674820841349 -0.26640759283836002 0 0.35195887039823659 -0.28200771363307098 0 0.32894302133540282 -0.28710755170783531 0 0.33396674820841349 -0.26640759283836002 0 0.35195887039823659 -0.28200771363307098 0 0.33396674820841349 -0.26640759283836002 0 0.35159414215374007 -0.26901089914998932 0 0.35195887039823659 -0.28200771363307098 0 0.35159414215374007 -0.26901089914998932 0 0.36459381448795669 -0.2792080702757721 0 0.35195887039823659 -0.28200771363307098 0 0.36459381448795669 -0.2792080702757721 0 0.35195887039823659 -0.28200771363307098 0 0.33396674820841349 -0.26640759283836002 0 0.35159414215374007 -0.26901089914998932 0 0.35185333732921159 -0.25428502110151557 0 0.35159414215374007 -0.26901089914998932 0 0.35185333732921159 -0.25428502110151557 0 0.36435388824524378 -0.26651308148643732 0 0.37477580018058132 -0.24095111383496479 0 0.37683953433427181 -0.26882153263446662 0 0.36563983252638571 -0.25462703483095822 0 0.36075586336603621 -0.2426037127049111 0 0.35185333732921159 -0.25428502110151557 0 0.36563983252638571 -0.25462703483095822 0 0.35185333732921159 -0.25428502110151557 0 0.36563983252638571 -0.25462703483095822 0 0.36435388824524378 -0.26651308148643732 0 0.37683953433427181 -0.26882153263446662 0 0.36563983252638571 -0.25462703483095822 0 0.36435388824524378 -0.26651308148643732 0 0.36459381448795669 -0.2792080702757721 0 0.36308990924476459 -0.28048364807874221 0 0.35195887039823659 -0.28200771363307098 0 0.36459381448795669 -0.2792080702757721 0 0.36308990924476459 -0.28048364807874221 0 0.37273728942595791 -0.27740364396778311 0 0.36459381448795669 -0.2792080702757721 0 0.36308990924476459 -0.28048364807874221 0 0.35159414215374007 -0.26901089914998932 0 0.36459381448795669 -0.2792080702757721 0 0.36435388824524378 -0.26651308148643732 0 0.37683953433427181 -0.26882153263446662 0 0.36459381448795669 -0.2792080702757721 0 0.36435388824524378 -0.26651308148643732 0 0.36459381448795669 -0.2792080702757721 0 0.37273728942595791 -0.27740364396778311 0 0.37683953433427181 -0.26882153263446662 0 0.36459381448795669 -0.2792080702757721 0 0.37273728942595791 -0.27740364396778311 0 0.37683953433427181 -0.26882153263446662 0 0.36459381448795669 -0.2792080702757721 0 0.36308990924476459 -0.28048364807874221 0 0.37273728942595791 -0.27740364396778311 0 0.37795999762798671 -0.28395322059410122 0 0.37273728942595791 -0.27740364396778311 0 0.36936745264149701 -0.28627283508716472 0 0.35657459314761941 -0.2860097891906741 0 0.35620629985463748 -0.30371251724464648 0 0.37101427446782781 -0.29852975601036341 0 0.36308990924476459 -0.28048364807874221 0 0.37273728942595791 -0.27740364396778311 0 0.36936745264149701 -0.28627283508716472 0 0.37519981906117678 -0.29055939022370142 0 0.37795999762798671 -0.28395322059410122 0 0.36936745264149701 -0.28627283508716472 0 0.37519981906117678 -0.29055939022370142 0 0.36936745264149701 -0.28627283508716472 0 0.37101427446782781 -0.29852975601036341 0 0.36936745264149701 -0.28627283508716472 0 0.35657459314761941 -0.2860097891906741 0 0.37101427446782781 -0.29852975601036341 0 0.35657459314761941 -0.2860097891906741 0 0.37101427446782781 -0.29852975601036341 0 0.36308990924476459 -0.28048364807874221 0 0.36936745264149701 -0.28627283508716472 0 0.35657459314761941 -0.2860097891906741 0 0.36308990924476459 -0.28048364807874221 0 0.35657459314761941 -0.2860097891906741 0 0.36308990924476459 -0.28048364807874221 0 0.35366972758071469 -0.28349111722646431 0 0.33463237856908817 -0.28956894479377399 0 0.35366972758071469 -0.28349111722646431 0 0.33463237856908817 -0.28956894479377399 0 0.35366972758071469 -0.28349111722646431 0 0.35195887039823659 -0.28200771363307098 0 0.36308990924476459 -0.28048364807874221 0 0.35366972758071469 -0.28349111722646431 0 0.35195887039823659 -0.28200771363307098 0 0.33485830675890288 -0.30442904333306592 0 0.35657459314761941 -0.2860097891906741 0 0.36308990924476459 -0.28048364807874221 0 0.35366972758071469 -0.28349111722646431 0 0.35657459314761941 -0.2860097891906741 0 0.33463237856908817 -0.28956894479377399 0 0.35366972758071469 -0.28349111722646431 0 0.35657459314761941 -0.2860097891906741 0 0.35366972758071469 -0.28349111722646431 0 0.35657459314761941 -0.2860097891906741 0 0.35366972758071469 -0.28349111722646431 0 0.35195887039823659 -0.28200771363307098 0 0.35620629985463748 -0.30371251724464648 0 0.36380134767337091 -0.31365371592763602 0 0.34533870308018377 -0.31598934501886372 0 0.35657459314761941 -0.2860097891906741 0 0.34824447571033601 -0.30253517369681238 0 0.35620629985463748 -0.30371251724464648 0 0.33485830675890288 -0.30442904333306592 0 0.35657459314761941 -0.2860097891906741 0 0.34824447571033601 -0.30253517369681238 0 0.34824447571033601 -0.30253517369681238 0 0.35620629985463748 -0.30371251724464648 0 0.34533870308018377 -0.31598934501886372 0 0.38545395578803499 -0.31104972283005378 0 0.37101427446782781 -0.29852975601036341 0 0.36380134767337091 -0.31365371592763602 0 0.35620629985463748 -0.30371251724464648 0 0.37101427446782781 -0.29852975601036341 0 0.36380134767337091 -0.31365371592763602 0 0.38545395578803499 -0.31104972283005378 0 0.36380134767337091 -0.31365371592763602 0 0.36945761595668469 -0.32738841673247931 0 0.36380134767337091 -0.31365371592763602 0 0.36945761595668469 -0.32738841673247931 0 0.35533723689285712 -0.32525253772940937 0 0.36945761595668469 -0.32738841673247931 0 0.35618710249729552 -0.34088690244721892 0 0.35533723689285712 -0.32525253772940937 0 0.36945761595668469 -0.32738841673247931 0 0.35618710249729552 -0.34088690244721892 0 0.37368731816096312 -0.34897020548070451 0 0.35618710249729552 -0.34088690244721892 0 0.33810128782584858 -0.35072533414536311 0 0.34064131712366241 -0.33181983138849169 0 0.35618710249729552 -0.34088690244721892 0 0.35533723689285712 -0.32525253772940937 0 0.34064131712366241 -0.33181983138849169 0 0.34533870308018377 -0.31598934501886372 0 0.35533723689285712 -0.32525253772940937 0 0.34064131712366241 -0.33181983138849169 0 0.36380134767337091 -0.31365371592763602 0 0.34533870308018377 -0.31598934501886372 0 0.35533723689285712 -0.32525253772940937 0 0.3689120952668708 -0.37284951495870189 0 0.37368731816096312 -0.34897020548070451 0 0.35738528973841999 -0.35772904562383351 0 0.35618710249729552 -0.34088690244721892 0 0.37368731816096312 -0.34897020548070451 0 0.35738528973841999 -0.35772904562383351 0 0.35618710249729552 -0.34088690244721892 0 0.35738528973841999 -0.35772904562383351 0 0.33810128782584858 -0.35072533414536311 0 0.35738528973841999 -0.35772904562383351 0 0.34467783115022588 -0.37252705130409253 0 0.33810128782584858 -0.35072533414536311 0 0.3689120952668708 -0.37284951495870189 0 0.35738528973841999 -0.35772904562383351 0 0.34467783115022588 -0.37252705130409253 0 0.34467783115022588 -0.37252705130409253 0 0.33810128782584858 -0.35072533414536311 0 0.3255374248820434 -0.37161020359421471 0 0.31543696134246668 -0.34593224431305769 0 0.3255374248820434 -0.37161020359421471 0 0.30900602422585888 -0.35865430802761772 0 0.31543696134246668 -0.34593224431305769 0 0.3255374248820434 -0.37161020359421471 0 0.33810128782584858 -0.35072533414536311 0 0.31543696134246668 -0.34593224431305769 0 0.3255374248820434 -0.37161020359421471 0 0.3255374248820434 -0.37161020359421471 0 0.30525369772634148 -0.37164386163485291 0 0.30900602422585888 -0.35865430802761772 0 0.34533870308018377 -0.31598934501886372 0 0.33130220335757699 -0.32186248444176119 0 0.34064131712366241 -0.33181983138849169 0 0.33485830675890288 -0.30442904333306592 0 0.34533870308018377 -0.31598934501886372 0 0.33130220335757699 -0.32186248444176119 0 0.33810128782584858 -0.35072533414536311 0 0.34064131712366241 -0.33181983138849169 0 0.3268430880468266 -0.33457206034663262 0 0.33130220335757699 -0.32186248444176119 0 0.34064131712366241 -0.33181983138849169 0 0.3268430880468266 -0.33457206034663262 0 0.31543696134246668 -0.34593224431305769 0 0.3268430880468266 -0.33457206034663262 0 0.31314202037018413 -0.32284829747545468 0 0.33810128782584858 -0.35072533414536311 0 0.31543696134246668 -0.34593224431305769 0 0.3268430880468266 -0.33457206034663262 0 0.33130220335757699 -0.32186248444176119 0 0.3268430880468266 -0.33457206034663262 0 0.31314202037018413 -0.32284829747545468 0 0.33485830675890288 -0.30442904333306592 0 0.31314202037018413 -0.32284829747545468 0 0.3171485971304504 -0.30589952111326829 0 0.31314202037018413 -0.32284829747545468 0 0.3109911447756647 -0.31350988965823029 0 0.33485830675890288 -0.30442904333306592 0 0.33130220335757699 -0.32186248444176119 0 0.31314202037018413 -0.32284829747545468 0 0.31314202037018413 -0.32284829747545468 0 0.30533649780288991 -0.32025428503190068 0 0.3109911447756647 -0.31350988965823029 0 0.30533649780288991 -0.32025428503190068 0 0.3109911447756647 -0.31350988965823029 0 0.30833746379913463 -0.30503745501229762 0 0.31543696134246668 -0.34593224431305769 0 0.30533649780288991 -0.32025428503190068 0 0.30314188851555429 -0.3464145030398364 0 0.30533649780288991 -0.32025428503190068 0 0.29792146783109758 -0.32077626486014349 0 0.30314188851555429 -0.3464145030398364 0 0.31543696134246668 -0.34593224431305769 0 0.31314202037018413 -0.32284829747545468 0 0.30533649780288991 -0.32025428503190068 0 0.29792146783109758 -0.32077626486014349 0 0.30314188851555429 -0.3464145030398364 0 0.31543696134246668 -0.34593224431305769 0 0.30533649780288991 -0.32025428503190068 0 0.29792146783109758 -0.32077626486014349 0 0.29422135484035322 -0.33366994296298719 0 0.30314188851555429 -0.3464145030398364 0 0.29422135484035322 -0.33366994296298719 0 0.29546103181119637 -0.34185893253319311 0 0.30314188851555429 -0.3464145030398364 0 0.29422135484035322 -0.33366994296298719 0 0.29546103181119637 -0.34185893253319311 0 0.28827175492889229 -0.34275780055790278 0 0.29546103181119637 -0.34185893253319311 0 0.28827175492889229 -0.34275780055790278 0 0.29811044553331972 -0.34650788457159087 0 0.29422135484035322 -0.33366994296298719 0 0.28827175492889229 -0.34275780055790278 0 0.27955848846152698 -0.33666113426449551 0 0.29422135484035322 -0.33366994296298719 0 0.28744860979629389 -0.32474860906702402 0 0.27955848846152698 -0.33666113426449551 0 0.28744860979629389 -0.32474860906702402 0 0.29019889155513462 -0.31620785207956748 0 0.28097437988070417 -0.31138482246715898 0 0.29792146783109758 -0.32077626486014349 0 0.29019889155513462 -0.31620785207956748 0 0.29244758100571983 -0.32385066724243061 0 0.29422135484035322 -0.33366994296298719 0 0.28744860979629389 -0.32474860906702402 0 0.29244758100571983 -0.32385066724243061 0 0.29792146783109758 -0.32077626486014349 0 0.29422135484035322 -0.33366994296298719 0 0.29244758100571983 -0.32385066724243061 0 0.28744860979629389 -0.32474860906702402 0 0.29019889155513462 -0.31620785207956748 0 0.29244758100571983 -0.32385066724243061 0 0.30525369772634148 -0.37164386163485291 0 0.30031449930387721 -0.36082981960256849 0 0.30900602422585888 -0.35865430802761772 0 0.30525369772634148 -0.37164386163485291 0 0.30031449930387721 -0.36082981960256849 0 0.29483415024835152 -0.36747827247447862 0 0.30080593951138668 -0.35381036279877531 0 0.30900602422585888 -0.35865430802761772 0 0.30314188851555429 -0.3464145030398364 0 0.30080593951138668 -0.35381036279877531 0 0.29811044553331972 -0.34650788457159087 0 0.29345683997832372 -0.35664529875226292 0 0.30031449930387721 -0.36082981960256849 0 0.30080593951138668 -0.35381036279877531 0 0.30900602422585888 -0.35865430802761772 0 0.30031449930387721 -0.36082981960256849 0 0.30080593951138668 -0.35381036279877531 0 0.29345683997832372 -0.35664529875226292 0 0.31543696134246668 -0.34593224431305769 0 0.30900602422585888 -0.35865430802761772 0 0.30314188851555429 -0.3464145030398364 0 0.30080593951138668 -0.35381036279877531 0 0.30314188851555429 -0.3464145030398364 0 0.29811044553331972 -0.34650788457159087 0 0.29546103181119637 -0.34185893253319311 0 0.30314188851555429 -0.3464145030398364 0 0.29811044553331972 -0.34650788457159087 0 0.29811044553331972 -0.34650788457159087 0 0.29345683997832372 -0.35664529875226292 0 0.28122462644821988 -0.35688066365974619 0 0.28827175492889229 -0.34275780055790278 0 0.29811044553331972 -0.34650788457159087 0 0.28122462644821988 -0.35688066365974619 0 0.28827175492889229 -0.34275780055790278 0 0.28122462644821988 -0.35688066365974619 0 0.27955848846152698 -0.33666113426449551 0 0.29811044553331972 -0.34650788457159087 0 0.28122462644821988 -0.35688066365974619 0 0.29345683997832372 -0.35664529875226292 0 0.28676543400443838 -0.36101512068260139 0 0.28122462644821988 -0.35688066365974619 0 0.28676543400443838 -0.36101512068260139 0 0.28122462644821988 -0.35688066365974619 0 0.28783989868818821 -0.37644057584389279 0 0.30525369772634148 -0.37164386163485291 0 0.29483415024835152 -0.36747827247447862 0 0.28783989868818821 -0.37644057584389279 0 0.28676543400443838 -0.36101512068260139 0 0.27033126349110148 -0.36357234067652822 0 0.29357505063040601 -0.36145191270551408 0 0.28676543400443838 -0.36101512068260139 0 0.29483415024835152 -0.36747827247447862 0 0.30031449930387721 -0.36082981960256849 0 0.29357505063040601 -0.36145191270551408 0 0.29483415024835152 -0.36747827247447862 0 0.30031449930387721 -0.36082981960256849 0 0.29345683997832372 -0.35664529875226292 0 0.29357505063040601 -0.36145191270551408 0 0.29345683997832372 -0.35664529875226292 0 0.29357505063040601 -0.36145191270551408 0 0.28676543400443838 -0.36101512068260139 0 0.28783989868818821 -0.37644057584389279 0 0.28676543400443838 -0.36101512068260139 0 0.29483415024835152 -0.36747827247447862 0 0.28783989868818821 -0.37644057584389279 0 0.27033126349110148 -0.36357234067652822 0 0.28783989868818821 -0.37644057584389279 0 0.27447250226623809 -0.37821124143188289 0 0.27033126349110148 -0.36357234067652822 0 0.28676543400443838 -0.36101512068260139 0 0.27033126349110148 -0.36357234067652822 0 0.28122462644821988 -0.35688066365974619 0 0.27447250226623809 -0.37821124143188289 0 0.26423397132697279 -0.37890457124200982 0 0.27033126349110148 -0.36357234067652822 0 0.27033126349110148 -0.36357234067652822 0 0.28122462644821988 -0.35688066365974619 0 0.28122462644821988 -0.35688066365974619 0 0.26082083375001269 -0.34165569813656432 0 0.27033126349110148 -0.36357234067652822 0 0.28122462644821988 -0.35688066365974619 0 0.26082083375001269 -0.34165569813656432 0 0.28122462644821988 -0.35688066365974619 0 0.27955848846152698 -0.33666113426449551 0 0.26082083375001269 -0.34165569813656432 0 0.27033126349110148 -0.36357234067652822 0 0.25099839141978419 -0.34936335514031408 0 0.27033126349110148 -0.36357234067652822 0 0.25099839141978419 -0.34936335514031408 0 0.26082083375001269 -0.34165569813656432 0 0.27033126349110148 -0.36357234067652822 0 0.25099839141978419 -0.34936335514031408 0 0.24534349961555019 -0.36253701182870851 0 0.26423397132697279 -0.37890457124200982 0 0.27033126349110148 -0.36357234067652822 0 0.24987622704845311 -0.37613765202982719 0 0.27033126349110148 -0.36357234067652822 0 0.24534349961555019 -0.36253701182870851 0 0.24987622704845311 -0.37613765202982719 0 0.27033126349110148 -0.36357234067652822 0 0.24987622704845311 -0.37613765202982719 0 0.28744860979629389 -0.32474860906702402 0 0.26598899428458778 -0.32103793389256657 0 0.27955848846152698 -0.33666113426449551 0 0.28744860979629389 -0.32474860906702402 0 0.26598899428458778 -0.32103793389256657 0 0.28097437988070417 -0.31138482246715898 0 0.26598899428458778 -0.32103793389256657 0 0.27955848846152698 -0.33666113426449551 0 0.26082083375001269 -0.34165569813656432 0 0.26082083375001269 -0.34165569813656432 0 0.2404170410518052 -0.32643073261338312 0 0.26598899428458778 -0.32103793389256657 0 0.26082083375001269 -0.34165569813656432 0 0.2404170410518052 -0.32643073261338312 0 0.25099839141978419 -0.34936335514031408 0 0.26082083375001269 -0.34165569813656432 0 0.2404170410518052 -0.32643073261338312 0 0.26598899428458778 -0.32103793389256657 0 0.24423538898563429 -0.30587701823941071 0 0.2404170410518052 -0.32643073261338312 0 0.26846821806613752 -0.30050752245993012 0 0.24423538898563429 -0.30587701823941071 0 0.25301376652256202 -0.2892367573709661 0 0.26846821806613752 -0.30050752245993012 0 0.24423538898563429 -0.30587701823941071 0 0.26598899428458778 -0.32103793389256657 0 0.26846821806613752 -0.30050752245993012 0 0.24423538898563429 -0.30587701823941071 0 0.25301376652256202 -0.2892367573709661 0 0.26500420865911251 -0.28331687632378699 0 0.26846821806613752 -0.30050752245993012 0 0.25301376652256202 -0.2892367573709661 0 0.26500420865911251 -0.28331687632378699 0 0.2507153324002197 -0.27704953531328702 0 0.26500420865911251 -0.28331687632378699 0 0.27805302037335089 -0.28584974436810762 0 0.26846821806613752 -0.30050752245993012 0 0.27805302037335089 -0.28584974436810762 0 0.26846821806613752 -0.30050752245993012 0 0.29270104714664102 -0.29513802668045069 0 0.26500420865911251 -0.28331687632378699 0 0.27805302037335089 -0.28584974436810762 0 0.27342558025451552 -0.27498979272208851 0 0.26598899428458778 -0.32103793389256657 0 0.26846821806613752 -0.30050752245993012 0 0.28097437988070417 -0.31138482246715898 0 0.26846821806613752 -0.30050752245993012 0 0.28097437988070417 -0.31138482246715898 0 0.29270104714664102 -0.29513802668045069 0 0.26846821806613752 -0.30050752245993012 0 0.29270104714664102 -0.29513802668045069 0 0.29792146783109758 -0.32077626486014349 0 0.29270104714664102 -0.29513802668045069 0 0.29019889155513462 -0.31620785207956748 0 0.28097437988070417 -0.31138482246715898 0 0.29270104714664102 -0.29513802668045069 0 0.29792146783109758 -0.32077626486014349 0 0.29019889155513462 -0.31620785207956748 0 0.29270104714664102 -0.29513802668045069 0 0.29792146783109758 -0.32077626486014349 0 0.29270104714664102 -0.29513802668045069 0 0.29523603426331357 -0.29457632575074338 0 0.27805302037335089 -0.28584974436810762 0 0.29026987947112831 -0.28319821192468808 0 0.29270104714664102 -0.29513802668045069 0 0.27805302037335089 -0.28584974436810762 0 0.29026987947112831 -0.28319821192468808 0 0.28863308206368682 -0.27515966401439529 0 0.29026987947112831 -0.28319821192468808 0 0.29523603426331357 -0.29457632575074338 0 0.29026987947112831 -0.28319821192468808 0 0.29523603426331357 -0.29457632575074338 0 0.30320790951940702 -0.28313078900162059 0 0.29026987947112831 -0.28319821192468808 0 0.29270104714664102 -0.29513802668045069 0 0.29523603426331357 -0.29457632575074338 0 0.29026987947112831 -0.28319821192468808 0 0.29270104714664102 -0.29513802668045069 0 0.29270104714664102 -0.29513802668045069 0 0.29523603426331357 -0.29457632575074338 0 0.29523603426331357 -0.29457632575074338 0 0.31208952779935789 -0.2908419387292881 0 0.29523603426331357 -0.29457632575074338 0 0.30320790951940702 -0.28313078900162059 0 0.31208952779935789 -0.2908419387292881 0 0.29523603426331357 -0.29457632575074338 0 0.31208952779935789 -0.2908419387292881 0 0.30833746379913463 -0.30503745501229762 0 0.31611371382327402 -0.28007222207304999 0 0.30320790951940702 -0.28313078900162059 0 0.31208952779935789 -0.2908419387292881 0 0.30533649780288991 -0.32025428503190068 0 0.29523603426331357 -0.29457632575074338 0 0.30833746379913463 -0.30503745501229762 0 0.30533649780288991 -0.32025428503190068 0 0.29792146783109758 -0.32077626486014349 0 0.29523603426331357 -0.29457632575074338 0 0.30533649780288991 -0.32025428503190068 0 0.29523603426331357 -0.29457632575074338 0 0.3171485971304504 -0.30589952111326829 0 0.3109911447756647 -0.31350988965823029 0 0.30833746379913463 -0.30503745501229762 0 0.29812220868357159 -0.26533402464574418 0 0.30111904597271899 -0.2536098058489899 0 0.30981211567343969 -0.26250129009931661 0 0.31597462601859122 -0.25080747204364812 0 0.30111904597271899 -0.2536098058489899 0 0.30981211567343969 -0.26250129009931661 0 0.29812220868357159 -0.26533402464574418 0 0.30981211567343969 -0.26250129009931661 0 0.30706455279928557 -0.27339796693147528 0 0.31611371382327402 -0.28007222207304999 0 0.30320790951940702 -0.28313078900162059 0 0.30706455279928557 -0.27339796693147528 0 0.29026987947112831 -0.28319821192468808 0 0.30320790951940702 -0.28313078900162059 0 0.29755036247591721 -0.27602563541609298 0 0.30320790951940702 -0.28313078900162059 0 0.30706455279928557 -0.27339796693147528 0 0.29755036247591721 -0.27602563541609298 0 0.29812220868357159 -0.26533402464574418 0 0.30706455279928557 -0.27339796693147528 0 0.29755036247591721 -0.27602563541609298 0 0.29812220868357159 -0.26533402464574418 0 0.29755036247591721 -0.27602563541609298 0 0.28863308206368682 -0.27515966401439529 0 0.29026987947112831 -0.28319821192468808 0 0.28863308206368682 -0.27515966401439529 0 0.29026987947112831 -0.28319821192468808 0 0.29755036247591721 -0.27602563541609298 0 0.28863308206368682 -0.27515966401439529 0 0.28863308206368682 -0.27515966401439529 0 0.28456511698073272 -0.25518130134833977 0 0.29812220868357159 -0.26533402464574418 0 0.28863308206368682 -0.27515966401439529 0 0.28456511698073272 -0.25518130134833977 0 0.29812220868357159 -0.26533402464574418 0 0.30111904597271899 -0.2536098058489899 0 0.28456511698073272 -0.25518130134833977 0 0.28863308206368682 -0.27515966401439529 0 0.28456511698073272 -0.25518130134833977 0 0.27223885194073971 -0.26265851400849172 0 0.28456511698073272 -0.25518130134833977 0 0.27223885194073971 -0.26265851400849172 0 0.26629969424128969 -0.25192769388052821 0 0.27223885194073971 -0.26265851400849172 0 0.26629969424128969 -0.25192769388052821 0 0.2629172406837702 -0.26740365320709081 0 0.26500420865911251 -0.28331687632378699 0 0.27342558025451552 -0.27498979272208851 0 0.2629172406837702 -0.26740365320709081 0 0.28863308206368682 -0.27515966401439529 0 0.27223885194073971 -0.26265851400849172 0 0.27342558025451552 -0.27498979272208851 0 0.27805302037335089 -0.28584974436810762 0 0.28863308206368682 -0.27515966401439529 0 0.27342558025451552 -0.27498979272208851 0 0.27223885194073971 -0.26265851400849172 0 0.27342558025451552 -0.27498979272208851 0 0.2629172406837702 -0.26740365320709081 0 0.26500420865911251 -0.28331687632378699 0 0.2629172406837702 -0.26740365320709081 0 0.2507153324002197 -0.27704953531328702 0 0.2629172406837702 -0.26740365320709081 0 0.2507153324002197 -0.27704953531328702 0 0.2466218950091964 -0.26012473444713258 0 0.25037283077400019 -0.2416092145933311 0 0.26629969424128969 -0.25192769388052821 0 0.2466218950091964 -0.26012473444713258 0 0.26629969424128969 -0.25192769388052821 0 0.2629172406837702 -0.26740365320709081 0 0.2466218950091964 -0.26012473444713258 0 0.25037283077400019 -0.2416092145933311 0 0.2466218950091964 -0.26012473444713258 0 0.2339549802858914 -0.24933471903745599 0 0.2466218950091964 -0.26012473444713258 0 0.22717476572977791 -0.26325637954660608 0 0.2339549802858914 -0.24933471903745599 0 0.2466218950091964 -0.26012473444713258 0 0.23628574795648369 -0.27498419313581679 0 0.22717476572977791 -0.26325637954660608 0 0.2507153324002197 -0.27704953531328702 0 0.2466218950091964 -0.26012473444713258 0 0.23628574795648369 -0.27498419313581679 0 0.2507153324002197 -0.27704953531328702 0 0.23628574795648369 -0.27498419313581679 0 0.24044913557019401 -0.28723099739492908 0 0.2247339410531527 -0.27667652802353632 0 0.21554844428562811 -0.26491471108287651 0 0.21653111649902579 -0.28712771180040292 0 0.23628574795648369 -0.27498419313581679 0 0.2247339410531527 -0.27667652802353632 0 0.22717476572977791 -0.26325637954660608 0 0.2247339410531527 -0.27667652802353632 0 0.22717476572977791 -0.26325637954660608 0 0.21554844428562811 -0.26491471108287651 0 0.22717476572977791 -0.26325637954660608 0 0.22331750647786899 -0.25281133177650322 0 0.2339549802858914 -0.24933471903745599 0 0.22717476572977791 -0.26325637954660608 0 0.22331750647786899 -0.25281133177650322 0 0.21554844428562811 -0.26491471108287651 0 0.2084475354763706 -0.25511513831035743 0 0.21554844428562811 -0.26491471108287651 0 0.1982966667633215 -0.26354120971092698 0 0.21554844428562811 -0.26491471108287651 0 0.21456577207223029 -0.24270171036535029 0 0.22331750647786899 -0.25281133177650322 0 0.21554844428562811 -0.26491471108287651 0 0.21456577207223029 -0.24270171036535029 0 0.2084475354763706 -0.25511513831035743 0 0.21554844428562811 -0.26491471108287651 0 0.21336353465090491 -0.24693864317134839 0 0.21554844428562811 -0.26491471108287651 0 0.21336353465090491 -0.24693864317134839 0 0.21456577207223029 -0.24270171036535029 0 0.2084475354763706 -0.25511513831035743 0 0.1982966667633215 -0.26354120971092698 0 0.2080714594183444 -0.2424179483002232 0 0.1982966667633215 -0.26354120971092698 0 0.2080714594183444 -0.2424179483002232 0 0.21554844428562811 -0.26491471108287651 0 0.21653111649902579 -0.28712771180040292 0 0.21554844428562811 -0.26491471108287651 0 0.20859607852913339 -0.28093905456482821 0 0.21653111649902579 -0.28712771180040292 0 0.21554844428562811 -0.26491471108287651 0 0.20859607852913339 -0.28093905456482821 0 0.2011380539128553 -0.27767933622792518 0 0.21554844428562811 -0.26491471108287651 0 0.2011380539128553 -0.27767933622792518 0 0.1982966667633215 -0.26354120971092698 0 0.1982966667633215 -0.26354120971092698 0 0.18852187410829821 -0.28466447112163068 0 0.1982966667633215 -0.26354120971092698 0 0.18852187410829821 -0.28466447112163068 0 0.1845366839674035 -0.26640487959885623 0 0.2011380539128553 -0.27767933622792518 0 0.1982966667633215 -0.26354120971092698 0 0.18852187410829821 -0.28466447112163068 0 0.1982966667633215 -0.26354120971092698 0 0.2080714594183444 -0.2424179483002232 0 0.19254414318066221 -0.24961624770678509 0 0.1982966667633215 -0.26354120971092698 0 0.18706352147094041 -0.25756661524031438 0 0.1845366839674035 -0.26640487959885623 0 0.1982966667633215 -0.26354120971092698 0 0.18706352147094041 -0.25756661524031438 0 0.19254414318066221 -0.24961624770678509 0 0.18706352147094041 -0.25756661524031438 0 0.19254414318066221 -0.24961624770678509 0 0.18399505531774341 -0.24981832115951039 0 0.20249447748908611 -0.29813355613580778 0 0.1976485991634879 -0.30796138879627621 0 0.19462594870140809 -0.30164723750547567 0 0.20249447748908611 -0.29813355613580778 0 0.19462594870140809 -0.30164723750547567 0 0.19392418081794471 -0.29575522021664652 0 0.20249447748908611 -0.29813355613580778 0 0.1976485991634879 -0.30796138879627621 0 0.20782414549410869 -0.30817847155873718 0 0.1976485991634879 -0.30796138879627621 0 0.20782414549410869 -0.30817847155873718 0 0.20282381327660201 -0.31505297042611552 0 0.1976485991634879 -0.30796138879627621 0 0.19009702279388629 -0.3064242775921906 0 0.18802618722583669 -0.31833181955932999 0 0.1976485991634879 -0.30796138879627621 0 0.19009702279388629 -0.3064242775921906 0 0.19462594870140809 -0.30164723750547567 0 0.19009702279388629 -0.3064242775921906 0 0.19462594870140809 -0.30164723750547567 0 0.1880606218677118 -0.30022154946313712 0 0.19462594870140809 -0.30164723750547567 0 0.19110113081553529 -0.29631368747161629 0 0.19392418081794471 -0.29575522021664652 0 0.1880606218677118 -0.30022154946313712 0 0.19110113081553529 -0.29631368747161629 0 0.18734834214976739 -0.29514628785519947 0 0.19462594870140809 -0.30164723750547567 0 0.1880606218677118 -0.30022154946313712 0 0.19110113081553529 -0.29631368747161629 0 0.20249447748908611 -0.29813355613580778 0 0.18747516626574931 -0.28692639975368628 0 0.20249447748908611 -0.29813355613580778 0 0.19392418081794471 -0.29575522021664652 0 0.18747516626574931 -0.28692639975368628 0 0.19110113081553529 -0.29631368747161629 0 0.19392418081794471 -0.29575522021664652 0 0.18747516626574931 -0.28692639975368628 0 0.19110113081553529 -0.29631368747161629 0 0.18747516626574931 -0.28692639975368628 0 0.18734834214976739 -0.29514628785519947 0 0.18852187410829821 -0.28466447112163068 0 0.19787122383615691 -0.29172525818392958 0 0.18852187410829821 -0.28466447112163068 0 0.19731262536099689 -0.28481999283041842 0 0.19787122383615691 -0.29172525818392958 0 0.18852187410829821 -0.28466447112163068 0 0.19787122383615691 -0.29172525818392958 0 0.18747516626574931 -0.28692639975368628 0 0.18852187410829821 -0.28466447112163068 0 0.18747516626574931 -0.28692639975368628 0 0.2011380539128553 -0.27767933622792518 0 0.18852187410829821 -0.28466447112163068 0 0.19731262536099689 -0.28481999283041842 0 0.201719349586677 -0.2852109057881882 0 0.19787122383615691 -0.29172525818392958 0 0.206049533411369 -0.28982701925762389 0 0.19731262536099689 -0.28481999283041842 0 0.201719349586677 -0.2852109057881882 0 0.19787122383615691 -0.29172525818392958 0 0.2011380539128553 -0.27767933622792518 0 0.19731262536099689 -0.28481999283041842 0 0.201719349586677 -0.2852109057881882 0 0.20249447748908611 -0.29813355613580778 0 0.19787122383615691 -0.29172525818392958 0 0.18747516626574931 -0.28692639975368628 0 0.20249447748908611 -0.29813355613580778 0 0.19787122383615691 -0.29172525818392958 0 0.206049533411369 -0.28982701925762389 0 0.20249447748908611 -0.29813355613580778 0 0.206049533411369 -0.28982701925762389 0 0.20903552332543929 -0.29406903275804652 0 0.206049533411369 -0.28982701925762389 0 0.20903552332543929 -0.29406903275804652 0 0.21653111649902579 -0.28712771180040292 0 0.20249447748908611 -0.29813355613580778 0 0.20903552332543929 -0.29406903275804652 0 0.2123558614978226 -0.29827812898856709 0 0.20859607852913339 -0.28093905456482821 0 0.206049533411369 -0.28982701925762389 0 0.21653111649902579 -0.28712771180040292 0 0.20859607852913339 -0.28093905456482821 0 0.201719349586677 -0.2852109057881882 0 0.206049533411369 -0.28982701925762389 0 0.20859607852913339 -0.28093905456482821 0 0.2011380539128553 -0.27767933622792518 0 0.201719349586677 -0.2852109057881882 0 0.20903552332543929 -0.29406903275804652 0 0.21653111649902579 -0.28712771180040292 0 0.2123558614978226 -0.29827812898856709 0 0.21653111649902579 -0.28712771180040292 0 0.2175137887124228 -0.30934071251792922 0 0.21653111649902579 -0.28712771180040292 0 0.2123558614978226 -0.29827812898856709 0 0.2175137887124228 -0.30934071251792922 0 0.20249447748908611 -0.29813355613580778 0 0.2123558614978226 -0.29827812898856709 0 0.2175137887124228 -0.30934071251792922 0 0.20249447748908611 -0.29813355613580778 0 0.2175137887124228 -0.30934071251792922 0 0.20782414549410869 -0.30817847155873718 0 0.2176214393273678 -0.31177412129290383 0 0.20282381327660201 -0.31505297042611552 0 0.20249447748908611 -0.29813355613580778 0 0.20782414549410869 -0.30817847155873718 0 0.2175137887124228 -0.30934071251792922 0 0.20782414549410869 -0.30817847155873718 0 0.2175137887124228 -0.30934071251792922 0 0.2176214393273678 -0.31177412129290383 0 0.2175137887124228 -0.30934071251792922 0 0.2176214393273678 -0.31177412129290383 0 0.2175137887124228 -0.30934071251792922 0 0.2176214393273678 -0.31177412129290383 0 0.21999804566891551 -0.31122614102315033 0 0.21999804566891551 -0.31122614102315033 0 0.24423538898563429 -0.30587701823941071 0 0.2175137887124228 -0.30934071251792922 0 0.21999804566891551 -0.31122614102315033 0 0.22812963079484819 -0.29309964455197901 0 0.21999804566891551 -0.31122614102315033 0 0.22812963079484819 -0.29309964455197901 0 0.21999804566891551 -0.31122614102315033 0 0.22812963079484819 -0.29309964455197901 0 0.24423538898563429 -0.30587701823941071 0 0.2176214393273678 -0.31177412129290383 0 0.21999804566891551 -0.31122614102315033 0 0.2175137887124228 -0.30934071251792922 0 0.21999804566891551 -0.31122614102315033 0 0.23628574795648369 -0.27498419313581679 0 0.22812963079484819 -0.29309964455197901 0 0.2247339410531527 -0.27667652802353632 0 0.21653111649902579 -0.28712771180040292 0 0.22812963079484819 -0.29309964455197901 0 0.23628574795648369 -0.27498419313581679 0 0.2247339410531527 -0.27667652802353632 0 0.22812963079484819 -0.29309964455197901 0 0.21653111649902579 -0.28712771180040292 0 0.2175137887124228 -0.30934071251792922 0 0.22812963079484819 -0.29309964455197901 0 0.23628574795648369 -0.27498419313581679 0 0.22812963079484819 -0.29309964455197901 0 0.24044913557019401 -0.28723099739492908 0 0.25301376652256202 -0.2892367573709661 0 0.24044913557019401 -0.28723099739492908 0 0.24423538898563429 -0.30587701823941071 0 0.22812963079484819 -0.29309964455197901 0 0.24044913557019401 -0.28723099739492908 0 0.24423538898563429 -0.30587701823941071 0 0.25301376652256202 -0.2892367573709661 0 0.2507153324002197 -0.27704953531328702 0 0.24044913557019401 -0.28723099739492908 0 0.21999804566891551 -0.31122614102315033 0 0.24423538898563429 -0.30587701823941071 0 0.2404170410518052 -0.32643073261338312 0 0.25099839141978419 -0.34936335514031408 0 0.2316655193484673 -0.33515436960409939 0 0.25099839141978419 -0.34936335514031408 0 0.2404170410518052 -0.32643073261338312 0 0.2316655193484673 -0.33515436960409939 0 0.2404170410518052 -0.32643073261338312 0 0.2316655193484673 -0.33515436960409939 0 0.2247705650129608 -0.32491873692320528 0 0.2316655193484673 -0.33515436960409939 0 0.22208049410379579 -0.34309390150507102 0 0.22867514261462599 -0.34782526071452929 0 0.2316655193484673 -0.33515436960409939 0 0.22208049410379579 -0.34309390150507102 0 0.220555537226792 -0.33578323097752499 0 0.22208049410379579 -0.34309390150507102 0 0.220555537226792 -0.33578323097752499 0 0.21451162402718699 -0.34512658597487872 0 0.220555537226792 -0.33578323097752499 0 0.2247705650129608 -0.32491873692320528 0 0.21820242441149371 -0.32490710899175251 0 0.2316655193484673 -0.33515436960409939 0 0.220555537226792 -0.33578323097752499 0 0.2247705650129608 -0.32491873692320528 0 0.21999804566891551 -0.31122614102315033 0 0.2404170410518052 -0.32643073261338312 0 0.2247705650129608 -0.32491873692320528 0 0.21999804566891551 -0.31122614102315033 0 0.2404170410518052 -0.32643073261338312 0 0.2247705650129608 -0.32491873692320528 0 0.21780935440599439 -0.31602188338433101 0 0.21820242441149371 -0.32490710899175251 0 0.21999804566891551 -0.31122614102315033 0 0.2247705650129608 -0.32491873692320528 0 0.21780935440599439 -0.31602188338433101 0 0.21999804566891551 -0.31122614102315033 0 0.21780935440599439 -0.31602188338433101 0 0.23679608458568241 -0.3713456781615978 0 0.24534349961555019 -0.36253701182870851 0 0.24987622704845311 -0.37613765202982719 0 0.23679608458568241 -0.3713456781615978 0 0.24534349961555019 -0.36253701182870851 0 0.23133102347449649 -0.35950822589080189 0 0.25099839141978419 -0.34936335514031408 0 0.2316655193484673 -0.33515436960409939 0 0.23760271529458479 -0.35087764463569071 0 0.24534349961555019 -0.36253701182870851 0 0.23760271529458479 -0.35087764463569071 0 0.23133102347449649 -0.35950822589080189 0 0.25099839141978419 -0.34936335514031408 0 0.24534349961555019 -0.36253701182870851 0 0.23760271529458479 -0.35087764463569071 0 0.2316655193484673 -0.33515436960409939 0 0.23760271529458479 -0.35087764463569071 0 0.22867514261462599 -0.34782526071452929 0 0.22208049410379579 -0.34309390150507102 0 0.22076837523631451 -0.35267920974236072 0 0.21451162402718699 -0.34512658597487872 0 0.22208049410379579 -0.34309390150507102 0 0.22867514261462599 -0.34782526071452929 0 0.22076837523631451 -0.35267920974236072 0 0.22076837523631451 -0.35267920974236072 0 0.22341137818785181 -0.36337688942730773 0 0.21609027172906259 -0.36087537471117581 0 0.22076837523631451 -0.35267920974236072 0 0.23133102347449649 -0.35950822589080189 0 0.22341137818785181 -0.36337688942730773 0 0.22867514261462599 -0.34782526071452929 0 0.22076837523631451 -0.35267920974236072 0 0.23133102347449649 -0.35950822589080189 0 0.23760271529458479 -0.35087764463569071 0 0.22867514261462599 -0.34782526071452929 0 0.23133102347449649 -0.35950822589080189 0 0.23133102347449649 -0.35950822589080189 0 0.22341137818785181 -0.36337688942730773 0 0.22699371624108439 -0.37103399677892651 0 0.22341137818785181 -0.36337688942730773 0 0.22699371624108439 -0.37103399677892651 0 0.21663927632257499 -0.37152038636996992 0 0.22699371624108439 -0.37103399677892651 0 0.21663927632257499 -0.37152038636996992 0 0.22189277223980711 -0.38054577212349588 0 0.23679608458568241 -0.3713456781615978 0 0.22699371624108439 -0.37103399677892651 0 0.23010576568282681 -0.37607478874810818 0 0.23679608458568241 -0.3713456781615978 0 0.23133102347449649 -0.35950822589080189 0 0.22699371624108439 -0.37103399677892651 0 0.21663927632257499 -0.37152038636996992 0 0.20683644217058031 -0.36558797855932218 0 0.20576161095015591 -0.37595213443190167 0 0.22341137818785181 -0.36337688942730773 0 0.21663927632257499 -0.37152038636996992 0 0.21609027172906259 -0.36087537471117581 0 0.21609027172906259 -0.36087537471117581 0 0.20683644217058031 -0.36558797855932218 0 0.21089823393406021 -0.35324530101306001 0 0.21663927632257499 -0.37152038636996992 0 0.21609027172906259 -0.36087537471117581 0 0.20683644217058031 -0.36558797855932218 0 0.19940837682496099 -0.35689206815154528 0 0.20777431361625601 -0.33831058893907762 0 0.21089823393406021 -0.35324530101306001 0 0.19940837682496099 -0.35689206815154528 0 0.20777431361625601 -0.33831058893907762 0 0.20683644217058031 -0.36558797855932218 0 0.21089823393406021 -0.35324530101306001 0 0.19940837682496099 -0.35689206815154528 0 0.22076837523631451 -0.35267920974236072 0 0.21609027172906259 -0.36087537471117581 0 0.21089823393406021 -0.35324530101306001 0 0.21089823393406021 -0.35324530101306001 0 0.21451162402718699 -0.34512658597487872 0 0.20777431361625601 -0.33831058893907762 0 0.22076837523631451 -0.35267920974236072 0 0.21089823393406021 -0.35324530101306001 0 0.21451162402718699 -0.34512658597487872 0 0.1971616983813648 -0.34495631128618592 0 0.19940837682496099 -0.35689206815154528 0 0.20777431361625601 -0.33831058893907762 0 0.1971616983813648 -0.34495631128618592 0 0.18787137947787569 -0.35180034780069419 0 0.18864170350563411 -0.33720407153827198 0 0.1971616983813648 -0.34495631128618592 0 0.18787137947787569 -0.35180034780069419 0 0.19940837682496099 -0.35689206815154528 0 0.20683644217058031 -0.36558797855932218 0 0.20576161095015591 -0.37595213443190167 0 0.1910424400336663 -0.37547354736401328 0 0.18787137947787569 -0.35180034780069419 0 0.19940837682496099 -0.35689206815154528 0 0.1910424400336663 -0.37547354736401328 0 0.19940837682496099 -0.35689206815154528 0 0.1910424400336663 -0.37547354736401328 0 0.20683644217058031 -0.36558797855932218 0 0.19940837682496099 -0.35689206815154528 0 0.1910424400336663 -0.37547354736401328 0 0.21780935440599439 -0.31602188338433101 0 0.20777431361625601 -0.33831058893907762 0 0.21780935440599439 -0.31602188338433101 0 0.20777431361625601 -0.33831058893907762 0 0.20282381327660201 -0.31505297042611552 0 0.21780935440599439 -0.31602188338433101 0 0.21820242441149371 -0.32490710899175251 0 0.20777431361625601 -0.33831058893907762 0 0.2176214393273678 -0.31177412129290383 0 0.20282381327660201 -0.31505297042611552 0 0.2176214393273678 -0.31177412129290383 0 0.21780935440599439 -0.31602188338433101 0 0.20282381327660201 -0.31505297042611552 0 0.2176214393273678 -0.31177412129290383 0 0.21780935440599439 -0.31602188338433101 0 0.2176214393273678 -0.31177412129290383 0 0.21999804566891551 -0.31122614102315033 0 0.21780935440599439 -0.31602188338433101 0 0.21780935440599439 -0.31602188338433101 0 0.21820242441149371 -0.32490710899175251 0 0.220555537226792 -0.33578323097752499 0 0.21820242441149371 -0.32490710899175251 0 0.20777431361625601 -0.33831058893907762 0 0.220555537226792 -0.33578323097752499 0 0.21451162402718699 -0.34512658597487872 0 0.20777431361625601 -0.33831058893907762 0 0.21451162402718699 -0.34512658597487872 0 0.20777431361625601 -0.33831058893907762 0 0.1971616983813648 -0.34495631128618592 0 0.20777431361625601 -0.33831058893907762 0 0.18864170350563411 -0.33720407153827198 0 0.20777431361625601 -0.33831058893907762 0 0.18802618722583669 -0.31833181955932999 0 0.20777431361625601 -0.33831058893907762 0 0.18864170350563411 -0.33720407153827198 0 0.18802618722583669 -0.31833181955932999 0 0.20777431361625601 -0.33831058893907762 0 0.20282381327660201 -0.31505297042611552 0 0.18802618722583669 -0.31833181955932999 0 0.20282381327660201 -0.31505297042611552 0 0.18802618722583669 -0.31833181955932999 0 0.1976485991634879 -0.30796138879627621 0 0.20282381327660201 -0.31505297042611552 0 0.18802618722583669 -0.31833181955932999 0 0.18802618722583669 -0.31833181955932999 0 0.1791507244663583 -0.32983729973660558 0 0.16791254130802971 -0.3227885891963716 0 0.18802618722583669 -0.31833181955932999 0 0.17151825735526699 -0.31325416760549368 0 0.16791254130802971 -0.3227885891963716 0 0.18802618722583669 -0.31833181955932999 0 0.16791254130802971 -0.3227885891963716 0 0.18864170350563411 -0.33720407153827198 0 0.18802618722583669 -0.31833181955932999 0 0.1791507244663583 -0.32983729973660558 0 0.17202246582593331 -0.34102471865244838 0 0.1791507244663583 -0.32983729973660558 0 0.16791254130802971 -0.3227885891963716 0 0.18787137947787569 -0.35180034780069419 0 0.18864170350563411 -0.33720407153827198 0 0.17202246582593331 -0.34102471865244838 0 0.18864170350563411 -0.33720407153827198 0 0.17202246582593331 -0.34102471865244838 0 0.1791507244663583 -0.32983729973660558 0 0.17202246582593331 -0.34102471865244838 0 0.1546435437787094 -0.34381338892778002 0 0.1557586906108582 -0.32786840018592928 0 0.17202246582593331 -0.34102471865244838 0 0.16791254130802971 -0.3227885891963716 0 0.1557586906108582 -0.32786840018592928 0 0.16791254130802971 -0.3227885891963716 0 0.1557586906108582 -0.32786840018592928 0 0.1602411687519314 -0.31190927739118429 0 0.17151825735526699 -0.31325416760549368 0 0.16791254130802971 -0.3227885891963716 0 0.1602411687519314 -0.31190927739118429 0 0.18787137947787569 -0.35180034780069419 0 0.17662324672053431 -0.35795823269279659 0 0.1910424400336663 -0.37547354736401328 0 0.17662324672053431 -0.35795823269279659 0 0.17035242753357599 -0.36877211446365682 0 0.1910424400336663 -0.37547354736401328 0 0.17035242753357599 -0.36877211446365682 0 0.1910424400336663 -0.37547354736401328 0 0.1737051017910701 -0.38004230502140057 0 0.18787137947787569 -0.35180034780069419 0 0.17202246582593331 -0.34102471865244838 0 0.17662324672053431 -0.35795823269279659 0 0.17202246582593331 -0.34102471865244838 0 0.17662324672053431 -0.35795823269279659 0 0.16265844046108829 -0.35526087104265458 0 0.17202246582593331 -0.34102471865244838 0 0.16265844046108829 -0.35526087104265458 0 0.1546435437787094 -0.34381338892778002 0 0.17662324672053431 -0.35795823269279659 0 0.16265844046108829 -0.35526087104265458 0 0.17035242753357599 -0.36877211446365682 0 0.16265844046108829 -0.35526087104265458 0 0.1569593121701936 -0.36832063090657668 0 0.17035242753357599 -0.36877211446365682 0 0.1569593121701936 -0.36832063090657668 0 0.17035242753357599 -0.36877211446365682 0 0.16307541855137739 -0.37743582412871929 0 0.14536400873927011 -0.3681220756701501 0 0.1426630499740982 -0.35652090160864008 0 0.13524945632583441 -0.37311377610700652 0 0.16265844046108829 -0.35526087104265458 0 0.1569593121701936 -0.36832063090657668 0 0.1426630499740982 -0.35652090160864008 0 0.14536400873927011 -0.3681220756701501 0 0.13524945632583441 -0.37311377610700652 0 0.14973869037300869 -0.38096853745143089 0 0.1569593121701936 -0.36832063090657668 0 0.14536400873927011 -0.3681220756701501 0 0.14973869037300869 -0.38096853745143089 0 0.1569593121701936 -0.36832063090657668 0 0.14536400873927011 -0.3681220756701501 0 0.1426630499740982 -0.35652090160864008 0 0.1546435437787094 -0.34381338892778002 0 0.1426630499740982 -0.35652090160864008 0 0.1424354920479888 -0.33775294740649747 0 0.16265844046108829 -0.35526087104265458 0 0.1546435437787094 -0.34381338892778002 0 0.1426630499740982 -0.35652090160864008 0 0.13449730155472761 -0.34743155680512378 0 0.12784456261830821 -0.36308533366748658 0 0.123981461538115 -0.35128285539313481 0 0.1426630499740982 -0.35652090160864008 0 0.13449730155472761 -0.34743155680512378 0 0.1424354920479888 -0.33775294740649747 0 0.1426630499740982 -0.35652090160864008 0 0.13449730155472761 -0.34743155680512378 0 0.12784456261830821 -0.36308533366748658 0 0.13449730155472761 -0.34743155680512378 0 0.13051916655351839 -0.33696304048325831 0 0.123981461538115 -0.35128285539313481 0 0.1426630499740982 -0.35652090160864008 0 0.12784456261830821 -0.36308533366748658 0 0.13524945632583441 -0.37311377610700652 0 0.12784456261830821 -0.36308533366748658 0 0.13524945632583441 -0.37311377610700652 0 0.12609635470998201 -0.38402791619100712 0 0.14855409589738661 -0.31441038212804873 0 0.1557586906108582 -0.32786840018592928 0 0.1602411687519314 -0.31190927739118429 0 0.1445015266660287 -0.32337949759917511 0 0.14855409589738661 -0.31441038212804873 0 0.13871327718005111 -0.31332369293528212 0 0.1445015266660287 -0.32337949759917511 0 0.14855409589738661 -0.31441038212804873 0 0.1557586906108582 -0.32786840018592928 0 0.1546435437787094 -0.34381338892778002 0 0.1557586906108582 -0.32786840018592928 0 0.1424354920479888 -0.33775294740649747 0 0.1445015266660287 -0.32337949759917511 0 0.1557586906108582 -0.32786840018592928 0 0.1424354920479888 -0.33775294740649747 0 0.1445015266660287 -0.32337949759917511 0 0.1424354920479888 -0.33775294740649747 0 0.13219802669416811 -0.32498852212276208 0 0.1424354920479888 -0.33775294740649747 0 0.13051916655351839 -0.33696304048325831 0 0.13219802669416811 -0.32498852212276208 0 0.13449730155472761 -0.34743155680512378 0 0.1424354920479888 -0.33775294740649747 0 0.13051916655351839 -0.33696304048325831 0 0.13051916655351839 -0.33696304048325831 0 0.13219802669416811 -0.32498852212276208 0 0.12260601330919629 -0.33072698382653798 0 0.1445015266660287 -0.32337949759917511 0 0.13219802669416811 -0.32498852212276208 0 0.13871327718005111 -0.31332369293528212 0 0.13219802669416811 -0.32498852212276208 0 0.1265219532001009 -0.3124330460259736 0 0.1192961391526948 -0.32261879728377291 0 0.13219802669416811 -0.32498852212276208 0 0.13871327718005111 -0.31332369293528212 0 0.1265219532001009 -0.3124330460259736 0 0.1265219532001009 -0.3124330460259736 0 0.1332586495603032 -0.30031372317270688 0 0.1198701537204314 -0.30089140532399938 0 0.1332586495603032 -0.30031372317270688 0 0.1242383748246253 -0.29131174999725179 0 0.1198701537204314 -0.30089140532399938 0 0.13871327718005111 -0.31332369293528212 0 0.1265219532001009 -0.3124330460259736 0 0.1332586495603032 -0.30031372317270688 0 0.13871327718005111 -0.31332369293528212 0 0.1332586495603032 -0.30031372317270688 0 0.147245411062319 -0.30441698656302629 0 0.14855409589738661 -0.31441038212804873 0 0.13871327718005111 -0.31332369293528212 0 0.147245411062319 -0.30441698656302629 0 0.147245411062319 -0.30441698656302629 0 0.15432967412725099 -0.29846298066074151 0 0.14327492933615671 -0.29425024746867751 0 0.1332586495603032 -0.30031372317270688 0 0.147245411062319 -0.30441698656302629 0 0.14327492933615671 -0.29425024746867751 0 0.147245411062319 -0.30441698656302629 0 0.15432967412725099 -0.29846298066074151 0 0.1602411687519314 -0.31190927739118429 0 0.14855409589738661 -0.31441038212804873 0 0.147245411062319 -0.30441698656302629 0 0.1602411687519314 -0.31190927739118429 0 0.15432967412725099 -0.29846298066074151 0 0.1517600770447052 -0.28164214899084639 0 0.14327492933615671 -0.29425024746867751 0 0.1517600770447052 -0.28164214899084639 0 0.14327492933615671 -0.29425024746867751 0 0.13646338677899769 -0.28546266283427663 0 0.1332586495603032 -0.30031372317270688 0 0.14327492933615671 -0.29425024746867751 0 0.13646338677899769 -0.28546266283427663 0 0.1332586495603032 -0.30031372317270688 0 0.13646338677899769 -0.28546266283427663 0 0.1242383748246253 -0.29131174999725179 0 0.13646338677899769 -0.28546266283427663 0 0.1233023238440631 -0.28097148456094378 0 0.1242383748246253 -0.29131174999725179 0 0.1517600770447052 -0.28164214899084639 0 0.13646338677899769 -0.28546266283427663 0 0.1311170075682456 -0.27142576198599933 0 0.1517600770447052 -0.28164214899084639 0 0.1311170075682456 -0.27142576198599933 0 0.1364827709165429 -0.26618641562940759 0 0.13646338677899769 -0.28546266283427663 0 0.1311170075682456 -0.27142576198599933 0 0.1233023238440631 -0.28097148456094378 0 0.1311170075682456 -0.27142576198599933 0 0.1364827709165429 -0.26618641562940759 0 0.1212054647883809 -0.25073068226796852 0 0.1364827709165429 -0.26618641562940759 0 0.13217397618885759 -0.25462043987800831 0 0.1212054647883809 -0.25073068226796852 0 0.1364827709165429 -0.26618641562940759 0 0.1212054647883809 -0.25073068226796852 0 0.1364827709165429 -0.26618641562940759 0 0.13217397618885759 -0.25462043987800831 0 0.14275904560399111 -0.25945725309375861 0 0.13217397618885759 -0.25462043987800831 0 0.1429630926125974 -0.2502577086919005 0 0.14275904560399111 -0.25945725309375861 0 0.1429630926125974 -0.2502577086919005 0 0.16574248336044761 -0.26746108990676593 0 0.1429630926125974 -0.2502577086919005 0 0.15128247879849499 -0.26292486595599002 0 0.16574248336044761 -0.26746108990676593 0 0.1429630926125974 -0.2502577086919005 0 0.16574248336044761 -0.26746108990676593 0 0.16001236861667459 -0.2513654190734112 0 0.1429630926125974 -0.2502577086919005 0 0.14275904560399111 -0.25945725309375861 0 0.15128247879849499 -0.26292486595599002 0 0.1364827709165429 -0.26618641562940759 0 0.14275904560399111 -0.25945725309375861 0 0.15128247879849499 -0.26292486595599002 0 0.1517600770447052 -0.28164214899084639 0 0.1364827709165429 -0.26618641562940759 0 0.15128247879849499 -0.26292486595599002 0 0.1517600770447052 -0.28164214899084639 0 0.15128247879849499 -0.26292486595599002 0 0.15776774232478771 -0.26956647822523339 0 0.1517600770447052 -0.28164214899084639 0 0.1311170075682456 -0.27142576198599933 0 0.1517600770447052 -0.28164214899084639 0 0.1364827709165429 -0.26618641562940759 0 0.1517600770447052 -0.28164214899084639 0 0.16209364730358741 -0.27452888323759039 0 0.16594555478614451 -0.28284233368471318 0 0.1517600770447052 -0.28164214899084639 0 0.16209364730358741 -0.27452888323759039 0 0.15776774232478771 -0.26956647822523339 0 0.16209364730358741 -0.27452888323759039 0 0.15776774232478771 -0.26956647822523339 0 0.16574248336044761 -0.26746108990676593 0 0.15128247879849499 -0.26292486595599002 0 0.15776774232478771 -0.26956647822523339 0 0.16574248336044761 -0.26746108990676593 0 0.16209364730358741 -0.27452888323759039 0 0.16574248336044761 -0.26746108990676593 0 0.16920230535812411 -0.27329149954452342 0 0.16209364730358741 -0.27452888323759039 0 0.16920230535812411 -0.27329149954452342 0 0.16594555478614451 -0.28284233368471318 0 0.16920230535812411 -0.27329149954452342 0 0.1710222018321049 -0.28124575318360368 0 0.16594555478614451 -0.28284233368471318 0 0.16574248336044761 -0.26746108990676593 0 0.16001236861667459 -0.2513654190734112 0 0.16988601458932601 -0.2589500224365659 0 0.16574248336044761 -0.26746108990676593 0 0.16988601458932601 -0.2589500224365659 0 0.17628584543496439 -0.26683535894776161 0 0.16001236861667459 -0.2513654190734112 0 0.16988601458932601 -0.2589500224365659 0 0.16978669848249819 -0.25098739912941831 0 0.1767458594742066 -0.25730285456071711 0 0.17619278994504239 -0.24587918172992959 0 0.18399505531774341 -0.24981832115951039 0 0.16978669848249819 -0.25098739912941831 0 0.1767458594742066 -0.25730285456071711 0 0.17619278994504239 -0.24587918172992959 0 0.16988601458932601 -0.2589500224365659 0 0.16978669848249819 -0.25098739912941831 0 0.1767458594742066 -0.25730285456071711 0 0.16988601458932601 -0.2589500224365659 0 0.1767458594742066 -0.25730285456071711 0 0.17628584543496439 -0.26683535894776161 0 0.1767458594742066 -0.25730285456071711 0 0.17628584543496439 -0.26683535894776161 0 0.1845366839674035 -0.26640487959885623 0 0.1767458594742066 -0.25730285456071711 0 0.18706352147094041 -0.25756661524031438 0 0.1845366839674035 -0.26640487959885623 0 0.1767458594742066 -0.25730285456071711 0 0.18706352147094041 -0.25756661524031438 0 0.18399505531774341 -0.24981832115951039 0 0.18852187410829821 -0.28466447112163068 0 0.17628584543496439 -0.26683535894776161 0 0.1845366839674035 -0.26640487959885623 0 0.18852187410829821 -0.28466447112163068 0 0.16574248336044761 -0.26746108990676593 0 0.18852187410829821 -0.28466447112163068 0 0.16574248336044761 -0.26746108990676593 0 0.17628584543496439 -0.26683535894776161 0 0.16920230535812411 -0.27329149954452342 0 0.18747516626574931 -0.28692639975368628 0 0.17602993407772211 -0.2832030986568283 0 0.18852187410829821 -0.28466447112163068 0 0.16574248336044761 -0.26746108990676593 0 0.16920230535812411 -0.27329149954452342 0 0.16920230535812411 -0.27329149954452342 0 0.18747516626574931 -0.28692639975368628 0 0.16920230535812411 -0.27329149954452342 0 0.1710222018321049 -0.28124575318360368 0 0.17602993407772211 -0.2832030986568283 0 0.18747516626574931 -0.28692639975368628 0 0.1806905449634813 -0.28832929748571318 0 0.17602993407772211 -0.2832030986568283 0 0.18852187410829821 -0.28466447112163068 0 0.16920230535812411 -0.27329149954452342 0 0.18747516626574931 -0.28692639975368628 0 0.18747516626574931 -0.28692639975368628 0 0.1806905449634813 -0.28832929748571318 0 0.18301660310609241 -0.29114958545392738 0 0.17291101310642881 -0.28564608084835003 0 0.17864991096044419 -0.29495009963706692 0 0.16594555478614451 -0.28284233368471318 0 0.1806905449634813 -0.28832929748571318 0 0.17602993407772211 -0.2832030986568283 0 0.17673138357400531 -0.28840876668861409 0 0.17602993407772211 -0.2832030986568283 0 0.17673138357400531 -0.28840876668861409 0 0.17291101310642881 -0.28564608084835003 0 0.1710222018321049 -0.28124575318360368 0 0.17602993407772211 -0.2832030986568283 0 0.17291101310642881 -0.28564608084835003 0 0.17673138357400531 -0.28840876668861409 0 0.17291101310642881 -0.28564608084835003 0 0.17864991096044419 -0.29495009963706692 0 0.17673138357400531 -0.28840876668861409 0 0.17909088347012619 -0.29088019083727579 0 0.17864991096044419 -0.29495009963706692 0 0.1806905449634813 -0.28832929748571318 0 0.17673138357400531 -0.28840876668861409 0 0.17909088347012619 -0.29088019083727579 0 0.17909088347012619 -0.29088019083727579 0 0.17864991096044419 -0.29495009963706692 0 0.18114425154506539 -0.29221912984395187 0 0.18747516626574931 -0.28692639975368628 0 0.18734834214976739 -0.29514628785519947 0 0.1827564496500734 -0.29712351473235832 0 0.18747516626574931 -0.28692639975368628 0 0.18301660310609241 -0.29114958545392738 0 0.1827564496500734 -0.29712351473235832 0 0.18114425154506539 -0.29221912984395187 0 0.18301660310609241 -0.29114958545392738 0 0.1827564496500734 -0.29712351473235832 0 0.17864991096044419 -0.29495009963706692 0 0.18114425154506539 -0.29221912984395187 0 0.1827564496500734 -0.29712351473235832 0 0.18747516626574931 -0.28692639975368628 0 0.1827564496500734 -0.29712351473235832 0 0.1806905449634813 -0.28832929748571318 0 0.18114425154506539 -0.29221912984395187 0 0.18301660310609241 -0.29114958545392738 0 0.1806905449634813 -0.28832929748571318 0 0.17909088347012619 -0.29088019083727579 0 0.18114425154506539 -0.29221912984395187 0 0.18802618722583669 -0.31833181955932999 0 0.18221347423979239 -0.30458962683289892 0 0.1698931321352706 -0.29998698427508858 0 0.1880606218677118 -0.30022154946313712 0 0.18734834214976739 -0.29514628785519947 0 0.1827564496500734 -0.29712351473235832 0 0.19009702279388629 -0.3064242775921906 0 0.1880606218677118 -0.30022154946313712 0 0.18221347423979239 -0.30458962683289892 0 0.18802618722583669 -0.31833181955932999 0 0.17151825735526699 -0.31325416760549368 0 0.1698931321352706 -0.29998698427508858 0 0.1880606218677118 -0.30022154946313712 0 0.18221347423979239 -0.30458962683289892 0 0.1827564496500734 -0.29712351473235832 0 0.18802618722583669 -0.31833181955932999 0 0.1698931321352706 -0.29998698427508858 0 0.17864991096044419 -0.29495009963706692 0 0.1827564496500734 -0.29712351473235832 0 0.17837824174639511 -0.29916255636935318 0 0.18221347423979239 -0.30458962683289892 0 0.1827564496500734 -0.29712351473235832 0 0.17837824174639511 -0.29916255636935318 0 0.19009702279388629 -0.3064242775921906 0 0.18802618722583669 -0.31833181955932999 0 0.18221347423979239 -0.30458962683289892 0 0.18221347423979239 -0.30458962683289892 0 0.17837824174639511 -0.29916255636935318 0 0.1698931321352706 -0.29998698427508858 0 0.17864991096044419 -0.29495009963706692 0 0.17837824174639511 -0.29916255636935318 0 0.1698931321352706 -0.29998698427508858 0 0.17151825735526699 -0.31325416760549368 0 0.1698931321352706 -0.29998698427508858 0 0.1602411687519314 -0.31190927739118429 0 0.15432967412725099 -0.29846298066074151 0 0.1698931321352706 -0.29998698427508858 0 0.1602411687519314 -0.31190927739118429 0 0.1517600770447052 -0.28164214899084639 0 0.17864991096044419 -0.29495009963706692 0 0.1698931321352706 -0.29998698427508858 0 0.1517600770447052 -0.28164214899084639 0 0.1698931321352706 -0.29998698427508858 0 0.15432967412725099 -0.29846298066074151 0 0.1517600770447052 -0.28164214899084639 0 0.1698931321352706 -0.29998698427508858 0 0.1517600770447052 -0.28164214899084639 0 0.17864991096044419 -0.29495009963706692 0 0.1517600770447052 -0.28164214899084639 0 0.17864991096044419 -0.29495009963706692 0 0.16594555478614451 -0.28284233368471318 0 0.1710222018321049 -0.28124575318360368 0 0.17291101310642881 -0.28564608084835003 0 0.16594555478614451 -0.28284233368471318 0 0.21438456257476449 -0.5 0 0.2048745361024723 -0.48472171768082351 0 0.18744203257390391 -0.5 0 0.19122796324104871 -0.48466606029959602 0 0.2048745361024723 -0.48472171768082351 0 0.18744203257390391 -0.5 0 0.19122796324104871 -0.48466606029959602 0 0.20365346230900849 -0.47086657296764728 0 0.1938641377332887 -0.4633108835168005 0 0.19122796324104871 -0.48466606029959602 0 0.20365346230900849 -0.47086657296764728 0 0.2048745361024723 -0.48472171768082351 0 0.21766866328091511 -0.47157360957620892 0 0.2048745361024723 -0.48472171768082351 0 0.22288060450936709 -0.48400008360299168 0 0.20365346230900849 -0.47086657296764728 0 0.21766866328091511 -0.47157360957620892 0 0.2048745361024723 -0.48472171768082351 0 0.21438456257476449 -0.5 0 0.2048745361024723 -0.48472171768082351 0 0.22288060450936709 -0.48400008360299168 0 0.21438456257476449 -0.5 0 0.23633351028628971 -0.48712361601618398 0 0.2413270925756249 -0.5 0 0.21438456257476449 -0.5 0 0.23633351028628971 -0.48712361601618398 0 0.22288060450936709 -0.48400008360299168 0 0.25270961841775552 -0.48460016746525392 0 0.23633351028628971 -0.48712361601618398 0 0.2413270925756249 -0.5 0 0.25270961841775552 -0.48460016746525392 0 0.23633351028628971 -0.48712361601618398 0 0.23949561189523169 -0.47426551941090739 0 0.23949561189523169 -0.47426551941090739 0 0.22288060450936709 -0.48400008360299168 0 0.22545312399173489 -0.46028769725088831 0 0.21766866328091511 -0.47157360957620892 0 0.22288060450936709 -0.48400008360299168 0 0.22545312399173489 -0.46028769725088831 0 0.23633351028628971 -0.48712361601618398 0 0.23949561189523169 -0.47426551941090739 0 0.22288060450936709 -0.48400008360299168 0 0.22288060450936709 -0.48400008360299168 0 0.22545312399173489 -0.46028769725088831 0 0.21766866328091511 -0.47157360957620892 0 0.22545312399173489 -0.46028769725088831 0 0.2186728293425339 -0.44755637628226819 0 0.2588368117714554 -0.46700690363883102 0 0.23949561189523169 -0.47426551941090739 0 0.2409729068143365 -0.46262444708906358 0 0.22545312399173489 -0.46028769725088831 0 0.2409729068143365 -0.46262444708906358 0 0.24480843210435321 -0.45079661158300749 0 0.2588368117714554 -0.46700690363883102 0 0.2409729068143365 -0.46262444708906358 0 0.24480843210435321 -0.45079661158300749 0 0.23949561189523169 -0.47426551941090739 0 0.22545312399173489 -0.46028769725088831 0 0.2409729068143365 -0.46262444708906358 0 0.24480843210435321 -0.45079661158300749 0 0.22802564347410281 -0.43657531089878487 0 0.2418992233321238 -0.43333026798624508 0 0.25513396950241118 -0.43290986753561628 0 0.24480843210435321 -0.45079661158300749 0 0.2418992233321238 -0.43333026798624508 0 0.22545312399173489 -0.46028769725088831 0 0.22802564347410281 -0.43657531089878487 0 0.2186728293425339 -0.44755637628226819 0 0.21246462128442831 -0.43168381348743168 0 0.22802564347410281 -0.43657531089878487 0 0.22545312399173489 -0.46028769725088831 0 0.2186728293425339 -0.44755637628226819 0 0.22802564347410281 -0.43657531089878487 0 0.22545312399173489 -0.46028769725088831 0 0.24480843210435321 -0.45079661158300749 0 0.22802564347410281 -0.43657531089878487 0 0.20442019459899149 -0.44533796874460208 0 0.2186728293425339 -0.44755637628226819 0 0.21246462128442831 -0.43168381348743168 0 0.21766866328091511 -0.47157360957620892 0 0.20442019459899149 -0.44533796874460208 0 0.21766866328091511 -0.47157360957620892 0 0.20442019459899149 -0.44533796874460208 0 0.2186728293425339 -0.44755637628226819 0 0.20365346230900849 -0.47086657296764728 0 0.21766866328091511 -0.47157360957620892 0 0.20442019459899149 -0.44533796874460208 0 0.20365346230900849 -0.47086657296764728 0 0.20442019459899149 -0.44533796874460208 0 0.1938641377332887 -0.4633108835168005 0 0.20442019459899149 -0.44533796874460208 0 0.18484232774876749 -0.43033534366960768 0 0.18590039067086719 -0.44115637567916172 0 0.20442019459899149 -0.44533796874460208 0 0.18923595964957429 -0.45067509688328122 0 0.18590039067086719 -0.44115637567916172 0 0.20442019459899149 -0.44533796874460208 0 0.1938641377332887 -0.4633108835168005 0 0.18923595964957429 -0.45067509688328122 0 0.20442019459899149 -0.44533796874460208 0 0.1911717259170673 -0.41910232791299562 0 0.20473537155931409 -0.42802668409371708 0 0.20442019459899149 -0.44533796874460208 0 0.1911717259170673 -0.41910232791299562 0 0.20442019459899149 -0.44533796874460208 0 0.1911717259170673 -0.41910232791299562 0 0.18484232774876749 -0.43033534366960768 0 0.1911717259170673 -0.41910232791299562 0 0.21088494443676881 -0.41598262622983972 0 0.20473537155931409 -0.42802668409371708 0 0.18851111772050869 -0.41383358608972459 0 0.208966154163157 -0.40126827473642579 0 0.1911717259170673 -0.41910232791299562 0 0.21088494443676881 -0.41598262622983972 0 0.1911717259170673 -0.41910232791299562 0 0.18851111772050869 -0.41383358608972459 0 0.21088494443676881 -0.41598262622983972 0 0.18851111772050869 -0.41383358608972459 0 0.21088494443676881 -0.41598262622983972 0 0.208966154163157 -0.40126827473642579 0 0.1911717259170673 -0.41910232791299562 0 0.18851111772050869 -0.41383358608972459 0 0.21088494443676881 -0.41598262622983972 0 0.22155668588658281 -0.40529615173032069 0 0.208966154163157 -0.40126827473642579 0 0.21088494443676881 -0.41598262622983972 0 0.20473537155931409 -0.42802668409371708 0 0.21246462128442831 -0.43168381348743168 0 0.21088494443676881 -0.41598262622983972 0 0.21246462128442831 -0.43168381348743168 0 0.21959695705502991 -0.42408781639437282 0 0.20442019459899149 -0.44533796874460208 0 0.20473537155931409 -0.42802668409371708 0 0.21246462128442831 -0.43168381348743168 0 0.21246462128442831 -0.43168381348743168 0 0.21959695705502991 -0.42408781639437282 0 0.22802564347410281 -0.43657531089878487 0 0.22802564347410281 -0.43657531089878487 0 0.23614533994983331 -0.4244462479719151 0 0.23059816295646979 -0.4128629245466815 0 0.22802564347410281 -0.43657531089878487 0 0.23059816295646979 -0.4128629245466815 0 0.21959695705502991 -0.42408781639437282 0 0.22802564347410281 -0.43657531089878487 0 0.23059816295646979 -0.4128629245466815 0 0.22802564347410281 -0.43657531089878487 0 0.2418992233321238 -0.43333026798624508 0 0.23614533994983331 -0.4244462479719151 0 0.2418992233321238 -0.43333026798624508 0 0.23614533994983331 -0.4244462479719151 0 0.2453827316299185 -0.42192330194190181 0 0.25513396950241118 -0.43290986753561628 0 0.2418992233321238 -0.43333026798624508 0 0.2453827316299185 -0.42192330194190181 0 0.256136481120742 -0.41447562176841068 0 0.2453827316299185 -0.42192330194190181 0 0.24629253832767661 -0.41022035877505542 0 0.2453827316299185 -0.42192330194190181 0 0.24629253832767661 -0.41022035877505542 0 0.2366098857920339 -0.41191154353144788 0 0.23614533994983331 -0.4244462479719151 0 0.2366098857920339 -0.41191154353144788 0 0.23059816295646979 -0.4128629245466815 0 0.23614533994983331 -0.4244462479719151 0 0.2453827316299185 -0.42192330194190181 0 0.2366098857920339 -0.41191154353144788 0 0.24629253832767661 -0.41022035877505542 0 0.2366098857920339 -0.41191154353144788 0 0.2422505545635501 -0.40276464775944387 0 0.21088494443676881 -0.41598262622983972 0 0.23059816295646979 -0.4128629245466815 0 0.2366098857920339 -0.41191154353144788 0 0.23059816295646979 -0.4128629245466815 0 0.23156745731421779 -0.4039283829592023 0 0.23059816295646979 -0.4128629245466815 0 0.22155668588658281 -0.40529615173032069 0 0.23156745731421779 -0.4039283829592023 0 0.23059816295646979 -0.4128629245466815 0 0.23156745731421779 -0.4039283829592023 0 0.21088494443676881 -0.41598262622983972 0 0.23059816295646979 -0.4128629245466815 0 0.22155668588658281 -0.40529615173032069 0 0.21088494443676881 -0.41598262622983972 0 0.21959695705502991 -0.42408781639437282 0 0.23059816295646979 -0.4128629245466815 0 0.2366098857920339 -0.41191154353144788 0 0.23059816295646979 -0.4128629245466815 0 0.22155668588658281 -0.40529615173032069 0 0.22942119060580499 -0.38870296338312649 0 0.208966154163157 -0.40126827473642579 0 0.22155668588658281 -0.40529615173032069 0 0.23156745731421779 -0.4039283829592023 0 0.22942119060580499 -0.38870296338312649 0 0.22942119060580499 -0.38870296338312649 0 0.208966154163157 -0.40126827473642579 0 0.23156745731421779 -0.4039283829592023 0 0.24309899287842279 -0.39271330151873202 0 0.2422505545635501 -0.40276464775944387 0 0.2366098857920339 -0.41191154353144788 0 0.23156745731421779 -0.4039283829592023 0 0.2422505545635501 -0.40276464775944387 0 0.23156745731421779 -0.4039283829592023 0 0.24309899287842279 -0.39271330151873202 0 0.22942119060580499 -0.38870296338312649 0 0.25108303853213881 -0.40002667887407228 0 0.24629253832767661 -0.41022035877505542 0 0.2422505545635501 -0.40276464775944387 0 0.25108303853213881 -0.40002667887407228 0 0.24309899287842279 -0.39271330151873202 0 0.2422505545635501 -0.40276464775944387 0 0.24987622704845311 -0.37613765202982719 0 0.22942119060580499 -0.38870296338312649 0 0.24309899287842279 -0.39271330151873202 0 0.24987622704845311 -0.37613765202982719 0 0.22942119060580499 -0.38870296338312649 0 0.24987622704845311 -0.37613765202982719 0 0.23474048966473349 -0.38137370792841258 0 0.22942119060580499 -0.38870296338312649 0 0.25687819372407023 -0.38903915957053298 0 0.24309899287842279 -0.39271330151873202 0 0.24987622704845311 -0.37613765202982719 0 0.23679608458568241 -0.3713456781615978 0 0.24987622704845311 -0.37613765202982719 0 0.23474048966473349 -0.38137370792841258 0 0.23474048966473349 -0.38137370792841258 0 0.23010576568282681 -0.37607478874810818 0 0.22189277223980711 -0.38054577212349588 0 0.23474048966473349 -0.38137370792841258 0 0.22189277223980711 -0.38054577212349588 0 0.20961824525516401 -0.3936281247522696 0 0.23474048966473349 -0.38137370792841258 0 0.22942119060580499 -0.38870296338312649 0 0.20961824525516401 -0.3936281247522696 0 0.23679608458568241 -0.3713456781615978 0 0.23474048966473349 -0.38137370792841258 0 0.23010576568282681 -0.37607478874810818 0 0.23474048966473349 -0.38137370792841258 0 0.20961824525516401 -0.3936281247522696 0 0.22699371624108439 -0.37103399677892651 0 0.23010576568282681 -0.37607478874810818 0 0.22189277223980711 -0.38054577212349588 0 0.21663927632257499 -0.37152038636996992 0 0.22189277223980711 -0.38054577212349588 0 0.21119602619295649 -0.38157571206759561 0 0.21663927632257499 -0.37152038636996992 0 0.21119602619295649 -0.38157571206759561 0 0.20576161095015591 -0.37595213443190167 0 0.21119602619295649 -0.38157571206759561 0 0.20576161095015591 -0.37595213443190167 0 0.20229958674085519 -0.38616776423662919 0 0.21119602619295649 -0.38157571206759561 0 0.20961824525516401 -0.3936281247522696 0 0.20229958674085519 -0.38616776423662919 0 0.22189277223980711 -0.38054577212349588 0 0.21119602619295649 -0.38157571206759561 0 0.20961824525516401 -0.3936281247522696 0 0.22942119060580499 -0.38870296338312649 0 0.208966154163157 -0.40126827473642579 0 0.20961824525516401 -0.3936281247522696 0 0.20961824525516401 -0.3936281247522696 0 0.18449600084559339 -0.40588254157612419 0 0.20961824525516401 -0.3936281247522696 0 0.19262774622386039 -0.39991289132556063 0 0.20229958674085519 -0.38616776423662919 0 0.18851111772050869 -0.41383358608972459 0 0.20961824525516401 -0.3936281247522696 0 0.18449600084559339 -0.40588254157612419 0 0.19262774622386039 -0.39991289132556063 0 0.193172237845981 -0.38760648281860499 0 0.20229958674085519 -0.38616776423662919 0 0.20961824525516401 -0.3936281247522696 0 0.19262774622386039 -0.39991289132556063 0 0.18449600084559339 -0.40588254157612419 0 0.18851111772050869 -0.41383358608972459 0 0.208966154163157 -0.40126827473642579 0 0.20961824525516401 -0.3936281247522696 0 0.19262774622386039 -0.39991289132556063 0 0.18963514604776821 -0.39361523539988952 0 0.193172237845981 -0.38760648281860499 0 0.19262774622386039 -0.39991289132556063 0 0.18963514604776821 -0.39361523539988952 0 0.18221634088723479 -0.40136818287387582 0 0.18963514604776821 -0.39361523539988952 0 0.193172237845981 -0.38760648281860499 0 0.18267650324237161 -0.39405502657648112 0 0.193172237845981 -0.38760648281860499 0 0.1910424400336663 -0.37547354736401328 0 0.18267650324237161 -0.39405502657648112 0 0.20576161095015591 -0.37595213443190167 0 0.1910424400336663 -0.37547354736401328 0 0.20229958674085519 -0.38616776423662919 0 0.193172237845981 -0.38760648281860499 0 0.1910424400336663 -0.37547354736401328 0 0.20229958674085519 -0.38616776423662919 0 0.1910424400336663 -0.37547354736401328 0 0.17822948803450961 -0.38676940160015832 0 0.1737051017910701 -0.38004230502140057 0 0.1910424400336663 -0.37547354736401328 0 0.18267650324237161 -0.39405502657648112 0 0.1910424400336663 -0.37547354736401328 0 0.17822948803450961 -0.38676940160015832 0 0.18267650324237161 -0.39405502657648112 0 0.17822948803450961 -0.38676940160015832 0 0.17910183421640119 -0.39520059623836468 0 0.1646215608890387 -0.38907553280053181 0 0.17822948803450961 -0.38676940160015832 0 0.1737051017910701 -0.38004230502140057 0 0.1646215608890387 -0.38907553280053181 0 0.17822948803450961 -0.38676940160015832 0 0.18267650324237161 -0.39405502657648112 0 0.17910183421640119 -0.39520059623836468 0 0.18221634088723479 -0.40136818287387582 0 0.17910183421640119 -0.39520059623836468 0 0.15805845094365739 -0.40474493864538458 0 0.18963514604776821 -0.39361523539988952 0 0.18267650324237161 -0.39405502657648112 0 0.18221634088723479 -0.40136818287387582 0 0.18267650324237161 -0.39405502657648112 0 0.18221634088723479 -0.40136818287387582 0 0.17910183421640119 -0.39520059623836468 0 0.18221634088723479 -0.40136818287387582 0 0.17910183421640119 -0.39520059623836468 0 0.19262774622386039 -0.39991289132556063 0 0.18221634088723479 -0.40136818287387582 0 0.19262774622386039 -0.39991289132556063 0 0.18449600084559339 -0.40588254157612419 0 0.18221634088723479 -0.40136818287387582 0 0.18449600084559339 -0.40588254157612419 0 0.18221634088723479 -0.40136818287387582 0 0.17910183421640119 -0.39520059623836468 0 0.15805845094365739 -0.40474493864538458 0 0.1646215608890387 -0.38907553280053181 0 0.18221634088723479 -0.40136818287387582 0 0.15805845094365739 -0.40474493864538458 0 0.15805845094365739 -0.40474493864538458 0 0.1646215608890387 -0.38907553280053181 0 0.14706277844018539 -0.39464292458295508 0 0.1737051017910701 -0.38004230502140057 0 0.1646215608890387 -0.38907553280053181 0 0.16307541855137739 -0.37743582412871929 0 0.17035242753357599 -0.36877211446365682 0 0.1737051017910701 -0.38004230502140057 0 0.16307541855137739 -0.37743582412871929 0 0.1569593121701936 -0.36832063090657668 0 0.16307541855137739 -0.37743582412871929 0 0.14973869037300869 -0.38096853745143089 0 0.1646215608890387 -0.38907553280053181 0 0.16307541855137739 -0.37743582412871929 0 0.14973869037300869 -0.38096853745143089 0 0.1646215608890387 -0.38907553280053181 0 0.14973869037300869 -0.38096853745143089 0 0.14706277844018539 -0.39464292458295508 0 0.14973869037300869 -0.38096853745143089 0 0.1375772795987745 -0.38493757303029391 0 0.14706277844018539 -0.39464292458295508 0 0.13524945632583441 -0.37311377610700652 0 0.14973869037300869 -0.38096853745143089 0 0.1375772795987745 -0.38493757303029391 0 0.13524945632583441 -0.37311377610700652 0 0.1375772795987745 -0.38493757303029391 0 0.12609635470998201 -0.38402791619100712 0 0.1375772795987745 -0.38493757303029391 0 0.12609635470998201 -0.38402791619100712 0 0.13569313113510631 -0.39589912548093298 0 0.12645644117523869 -0.39722706905544619 0 0.13569313113510631 -0.39589912548093298 0 0.1339005610000801 -0.40812169441689322 0 0.12645644117523869 -0.39722706905544619 0 0.1339005610000801 -0.40812169441689322 0 0.1250254850364893 -0.40936224001308058 0 0.12609635470998201 -0.38402791619100712 0 0.12645644117523869 -0.39722706905544619 0 0.13569313113510631 -0.39589912548093298 0 0.1375772795987745 -0.38493757303029391 0 0.13569313113510631 -0.39589912548093298 0 0.14706277844018539 -0.39464292458295508 0 0.13569313113510631 -0.39589912548093298 0 0.14706277844018539 -0.39464292458295508 0 0.1339005610000801 -0.40812169441689322 0 0.13569313113510631 -0.39589912548093298 0 0.1339005610000801 -0.40812169441689322 0 0.15805845094365739 -0.40474493864538458 0 0.14706277844018539 -0.39464292458295508 0 0.1339005610000801 -0.40812169441689322 0 0.15805845094365739 -0.40474493864538458 0 0.1339005610000801 -0.40812169441689322 0 0.15805845094365739 -0.40474493864538458 0 0.15398562739609989 -0.414436145328195 0 0.14500783119440661 -0.41410657591589572 0 0.15805845094365739 -0.40474493864538458 0 0.14500783119440661 -0.41410657591589572 0 0.1339005610000801 -0.40812169441689322 0 0.15398562739609989 -0.414436145328195 0 0.15088002640467921 -0.42009116626417142 0 0.14500783119440661 -0.41410657591589572 0 0.15088002640467921 -0.42009116626417142 0 0.15979138776423191 -0.42406840149736191 0 0.15636365466176849 -0.41960526040447821 0 0.15398562739609989 -0.414436145328195 0 0.15088002640467921 -0.42009116626417142 0 0.15636365466176849 -0.41960526040447821 0 0.15088002640467921 -0.42009116626417142 0 0.14500783119440661 -0.41410657591589572 0 0.14354831806896931 -0.42663893719234869 0 0.14500783119440661 -0.41410657591589572 0 0.1339005610000801 -0.40812169441689322 0 0.13212255532719441 -0.42024495614079282 0 0.14500783119440661 -0.41410657591589572 0 0.13212255532719441 -0.42024495614079282 0 0.14354831806896931 -0.42663893719234869 0 0.1339005610000801 -0.40812169441689322 0 0.13212255532719441 -0.42024495614079282 0 0.13212255532719441 -0.42024495614079282 0 0.1250254850364893 -0.40936224001308058 0 0.117866085899093 -0.41583132647739651 0 0.13212255532719441 -0.42024495614079282 0 0.1250254850364893 -0.40936224001308058 0 0.1339005610000801 -0.40812169441689322 0 0.13212255532719441 -0.42024495614079282 0 0.1250254850364893 -0.40936224001308058 0 0.1339005610000801 -0.40812169441689322 0 0.1250254850364893 -0.40936224001308058 0 0.13212255532719441 -0.42024495614079282 0 0.14354831806896931 -0.42663893719234869 0 0.1460535583969573 -0.44160689079445481 0 0.13212255532719441 -0.42024495614079282 0 0.128223579302082 -0.44682997076052833 0 0.13212255532719441 -0.42024495614079282 0 0.128223579302082 -0.44682997076052833 0 0.1159996351348133 -0.43474120747525058 0 0.13212255532719441 -0.42024495614079282 0 0.1460535583969573 -0.44160689079445481 0 0.13212255532719441 -0.42024495614079282 0 0.1460535583969573 -0.44160689079445481 0 0.128223579302082 -0.44682997076052833 0 0.15088002640467921 -0.42009116626417142 0 0.14354831806896931 -0.42663893719234869 0 0.15979138776423191 -0.42406840149736191 0 0.14354831806896931 -0.42663893719234869 0 0.15979138776423191 -0.42406840149736191 0 0.14354831806896931 -0.42663893719234869 0 0.15423293294423909 -0.43386412417913311 0 0.1460535583969573 -0.44160689079445481 0 0.14354831806896931 -0.42663893719234869 0 0.15423293294423909 -0.43386412417913311 0 0.15979138776423191 -0.42406840149736191 0 0.15423293294423909 -0.43386412417913311 0 0.16088991666547389 -0.43196094602310392 0 0.16557730454712019 -0.44172028084172121 0 0.1713980071398 -0.42434598792645378 0 0.15979138776423191 -0.42406840149736191 0 0.1760344574594947 -0.42149786580237669 0 0.15423293294423909 -0.43386412417913311 0 0.16088991666547389 -0.43196094602310392 0 0.15979138776423191 -0.42406840149736191 0 0.15979138776423191 -0.42406840149736191 0 0.1760344574594947 -0.42149786580237669 0 0.16626302434537371 -0.43076979168845952 0 0.17509911994716071 -0.43336510097506958 0 0.16557730454712019 -0.44172028084172121 0 0.16088991666547389 -0.43196094602310392 0 0.16626302434537371 -0.43076979168845952 0 0.16557730454712019 -0.44172028084172121 0 0.16626302434537371 -0.43076979168845952 0 0.1713980071398 -0.42434598792645378 0 0.17509911994716071 -0.43336510097506958 0 0.16626302434537371 -0.43076979168845952 0 0.1713980071398 -0.42434598792645378 0 0.15979138776423191 -0.42406840149736191 0 0.16088991666547389 -0.43196094602310392 0 0.16626302434537371 -0.43076979168845952 0 0.15979138776423191 -0.42406840149736191 0 0.15636365466176849 -0.41960526040447821 0 0.16176651730702801 -0.41283252991975622 0 0.17042982775368151 -0.41274390099030239 0 0.18221634088723479 -0.40136818287387582 0 0.15805845094365739 -0.40474493864538458 0 0.17042982775368151 -0.41274390099030239 0 0.15979138776423191 -0.42406840149736191 0 0.15636365466176849 -0.41960526040447821 0 0.17042982775368151 -0.41274390099030239 0 0.15636365466176849 -0.41960526040447821 0 0.17042982775368151 -0.41274390099030239 0 0.15979138776423191 -0.42406840149736191 0 0.17042982775368151 -0.41274390099030239 0 0.1760344574594947 -0.42149786580237669 0 0.15398562739609989 -0.414436145328195 0 0.15636365466176849 -0.41960526040447821 0 0.16176651730702801 -0.41283252991975622 0 0.15805845094365739 -0.40474493864538458 0 0.15398562739609989 -0.414436145328195 0 0.16176651730702801 -0.41283252991975622 0 0.15805845094365739 -0.40474493864538458 0 0.16176651730702801 -0.41283252991975622 0 0.17042982775368151 -0.41274390099030239 0 0.17042982775368151 -0.41274390099030239 0 0.1760344574594947 -0.42149786580237669 0 0.17986785094481991 -0.4134894736146324 0 0.18449600084559339 -0.40588254157612419 0 0.17042982775368151 -0.41274390099030239 0 0.18449600084559339 -0.40588254157612419 0 0.18221634088723479 -0.40136818287387582 0 0.17042982775368151 -0.41274390099030239 0 0.18449600084559339 -0.40588254157612419 0 0.17042982775368151 -0.41274390099030239 0 0.17986785094481991 -0.4134894736146324 0 0.18851111772050869 -0.41383358608972459 0 0.18449600084559339 -0.40588254157612419 0 0.18851111772050869 -0.41383358608972459 0 0.18449600084559339 -0.40588254157612419 0 0.17986785094481991 -0.4134894736146324 0 0.18851111772050869 -0.41383358608972459 0 0.1760344574594947 -0.42149786580237669 0 0.1911717259170673 -0.41910232791299562 0 0.1760344574594947 -0.42149786580237669 0 0.18851111772050869 -0.41383358608972459 0 0.1760344574594947 -0.42149786580237669 0 0.17986785094481991 -0.4134894736146324 0 0.1911717259170673 -0.41910232791299562 0 0.18851111772050869 -0.41383358608972459 0 0.1760344574594947 -0.42149786580237669 0 0.1911717259170673 -0.41910232791299562 0 0.1760344574594947 -0.42149786580237669 0 0.18484232774876749 -0.43033534366960768 0 0.18484232774876749 -0.43033534366960768 0 0.17509911994716071 -0.43336510097506958 0 0.18590039067086719 -0.44115637567916172 0 0.18484232774876749 -0.43033534366960768 0 0.17509911994716071 -0.43336510097506958 0 0.17653319474121221 -0.42750765242104072 0 0.1713980071398 -0.42434598792645378 0 0.17509911994716071 -0.43336510097506958 0 0.17653319474121221 -0.42750765242104072 0 0.1760344574594947 -0.42149786580237669 0 0.18484232774876749 -0.43033534366960768 0 0.17653319474121221 -0.42750765242104072 0 0.1713980071398 -0.42434598792645378 0 0.1760344574594947 -0.42149786580237669 0 0.17653319474121221 -0.42750765242104072 0 0.1713980071398 -0.42434598792645378 0 0.1760344574594947 -0.42149786580237669 0 0.17791556380287959 -0.4455361086535346 0 0.17376504419967539 -0.46076368888843938 0 0.16557730454712019 -0.44172028084172121 0 0.17509911994716071 -0.43336510097506958 0 0.17791556380287959 -0.4455361086535346 0 0.18590039067086719 -0.44115637567916172 0 0.17509911994716071 -0.43336510097506958 0 0.17791556380287959 -0.4455361086535346 0 0.16557730454712019 -0.44172028084172121 0 0.18923595964957429 -0.45067509688328122 0 0.17791556380287959 -0.4455361086535346 0 0.18590039067086719 -0.44115637567916172 0 0.18923595964957429 -0.45067509688328122 0 0.17791556380287959 -0.4455361086535346 0 0.17376504419967539 -0.46076368888843938 0 0.1938641377332887 -0.4633108835168005 0 0.18923595964957429 -0.45067509688328122 0 0.17376504419967539 -0.46076368888843938 0 0.1938641377332887 -0.4633108835168005 0 0.17376504419967539 -0.46076368888843938 0 0.17718182015316611 -0.48165544175840053 0 0.17376504419967539 -0.46076368888843938 0 0.15550290350416551 -0.45157236434768988 0 0.1539044029471725 -0.46809795184702829 0 0.17376504419967539 -0.46076368888843938 0 0.16557730454712019 -0.44172028084172121 0 0.15550290350416551 -0.45157236434768988 0 0.15423293294423909 -0.43386412417913311 0 0.16557730454712019 -0.44172028084172121 0 0.15550290350416551 -0.45157236434768988 0 0.15423293294423909 -0.43386412417913311 0 0.15550290350416551 -0.45157236434768988 0 0.1460535583969573 -0.44160689079445481 0 0.15550290350416551 -0.45157236434768988 0 0.1460535583969573 -0.44160689079445481 0 0.14153074802588431 -0.45654190970348868 0 0.1460535583969573 -0.44160689079445481 0 0.128223579302082 -0.44682997076052833 0 0.14153074802588431 -0.45654190970348868 0 0.128223579302082 -0.44682997076052833 0 0.12432460327697011 -0.47341498538026422 0 0.128223579302082 -0.44682997076052833 0 0.14153074802588431 -0.45654190970348868 0 0.12432460327697011 -0.47341498538026422 0 0.1539044029471725 -0.46809795184702829 0 0.14153074802588431 -0.45654190970348868 0 0.12432460327697011 -0.47341498538026422 0 0.15550290350416551 -0.45157236434768988 0 0.1539044029471725 -0.46809795184702829 0 0.14153074802588431 -0.45654190970348868 0 0.1539044029471725 -0.46809795184702829 0 0.15048103374274721 -0.48484579871078243 0 0.12432460327697011 -0.47341498538026422 0 0.1404625649124509 -0.5 0 0.15048103374274721 -0.48484579871078243 0 0.12432460327697011 -0.47341498538026422 0 0.1404625649124509 -0.5 0 0.12042562725185831 -0.49999999999999989 0 0.12432460327697011 -0.47341498538026422 0 0.1404625649124509 -0.5 0 0.15048103374274721 -0.48484579871078243 0 0.16049950257304349 -0.50000000000000033 0 0.16049950257304349 -0.50000000000000033 0 0.17718182015316611 -0.48165544175840053 0 0.15048103374274721 -0.48484579871078243 0 0.16049950257304349 -0.50000000000000033 0 0.17718182015316611 -0.48165544175840053 0 0.17376504419967539 -0.46076368888843938 0 0.1539044029471725 -0.46809795184702829 0 0.17718182015316611 -0.48165544175840053 0 0.1539044029471725 -0.46809795184702829 0 0.15048103374274721 -0.48484579871078243 0 0.17718182015316611 -0.48165544175840053 0 0.1938641377332887 -0.4633108835168005 0 0.17718182015316611 -0.48165544175840053 0 0.19122796324104871 -0.48466606029959602 0 0.1938641377332887 -0.4633108835168005 0 0.17718182015316611 -0.48165544175840053 0 0.16049950257304349 -0.50000000000000033 0 0.17718182015316611 -0.48165544175840053 0 0.18744203257390391 -0.5 0 0.19122796324104871 -0.48466606029959602 0 0.17718182015316611 -0.48165544175840053 0 0.18744203257390391 -0.5 0 0.072018957471098571 -0.48629524479662273 0 0.069142552082564368 -0.5 0 0.082735946582200875 -0.4892045976485363 0 0.072018957471098571 -0.48629524479662273 0 0.079568506083734697 -0.4785915255016745 0 0.082735946582200875 -0.4892045976485363 0 0.072018957471098571 -0.48629524479662273 0 0.062670741706174135 -0.48944359682069549 0 0.064881374578912687 -0.4815757870058418 0 0.072018957471098571 -0.48629524479662273 0 0.069142552082564368 -0.5 0 0.062670741706174135 -0.48944359682069549 0 0.073180054077148754 -0.46968413697177741 0 0.079568506083734697 -0.4785915255016745 0 0.081395248040860374 -0.46160025678040811 0 0.067447632246636219 -0.45716428258124142 0 0.05849497948899289 -0.47642287528831911 0 0.061758178687080389 -0.47580514524370598 0 0.072018957471098571 -0.48629524479662273 0 0.064881374578912687 -0.4815757870058418 0 0.070673492561877091 -0.4782128222507579 0 0.064881374578912687 -0.4815757870058418 0 0.066280053791524171 -0.47680462027284459 0 0.061758178687080389 -0.47580514524370598 0 0.064881374578912687 -0.4815757870058418 0 0.066280053791524171 -0.47680462027284459 0 0.070673492561877091 -0.4782128222507579 0 0.066280053791524171 -0.47680462027284459 0 0.067807169338226503 -0.47162472659107291 0 0.061758178687080389 -0.47580514524370598 0 0.066280053791524171 -0.47680462027284459 0 0.067807169338226503 -0.47162472659107291 0 0.070673492561877091 -0.4782128222507579 0 0.067807169338226503 -0.47162472659107291 0 0.073180054077148754 -0.46968413697177741 0 0.070673492561877091 -0.4782128222507579 0 0.073180054077148754 -0.46968413697177741 0 0.070673492561877091 -0.4782128222507579 0 0.079568506083734697 -0.4785915255016745 0 0.072018957471098571 -0.48629524479662273 0 0.070673492561877091 -0.4782128222507579 0 0.079568506083734697 -0.4785915255016745 0 0.096876661376123455 -0.48080012839020431 0 0.081395248040860374 -0.46160025678040811 0 0.096876661376123455 -0.48080012839020431 0 0.095349939854524335 -0.46404107218864848 0 0.081395248040860374 -0.46160025678040811 0 0.079568506083734697 -0.4785915255016745 0 0.082735946582200875 -0.4892045976485363 0 0.096876661376123455 -0.48080012839020431 0 0.079568506083734697 -0.4785915255016745 0 0.096876661376123455 -0.48080012839020431 0 0.081395248040860374 -0.46160025678040811 0 0.090750313396975479 -0.5 0 0.082735946582200875 -0.4892045976485363 0 0.096876661376123455 -0.48080012839020431 0 0.069142552082564368 -0.5 0 0.090750313396975479 -0.5 0 0.082735946582200875 -0.4892045976485363 0 0.1123580747113867 -0.50000000000000033 0 0.1124728586670535 -0.48406595427175642 0 0.096876661376123455 -0.48080012839020431 0 0.090750313396975479 -0.5 0 0.1123580747113867 -0.50000000000000033 0 0.096876661376123455 -0.48080012839020431 0 0.1123580747113867 -0.50000000000000033 0 0.096876661376123455 -0.48080012839020431 0 0.1123580747113867 -0.50000000000000033 0 0.12042562725185831 -0.49999999999999989 0 0.1124728586670535 -0.48406595427175642 0 0.12042562725185831 -0.49999999999999989 0 0.1124728586670535 -0.48406595427175642 0 0.12432460327697011 -0.47341498538026422 0 0.12042562725185831 -0.49999999999999989 0 0.12432460327697011 -0.47341498538026422 0 0.1124728586670535 -0.48406595427175642 0 0.12432460327697011 -0.47341498538026422 0 0.1082250197838846 -0.46311527911574241 0 0.096876661376123455 -0.48080012839020431 0 0.095349939854524335 -0.46404107218864848 0 0.1082250197838846 -0.46311527911574241 0 0.1124728586670535 -0.48406595427175642 0 0.096876661376123455 -0.48080012839020431 0 0.1082250197838846 -0.46311527911574241 0 0.095349939854524335 -0.46404107218864848 0 0.1082250197838846 -0.46311527911574241 0 0.094902830217228867 -0.45064862446823939 0 0.128223579302082 -0.44682997076052833 0 0.12432460327697011 -0.47341498538026422 0 0.1082250197838846 -0.46311527911574241 0 0.128223579302082 -0.44682997076052833 0 0.1069391861142964 -0.44299064961396012 0 0.1159996351348133 -0.43474120747525058 0 0.128223579302082 -0.44682997076052833 0 0.1082250197838846 -0.46311527911574241 0 0.1069391861142964 -0.44299064961396012 0 0.1082250197838846 -0.46311527911574241 0 0.1069391861142964 -0.44299064961396012 0 0.094902830217228867 -0.45064862446823939 0 0.1069391861142964 -0.44299064961396012 0 0.091812697424993442 -0.4386357446441016 0 0.098414951810672224 -0.43233268446502993 0 0.1069391861142964 -0.44299064961396012 0 0.094902830217228867 -0.45064862446823939 0 0.091812697424993442 -0.4386357446441016 0 0.094902830217228867 -0.45064862446823939 0 0.091812697424993442 -0.4386357446441016 0 0.082434724511159588 -0.44537142502386151 0 0.094902830217228867 -0.45064862446823939 0 0.082434724511159588 -0.44537142502386151 0 0.081395248040860374 -0.46160025678040811 0 0.091812697424993442 -0.4386357446441016 0 0.082434724511159588 -0.44537142502386151 0 0.078149012167117934 -0.43357211405594609 0 0.095349939854524335 -0.46404107218864848 0 0.094902830217228867 -0.45064862446823939 0 0.081395248040860374 -0.46160025678040811 0 0.067447632246636219 -0.45716428258124142 0 0.065913834705597293 -0.44240038517061198 0 0.057068655694905858 -0.46015288389510001 0 0.067447632246636219 -0.45716428258124142 0 0.05849497948899289 -0.47642287528831911 0 0.067807169338226503 -0.47162472659107291 0 0.067447632246636219 -0.45716428258124142 0 0.061758178687080389 -0.47580514524370598 0 0.081395248040860374 -0.46160025678040811 0 0.067447632246636219 -0.45716428258124142 0 0.065913834705597293 -0.44240038517061198 0 0.073180054077148754 -0.46968413697177741 0 0.081395248040860374 -0.46160025678040811 0 0.067447632246636219 -0.45716428258124142 0 0.067807169338226503 -0.47162472659107291 0 0.073180054077148754 -0.46968413697177741 0 0.067447632246636219 -0.45716428258124142 0 0.081395248040860374 -0.46160025678040811 0 0.065913834705597293 -0.44240038517061198 0 0.082434724511159588 -0.44537142502386151 0 0.081395248040860374 -0.46160025678040811 0 0.065913834705597293 -0.44240038517061198 0 0.082434724511159588 -0.44537142502386151 0 0.065913834705597293 -0.44240038517061198 0 0.078149012167117934 -0.43357211405594609 0 0.065921365320016911 -0.4273577277455588 0 0.073982485551444349 -0.42005290588181732 0 0.078149012167117934 -0.43357211405594609 0 0.065913834705597293 -0.44240038517061198 0 0.065921365320016911 -0.4273577277455588 0 0.078149012167117934 -0.43357211405594609 0 0.073982485551444349 -0.42005290588181732 0 0.069775570718114244 -0.40426700169235308 0 0.060774245729122177 -0.41691050055794487 0 0.065921365320016911 -0.4273577277455588 0 0.073982485551444349 -0.42005290588181732 0 0.060774245729122177 -0.41691050055794487 0 0.073982485551444349 -0.42005290588181732 0 0.086447448161059384 -0.41120764722282821 0 0.069775570718114244 -0.40426700169235308 0 0.073982485551444349 -0.42005290588181732 0 0.086447448161059384 -0.41120764722282821 0 0.088692331433278357 -0.42535053834926723 0 0.086447448161059384 -0.41120764722282821 0 0.093827427438274241 -0.41775801958915132 0 0.099702730965631758 -0.41290181884877419 0 0.086447448161059384 -0.41120764722282821 0 0.088692331433278357 -0.42535053834926723 0 0.093827427438274241 -0.41775801958915132 0 0.088692331433278357 -0.42535053834926723 0 0.097645949564215143 -0.42435504664253748 0 0.093827427438274241 -0.41775801958915132 0 0.073982485551444349 -0.42005290588181732 0 0.088692331433278357 -0.42535053834926723 0 0.078149012167117934 -0.43357211405594609 0 0.091812697424993442 -0.4386357446441016 0 0.088692331433278357 -0.42535053834926723 0 0.078149012167117934 -0.43357211405594609 0 0.091812697424993442 -0.4386357446441016 0 0.088692331433278357 -0.42535053834926723 0 0.098414951810672224 -0.43233268446502993 0 0.098414951810672224 -0.43233268446502993 0 0.097645949564215143 -0.42435504664253748 0 0.1061961683754654 -0.43004895598907111 0 0.088692331433278357 -0.42535053834926723 0 0.098414951810672224 -0.43233268446502993 0 0.097645949564215143 -0.42435504664253748 0 0.1061961683754654 -0.43004895598907111 0 0.11152958735588871 -0.42539382439527612 0 0.1045809803654715 -0.42051706085107571 0 0.097645949564215143 -0.42435504664253748 0 0.1061961683754654 -0.43004895598907111 0 0.1045809803654715 -0.42051706085107571 0 0.1069391861142964 -0.44299064961396012 0 0.098414951810672224 -0.43233268446502993 0 0.1061961683754654 -0.43004895598907111 0 0.1061961683754654 -0.43004895598907111 0 0.1159996351348133 -0.43474120747525058 0 0.11152958735588871 -0.42539382439527612 0 0.13212255532719441 -0.42024495614079282 0 0.1159996351348133 -0.43474120747525058 0 0.11851153239627241 -0.42275952171654291 0 0.1069391861142964 -0.44299064961396012 0 0.1061961683754654 -0.43004895598907111 0 0.1159996351348133 -0.43474120747525058 0 0.1159996351348133 -0.43474120747525058 0 0.11152958735588871 -0.42539382439527612 0 0.11851153239627241 -0.42275952171654291 0 0.11152958735588871 -0.42539382439527612 0 0.11851153239627241 -0.42275952171654291 0 0.1123596205074209 -0.41890237594444008 0 0.1250254850364893 -0.40936224001308058 0 0.117866085899093 -0.41583132647739651 0 0.1096180349996463 -0.41151587164058129 0 0.1250254850364893 -0.40936224001308058 0 0.1096180349996463 -0.41151587164058129 0 0.13212255532719441 -0.42024495614079282 0 0.11851153239627241 -0.42275952171654291 0 0.117866085899093 -0.41583132647739651 0 0.117866085899093 -0.41583132647739651 0 0.1123596205074209 -0.41890237594444008 0 0.1096180349996463 -0.41151587164058129 0 0.11851153239627241 -0.42275952171654291 0 0.117866085899093 -0.41583132647739651 0 0.1123596205074209 -0.41890237594444008 0 0.11152958735588871 -0.42539382439527612 0 0.1123596205074209 -0.41890237594444008 0 0.1045809803654715 -0.42051706085107571 0 0.1123596205074209 -0.41890237594444008 0 0.1096180349996463 -0.41151587164058129 0 0.1065506547415149 -0.41613106226330793 0 0.1096180349996463 -0.41151587164058129 0 0.1065506547415149 -0.41613106226330793 0 0.099702730965631758 -0.41290181884877419 0 0.1096180349996463 -0.41151587164058129 0 0.099702730965631758 -0.41290181884877419 0 0.1096180349996463 -0.41151587164058129 0 0.099702730965631758 -0.41290181884877419 0 0.1041447551606165 -0.40305668800175581 0 0.1123596205074209 -0.41890237594444008 0 0.1065506547415149 -0.41613106226330793 0 0.1045809803654715 -0.42051706085107571 0 0.1065506547415149 -0.41613106226330793 0 0.1045809803654715 -0.42051706085107571 0 0.099702730965631758 -0.41290181884877419 0 0.1045809803654715 -0.42051706085107571 0 0.093827427438274241 -0.41775801958915132 0 0.099702730965631758 -0.41290181884877419 0 0.097645949564215143 -0.42435504664253748 0 0.1045809803654715 -0.42051706085107571 0 0.093827427438274241 -0.41775801958915132 0 0.086447448161059384 -0.41120764722282821 0 0.099702730965631758 -0.41290181884877419 0 0.095691580682652475 -0.39908469234235189 0 0.095691580682652475 -0.39908469234235189 0 0.1041447551606165 -0.40305668800175581 0 0.1115666739945345 -0.38872436917531578 0 0.099702730965631758 -0.41290181884877419 0 0.095691580682652475 -0.39908469234235189 0 0.1041447551606165 -0.40305668800175581 0 0.1096180349996463 -0.41151587164058129 0 0.1041447551606165 -0.40305668800175581 0 0.1115666739945345 -0.38872436917531578 0 0.1250254850364893 -0.40936224001308058 0 0.1115666739945345 -0.38872436917531578 0 0.1096180349996463 -0.41151587164058129 0 0.1115666739945345 -0.38872436917531578 0 0.1250254850364893 -0.40936224001308058 0 0.1096180349996463 -0.41151587164058129 0 0.1115666739945345 -0.38872436917531578 0 0.12645644117523869 -0.39722706905544619 0 0.1250254850364893 -0.40936224001308058 0 0.1115666739945345 -0.38872436917531578 0 0.12609635470998201 -0.38402791619100712 0 0.1115666739945345 -0.38872436917531578 0 0.113745377556003 -0.36324200547299851 0 0.1115666739945345 -0.38872436917531578 0 0.113745377556003 -0.36324200547299851 0 0.12609635470998201 -0.38402791619100712 0 0.12645644117523869 -0.39722706905544619 0 0.1115666739945345 -0.38872436917531578 0 0.1115666739945345 -0.38872436917531578 0 0.096372132326470572 -0.36542491223168638 0 0.1115666739945345 -0.38872436917531578 0 0.089853218628298884 -0.38394717958202601 0 0.096372132326470572 -0.36542491223168638 0 0.095691580682652475 -0.39908469234235189 0 0.1115666739945345 -0.38872436917531578 0 0.089853218628298884 -0.38394717958202601 0 0.089853218628298884 -0.38394717958202601 0 0.082924844884061683 -0.39714926844771359 0 0.072939106935086151 -0.38728773006234168 0 0.089853218628298884 -0.38394717958202601 0 0.072939106935086151 -0.38728773006234168 0 0.07582030708563034 -0.37256671738353597 0 0.095691580682652475 -0.39908469234235189 0 0.089853218628298884 -0.38394717958202601 0 0.082924844884061683 -0.39714926844771359 0 0.086447448161059384 -0.41120764722282821 0 0.082924844884061683 -0.39714926844771359 0 0.069775570718114244 -0.40426700169235308 0 0.086447448161059384 -0.41120764722282821 0 0.095691580682652475 -0.39908469234235189 0 0.082924844884061683 -0.39714926844771359 0 0.069775570718114244 -0.40426700169235308 0 0.072939106935086151 -0.38728773006234168 0 0.058313699768321348 -0.39007371912844929 0 0.082924844884061683 -0.39714926844771359 0 0.069775570718114244 -0.40426700169235308 0 0.072939106935086151 -0.38728773006234168 0 0.072939106935086151 -0.38728773006234168 0 0.05933500968155693 -0.37671477575793533 0 0.058313699768321348 -0.39007371912844929 0 0.072939106935086151 -0.38728773006234168 0 0.05933500968155693 -0.37671477575793533 0 0.07582030708563034 -0.37256671738353597 0 0.05933500968155693 -0.37671477575793533 0 0.043300396670470892 -0.38581293046691678 0 0.039079294002052851 -0.37065651216905859 0 0.05933500968155693 -0.37671477575793533 0 0.058313699768321348 -0.39007371912844929 0 0.043300396670470892 -0.38581293046691678 0 0.058313699768321348 -0.39007371912844929 0 0.0466875803122518 -0.39705513158652528 0 0.054373060569327003 -0.40663711634463268 0 0.069775570718114244 -0.40426700169235308 0 0.058313699768321348 -0.39007371912844929 0 0.054373060569327003 -0.40663711634463268 0 0.058313699768321348 -0.39007371912844929 0 0.054373060569327003 -0.40663711634463268 0 0.0466875803122518 -0.39705513158652528 0 0.042121557959679479 -0.40689397827368962 0 0.054373060569327003 -0.40663711634463268 0 0.058313699768321348 -0.39007371912844929 0 0.0466875803122518 -0.39705513158652528 0 0.043300396670470892 -0.38581293046691678 0 0.0466875803122518 -0.39705513158652528 0 0.032645317368698572 -0.39721328630736241 0 0.043300396670470892 -0.38581293046691678 0 0.0466875803122518 -0.39705513158652528 0 0.032645317368698572 -0.39721328630736241 0 0.042121557959679479 -0.40689397827368962 0 0.032645317368698572 -0.39721328630736241 0 0.043300396670470892 -0.38581293046691678 0 0.025542853711361019 -0.38384675294920401 0 0.043300396670470892 -0.38581293046691678 0 0.025542853711361019 -0.38384675294920401 0 0.039079294002052851 -0.37065651216905859 0 0.025542853711361019 -0.38384675294920401 0 0.009690974369139977 -0.39295199195252922 0 0.016784443680880379 -0.36713146693108112 0 -0.0064694903547723136 -0.38059021958606692 0 0.009690974369139977 -0.39295199195252922 0 0.016784443680880379 -0.36713146693108112 0 0.032645317368698572 -0.39721328630736241 0 0.009690974369139977 -0.39295199195252922 0 0.030062121183744069 -0.41560348860952728 0 0.032645317368698572 -0.39721328630736241 0 0.025542853711361019 -0.38384675294920401 0 0.009690974369139977 -0.39295199195252922 0 0.009690974369139977 -0.39295199195252922 0 0.030062121183744069 -0.41560348860952728 0 0.01224976062295041 -0.42183763890738629 0 -0.0080625817845775948 -0.40608726553411861 0 0.009690974369139977 -0.39295199195252922 0 0.01224976062295041 -0.42183763890738629 0 0.009690974369139977 -0.39295199195252922 0 0.01224976062295041 -0.42183763890738629 0 0.01224976062295041 -0.42183763890738629 0 0.01480854687676085 -0.45072328586224342 0 0.030062121183744069 -0.41560348860952728 0 0.01224976062295041 -0.42183763890738629 0 0.028535899264767479 -0.43733174884408438 0 0.01224976062295041 -0.42183763890738629 0 0.028535899264767479 -0.43733174884408438 0 0.01480854687676085 -0.45072328586224342 0 0.030062121183744069 -0.41560348860952728 0 0.028535899264767479 -0.43733174884408438 0 0.039909128579099777 -0.42893709763038412 0 0.039909128579099777 -0.42893709763038412 0 0.050432421370333713 -0.42320051356081623 0 0.04400553312424714 -0.45021417746364167 0 0.039909128579099777 -0.42893709763038412 0 0.046509667952406512 -0.41833555967385072 0 0.050432421370333713 -0.42320051356081623 0 0.032645317368698572 -0.39721328630736241 0 0.030062121183744069 -0.41560348860952728 0 0.042121557959679479 -0.40689397827368962 0 0.030062121183744069 -0.41560348860952728 0 0.039909128579099777 -0.42893709763038412 0 0.046509667952406512 -0.41833555967385072 0 0.030062121183744069 -0.41560348860952728 0 0.042121557959679479 -0.40689397827368962 0 0.046509667952406512 -0.41833555967385072 0 0.054373060569327003 -0.40663711634463268 0 0.050432421370333713 -0.42320051356081623 0 0.046509667952406512 -0.41833555967385072 0 0.054373060569327003 -0.40663711634463268 0 0.050432421370333713 -0.42320051356081623 0 0.054373060569327003 -0.40663711634463268 0 0.060774245729122177 -0.41691050055794487 0 0.050432421370333713 -0.42320051356081623 0 0.046509667952406512 -0.41833555967385072 0 0.050432421370333713 -0.42320051356081623 0 0.042121557959679479 -0.40689397827368962 0 0.046509667952406512 -0.41833555967385072 0 0.054373060569327003 -0.40663711634463268 0 0.069775570718114244 -0.40426700169235308 0 0.054373060569327003 -0.40663711634463268 0 0.060774245729122177 -0.41691050055794487 0 0.050432421370333713 -0.42320051356081623 0 0.04400553312424714 -0.45021417746364167 0 0.065913834705597293 -0.44240038517061198 0 0.050432421370333713 -0.42320051356081623 0 0.065913834705597293 -0.44240038517061198 0 0.065921365320016911 -0.4273577277455588 0 0.050432421370333713 -0.42320051356081623 0 0.065921365320016911 -0.4273577277455588 0 0.060774245729122177 -0.41691050055794487 0 0.050432421370333713 -0.42320051356081623 0 0.065913834705597293 -0.44240038517061198 0 0.050432421370333713 -0.42320051356081623 0 0.04400553312424714 -0.45021417746364167 0 0.065913834705597293 -0.44240038517061198 0 0.057068655694905858 -0.46015288389510001 0 0.04400553312424714 -0.45021417746364167 0 0.057068655694905858 -0.46015288389510001 0 0.048043393468649283 -0.46676160836513853 0 0.04400553312424714 -0.45021417746364167 0 0.067447632246636219 -0.45716428258124142 0 0.057068655694905858 -0.46015288389510001 0 0.05849497948899289 -0.47642287528831911 0 0.057068655694905858 -0.46015288389510001 0 0.048043393468649283 -0.46676160836513853 0 0.052635520687858477 -0.47072247146996382 0 0.04400553312424714 -0.45021417746364167 0 0.037578644878161642 -0.47722784136646751 0 0.048043393468649283 -0.46676160836513853 0 0.04400553312424714 -0.45021417746364167 0 0.037578644878161642 -0.47722784136646751 0 0.04400553312424714 -0.45021417746364167 0 0.030366658319331299 -0.45781827645911538 0 0.037578644878161642 -0.47722784136646751 0 0.028535899264767479 -0.43733174884408438 0 0.039909128579099777 -0.42893709763038412 0 0.04400553312424714 -0.45021417746364167 0 0.028535899264767479 -0.43733174884408438 0 0.04400553312424714 -0.45021417746364167 0 0.030366658319331299 -0.45781827645911538 0 0.028535899264767479 -0.43733174884408438 0 0.01480854687676085 -0.45072328586224342 0 0.030366658319331299 -0.45781827645911538 0 -0.008216644178786571 -0.4466179140804285 0 0.01224976062295041 -0.42183763890738629 0 0.01480854687676085 -0.45072328586224342 0 0.01480854687676085 -0.45072328586224342 0 0.017367333130571299 -0.47960893281710049 0 0.0084119176919832291 -0.471974008478943 0 -0.0021957942935651631 -0.46571035637089769 0 0.01480854687676085 -0.45072328586224342 0 0.0084119176919832291 -0.471974008478943 0 -0.008216644178786571 -0.4466179140804285 0 -0.0021957942935651631 -0.46571035637089769 0 0.01480854687676085 -0.45072328586224342 0 0.01480854687676085 -0.45072328586224342 0 0.017367333130571299 -0.47960893281710049 0 0.01480854687676085 -0.45072328586224342 0 0.030366658319331299 -0.45781827645911538 0 0.0269046674527194 -0.47359432875914009 0 0.01480854687676085 -0.45072328586224342 0 0.0269046674527194 -0.47359432875914009 0 0.017367333130571299 -0.47960893281710049 0 0.017367333130571299 -0.47960893281710049 0 0.012735562036971701 -0.48508522326900949 0 0.035615270762982369 -0.48075404927866472 0 0.012735562036971701 -0.48508522326900949 0 0.035615270762982369 -0.48075404927866472 0 0.0269046674527194 -0.47359432875914009 0 0.017367333130571299 -0.47960893281710049 0 0.035615270762982369 -0.48075404927866472 0 0.017367333130571299 -0.47960893281710049 0 0.0084119176919832291 -0.471974008478943 0 0.012735562036971701 -0.48508522326900949 0 -0.00065605929082254884 -0.47874224407546379 0 0.0084119176919832291 -0.471974008478943 0 0.012735562036971701 -0.48508522326900949 0 -0.0021957942935651631 -0.46571035637089769 0 -0.00065605929082254884 -0.47874224407546379 0 0.0084119176919832291 -0.471974008478943 0 -0.010144146689038991 -0.48941639725935437 0 -0.00065605929082254884 -0.47874224407546379 0 0.012735562036971701 -0.48508522326900949 0 -0.010144146689038991 -0.48941639725935437 0 0.012735562036971701 -0.48508522326900949 0 -0.011489863113854141 -0.5 0 0.012735562036971701 -0.48508522326900949 0 0.01802246382714956 -0.5 0 0.01802246382714956 -0.5 0 0.025329369399590369 -0.48901546815995378 0 0.047534790768153173 -0.50000000000000044 0 0.012735562036971701 -0.48508522326900949 0 0.025329369399590369 -0.48901546815995378 0 0.035615270762982369 -0.48075404927866472 0 0.012735562036971701 -0.48508522326900949 0 0.01802246382714956 -0.5 0 0.025329369399590369 -0.48901546815995378 0 0.025329369399590369 -0.48901546815995378 0 0.035615270762982369 -0.48075404927866472 0 0.047534790768153173 -0.50000000000000044 0 0.030366658319331299 -0.45781827645911538 0 0.0269046674527194 -0.47359432875914009 0 0.037578644878161642 -0.47722784136646751 0 0.0269046674527194 -0.47359432875914009 0 0.037578644878161642 -0.47722784136646751 0 0.035615270762982369 -0.48075404927866472 0 0.048043393468649283 -0.46676160836513853 0 0.037578644878161642 -0.47722784136646751 0 0.046296380844488463 -0.47463440362945558 0 0.035615270762982369 -0.48075404927866472 0 0.046296380844488463 -0.47463440362945558 0 0.049693011087844949 -0.4756354888466594 0 0.037578644878161642 -0.47722784136646751 0 0.035615270762982369 -0.48075404927866472 0 0.046296380844488463 -0.47463440362945558 0 0.057068655694905858 -0.46015288389510001 0 0.052635520687858477 -0.47072247146996382 0 0.05849497948899289 -0.47642287528831911 0 0.035615270762982369 -0.48075404927866472 0 0.049693011087844949 -0.4756354888466594 0 0.05849497948899289 -0.47642287528831911 0 0.035615270762982369 -0.48075404927866472 0 0.05849497948899289 -0.47642287528831911 0 0.048043393468649283 -0.46676160836513853 0 0.046296380844488463 -0.47463440362945558 0 0.052635520687858477 -0.47072247146996382 0 0.049693011087844949 -0.4756354888466594 0 0.052635520687858477 -0.47072247146996382 0 0.05849497948899289 -0.47642287528831911 0 0.046296380844488463 -0.47463440362945558 0 0.049693011087844949 -0.4756354888466594 0 0.052635520687858477 -0.47072247146996382 0 0.05849497948899289 -0.47642287528831911 0 0.061758178687080389 -0.47580514524370598 0 0.062670741706174135 -0.48944359682069549 0 0.064881374578912687 -0.4815757870058418 0 0.05849497948899289 -0.47642287528831911 0 0.064881374578912687 -0.4815757870058418 0 0.05849497948899289 -0.47642287528831911 0 0.061758178687080389 -0.47580514524370598 0 0.069142552082564368 -0.5 0 0.062670741706174135 -0.48944359682069549 0 0.047534790768153173 -0.50000000000000044 0 0.05849497948899289 -0.47642287528831911 0 0.047534790768153173 -0.50000000000000044 0 0.035615270762982369 -0.48075404927866472 0 0.05849497948899289 -0.47642287528831911 0 0.047534790768153173 -0.50000000000000044 0 0.062670741706174135 -0.48944359682069549 0 0.05849497948899289 -0.47642287528831911 0 0.047534790768153173 -0.50000000000000044 0 0.089727975817252392 -0.29646224842349211 0 0.069967983226982527 -0.30495776272600778 0 0.075483032258224086 -0.28815868119130272 0 0.089727975817252392 -0.29646224842349211 0 0.088503230311337153 -0.27716835087377989 0 0.101883582619993 -0.28460947857741209 0 0.089727975817252392 -0.29646224842349211 0 0.075483032258224086 -0.28815868119130272 0 0.088503230311337153 -0.27716835087377989 0 0.089727975817252392 -0.29646224842349211 0 0.086214248119208581 -0.31193359067875348 0 0.069967983226982527 -0.30495776272600778 0 0.089727975817252392 -0.29646224842349211 0 0.086214248119208581 -0.31193359067875348 0 0.10049372866807189 -0.31082656242210721 0 0.069967983226982527 -0.30495776272600778 0 0.075483032258224086 -0.28815868119130272 0 0.059449054433483903 -0.28956707473318272 0 0.075483032258224086 -0.28815868119130272 0 0.0646939085167762 -0.2722383315448984 0 0.059449054433483903 -0.28956707473318272 0 0.0646939085167762 -0.2722383315448984 0 0.077350866508299074 -0.27549126298099152 0 0.080723294946858856 -0.26439968831398508 0 0.075483032258224086 -0.28815868119130272 0 0.0646939085167762 -0.2722383315448984 0 0.077350866508299074 -0.27549126298099152 0 0.0646939085167762 -0.2722383315448984 0 0.070005134957367529 -0.25889031236374099 0 0.080723294946858856 -0.26439968831398508 0 0.070005134957367529 -0.25889031236374099 0 0.061490933840310687 -0.25382890142296882 0 0.070069103552599196 -0.24823964670048029 0 0.0646939085167762 -0.2722383315448984 0 0.070005134957367529 -0.25889031236374099 0 0.060614126731859473 -0.2624009925450973 0 0.070005134957367529 -0.25889031236374099 0 0.061490933840310687 -0.25382890142296882 0 0.060614126731859473 -0.2624009925450973 0 0.070005134957367529 -0.25889031236374099 0 0.080071368274292315 -0.25145738896057979 0 0.080723294946858856 -0.26439968831398508 0 0.070005134957367529 -0.25889031236374099 0 0.080071368274292315 -0.25145738896057979 0 0.070069103552599196 -0.24823964670048029 0 0.080071368274292315 -0.25145738896057979 0 0.080723294946858856 -0.26439968831398508 0 0.090706365013478091 -0.25245448435890872 0 0.080723294946858856 -0.26439968831398508 0 0.090706365013478091 -0.25245448435890872 0 0.095060577752172304 -0.26241188567384149 0 0.075483032258224086 -0.28815868119130272 0 0.077350866508299074 -0.27549126298099152 0 0.088503230311337153 -0.27716835087377989 0 0.077350866508299074 -0.27549126298099152 0 0.080723294946858856 -0.26439968831398508 0 0.088503230311337153 -0.27716835087377989 0 0.080723294946858856 -0.26439968831398508 0 0.088503230311337153 -0.27716835087377989 0 0.095060577752172304 -0.26241188567384149 0 0.088503230311337153 -0.27716835087377989 0 0.1016952336099234 -0.27235330725820578 0 0.101883582619993 -0.28460947857741209 0 0.088503230311337153 -0.27716835087377989 0 0.1016952336099234 -0.27235330725820578 0 0.095060577752172304 -0.26241188567384149 0 0.1016952336099234 -0.27235330725820578 0 0.1104739380917857 -0.2612093749811526 0 0.1125548392743288 -0.27636744618484282 0 0.1016952336099234 -0.27235330725820578 0 0.1125548392743288 -0.27636744618484282 0 0.101883582619993 -0.28460947857741209 0 0.090706365013478091 -0.25245448435890872 0 0.099550463170151926 -0.25262580003909579 0 0.095060577752172304 -0.26241188567384149 0 0.1016952336099234 -0.27235330725820578 0 0.095060577752172304 -0.26241188567384149 0 0.1104739380917857 -0.2612093749811526 0 0.099550463170151926 -0.25262580003909579 0 0.095060577752172304 -0.26241188567384149 0 0.1104739380917857 -0.2612093749811526 0 0.099550463170151926 -0.25262580003909579 0 0.1104739380917857 -0.2612093749811526 0 0.1078238037173969 -0.24832262031645649 0 0.1311170075682456 -0.27142576198599933 0 0.1104739380917857 -0.2612093749811526 0 0.1212054647883809 -0.25073068226796852 0 0.1104739380917857 -0.2612093749811526 0 0.1212054647883809 -0.25073068226796852 0 0.1078238037173969 -0.24832262031645649 0 0.1311170075682456 -0.27142576198599933 0 0.1104739380917857 -0.2612093749811526 0 0.1311170075682456 -0.27142576198599933 0 0.1104739380917857 -0.2612093749811526 0 0.1193620271946058 -0.27249351692823448 0 0.1104739380917857 -0.2612093749811526 0 0.1125548392743288 -0.27636744618484282 0 0.1193620271946058 -0.27249351692823448 0 0.1125548392743288 -0.27636744618484282 0 0.1193620271946058 -0.27249351692823448 0 0.1233023238440631 -0.28097148456094378 0 0.1311170075682456 -0.27142576198599933 0 0.1193620271946058 -0.27249351692823448 0 0.1233023238440631 -0.28097148456094378 0 0.1233023238440631 -0.28097148456094378 0 0.1242383748246253 -0.29131174999725179 0 0.1141297936923768 -0.28878453930630188 0 0.1242383748246253 -0.29131174999725179 0 0.1141297936923768 -0.28878453930630188 0 0.1198701537204314 -0.30089140532399938 0 0.1141297936923768 -0.28878453930630188 0 0.10622170970645189 -0.29895353846799488 0 0.1198701537204314 -0.30089140532399938 0 0.1125548392743288 -0.27636744618484282 0 0.1233023238440631 -0.28097148456094378 0 0.1141297936923768 -0.28878453930630188 0 0.1125548392743288 -0.27636744618484282 0 0.1141297936923768 -0.28878453930630188 0 0.101883582619993 -0.28460947857741209 0 0.089727975817252392 -0.29646224842349211 0 0.101883582619993 -0.28460947857741209 0 0.10622170970645189 -0.29895353846799488 0 0.1141297936923768 -0.28878453930630188 0 0.101883582619993 -0.28460947857741209 0 0.10622170970645189 -0.29895353846799488 0 0.089727975817252392 -0.29646224842349211 0 0.10049372866807189 -0.31082656242210721 0 0.10622170970645189 -0.29895353846799488 0 0.10049372866807189 -0.31082656242210721 0 0.10622170970645189 -0.29895353846799488 0 0.1134387524627216 -0.31086840579325631 0 0.10622170970645189 -0.29895353846799488 0 0.1134387524627216 -0.31086840579325631 0 0.1198701537204314 -0.30089140532399938 0 0.1265219532001009 -0.3124330460259736 0 0.1134387524627216 -0.31086840579325631 0 0.1198701537204314 -0.30089140532399938 0 0.1265219532001009 -0.3124330460259736 0 0.1134387524627216 -0.31086840579325631 0 0.1192961391526948 -0.32261879728377291 0 0.1134387524627216 -0.31086840579325631 0 0.1192961391526948 -0.32261879728377291 0 0.1082288303285789 -0.31948708523568958 0 0.1192961391526948 -0.32261879728377291 0 0.1093748658769356 -0.32997486192450581 0 0.1082288303285789 -0.31948708523568958 0 0.1192961391526948 -0.32261879728377291 0 0.1168506625355451 -0.3296807312869221 0 0.1093748658769356 -0.32997486192450581 0 0.1192961391526948 -0.32261879728377291 0 0.12260601330919629 -0.33072698382653798 0 0.1168506625355451 -0.3296807312869221 0 0.13219802669416811 -0.32498852212276208 0 0.1192961391526948 -0.32261879728377291 0 0.12260601330919629 -0.33072698382653798 0 0.13051916655351839 -0.33696304048325831 0 0.12260601330919629 -0.33072698382653798 0 0.1159240811174677 -0.33775964177068091 0 0.12260601330919629 -0.33072698382653798 0 0.1159240811174677 -0.33775964177068091 0 0.1161256318033537 -0.33540228211287182 0 0.12260601330919629 -0.33072698382653798 0 0.1168506625355451 -0.3296807312869221 0 0.1161256318033537 -0.33540228211287182 0 0.13051916655351839 -0.33696304048325831 0 0.1159240811174677 -0.33775964177068091 0 0.13051916655351839 -0.33696304048325831 0 0.1159240811174677 -0.33775964177068091 0 0.123981461538115 -0.35128285539313481 0 0.1159240811174677 -0.33775964177068091 0 0.1161256318033537 -0.33540228211287182 0 0.1168506625355451 -0.3296807312869221 0 0.1161256318033537 -0.33540228211287182 0 0.1093748658769356 -0.32997486192450581 0 0.1159240811174677 -0.33775964177068091 0 0.1161256318033537 -0.33540228211287182 0 0.1093748658769356 -0.32997486192450581 0 0.1159240811174677 -0.33775964177068091 0 0.092335912071574502 -0.33904708650077298 0 0.1159240811174677 -0.33775964177068091 0 0.1093748658769356 -0.32997486192450581 0 0.092335912071574502 -0.33904708650077298 0 0.1093748658769356 -0.32997486192450581 0 0.096347407600029022 -0.32440529872184809 0 0.092335912071574502 -0.33904708650077298 0 0.1159240811174677 -0.33775964177068091 0 0.10211321446004019 -0.35101158716873732 0 0.092335912071574502 -0.33904708650077298 0 0.086214248119208581 -0.31193359067875348 0 0.10049372866807189 -0.31082656242210721 0 0.096347407600029022 -0.32440529872184809 0 0.10049372866807189 -0.31082656242210721 0 0.1134387524627216 -0.31086840579325631 0 0.1082288303285789 -0.31948708523568958 0 0.10049372866807189 -0.31082656242210721 0 0.096347407600029022 -0.32440529872184809 0 0.1082288303285789 -0.31948708523568958 0 0.1093748658769356 -0.32997486192450581 0 0.096347407600029022 -0.32440529872184809 0 0.1082288303285789 -0.31948708523568958 0 0.12784456261830821 -0.36308533366748658 0 0.12609635470998201 -0.38402791619100712 0 0.113745377556003 -0.36324200547299851 0 0.1159240811174677 -0.33775964177068091 0 0.113745377556003 -0.36324200547299851 0 0.123981461538115 -0.35128285539313481 0 0.1159240811174677 -0.33775964177068091 0 0.113745377556003 -0.36324200547299851 0 0.1159240811174677 -0.33775964177068091 0 0.113745377556003 -0.36324200547299851 0 0.10211321446004019 -0.35101158716873732 0 0.12784456261830821 -0.36308533366748658 0 0.113745377556003 -0.36324200547299851 0 0.123981461538115 -0.35128285539313481 0 0.1115666739945345 -0.38872436917531578 0 0.113745377556003 -0.36324200547299851 0 0.096372132326470572 -0.36542491223168638 0 0.113745377556003 -0.36324200547299851 0 0.10211321446004019 -0.35101158716873732 0 0.096372132326470572 -0.36542491223168638 0 0.089853218628298884 -0.38394717958202601 0 0.096372132326470572 -0.36542491223168638 0 0.07582030708563034 -0.37256671738353597 0 0.096372132326470572 -0.36542491223168638 0 0.082110249222110576 -0.35466523699539548 0 0.07582030708563034 -0.37256671738353597 0 0.10211321446004019 -0.35101158716873732 0 0.096372132326470572 -0.36542491223168638 0 0.082110249222110576 -0.35466523699539548 0 0.082110249222110576 -0.35466523699539548 0 0.092335912071574502 -0.33904708650077298 0 0.068747743025681235 -0.34033453123086538 0 0.10211321446004019 -0.35101158716873732 0 0.082110249222110576 -0.35466523699539548 0 0.092335912071574502 -0.33904708650077298 0 0.082110249222110576 -0.35466523699539548 0 0.068747743025681235 -0.34033453123086538 0 0.057272186363266697 -0.35960658745677498 0 0.082110249222110576 -0.35466523699539548 0 0.07582030708563034 -0.37256671738353597 0 0.057272186363266697 -0.35960658745677498 0 0.05933500968155693 -0.37671477575793533 0 0.07582030708563034 -0.37256671738353597 0 0.057272186363266697 -0.35960658745677498 0 0.086214248119208581 -0.31193359067875348 0 0.096347407600029022 -0.32440529872184809 0 0.078030795921920637 -0.32434601069550512 0 0.092335912071574502 -0.33904708650077298 0 0.068747743025681235 -0.34033453123086538 0 0.078030795921920637 -0.32434601069550512 0 0.092335912071574502 -0.33904708650077298 0 0.068747743025681235 -0.34033453123086538 0 0.096347407600029022 -0.32440529872184809 0 0.092335912071574502 -0.33904708650077298 0 0.078030795921920637 -0.32434601069550512 0 0.068747743025681235 -0.34033453123086538 0 0.078030795921920637 -0.32434601069550512 0 0.053863538987460123 -0.3232816795844588 0 0.069967983226982527 -0.30495776272600778 0 0.078030795921920637 -0.32434601069550512 0 0.053863538987460123 -0.3232816795844588 0 0.086214248119208581 -0.31193359067875348 0 0.069967983226982527 -0.30495776272600778 0 0.078030795921920637 -0.32434601069550512 0 0.068747743025681235 -0.34033453123086538 0 0.045159573979787898 -0.34162197596095778 0 0.068747743025681235 -0.34033453123086538 0 0.053863538987460123 -0.3232816795844588 0 0.045159573979787898 -0.34162197596095778 0 0.053863538987460123 -0.3232816795844588 0 0.034832013842728909 -0.33032259781876938 0 0.045159573979787898 -0.34162197596095778 0 0.034832013842728909 -0.33032259781876938 0 0.045159573979787898 -0.34162197596095778 0 0.02157140493389462 -0.34290942069105018 0 0.045159573979787898 -0.34162197596095778 0 0.02157140493389462 -0.34290942069105018 0 0.053863538987460123 -0.3232816795844588 0 0.034832013842728909 -0.33032259781876938 0 0.03621734991660093 -0.31670946998547028 0 0.053863538987460123 -0.3232816795844588 0 0.03621734991660093 -0.31670946998547028 0 0.048768037075517537 -0.30442990221103089 0 0.05933500968155693 -0.37671477575793533 0 0.057272186363266697 -0.35960658745677498 0 0.039079294002052851 -0.37065651216905859 0 0.068747743025681235 -0.34033453123086538 0 0.045159573979787898 -0.34162197596095778 0 0.057272186363266697 -0.35960658745677498 0 0.045159573979787898 -0.34162197596095778 0 0.034512899630155462 -0.3545258348651717 0 0.02157140493389462 -0.34290942069105018 0 0.045159573979787898 -0.34162197596095778 0 0.057272186363266697 -0.35960658745677498 0 0.034512899630155462 -0.3545258348651717 0 0.057272186363266697 -0.35960658745677498 0 0.034512899630155462 -0.3545258348651717 0 0.039079294002052851 -0.37065651216905859 0 0.025542853711361019 -0.38384675294920401 0 0.039079294002052851 -0.37065651216905859 0 0.016784443680880379 -0.36713146693108112 0 0.034512899630155462 -0.3545258348651717 0 0.039079294002052851 -0.37065651216905859 0 0.016784443680880379 -0.36713146693108112 0 0.034512899630155462 -0.3545258348651717 0 0.016784443680880379 -0.36713146693108112 0 0.02157140493389462 -0.34290942069105018 0 -0.0043130761299947744 -0.35643483176966217 0 0.016784443680880379 -0.36713146693108112 0 0.02157140493389462 -0.34290942069105018 0 -0.0038616663111063101 -0.33241552487502413 0 -0.0043130761299947744 -0.35643483176966217 0 0.02157140493389462 -0.34290942069105018 0 -0.0043130761299947744 -0.35643483176966217 0 -0.0064694903547723136 -0.38059021958606692 0 0.016784443680880379 -0.36713146693108112 0 0.03621734991660093 -0.31670946998547028 0 0.020048637459846991 -0.32439583124448262 0 0.029165048793799431 -0.30349547286963757 0 0.034832013842728909 -0.33032259781876938 0 0.03621734991660093 -0.31670946998547028 0 0.020048637459846991 -0.32439583124448262 0 0.020048637459846991 -0.32439583124448262 0 0.0094652366165251054 -0.31053241408104548 0 0.029165048793799431 -0.30349547286963757 0 0.034832013842728909 -0.33032259781876938 0 0.020048637459846991 -0.32439583124448262 0 0.02157140493389462 -0.34290942069105018 0 -0.0038616663111063101 -0.33241552487502413 0 0.020048637459846991 -0.32439583124448262 0 0.02157140493389462 -0.34290942069105018 0 -0.0038616663111063101 -0.33241552487502413 0 0.020048637459846991 -0.32439583124448262 0 0.0094652366165251054 -0.31053241408104548 0 -0.01007927323019326 -0.3103345258507364 0 0.0094652366165251054 -0.31053241408104548 0 0.0017563221397047381 -0.2997067901486577 0 0.0094652366165251054 -0.31053241408104548 0 0.0017563221397047381 -0.2997067901486577 0 0.017453688627786131 -0.29322190620108468 0 0.0017563221397047381 -0.2997067901486577 0 0.0066437179820165657 -0.2861171845936395 0 0.017453688627786131 -0.29322190620108468 0 -0.0080748459131490501 -0.2914060437848453 0 0.0017563221397047381 -0.2997067901486577 0 0.0066437179820165657 -0.2861171845936395 0 0.0066437179820165657 -0.2861171845936395 0 0.017453688627786131 -0.29322190620108468 0 0.01908241754038794 -0.28073467218482329 0 0.017453688627786131 -0.29322190620108468 0 0.029398966714908509 -0.28692964748338379 0 0.029165048793799431 -0.30349547286963757 0 0.017453688627786131 -0.29322190620108468 0 0.029398966714908509 -0.28692964748338379 0 0.01908241754038794 -0.28073467218482329 0 0.0094652366165251054 -0.31053241408104548 0 0.017453688627786131 -0.29322190620108468 0 0.029165048793799431 -0.30349547286963757 0 0.03621734991660093 -0.31670946998547028 0 0.029165048793799431 -0.30349547286963757 0 0.048768037075517537 -0.30442990221103089 0 0.029165048793799431 -0.30349547286963757 0 0.043029943860180789 -0.28970337243015992 0 0.048768037075517537 -0.30442990221103089 0 0.029398966714908509 -0.28692964748338379 0 0.029165048793799431 -0.30349547286963757 0 0.043029943860180789 -0.28970337243015992 0 0.029398966714908509 -0.28692964748338379 0 0.043029943860180789 -0.28970337243015992 0 0.038396769586432553 -0.27977596087564799 0 0.043029943860180789 -0.28970337243015992 0 0.051749435803858171 -0.27840569125857739 0 0.038396769586432553 -0.27977596087564799 0 0.043029943860180789 -0.28970337243015992 0 0.059449054433483903 -0.28956707473318272 0 0.051749435803858171 -0.27840569125857739 0 0.043029943860180789 -0.28970337243015992 0 0.059449054433483903 -0.28956707473318272 0 0.048768037075517537 -0.30442990221103089 0 0.069967983226982527 -0.30495776272600778 0 0.059449054433483903 -0.28956707473318272 0 0.048768037075517537 -0.30442990221103089 0 0.069967983226982527 -0.30495776272600778 0 0.053863538987460123 -0.3232816795844588 0 0.048768037075517537 -0.30442990221103089 0 0.053380735395516472 -0.25867595766617779 0 0.04428054005230446 -0.26275141268032309 0 0.045372505498807933 -0.25408090721008542 0 0.053380735395516472 -0.25867595766617779 0 0.053158010572478251 -0.26777612517812432 0 0.04428054005230446 -0.26275141268032309 0 0.053380735395516472 -0.25867595766617779 0 0.045372505498807933 -0.25408090721008542 0 0.05268811686830014 -0.24901610311096159 0 0.053380735395516472 -0.25867595766617779 0 0.061490933840310687 -0.25382890142296882 0 0.05268811686830014 -0.24901610311096159 0 0.053380735395516472 -0.25867595766617779 0 0.060614126731859473 -0.2624009925450973 0 0.053158010572478251 -0.26777612517812432 0 0.053380735395516472 -0.25867595766617779 0 0.061490933840310687 -0.25382890142296882 0 0.060614126731859473 -0.2624009925450973 0 0.0646939085167762 -0.2722383315448984 0 0.060614126731859473 -0.2624009925450973 0 0.053158010572478251 -0.26777612517812432 0 0.0646939085167762 -0.2722383315448984 0 0.059449054433483903 -0.28956707473318272 0 0.051749435803858171 -0.27840569125857739 0 0.0646939085167762 -0.2722383315448984 0 0.051749435803858171 -0.27840569125857739 0 0.053158010572478251 -0.26777612517812432 0 0.053158010572478251 -0.26777612517812432 0 0.044229316934554799 -0.27218436537367241 0 0.04428054005230446 -0.26275141268032309 0 0.051749435803858171 -0.27840569125857739 0 0.053158010572478251 -0.26777612517812432 0 0.044229316934554799 -0.27218436537367241 0 0.044229316934554799 -0.27218436537367241 0 0.031885251388666561 -0.26470215361104171 0 0.04428054005230446 -0.26275141268032309 0 0.051749435803858171 -0.27840569125857739 0 0.044229316934554799 -0.27218436537367241 0 0.038396769586432553 -0.27977596087564799 0 0.044229316934554799 -0.27218436537367241 0 0.038396769586432553 -0.27977596087564799 0 0.029696712261103771 -0.27487286106778819 0 0.029398966714908509 -0.28692964748338379 0 0.038396769586432553 -0.27977596087564799 0 0.029696712261103771 -0.27487286106778819 0 0.044229316934554799 -0.27218436537367241 0 0.031885251388666561 -0.26470215361104171 0 0.029696712261103771 -0.27487286106778819 0 0.037315510146954597 -0.25849363249326118 0 0.031885251388666561 -0.26470215361104171 0 0.04428054005230446 -0.26275141268032309 0 0.037315510146954597 -0.25849363249326118 0 0.031885251388666561 -0.26470215361104171 0 0.03069464768829987 -0.25176037071845259 0 0.037315510146954597 -0.25849363249326118 0 0.04428054005230446 -0.26275141268032309 0 0.045372505498807933 -0.25408090721008542 0 0.045372505498807933 -0.25408090721008542 0 0.03069464768829987 -0.25176037071845259 0 0.042588116356466379 -0.2448823624008481 0 0.037315510146954597 -0.25849363249326118 0 0.045372505498807933 -0.25408090721008542 0 0.03069464768829987 -0.25176037071845259 0 0.031885251388666561 -0.26470215361104171 0 0.021199614426200629 -0.26114166245967918 0 0.019908913466960752 -0.27058631964059482 0 0.031885251388666561 -0.26470215361104171 0 0.03069464768829987 -0.25176037071845259 0 0.021199614426200629 -0.26114166245967918 0 0.03069464768829987 -0.25176037071845259 0 0.021199614426200629 -0.26114166245967918 0 0.016145176335298529 -0.25210595968411048 0 0.029398966714908509 -0.28692964748338379 0 0.029696712261103771 -0.27487286106778819 0 0.01908241754038794 -0.28073467218482329 0 0.031885251388666561 -0.26470215361104171 0 0.029696712261103771 -0.27487286106778819 0 0.019908913466960752 -0.27058631964059482 0 0.019908913466960752 -0.27058631964059482 0 0.01908241754038794 -0.28073467218482329 0 0.01128192931255503 -0.27464126756021451 0 0.029696712261103771 -0.27487286106778819 0 0.019908913466960752 -0.27058631964059482 0 0.01908241754038794 -0.28073467218482329 0 -0.01145854626600548 -0.26602311564559261 0 0.01128192931255503 -0.27464126756021451 0 0.0057158633005241696 -0.26337829885565528 0 0.0066437179820165657 -0.2861171845936395 0 0.01908241754038794 -0.28073467218482329 0 0.01128192931255503 -0.27464126756021451 0 0.019908913466960752 -0.27058631964059482 0 0.01128192931255503 -0.27464126756021451 0 0.0057158633005241696 -0.26337829885565528 0 -0.002848760243290064 -0.27761611820401882 0 0.0066437179820165657 -0.2861171845936395 0 0.01128192931255503 -0.27464126756021451 0 0.016145176335298529 -0.25210595968411048 0 0.0057158633005241696 -0.26337829885565528 0 0.0054759062840018038 -0.25064707341720888 0 0.021199614426200629 -0.26114166245967918 0 0.019908913466960752 -0.27058631964059482 0 0.0057158633005241696 -0.26337829885565528 0 0.021199614426200629 -0.26114166245967918 0 0.016145176335298529 -0.25210595968411048 0 0.0057158633005241696 -0.26337829885565528 0 -0.0009620894167222515 -0.25496392916579452 0 0.0057158633005241696 -0.26337829885565528 0 0.0054759062840018038 -0.25064707341720888 0 -0.0009620894167222515 -0.25496392916579452 0 -0.0029313858115674811 -0.24854412401401971 0 0.0054759062840018038 -0.25064707341720888 0 0.0054759062840018038 -0.25064707341720888 0 0.0026199421412959989 -0.2430643023623929 0 0.011589873569895199 -0.24127835128668559 0 -0.0029313858115674811 -0.24854412401401971 0 0.0054759062840018038 -0.25064707341720888 0 0.0026199421412959989 -0.2430643023623929 0 0.016145176335298529 -0.25210595968411048 0 0.0054759062840018038 -0.25064707341720888 0 0.011589873569895199 -0.24127835128668559 0 0.011589873569895199 -0.24127835128668559 0 0.010668172172219499 -0.2272828987723072 0 0.020574075722817331 -0.2351284197632682 0 0.0026199421412959989 -0.2430643023623929 0 0.011589873569895199 -0.24127835128668559 0 0.0017465435191736189 -0.23378549097037141 0 -0.00080535468136348092 -0.21995366459000901 0 0.010668172172219499 -0.2272828987723072 0 0.01016515501406726 -0.20926501301563591 0 -0.00080535468136348092 -0.21995366459000901 0 0.0017465435191736189 -0.23378549097037141 0 0.010668172172219499 -0.2272828987723072 0 0.010668172172219499 -0.2272828987723072 0 0.02170661161633574 -0.22145314359659171 0 0.01016515501406726 -0.20926501301563591 0 0.011589873569895199 -0.24127835128668559 0 0.0017465435191736189 -0.23378549097037141 0 0.010668172172219499 -0.2272828987723072 0 0.010668172172219499 -0.2272828987723072 0 0.02170661161633574 -0.22145314359659171 0 0.020574075722817331 -0.2351284197632682 0 0.02170661161633574 -0.22145314359659171 0 0.02866695829179056 -0.22960637228307629 0 0.036392787169896093 -0.22322562645731159 0 0.02170661161633574 -0.22145314359659171 0 0.02866695829179056 -0.22960637228307629 0 0.020574075722817331 -0.2351284197632682 0 0.02866695829179056 -0.22960637228307629 0 0.020574075722817331 -0.2351284197632682 0 0.032071787069821417 -0.24054619649286721 0 0.022195152742869501 -0.2444300013669817 0 0.020574075722817331 -0.2351284197632682 0 0.032071787069821417 -0.24054619649286721 0 0.03069464768829987 -0.25176037071845259 0 0.022195152742869501 -0.2444300013669817 0 0.032071787069821417 -0.24054619649286721 0 0.03069464768829987 -0.25176037071845259 0 0.016145176335298529 -0.25210595968411048 0 0.022195152742869501 -0.2444300013669817 0 0.016145176335298529 -0.25210595968411048 0 0.011589873569895199 -0.24127835128668559 0 0.022195152742869501 -0.2444300013669817 0 0.011589873569895199 -0.24127835128668559 0 0.022195152742869501 -0.2444300013669817 0 0.020574075722817331 -0.2351284197632682 0 -0.003739977245034012 -0.19168309442994089 0 0.010514116253606281 -0.1925853606064957 0 0.01016515501406726 -0.20926501301563591 0 0.010514116253606281 -0.1925853606064957 0 0.01016515501406726 -0.20926501301563591 0 0.018596641755985681 -0.20049862993462389 0 0.02170661161633574 -0.22145314359659171 0 0.01016515501406726 -0.20926501301563591 0 0.028304225500431591 -0.20785134554231141 0 0.01016515501406726 -0.20926501301563591 0 0.028304225500431591 -0.20785134554231141 0 0.018596641755985681 -0.20049862993462389 0 0.02170661161633574 -0.22145314359659171 0 0.028304225500431591 -0.20785134554231141 0 0.036392787169896093 -0.22322562645731159 0 0.028304225500431591 -0.20785134554231141 0 0.018596641755985681 -0.20049862993462389 0 0.02540307025583758 -0.19229280057405279 0 0.010514116253606281 -0.1925853606064957 0 0.018596641755985681 -0.20049862993462389 0 0.02540307025583758 -0.19229280057405279 0 0.010514116253606281 -0.1925853606064957 0 0.02540307025583758 -0.19229280057405279 0 0.015764016274472759 -0.1812646672695073 0 0.02540307025583758 -0.19229280057405279 0 0.041440672425083092 -0.19607701236864419 0 0.030421272951226121 -0.1778391783376792 0 0.028304225500431591 -0.20785134554231141 0 0.02540307025583758 -0.19229280057405279 0 0.041440672425083092 -0.19607701236864419 0 0.041440672425083092 -0.19607701236864419 0 0.042310424588804782 -0.2140630995529598 0 0.055497750511994078 -0.2086068857692274 0 0.028304225500431591 -0.20785134554231141 0 0.041440672425083092 -0.19607701236864419 0 0.042310424588804782 -0.2140630995529598 0 0.028304225500431591 -0.20785134554231141 0 0.042310424588804782 -0.2140630995529598 0 0.036392787169896093 -0.22322562645731159 0 0.042310424588804782 -0.2140630995529598 0 0.055497750511994078 -0.2086068857692274 0 0.052955454276687589 -0.2198291654371925 0 0.062338921595789062 -0.21792006704763969 0 0.055497750511994078 -0.2086068857692274 0 0.052955454276687589 -0.2198291654371925 0 0.062338921595789062 -0.21792006704763969 0 0.055497750511994078 -0.2086068857692274 0 0.067863046951983474 -0.20503048868511209 0 0.055497750511994078 -0.2086068857692274 0 0.056257937900538298 -0.19577788601322099 0 0.067863046951983474 -0.20503048868511209 0 0.041440672425083092 -0.19607701236864419 0 0.056257937900538298 -0.19577788601322099 0 0.051449240160577621 -0.1762857105508405 0 0.041440672425083092 -0.19607701236864419 0 0.055497750511994078 -0.2086068857692274 0 0.056257937900538298 -0.19577788601322099 0 0.040491861427302538 -0.2355872617630255 0 0.042588116356466379 -0.2448823624008481 0 0.052307832003780613 -0.23884346229351339 0 0.040491861427302538 -0.2355872617630255 0 0.045866106706223042 -0.22907627795895011 0 0.052307832003780613 -0.23884346229351339 0 0.03069464768829987 -0.25176037071845259 0 0.042588116356466379 -0.2448823624008481 0 0.032071787069821417 -0.24054619649286721 0 0.040491861427302538 -0.2355872617630255 0 0.042588116356466379 -0.2448823624008481 0 0.032071787069821417 -0.24054619649286721 0 0.02866695829179056 -0.22960637228307629 0 0.040491861427302538 -0.2355872617630255 0 0.032071787069821417 -0.24054619649286721 0 0.02866695829179056 -0.22960637228307629 0 0.040491861427302538 -0.2355872617630255 0 0.036392787169896093 -0.22322562645731159 0 0.042310424588804782 -0.2140630995529598 0 0.036392787169896093 -0.22322562645731159 0 0.045866106706223042 -0.22907627795895011 0 0.040491861427302538 -0.2355872617630255 0 0.036392787169896093 -0.22322562645731159 0 0.045866106706223042 -0.22907627795895011 0 0.045866106706223042 -0.22907627795895011 0 0.058764067980626958 -0.22947949685718549 0 0.052307832003780613 -0.23884346229351339 0 0.045866106706223042 -0.22907627795895011 0 0.052955454276687589 -0.2198291654371925 0 0.058764067980626958 -0.22947949685718549 0 0.042310424588804782 -0.2140630995529598 0 0.045866106706223042 -0.22907627795895011 0 0.052955454276687589 -0.2198291654371925 0 0.062338921595789062 -0.21792006704763969 0 0.058764067980626958 -0.22947949685718549 0 0.065719467571416057 -0.22489822263154319 0 0.062338921595789062 -0.21792006704763969 0 0.052955454276687589 -0.2198291654371925 0 0.058764067980626958 -0.22947949685718549 0 0.058764067980626958 -0.22947949685718549 0 0.062159259289524899 -0.2368834247622158 0 0.052307832003780613 -0.23884346229351339 0 0.062159259289524899 -0.2368834247622158 0 0.052307832003780613 -0.23884346229351339 0 0.061229972926465738 -0.2445427902389527 0 0.045372505498807933 -0.25408090721008542 0 0.042588116356466379 -0.2448823624008481 0 0.05268811686830014 -0.24901610311096159 0 0.042588116356466379 -0.2448823624008481 0 0.052307832003780613 -0.23884346229351339 0 0.05268811686830014 -0.24901610311096159 0 0.061490933840310687 -0.25382890142296882 0 0.05268811686830014 -0.24901610311096159 0 0.061229972926465738 -0.2445427902389527 0 0.052307832003780613 -0.23884346229351339 0 0.05268811686830014 -0.24901610311096159 0 0.061229972926465738 -0.2445427902389527 0 0.061490933840310687 -0.25382890142296882 0 0.061229972926465738 -0.2445427902389527 0 0.070069103552599196 -0.24823964670048029 0 0.061229972926465738 -0.2445427902389527 0 0.070069103552599196 -0.24823964670048029 0 0.069856411684105391 -0.23913895996007839 0 0.062159259289524899 -0.2368834247622158 0 0.061229972926465738 -0.2445427902389527 0 0.069856411684105391 -0.23913895996007839 0 0.062159259289524899 -0.2368834247622158 0 0.069856411684105391 -0.23913895996007839 0 0.067142239376285745 -0.23139328163069281 0 0.069856411684105391 -0.23913895996007839 0 0.077788170153509889 -0.24196191377257101 0 0.076767606518392539 -0.23187249677345001 0 0.080071368274292315 -0.25145738896057979 0 0.070069103552599196 -0.24823964670048029 0 0.077788170153509889 -0.24196191377257101 0 0.070069103552599196 -0.24823964670048029 0 0.069856411684105391 -0.23913895996007839 0 0.077788170153509889 -0.24196191377257101 0 0.080071368274292315 -0.25145738896057979 0 0.090706365013478091 -0.25245448435890872 0 0.085906732882507178 -0.24385162082211831 0 0.080071368274292315 -0.25145738896057979 0 0.077788170153509889 -0.24196191377257101 0 0.085906732882507178 -0.24385162082211831 0 0.077788170153509889 -0.24196191377257101 0 0.085906732882507178 -0.24385162082211831 0 0.083256636250354649 -0.23616880796388259 0 0.077788170153509889 -0.24196191377257101 0 0.083256636250354649 -0.23616880796388259 0 0.076767606518392539 -0.23187249677345001 0 0.085906732882507178 -0.24385162082211831 0 0.089657973372422345 -0.23730775202069579 0 0.094006026236525903 -0.2441335510050745 0 0.085906732882507178 -0.24385162082211831 0 0.083256636250354649 -0.23616880796388259 0 0.089657973372422345 -0.23730775202069579 0 0.083256636250354649 -0.23616880796388259 0 0.089657973372422345 -0.23730775202069579 0 0.089763789457938253 -0.2306791647953326 0 0.089657973372422345 -0.23730775202069579 0 0.089763789457938253 -0.2306791647953326 0 0.096012267649498176 -0.23702186761809721 0 0.089657973372422345 -0.23730775202069579 0 0.094006026236525903 -0.2441335510050745 0 0.096012267649498176 -0.23702186761809721 0 0.090706365013478091 -0.25245448435890872 0 0.085906732882507178 -0.24385162082211831 0 0.094006026236525903 -0.2441335510050745 0 0.086446736705125371 -0.22420087797706609 0 0.091303359373345411 -0.22339335178318359 0 0.089763789457938253 -0.2306791647953326 0 0.086446736705125371 -0.22420087797706609 0 0.091303359373345411 -0.22339335178318359 0 0.086853981468707001 -0.2185547472363609 0 0.091303359373345411 -0.22339335178318359 0 0.086853981468707001 -0.2185547472363609 0 0.09077468002378962 -0.21857675351640271 0 0.091303359373345411 -0.22339335178318359 0 0.09077468002378962 -0.21857675351640271 0 0.094530837428433365 -0.22086489816084981 0 0.091303359373345411 -0.22339335178318359 0 0.089763789457938253 -0.2306791647953326 0 0.098670227838192195 -0.22970514568366851 0 0.086446736705125371 -0.22420087797706609 0 0.089763789457938253 -0.2306791647953326 0 0.083020570332336119 -0.22791650227557511 0 0.083256636250354649 -0.23616880796388259 0 0.083020570332336119 -0.22791650227557511 0 0.076767606518392539 -0.23187249677345001 0 0.083256636250354649 -0.23616880796388259 0 0.089763789457938253 -0.2306791647953326 0 0.083020570332336119 -0.22791650227557511 0 0.083020570332336119 -0.22791650227557511 0 0.077930889523722374 -0.22519622511208121 0 0.076767606518392539 -0.23187249677345001 0 0.083020570332336119 -0.22791650227557511 0 0.081291982893300085 -0.22046062379487821 0 0.077930889523722374 -0.22519622511208121 0 0.086446736705125371 -0.22420087797706609 0 0.083020570332336119 -0.22791650227557511 0 0.081291982893300085 -0.22046062379487821 0 0.086446736705125371 -0.22420087797706609 0 0.081291982893300085 -0.22046062379487821 0 0.086853981468707001 -0.2185547472363609 0 0.081291982893300085 -0.22046062379487821 0 0.077930889523722374 -0.22519622511208121 0 0.073706539318973169 -0.21796036257100029 0 0.072234091795087663 -0.22574485878751241 0 0.065719467571416057 -0.22489822263154319 0 0.073706539318973169 -0.21796036257100029 0 0.077930889523722374 -0.22519622511208121 0 0.072234091795087663 -0.22574485878751241 0 0.073706539318973169 -0.21796036257100029 0 0.069856411684105391 -0.23913895996007839 0 0.076767606518392539 -0.23187249677345001 0 0.067142239376285745 -0.23139328163069281 0 0.072234091795087663 -0.22574485878751241 0 0.076767606518392539 -0.23187249677345001 0 0.067142239376285745 -0.23139328163069281 0 0.077930889523722374 -0.22519622511208121 0 0.072234091795087663 -0.22574485878751241 0 0.076767606518392539 -0.23187249677345001 0 0.058764067980626958 -0.22947949685718549 0 0.062159259289524899 -0.2368834247622158 0 0.067142239376285745 -0.23139328163069281 0 0.058764067980626958 -0.22947949685718549 0 0.067142239376285745 -0.23139328163069281 0 0.065719467571416057 -0.22489822263154319 0 0.072234091795087663 -0.22574485878751241 0 0.067142239376285745 -0.23139328163069281 0 0.065719467571416057 -0.22489822263154319 0 0.062338921595789062 -0.21792006704763969 0 0.065719467571416057 -0.22489822263154319 0 0.073706539318973169 -0.21796036257100029 0 0.062338921595789062 -0.21792006704763969 0 0.067863046951983474 -0.20503048868511209 0 0.073706539318973169 -0.21796036257100029 0 0.067863046951983474 -0.20503048868511209 0 0.073706539318973169 -0.21796036257100029 0 0.079094442607528917 -0.20913243433380641 0 0.067863046951983474 -0.20503048868511209 0 0.081482512553192915 -0.1953056794767786 0 0.079094442607528917 -0.20913243433380641 0 0.056257937900538298 -0.19577788601322099 0 0.067863046951983474 -0.20503048868511209 0 0.066040058368007956 -0.18964665730407451 0 0.067863046951983474 -0.20503048868511209 0 0.066040058368007956 -0.18964665730407451 0 0.081482512553192915 -0.1953056794767786 0 0.081482512553192915 -0.1953056794767786 0 0.095454742848087734 -0.19451486061966669 0 0.093505174579280592 -0.1731787749771625 0 0.081482512553192915 -0.1953056794767786 0 0.08833530696517819 -0.21036332105093219 0 0.095454742848087734 -0.19451486061966669 0 0.08833530696517819 -0.21036332105093219 0 0.097404311116896569 -0.21585094626217091 0 0.095454742848087734 -0.19451486061966669 0 0.081291982893300085 -0.22046062379487821 0 0.073706539318973169 -0.21796036257100029 0 0.082946926161669862 -0.2149195339015407 0 0.082946926161669862 -0.2149195339015407 0 0.079094442607528917 -0.20913243433380641 0 0.08833530696517819 -0.21036332105093219 0 0.073706539318973169 -0.21796036257100029 0 0.082946926161669862 -0.2149195339015407 0 0.079094442607528917 -0.20913243433380641 0 0.081291982893300085 -0.22046062379487821 0 0.082946926161669862 -0.2149195339015407 0 0.086853981468707001 -0.2185547472363609 0 0.081482512553192915 -0.1953056794767786 0 0.079094442607528917 -0.20913243433380641 0 0.08833530696517819 -0.21036332105093219 0 0.082946926161669862 -0.2149195339015407 0 0.08833530696517819 -0.21036332105093219 0 0.086853981468707001 -0.2185547472363609 0 0.08833530696517819 -0.21036332105093219 0 0.086853981468707001 -0.2185547472363609 0 0.09077468002378962 -0.21857675351640271 0 0.08833530696517819 -0.21036332105093219 0 0.09077468002378962 -0.21857675351640271 0 0.092213447725184278 -0.21529843562297729 0 0.08833530696517819 -0.21036332105093219 0 0.092213447725184278 -0.21529843562297729 0 0.097404311116896569 -0.21585094626217091 0 0.09077468002378962 -0.21857675351640271 0 0.094501608789943028 -0.21679829355882299 0 0.094530837428433365 -0.22086489816084981 0 0.09077468002378962 -0.21857675351640271 0 0.092213447725184278 -0.21529843562297729 0 0.094501608789943028 -0.21679829355882299 0 0.094501608789943028 -0.21679829355882299 0 0.097404311116896569 -0.21585094626217091 0 0.094530837428433365 -0.22086489816084981 0 0.092213447725184278 -0.21529843562297729 0 0.094501608789943028 -0.21679829355882299 0 0.097404311116896569 -0.21585094626217091 0 0.097404311116896569 -0.21585094626217091 0 0.095454742848087734 -0.19451486061966669 0 0.097404311116896569 -0.21585094626217091 0 0.1059898830346106 -0.20430933332548051 0 0.095454742848087734 -0.19451486061966669 0 0.097404311116896569 -0.21585094626217091 0 0.1089347031997706 -0.21297733173581901 0 0.1146171121197104 -0.21980430615730401 0 0.097404311116896569 -0.21585094626217091 0 0.1059898830346106 -0.20430933332548051 0 0.1089347031997706 -0.21297733173581901 0 0.095454742848087734 -0.19451486061966669 0 0.1128143282819509 -0.19216489626002589 0 0.10772522460311169 -0.17968171223372481 0 0.1059898830346106 -0.20430933332548051 0 0.095454742848087734 -0.19451486061966669 0 0.1128143282819509 -0.19216489626002589 0 0.1128143282819509 -0.19216489626002589 0 0.1237689835273371 -0.19605207676116951 0 0.1178461100078927 -0.20838697738218431 0 0.1059898830346106 -0.20430933332548051 0 0.1128143282819509 -0.19216489626002589 0 0.1178461100078927 -0.20838697738218431 0 0.1128143282819509 -0.19216489626002589 0 0.1237689835273371 -0.19605207676116951 0 0.1232013989280239 -0.1819146573535104 0 0.1089347031997706 -0.21297733173581901 0 0.1178461100078927 -0.20838697738218431 0 0.1146171121197104 -0.21980430615730401 0 0.1059898830346106 -0.20430933332548051 0 0.1089347031997706 -0.21297733173581901 0 0.1178461100078927 -0.20838697738218431 0 0.1178461100078927 -0.20838697738218431 0 0.1146171121197104 -0.21980430615730401 0 0.12895394136930069 -0.22163642029703709 0 0.1146171121197104 -0.21980430615730401 0 0.12018370186474731 -0.23305432747703519 0 0.12895394136930069 -0.22163642029703709 0 0.097404311116896569 -0.21585094626217091 0 0.1146171121197104 -0.21980430615730401 0 0.12018370186474731 -0.23305432747703519 0 0.1212054647883809 -0.25073068226796852 0 0.12018370186474731 -0.23305432747703519 0 0.1059281586602189 -0.23527494890652931 0 0.13217397618885759 -0.25462043987800831 0 0.1212054647883809 -0.25073068226796852 0 0.12018370186474731 -0.23305432747703519 0 0.1212054647883809 -0.25073068226796852 0 0.1059281586602189 -0.23527494890652931 0 0.1078238037173969 -0.24832262031645649 0 0.1212054647883809 -0.25073068226796852 0 0.1059281586602189 -0.23527494890652931 0 0.099550463170151926 -0.25262580003909579 0 0.1078238037173969 -0.24832262031645649 0 0.10103467245524091 -0.24298905409433241 0 0.1059281586602189 -0.23527494890652931 0 0.1078238037173969 -0.24832262031645649 0 0.10103467245524091 -0.24298905409433241 0 0.099550463170151926 -0.25262580003909579 0 0.10103467245524091 -0.24298905409433241 0 0.094006026236525903 -0.2441335510050745 0 0.090706365013478091 -0.25245448435890872 0 0.099550463170151926 -0.25262580003909579 0 0.094006026236525903 -0.2441335510050745 0 0.1059281586602189 -0.23527494890652931 0 0.10103467245524091 -0.24298905409433241 0 0.096012267649498176 -0.23702186761809721 0 0.10103467245524091 -0.24298905409433241 0 0.094006026236525903 -0.2441335510050745 0 0.096012267649498176 -0.23702186761809721 0 0.1059281586602189 -0.23527494890652931 0 0.096012267649498176 -0.23702186761809721 0 0.098670227838192195 -0.22970514568366851 0 0.089763789457938253 -0.2306791647953326 0 0.096012267649498176 -0.23702186761809721 0 0.098670227838192195 -0.22970514568366851 0 0.097404311116896569 -0.21585094626217091 0 0.12018370186474731 -0.23305432747703519 0 0.097404311116896569 -0.21585094626217091 0 0.12018370186474731 -0.23305432747703519 0 0.1059281586602189 -0.23527494890652931 0 0.097404311116896569 -0.21585094626217091 0 0.1059281586602189 -0.23527494890652931 0 0.098670227838192195 -0.22970514568366851 0 0.091303359373345411 -0.22339335178318359 0 0.098670227838192195 -0.22970514568366851 0 0.094530837428433365 -0.22086489816084981 0 0.097404311116896569 -0.21585094626217091 0 0.098670227838192195 -0.22970514568366851 0 0.094530837428433365 -0.22086489816084981 0 0.097404311116896569 -0.21585094626217091 0 0.098670227838192195 -0.22970514568366851 0 0.1071373084330472 -0.14482826815459701 0 0.1035248479174861 -0.15311019857333261 0 0.098760878024456711 -0.14050656481393209 0 0.1071373084330472 -0.14482826815459701 0 0.1035248479174861 -0.15311019857333261 0 0.1121477659277255 -0.1503271840913511 0 0.1035248479174861 -0.15311019857333261 0 0.098760878024456711 -0.14050656481393209 0 0.091560400862706559 -0.15189516094014111 0 0.098760878024456711 -0.14050656481393209 0 0.099399694252258627 -0.1328638184600745 0 0.089615627146132512 -0.13061154690311971 0 0.099399694252258627 -0.1328638184600745 0 0.099525338641528904 -0.12611341339503321 0 0.089615627146132512 -0.13061154690311971 0 0.099525338641528904 -0.12611341339503321 0 0.1096969331969164 -0.13422374872821319 0 0.1121708616464093 -0.1216807098986791 0 0.099399694252258627 -0.1328638184600745 0 0.099525338641528904 -0.12611341339503321 0 0.1096969331969164 -0.13422374872821319 0 0.098760878024456711 -0.14050656481393209 0 0.099399694252258627 -0.1328638184600745 0 0.1096969331969164 -0.13422374872821319 0 0.1071373084330472 -0.14482826815459701 0 0.098760878024456711 -0.14050656481393209 0 0.1096969331969164 -0.13422374872821319 0 0.1096969331969164 -0.13422374872821319 0 0.1155243526086871 -0.14484298486410191 0 0.12532898621889721 -0.13663811256420449 0 0.1096969331969164 -0.13422374872821319 0 0.11997683785091839 -0.1276371159963853 0 0.12532898621889721 -0.13663811256420449 0 0.1096969331969164 -0.13422374872821319 0 0.11997683785091839 -0.1276371159963853 0 0.1121708616464093 -0.1216807098986791 0 0.1217036921304827 -0.1482443959076799 0 0.1155243526086871 -0.14484298486410191 0 0.12532898621889721 -0.13663811256420449 0 0.1217036921304827 -0.1482443959076799 0 0.1155243526086871 -0.14484298486410191 0 0.1179114041550178 -0.15136128022523329 0 0.1071373084330472 -0.14482826815459701 0 0.1155243526086871 -0.14484298486410191 0 0.1121477659277255 -0.1503271840913511 0 0.1071373084330472 -0.14482826815459701 0 0.1096969331969164 -0.13422374872821319 0 0.1155243526086871 -0.14484298486410191 0 0.1035248479174861 -0.15311019857333261 0 0.1121477659277255 -0.1503271840913511 0 0.1169082366172023 -0.15609331882735419 0 0.1155243526086871 -0.14484298486410191 0 0.1121477659277255 -0.1503271840913511 0 0.1179114041550178 -0.15136128022523329 0 0.1121477659277255 -0.1503271840913511 0 0.1169082366172023 -0.15609331882735419 0 0.1179114041550178 -0.15136128022523329 0 0.1169082366172023 -0.15609331882735419 0 0.1179114041550178 -0.15136128022523329 0 0.12324902196630889 -0.15465793599018671 0 0.1217036921304827 -0.1482443959076799 0 0.1179114041550178 -0.15136128022523329 0 0.12324902196630889 -0.15465793599018671 0 0.1217036921304827 -0.1482443959076799 0 0.12324902196630889 -0.15465793599018671 0 0.12831016946945831 -0.1492440347933528 0 0.1035248479174861 -0.15311019857333261 0 0.12443417021765769 -0.1709717485187108 0 0.1227471198665283 -0.15880086614903269 0 0.12098675462827781 -0.16200852072179159 0 0.1290045142054978 -0.1612372837293575 0 0.1035248479174861 -0.15311019857333261 0 0.12443417021765769 -0.1709717485187108 0 0.12083528946942131 -0.1711597280255607 0 0.1035248479174861 -0.15311019857333261 0 0.12098675462827781 -0.16200852072179159 0 0.12443417021765769 -0.1709717485187108 0 0.1035248479174861 -0.15311019857333261 0 0.1169082366172023 -0.15609331882735419 0 0.12098675462827781 -0.16200852072179159 0 0.1169082366172023 -0.15609331882735419 0 0.1227471198665283 -0.15880086614903269 0 0.12098675462827781 -0.16200852072179159 0 0.1169082366172023 -0.15609331882735419 0 0.12324902196630889 -0.15465793599018671 0 0.1227471198665283 -0.15880086614903269 0 0.12098675462827781 -0.16200852072179159 0 0.12443417021765769 -0.1709717485187108 0 0.12715697753007521 -0.16591248018761531 0 0.1128143282819509 -0.19216489626002589 0 0.1232013989280239 -0.1819146573535104 0 0.1157139550245927 -0.18029465614444529 0 0.12083528946942131 -0.1711597280255607 0 0.1232013989280239 -0.1819146573535104 0 0.1157139550245927 -0.18029465614444529 0 0.12443417021765769 -0.1709717485187108 0 0.12083528946942131 -0.1711597280255607 0 0.1232013989280239 -0.1819146573535104 0 0.12083528946942131 -0.1711597280255607 0 0.1157139550245927 -0.18029465614444529 0 0.10772522460311169 -0.17968171223372481 0 0.1128143282819509 -0.19216489626002589 0 0.1157139550245927 -0.18029465614444529 0 0.10772522460311169 -0.17968171223372481 0 0.095454742848087734 -0.19451486061966669 0 0.10772522460311169 -0.17968171223372481 0 0.093505174579280592 -0.1731787749771625 0 0.12083528946942131 -0.1711597280255607 0 0.093505174579280592 -0.1731787749771625 0 0.095454742848087734 -0.19451486061966669 0 0.093505174579280592 -0.1731787749771625 0 0.12083528946942131 -0.1711597280255607 0 0.10772522460311169 -0.17968171223372481 0 0.093505174579280592 -0.1731787749771625 0 0.1035248479174861 -0.15311019857333261 0 0.093505174579280592 -0.1731787749771625 0 0.091560400862706559 -0.15189516094014111 0 0.1035248479174861 -0.15311019857333261 0 0.12083528946942131 -0.1711597280255607 0 0.093505174579280592 -0.1731787749771625 0 0.078133883947979807 -0.15717501910519549 0 0.093505174579280592 -0.1731787749771625 0 0.091560400862706559 -0.15189516094014111 0 0.078133883947979807 -0.15717501910519549 0 0.093505174579280592 -0.1731787749771625 0 0.072477207369929117 -0.17473224276400179 0 0.093505174579280592 -0.1731787749771625 0 0.091560400862706559 -0.15189516094014111 0 0.081482512553192915 -0.1953056794767786 0 0.093505174579280592 -0.1731787749771625 0 0.072477207369929117 -0.17473224276400179 0 0.093505174579280592 -0.1731787749771625 0 0.072477207369929117 -0.17473224276400179 0 0.066040058368007956 -0.18964665730407451 0 0.072477207369929117 -0.17473224276400179 0 0.051449240160577621 -0.1762857105508405 0 0.066040058368007956 -0.18964665730407451 0 0.081482512553192915 -0.1953056794767786 0 0.072477207369929117 -0.17473224276400179 0 0.078133883947979807 -0.15717501910519549 0 0.072477207369929117 -0.17473224276400179 0 0.063878974636528515 -0.16401540189567099 0 0.072477207369929117 -0.17473224276400179 0 0.063878974636528515 -0.16401540189567099 0 0.051449240160577621 -0.1762857105508405 0 0.078133883947979807 -0.15717501910519549 0 0.063878974636528515 -0.16401540189567099 0 0.06522271263887458 -0.15305574504012881 0 0.06522271263887458 -0.15305574504012881 0 0.069316279952888193 -0.14186668388360371 0 0.075278834721760557 -0.14616760919767161 0 0.06522271263887458 -0.15305574504012881 0 0.069316279952888193 -0.14186668388360371 0 0.05757515479497001 -0.1486962131740798 0 0.069316279952888193 -0.14186668388360371 0 0.075278834721760557 -0.14616760919767161 0 0.079765110473415279 -0.13788087003968491 0 0.078133883947979807 -0.15717501910519549 0 0.06522271263887458 -0.15305574504012881 0 0.075278834721760557 -0.14616760919767161 0 0.098760878024456711 -0.14050656481393209 0 0.091560400862706559 -0.15189516094014111 0 0.089615627146132512 -0.13061154690311971 0 0.078133883947979807 -0.15717501910519549 0 0.083611330147541921 -0.14459745320402559 0 0.091560400862706559 -0.15189516094014111 0 0.091560400862706559 -0.15189516094014111 0 0.089615627146132512 -0.13061154690311971 0 0.078133883947979807 -0.15717501910519549 0 0.075278834721760557 -0.14616760919767161 0 0.083611330147541921 -0.14459745320402559 0 0.083611330147541921 -0.14459745320402559 0 0.091560400862706559 -0.15189516094014111 0 0.089615627146132512 -0.13061154690311971 0 0.075278834721760557 -0.14616760919767161 0 0.083611330147541921 -0.14459745320402559 0 0.079765110473415279 -0.13788087003968491 0 0.099525338641528904 -0.12611341339503321 0 0.089615627146132512 -0.13061154690311971 0 0.081894058627025895 -0.12584863130967919 0 0.083611330147541921 -0.14459745320402559 0 0.089615627146132512 -0.13061154690311971 0 0.079765110473415279 -0.13788087003968491 0 0.089615627146132512 -0.13061154690311971 0 0.079765110473415279 -0.13788087003968491 0 0.081894058627025895 -0.12584863130967919 0 0.081894058627025895 -0.12584863130967919 0 0.065576399090336079 -0.13067912082877309 0 0.057907204523981459 -0.13951585418161591 0 0.081894058627025895 -0.12584863130967919 0 0.057907204523981459 -0.13951585418161591 0 0.069316279952888193 -0.14186668388360371 0 0.081894058627025895 -0.12584863130967919 0 0.057907204523981459 -0.13951585418161591 0 0.081894058627025895 -0.12584863130967919 0 0.068207364780656948 -0.12563827965844471 0 0.065576399090336079 -0.13067912082877309 0 0.069316279952888193 -0.14186668388360371 0 0.079765110473415279 -0.13788087003968491 0 0.081894058627025895 -0.12584863130967919 0 0.068207364780656948 -0.12563827965844471 0 0.065576399090336079 -0.13067912082877309 0 0.054296968429680029 -0.13171371816535249 0 0.054296968429680029 -0.13171371816535249 0 0.057907204523981459 -0.13951585418161591 0 0.034849001543539322 -0.1503583031021323 0 0.054296968429680029 -0.13171371816535249 0 0.045553716665441668 -0.12681104972785159 0 0.052448498866582129 -0.1166826243517366 0 0.065576399090336079 -0.13067912082877309 0 0.054296968429680029 -0.13171371816535249 0 0.057907204523981459 -0.13951585418161591 0 0.069316279952888193 -0.14186668388360371 0 0.057907204523981459 -0.13951585418161591 0 0.05757515479497001 -0.1486962131740798 0 0.06522271263887458 -0.15305574504012881 0 0.05757515479497001 -0.1486962131740798 0 0.052111829065281459 -0.15882829201818821 0 0.046808539919221563 -0.15014413002933799 0 0.052111829065281459 -0.15882829201818821 0 0.043031393960321331 -0.1571354857308308 0 0.05757515479497001 -0.1486962131740798 0 0.046808539919221563 -0.15014413002933799 0 0.052111829065281459 -0.15882829201818821 0 0.057907204523981459 -0.13951585418161591 0 0.05757515479497001 -0.1486962131740798 0 0.046808539919221563 -0.15014413002933799 0 0.057907204523981459 -0.13951585418161591 0 0.046808539919221563 -0.15014413002933799 0 0.033920350420936912 -0.1531830770535528 0 0.057907204523981459 -0.13951585418161591 0 0.034849001543539322 -0.1503583031021323 0 0.033920350420936912 -0.1531830770535528 0 0.054296968429680029 -0.13171371816535249 0 0.034849001543539322 -0.1503583031021323 0 0.038558521200612962 -0.14006542407622449 0 0.054296968429680029 -0.13171371816535249 0 0.034849001543539322 -0.1503583031021323 0 0.057907204523981459 -0.13951585418161591 0 0.033920350420936912 -0.1531830770535528 0 0.046808539919221563 -0.15014413002933799 0 0.040219483271594643 -0.15466785876887121 0 0.033920350420936912 -0.1531830770535528 0 0.046808539919221563 -0.15014413002933799 0 0.040219483271594643 -0.15466785876887121 0 0.043031393960321331 -0.1571354857308308 0 0.040219483271594643 -0.15466785876887121 0 0.033920350420936912 -0.1531830770535528 0 0.037117648785898759 -0.15820874226176301 0 0.034849001543539322 -0.1503583031021323 0 0.031672068294339203 -0.14528428076340441 0 0.030051573782975471 -0.15027594372919439 0 0.034849001543539322 -0.1503583031021323 0 0.033920350420936912 -0.1531830770535528 0 0.030051573782975471 -0.15027594372919439 0 0.034849001543539322 -0.1503583031021323 0 0.031672068294339203 -0.14528428076340441 0 0.038558521200612962 -0.14006542407622449 0 0.031672068294339203 -0.14528428076340441 0 0.038558521200612962 -0.14006542407622449 0 0.030566093298411881 -0.13865773310914861 0 0.054296968429680029 -0.13171371816535249 0 0.038558521200612962 -0.14006542407622449 0 0.040644455285911409 -0.1338393175667463 0 0.038558521200612962 -0.14006542407622449 0 0.040644455285911409 -0.1338393175667463 0 0.030566093298411881 -0.13865773310914861 0 0.034824944079593127 -0.12500853882757099 0 0.040644455285911409 -0.1338393175667463 0 0.030566093298411881 -0.13865773310914861 0 0.034824944079593127 -0.12500853882757099 0 0.045553716665441668 -0.12681104972785159 0 0.040644455285911409 -0.1338393175667463 0 0.054296968429680029 -0.13171371816535249 0 0.045553716665441668 -0.12681104972785159 0 0.040644455285911409 -0.1338393175667463 0 0.072477207369929117 -0.17473224276400179 0 0.051449240160577621 -0.1762857105508405 0 0.056257937900538298 -0.19577788601322099 0 0.066040058368007956 -0.18964665730407451 0 0.051449240160577621 -0.1762857105508405 0 0.063878974636528515 -0.16401540189567099 0 0.051449240160577621 -0.1762857105508405 0 0.052111829065281459 -0.15882829201818821 0 0.051449240160577621 -0.1762857105508405 0 0.052111829065281459 -0.15882829201818821 0 0.040502396519655252 -0.1663673850483231 0 0.063878974636528515 -0.16401540189567099 0 0.06522271263887458 -0.15305574504012881 0 0.052111829065281459 -0.15882829201818821 0 0.043031393960321331 -0.1571354857308308 0 0.037117648785898759 -0.15820874226176301 0 0.040502396519655252 -0.1663673850483231 0 0.052111829065281459 -0.15882829201818821 0 0.043031393960321331 -0.1571354857308308 0 0.040502396519655252 -0.1663673850483231 0 0.040219483271594643 -0.15466785876887121 0 0.043031393960321331 -0.1571354857308308 0 0.037117648785898759 -0.15820874226176301 0 0.033920350420936912 -0.1531830770535528 0 0.033509818979212957 -0.15868168045615499 0 0.027465449436243041 -0.1628752445715565 0 0.037117648785898759 -0.15820874226176301 0 0.034071859908748191 -0.1623715567021686 0 0.040502396519655252 -0.1663673850483231 0 0.033920350420936912 -0.1531830770535528 0 0.037117648785898759 -0.15820874226176301 0 0.033509818979212957 -0.15868168045615499 0 0.037117648785898759 -0.15820874226176301 0 0.033509818979212957 -0.15868168045615499 0 0.034071859908748191 -0.1623715567021686 0 0.033509818979212957 -0.15868168045615499 0 0.034071859908748191 -0.1623715567021686 0 0.027465449436243041 -0.1628752445715565 0 0.031586668938662611 -0.1691709391612749 0 0.040502396519655252 -0.1663673850483231 0 0.030421272951226121 -0.1778391783376792 0 0.034071859908748191 -0.1623715567021686 0 0.031586668938662611 -0.1691709391612749 0 0.040502396519655252 -0.1663673850483231 0 0.051449240160577621 -0.1762857105508405 0 0.040502396519655252 -0.1663673850483231 0 0.030421272951226121 -0.1778391783376792 0 0.041440672425083092 -0.19607701236864419 0 0.051449240160577621 -0.1762857105508405 0 0.030421272951226121 -0.1778391783376792 0 0.051449240160577621 -0.1762857105508405 0 0.030421272951226121 -0.1778391783376792 0 0.02540307025583758 -0.19229280057405279 0 0.015764016274472759 -0.1812646672695073 0 0.030421272951226121 -0.1778391783376792 0 0.031586668938662611 -0.1691709391612749 0 0.030421272951226121 -0.1778391783376792 0 0.021575687727073561 -0.1734893605992324 0 0.015764016274472759 -0.1812646672695073 0 0.021575687727073561 -0.1734893605992324 0 0.012676990919703311 -0.16924925594887871 0 0.015764016274472759 -0.1812646672695073 0 0.030421272951226121 -0.1778391783376792 0 0.021575687727073561 -0.1734893605992324 0 0.033920350420936912 -0.1531830770535528 0 0.009933496317892726 -0.16685029992549011 0 0.02294500892830088 -0.1542832107784407 0 0.033920350420936912 -0.1531830770535528 0 0.027465449436243041 -0.1628752445715565 0 0.009933496317892726 -0.16685029992549011 0 0.019596439448784399 -0.16744493330375371 0 0.027465449436243041 -0.1628752445715565 0 0.009933496317892726 -0.16685029992549011 0 0.033920350420936912 -0.1531830770535528 0 0.009933496317892726 -0.16685029992549011 0 0.021575687727073561 -0.1734893605992324 0 0.019596439448784399 -0.16744493330375371 0 0.012676990919703311 -0.16924925594887871 0 0.021575687727073561 -0.1734893605992324 0 0.019596439448784399 -0.16744493330375371 0 0.025540403417393751 -0.1677775419388785 0 0.031586668938662611 -0.1691709391612749 0 0.021575687727073561 -0.1734893605992324 0 0.025540403417393751 -0.1677775419388785 0 0.019596439448784399 -0.16744493330375371 0 0.025540403417393751 -0.1677775419388785 0 0.027465449436243041 -0.1628752445715565 0 0.034071859908748191 -0.1623715567021686 0 0.031586668938662611 -0.1691709391612749 0 0.027465449436243041 -0.1628752445715565 0 0.031586668938662611 -0.1691709391612749 0 0.025540403417393751 -0.1677775419388785 0 0.027465449436243041 -0.1628752445715565 0 0.009933496317892726 -0.16685029992549011 0 0.01648447247354291 -0.15404273338364399 0 0.02294500892830088 -0.1542832107784407 0 0.009933496317892726 -0.16685029992549011 0 0.01648447247354291 -0.15404273338364399 0 0.0068311679390763679 -0.1533437069849535 0 0.019596439448784399 -0.16744493330375371 0 0.009933496317892726 -0.16685029992549011 0 0.012676990919703311 -0.16924925594887871 0 0.009933496317892726 -0.16685029992549011 0 0.012676990919703311 -0.16924925594887871 0 0.0034571977838801569 -0.17702496179755631 0 0.009933496317892726 -0.16685029992549011 0 0.012676990919703311 -0.16924925594887871 0 -0.0085976242789068957 -0.177408956520272 0 0.009933496317892726 -0.16685029992549011 0 -0.0085976242789068957 -0.177408956520272 0 0.009933496317892726 -0.16685029992549011 0 0.0034571977838801569 -0.17702496179755631 0 0.015764016274472759 -0.1812646672695073 0 0.012676990919703311 -0.16924925594887871 0 0.0034571977838801569 -0.17702496179755631 0 -0.003739977245034012 -0.19168309442994089 0 0.010514116253606281 -0.1925853606064957 0 0.0034571977838801569 -0.17702496179755631 0 0.010514116253606281 -0.1925853606064957 0 0.015764016274472759 -0.1812646672695073 0 0.0034571977838801569 -0.17702496179755631 0 0.02166725362828328 -0.1398342401410575 0 0.019282665512654749 -0.1297026577714144 0 0.01241268948209219 -0.14437852502616319 0 0.034824944079593127 -0.12500853882757099 0 0.019282665512654749 -0.1297026577714144 0 0.030566093298411881 -0.13865773310914861 0 0.02166725362828328 -0.1398342401410575 0 0.019282665512654749 -0.1297026577714144 0 0.030566093298411881 -0.13865773310914861 0 0.031672068294339203 -0.14528428076340441 0 0.030566093298411881 -0.13865773310914861 0 0.024335151646156381 -0.14706399980032239 0 0.02166725362828328 -0.1398342401410575 0 0.030566093298411881 -0.13865773310914861 0 0.024335151646156381 -0.14706399980032239 0 0.031672068294339203 -0.14528428076340441 0 0.024335151646156381 -0.14706399980032239 0 0.030051573782975471 -0.15027594372919439 0 0.033920350420936912 -0.1531830770535528 0 0.030051573782975471 -0.15027594372919439 0 0.02294500892830088 -0.1542832107784407 0 0.024335151646156381 -0.14706399980032239 0 0.030051573782975471 -0.15027594372919439 0 0.02294500892830088 -0.1542832107784407 0 0.024335151646156381 -0.14706399980032239 0 0.01648447247354291 -0.15404273338364399 0 0.01241268948209219 -0.14437852502616319 0 0.024335151646156381 -0.14706399980032239 0 0.01648447247354291 -0.15404273338364399 0 0.02294500892830088 -0.1542832107784407 0 0.02166725362828328 -0.1398342401410575 0 0.024335151646156381 -0.14706399980032239 0 0.01241268948209219 -0.14437852502616319 0 -0.011505986517222349 -0.14810326960451681 0 0.01241268948209219 -0.14437852502616319 0 0.0068311679390763679 -0.1533437069849535 0 -0.011505986517222349 -0.14810326960451681 0 0.009933496317892726 -0.16685029992549011 0 0.0068311679390763679 -0.1533437069849535 0 -0.011505986517222349 -0.14810326960451681 0 0.01241268948209219 -0.14437852502616319 0 0.0027021066240326768 -0.1317064378292063 0 0.01648447247354291 -0.15404273338364399 0 0.01241268948209219 -0.14437852502616319 0 0.0068311679390763679 -0.1533437069849535 0 0.019282665512654749 -0.1297026577714144 0 0.01241268948209219 -0.14437852502616319 0 0.0027021066240326768 -0.1317064378292063 0 0.019282665512654749 -0.1297026577714144 0 0.0027021066240326768 -0.1317064378292063 0 0.005085065621477718 -0.1151057880332567 0 0.019282665512654749 -0.1297026577714144 0 0.005085065621477718 -0.1151057880332567 0 0.024129304522527751 -0.1089818526354679 0 0.034824944079593127 -0.12500853882757099 0 0.019282665512654749 -0.1297026577714144 0 0.024129304522527751 -0.1089818526354679 0 0.024129304522527751 -0.1089818526354679 0 0.01380815825635252 -0.094132232187142617 0 0.031293966725895003 -0.08518965294817829 0 -0.00044729776891663488 -0.1011528385718463 0 0.005085065621477718 -0.1151057880332567 0 0.01380815825635252 -0.094132232187142617 0 0.005085065621477718 -0.1151057880332567 0 0.024129304522527751 -0.1089818526354679 0 0.01380815825635252 -0.094132232187142617 0 0.01380815825635252 -0.094132232187142617 0 0.0042106568376920582 -0.081118225430045127 0 0.020039989671696231 -0.071989185162356889 0 -0.00044729776891663488 -0.1011528385718463 0 0.01380815825635252 -0.094132232187142617 0 0.0042106568376920582 -0.081118225430045127 0 0.0042106568376920582 -0.081118225430045127 0 0.0052181775422467033 -0.064346337314722044 0 0.020039989671696231 -0.071989185162356889 0 -0.0043762627118289626 -0.071729097412358583 0 0.0042106568376920582 -0.081118225430045127 0 0.0052181775422467033 -0.064346337314722044 0 0.0052181775422467033 -0.064346337314722044 0 0.020039989671696231 -0.071989185162356889 0 0.0052181775422467033 -0.064346337314722044 0 0.020039989671696231 -0.071989185162356889 0 0.017880224012190679 -0.058506375123621113 0 0.020039989671696231 -0.071989185162356889 0 0.017880224012190679 -0.058506375123621113 0 0.035073137211611732 -0.060365082031122411 0 0.020039989671696231 -0.071989185162356889 0 0.031293966725895003 -0.08518965294817829 0 0.035073137211611732 -0.060365082031122411 0 0.01380815825635252 -0.094132232187142617 0 0.020039989671696231 -0.071989185162356889 0 0.031293966725895003 -0.08518965294817829 0 0.031293966725895003 -0.08518965294817829 0 0.050629459546369923 -0.074776417317023003 0 0.042727201812981508 -0.099892478072297022 0 0.050629459546369923 -0.074776417317023003 0 0.042727201812981508 -0.099892478072297022 0 0.031293966725895003 -0.08518965294817829 0 0.050629459546369923 -0.074776417317023003 0 0.035073137211611732 -0.060365082031122411 0 0.050629459546369923 -0.074776417317023003 0 0.058531717279758283 -0.049660356561749108 0 0.072219385832792832 -0.066659644627356851 0 0.050629459546369923 -0.074776417317023003 0 0.042727201812981508 -0.099892478072297022 0 0.069701838591585213 -0.089386546866783212 0 0.059655618646742382 -0.10475769562984739 0 0.052448498866582129 -0.1166826243517366 0 0.042727201812981508 -0.099892478072297022 0 0.059655618646742382 -0.10475769562984739 0 0.042727201812981508 -0.099892478072297022 0 0.069701838591585213 -0.089386546866783212 0 0.054296968429680029 -0.13171371816535249 0 0.052448498866582129 -0.1166826243517366 0 0.073744935315820714 -0.1130691332285727 0 0.059655618646742382 -0.10475769562984739 0 0.052448498866582129 -0.1166826243517366 0 0.073744935315820714 -0.1130691332285727 0 0.034824944079593127 -0.12500853882757099 0 0.045553716665441668 -0.12681104972785159 0 0.052448498866582129 -0.1166826243517366 0 0.034824944079593127 -0.12500853882757099 0 0.052448498866582129 -0.1166826243517366 0 0.042727201812981508 -0.099892478072297022 0 0.034824944079593127 -0.12500853882757099 0 0.024129304522527751 -0.1089818526354679 0 0.042727201812981508 -0.099892478072297022 0 0.034824944079593127 -0.12500853882757099 0 0.042727201812981508 -0.099892478072297022 0 0.024129304522527751 -0.1089818526354679 0 0.031293966725895003 -0.08518965294817829 0 0.042727201812981508 -0.099892478072297022 0 0.034885408484197772 0.0062912350017927032 0 0.01265631079038235 -0.01012693536007268 0 0.042517259973231587 -0.011683923625132649 0 -0.00118246574067416 -0.01324232368796026 0 0.0012074066645448821 -0.00065723147797176382 0 0.01265631079038235 -0.01012693536007268 0 0.01265631079038235 -0.01012693536007268 0 0.02406773205363014 -0.026959444655171291 0 0.0015263381015913891 -0.033415212413580753 0 0.01265631079038235 -0.01012693536007268 0 0.0015263381015913891 -0.033415212413580753 0 -0.00118246574067416 -0.01324232368796026 0 0.01265631079038235 -0.01012693536007268 0 0.0015263381015913891 -0.033415212413580753 0 0.01265631079038235 -0.01012693536007268 0 0.02406773205363014 -0.026959444655171291 0 0.042517259973231587 -0.011683923625132649 0 0.02406773205363014 -0.026959444655171291 0 0.021771409900077709 -0.044354063799483319 0 0.04186734150286768 -0.035217088077587062 0 0.02406773205363014 -0.026959444655171291 0 0.021771409900077709 -0.044354063799483319 0 0.0015263381015913891 -0.033415212413580753 0 0.021771409900077709 -0.044354063799483319 0 0.0015263381015913891 -0.033415212413580753 0 0.007298405735321048 -0.051477207310420908 0 -0.0096036345872028556 -0.056703489467087059 0 0.0052181775422467033 -0.064346337314722044 0 0.007298405735321048 -0.051477207310420908 0 0.0052181775422467033 -0.064346337314722044 0 0.007298405735321048 -0.051477207310420908 0 0.017880224012190679 -0.058506375123621113 0 0.021771409900077709 -0.044354063799483319 0 0.017880224012190679 -0.058506375123621113 0 0.035073137211611732 -0.060365082031122411 0 0.021771409900077709 -0.044354063799483319 0 0.007298405735321048 -0.051477207310420908 0 0.017880224012190679 -0.058506375123621113 0 0.035073137211611732 -0.060365082031122411 0 0.058531717279758283 -0.049660356561749108 0 0.04186734150286768 -0.035217088077587062 0 0.050629459546369923 -0.074776417317023003 0 0.058531717279758283 -0.049660356561749108 0 0.050629459546369923 -0.074776417317023003 0 0.035073137211611732 -0.060365082031122411 0 0.058531717279758283 -0.049660356561749108 0 0.058531717279758283 -0.049660356561749108 0 0.066433975013146629 -0.02454429580647528 0 0.058531717279758283 -0.049660356561749108 0 0.04186734150286768 -0.035217088077587062 0 0.066433975013146629 -0.02454429580647528 0 0.021771409900077709 -0.044354063799483319 0 0.035073137211611732 -0.060365082031122411 0 0.04186734150286768 -0.035217088077587062 0 0.02406773205363014 -0.026959444655171291 0 0.04186734150286768 -0.035217088077587062 0 0.042517259973231587 -0.011683923625132649 0 0.04186734150286768 -0.035217088077587062 0 0.042517259973231587 -0.011683923625132649 0 0.066433975013146629 -0.02454429580647528 0 0.052968053050369737 0.0090809173488315582 0 0.042517259973231587 -0.011683923625132649 0 0.067492943165135169 -0.0019794682467893379 0 0.042517259973231587 -0.011683923625132649 0 0.067492943165135169 -0.0019794682467893379 0 0.066433975013146629 -0.02454429580647528 0 0.087040675587819916 -0.0096101539263870796 0 0.066433975013146629 -0.02454429580647528 0 0.098032226742104309 -0.02831505409649597 0 0.083930998993742512 0.0059737405228527038 0 0.087040675587819916 -0.0096101539263870796 0 0.067492943165135169 -0.0019794682467893379 0 0.083930998993742512 0.0059737405228527038 0 0.098495163759696414 0.0029673617968291321 0 0.087040675587819916 -0.0096101539263870796 0 0.087040675587819916 -0.0096101539263870796 0 0.067492943165135169 -0.0019794682467893379 0 0.066433975013146629 -0.02454429580647528 0 0.066433975013146629 -0.02454429580647528 0 0.080663194565618018 -0.042742664855397232 0 0.098032226742104309 -0.02831505409649597 0 0.080663194565618018 -0.042742664855397232 0 0.099119978598511321 -0.045144617550746849 0 0.098032226742104309 -0.02831505409649597 0 0.058531717279758283 -0.049660356561749108 0 0.066433975013146629 -0.02454429580647528 0 0.080663194565618018 -0.042742664855397232 0 0.058531717279758283 -0.049660356561749108 0 0.080663194565618018 -0.042742664855397232 0 0.072219385832792832 -0.066659644627356851 0 0.080663194565618018 -0.042742664855397232 0 0.091985945990252393 -0.059557823171565508 0 0.072219385832792832 -0.066659644627356851 0 0.080663194565618018 -0.042742664855397232 0 0.091985945990252393 -0.059557823171565508 0 0.099119978598511321 -0.045144617550746849 0 0.091985945990252393 -0.059557823171565508 0 0.109385226414503 -0.056941989317685793 0 0.099119978598511321 -0.045144617550746849 0 0.109385226414503 -0.056941989317685793 0 0.1174221699598199 -0.069046986946925279 0 0.12664898879935529 -0.055605769639440771 0 0.109385226414503 -0.056941989317685793 0 0.1155332992800789 -0.038165556312589707 0 0.12664898879935529 -0.055605769639440771 0 0.1155332992800789 -0.038165556312589707 0 0.12954193793015309 -0.041748568408345607 0 0.12664898879935529 -0.055605769639440771 0 0.1155332992800789 -0.038165556312589707 0 0.1294320674019063 -0.023146095115484211 0 0.12954193793015309 -0.041748568408345607 0 0.109385226414503 -0.056941989317685793 0 0.1155332992800789 -0.038165556312589707 0 0.099119978598511321 -0.045144617550746849 0 0.1155332992800789 -0.038165556312589707 0 0.099119978598511321 -0.045144617550746849 0 0.098032226742104309 -0.02831505409649597 0 0.1155332992800789 -0.038165556312589707 0 0.098032226742104309 -0.02831505409649597 0 0.1112777463759113 -0.012222875866518469 0 0.087040675587819916 -0.0096101539263870796 0 0.098032226742104309 -0.02831505409649597 0 0.1112777463759113 -0.012222875866518469 0 0.1155332992800789 -0.038165556312589707 0 0.1112777463759113 -0.012222875866518469 0 0.1294320674019063 -0.023146095115484211 0 0.1158546052028349 0.0064685721448778594 0 0.13464870039648349 0.00080453217212592717 0 0.1112777463759113 -0.012222875866518469 0 0.098495163759696414 0.0029673617968291321 0 0.087040675587819916 -0.0096101539263870796 0 0.1112777463759113 -0.012222875866518469 0 0.1158546052028349 0.0064685721448778594 0 0.098495163759696414 0.0029673617968291321 0 0.1112777463759113 -0.012222875866518469 0 0.093192902201961414 -0.094424548291792879 0 0.088899626305776192 -0.1113374325741409 0 0.073744935315820714 -0.1130691332285727 0 0.093192902201961414 -0.094424548291792879 0 0.073744935315820714 -0.1130691332285727 0 0.069701838591585213 -0.089386546866783212 0 0.093192902201961414 -0.094424548291792879 0 0.073744935315820714 -0.1130691332285727 0 0.081894058627025895 -0.12584863130967919 0 0.088899626305776192 -0.1113374325741409 0 0.09397493983509804 -0.11322330148444169 0 0.081894058627025895 -0.12584863130967919 0 0.079920122843727764 -0.11786127252462281 0 0.075141871126288284 -0.1211898929860986 0 0.081894058627025895 -0.12584863130967919 0 0.088899626305776192 -0.1113374325741409 0 0.079920122843727764 -0.11786127252462281 0 0.088899626305776192 -0.1113374325741409 0 0.079920122843727764 -0.11786127252462281 0 0.073744935315820714 -0.1130691332285727 0 0.068207364780656948 -0.12563827965844471 0 0.054296968429680029 -0.13171371816535249 0 0.073744935315820714 -0.1130691332285727 0 0.054296968429680029 -0.13171371816535249 0 0.073744935315820714 -0.1130691332285727 0 0.068207364780656948 -0.12563827965844471 0 0.073744935315820714 -0.1130691332285727 0 0.075141871126288284 -0.1211898929860986 0 0.079920122843727764 -0.11786127252462281 0 0.073744935315820714 -0.1130691332285727 0 0.075141871126288284 -0.1211898929860986 0 0.081894058627025895 -0.12584863130967919 0 0.068207364780656948 -0.12563827965844471 0 0.075141871126288284 -0.1211898929860986 0 0.059655618646742382 -0.10475769562984739 0 0.073744935315820714 -0.1130691332285727 0 0.069701838591585213 -0.089386546866783212 0 0.050629459546369923 -0.074776417317023003 0 0.069701838591585213 -0.089386546866783212 0 0.072219385832792832 -0.066659644627356851 0 0.069701838591585213 -0.089386546866783212 0 0.072219385832792832 -0.066659644627356851 0 0.089711563165187497 -0.078251462936863553 0 0.091985945990252393 -0.059557823171565508 0 0.072219385832792832 -0.066659644627356851 0 0.089711563165187497 -0.078251462936863553 0 0.093192902201961414 -0.094424548291792879 0 0.069701838591585213 -0.089386546866783212 0 0.089711563165187497 -0.078251462936863553 0 0.093192902201961414 -0.094424548291792879 0 0.089711563165187497 -0.078251462936863553 0 0.1048667032735431 -0.089595599910983495 0 0.089711563165187497 -0.078251462936863553 0 0.1048667032735431 -0.089595599910983495 0 0.1056935618466131 -0.072691272791708894 0 0.1048667032735431 -0.089595599910983495 0 0.1056935618466131 -0.072691272791708894 0 0.11564058922802831 -0.08068930143821873 0 0.091985945990252393 -0.059557823171565508 0 0.089711563165187497 -0.078251462936863553 0 0.1056935618466131 -0.072691272791708894 0 0.091985945990252393 -0.059557823171565508 0 0.109385226414503 -0.056941989317685793 0 0.1056935618466131 -0.072691272791708894 0 0.1174221699598199 -0.069046986946925279 0 0.12840026197867099 -0.078951386265116219 0 0.12664898879935529 -0.055605769639440771 0 0.109385226414503 -0.056941989317685793 0 0.1056935618466131 -0.072691272791708894 0 0.1174221699598199 -0.069046986946925279 0 0.1056935618466131 -0.072691272791708894 0 0.1174221699598199 -0.069046986946925279 0 0.11564058922802831 -0.08068930143821873 0 0.1174221699598199 -0.069046986946925279 0 0.11564058922802831 -0.08068930143821873 0 0.12840026197867099 -0.078951386265116219 0 0.1048667032735431 -0.089595599910983495 0 0.11564058922802831 -0.08068930143821873 0 0.1191358060176364 -0.092450830711447801 0 0.1191358060176364 -0.092450830711447801 0 0.12840026197867099 -0.078951386265116219 0 0.11564058922802831 -0.08068930143821873 0 0.1191358060176364 -0.092450830711447801 0 0.12840026197867099 -0.078951386265116219 0 0.1058809127300703 -0.11218140843774239 0 0.12023297736745781 -0.1110263554770618 0 0.12986776683311119 -0.098514185565799078 0 0.1058809127300703 -0.11218140843774239 0 0.12986776683311119 -0.098514185565799078 0 0.1048667032735431 -0.089595599910983495 0 0.1191358060176364 -0.092450830711447801 0 0.10987135005660249 -0.1059502751577799 0 0.10987135005660249 -0.1059502751577799 0 0.1058809127300703 -0.11218140843774239 0 0.12986776683311119 -0.098514185565799078 0 0.1191358060176364 -0.092450830711447801 0 0.10987135005660249 -0.1059502751577799 0 0.12986776683311119 -0.098514185565799078 0 0.1191358060176364 -0.092450830711447801 0 0.10987135005660249 -0.1059502751577799 0 0.093192902201961414 -0.094424548291792879 0 0.088899626305776192 -0.1113374325741409 0 0.099225161677519755 -0.1035257336162041 0 0.1048667032735431 -0.089595599910983495 0 0.10987135005660249 -0.1059502751577799 0 0.099225161677519755 -0.1035257336162041 0 0.10987135005660249 -0.1059502751577799 0 0.099225161677519755 -0.1035257336162041 0 0.1058809127300703 -0.11218140843774239 0 0.088899626305776192 -0.1113374325741409 0 0.099225161677519755 -0.1035257336162041 0 0.09397493983509804 -0.11322330148444169 0 0.093192902201961414 -0.094424548291792879 0 0.1048667032735431 -0.089595599910983495 0 0.099225161677519755 -0.1035257336162041 0 0.081894058627025895 -0.12584863130967919 0 0.1058809127300703 -0.11218140843774239 0 0.099525338641528904 -0.12611341339503321 0 0.081894058627025895 -0.12584863130967919 0 0.1058809127300703 -0.11218140843774239 0 0.081894058627025895 -0.12584863130967919 0 0.09397493983509804 -0.11322330148444169 0 0.1058809127300703 -0.11218140843774239 0 0.099225161677519755 -0.1035257336162041 0 0.09397493983509804 -0.11322330148444169 0 0.1058809127300703 -0.11218140843774239 0 0.099525338641528904 -0.12611341339503321 0 0.1058809127300703 -0.11218140843774239 0 0.1121708616464093 -0.1216807098986791 0 0.1058809127300703 -0.11218140843774239 0 0.1121708616464093 -0.1216807098986791 0 0.12023297736745781 -0.1110263554770618 0 0.11997683785091839 -0.1276371159963853 0 0.121067612134044 -0.1214532534018402 0 0.13188977167139071 -0.12546883223523481 0 0.12023297736745781 -0.1110263554770618 0 0.121067612134044 -0.1214532534018402 0 0.13188977167139071 -0.12546883223523481 0 0.11997683785091839 -0.1276371159963853 0 0.1121708616464093 -0.1216807098986791 0 0.121067612134044 -0.1214532534018402 0 0.1121708616464093 -0.1216807098986791 0 0.12023297736745781 -0.1110263554770618 0 0.121067612134044 -0.1214532534018402 0 0.12023297736745781 -0.1110263554770618 0 0.12986776683311119 -0.098514185565799078 0 0.13188977167139071 -0.12546883223523481 0 0.12986776683311119 -0.098514185565799078 0 0.13188977167139071 -0.12546883223523481 0 0.14925441928633251 -0.10969288085116551 0 0.13995942417209239 -0.1034127274713456 0 0.13188977167139071 -0.12546883223523481 0 0.14724036225017881 -0.1245170930860646 0 0.14925441928633251 -0.10969288085116551 0 0.13188977167139071 -0.12546883223523481 0 0.14925441928633251 -0.10969288085116551 0 0.15485465026004211 -0.11932571079310079 0 0.15999890680388329 -0.1096406796162286 0 0.14724036225017881 -0.1245170930860646 0 0.15485465026004211 -0.11932571079310079 0 0.15557261582888751 -0.13003178131142151 0 0.14724036225017881 -0.1245170930860646 0 0.14925441928633251 -0.10969288085116551 0 0.15485465026004211 -0.11932571079310079 0 0.14925441928633251 -0.10969288085116551 0 0.14348993397904131 -0.092765062884646393 0 0.1620153957752187 -0.097165399419701551 0 0.14348993397904131 -0.092765062884646393 0 0.1620153957752187 -0.097165399419701551 0 0.14925441928633251 -0.10969288085116551 0 0.13995942417209239 -0.1034127274713456 0 0.14348993397904131 -0.092765062884646393 0 0.13995942417209239 -0.1034127274713456 0 0.12986776683311119 -0.098514185565799078 0 0.13188977167139071 -0.12546883223523481 0 0.13995942417209239 -0.1034127274713456 0 0.12986776683311119 -0.098514185565799078 0 0.14348993397904131 -0.092765062884646393 0 0.12986776683311119 -0.098514185565799078 0 0.12840026197867099 -0.078951386265116219 0 0.1428482005174804 -0.076716741777837147 0 0.1191358060176364 -0.092450830711447801 0 0.12986776683311119 -0.098514185565799078 0 0.12840026197867099 -0.078951386265116219 0 0.12986776683311119 -0.098514185565799078 0 0.12840026197867099 -0.078951386265116219 0 0.12840026197867099 -0.078951386265116219 0 0.12664898879935529 -0.055605769639440771 0 0.12840026197867099 -0.078951386265116219 0 0.12664898879935529 -0.055605769639440771 0 0.14464694777039611 -0.055277979731059648 0 0.12840026197867099 -0.078951386265116219 0 0.1428482005174804 -0.076716741777837147 0 0.14464694777039611 -0.055277979731059648 0 0.12840026197867099 -0.078951386265116219 0 0.14464694777039611 -0.055277979731059648 0 0.1428482005174804 -0.076716741777837147 0 0.15680899227989839 -0.06637062400294011 0 0.14464694777039611 -0.055277979731059648 0 0.1428482005174804 -0.076716741777837147 0 0.15451703372532541 -0.084469533324270707 0 0.15680899227989839 -0.06637062400294011 0 0.12986776683311119 -0.098514185565799078 0 0.15451703372532541 -0.084469533324270707 0 0.12986776683311119 -0.098514185565799078 0 0.14348993397904131 -0.092765062884646393 0 0.15451703372532541 -0.084469533324270707 0 0.14348993397904131 -0.092765062884646393 0 0.15451703372532541 -0.084469533324270707 0 0.1620153957752187 -0.097165399419701551 0 0.12986776683311119 -0.098514185565799078 0 0.1428482005174804 -0.076716741777837147 0 0.15451703372532541 -0.084469533324270707 0 0.15451703372532541 -0.084469533324270707 0 0.1674193516126988 -0.088794767656503876 0 0.1620153957752187 -0.097165399419701551 0 0.15451703372532541 -0.084469533324270707 0 0.1674193516126988 -0.088794767656503876 0 0.16389165652408541 -0.076485311925560115 0 0.1674193516126988 -0.088794767656503876 0 0.16389165652408541 -0.076485311925560115 0 0.17613181446746839 -0.084287857658230353 0 0.15451703372532541 -0.084469533324270707 0 0.15680899227989839 -0.06637062400294011 0 0.16389165652408541 -0.076485311925560115 0 0.16389165652408541 -0.076485311925560115 0 0.1717227713635387 -0.067009979361705274 0 0.17613181446746839 -0.084287857658230353 0 0.15680899227989839 -0.06637062400294011 0 0.16389165652408541 -0.076485311925560115 0 0.1717227713635387 -0.067009979361705274 0 0.15680899227989839 -0.06637062400294011 0 0.1717227713635387 -0.067009979361705274 0 0.1652446184022294 -0.054500080927008407 0 0.1717227713635387 -0.067009979361705274 0 0.17613181446746839 -0.084287857658230353 0 0.1717227713635387 -0.067009979361705274 0 0.18346211879182289 -0.064955309332027283 0 0.18137547142311691 -0.085525622921553163 0 0.18346211879182289 -0.064955309332027283 0 0.18137547142311691 -0.085525622921553163 0 0.1952329782378138 -0.068464889048657496 0 0.1717227713635387 -0.067009979361705274 0 0.18137547142311691 -0.085525622921553163 0 0.1717227713635387 -0.067009979361705274 0 0.18346211879182289 -0.064955309332027283 0 0.1746283364613696 -0.057560297553190053 0 0.18137547142311691 -0.085525622921553163 0 0.17613181446746839 -0.084287857658230353 0 0.18054085757139629 -0.1015657359547559 0 0.17613181446746839 -0.084287857658230353 0 0.18054085757139629 -0.1015657359547559 0 0.1674193516126988 -0.088794767656503876 0 0.17613181446746839 -0.084287857658230353 0 0.18054085757139629 -0.1015657359547559 0 0.1717227713635387 -0.067009979361705274 0 0.18137547142311691 -0.085525622921553163 0 0.17613181446746839 -0.084287857658230353 0 0.18137547142311691 -0.085525622921553163 0 0.19100769245097829 -0.1040519139747048 0 0.18137547142311691 -0.085525622921553163 0 0.18054085757139629 -0.1015657359547559 0 0.19100769245097829 -0.1040519139747048 0 0.18054085757139629 -0.1015657359547559 0 0.1749190978293893 -0.1165979942053425 0 0.16884250162088479 -0.1080310140379921 0 0.18054085757139629 -0.1015657359547559 0 0.19100769245097829 -0.1040519139747048 0 0.18054085757139629 -0.1015657359547559 0 0.1862357176231304 -0.1238823921021804 0 0.1749190978293893 -0.1165979942053425 0 0.18054085757139629 -0.1015657359547559 0 0.1862357176231304 -0.1238823921021804 0 0.19100769245097829 -0.1040519139747048 0 0.18054085757139629 -0.1015657359547559 0 0.1862357176231304 -0.1238823921021804 0 0.1862357176231304 -0.1238823921021804 0 0.1749190978293893 -0.1165979942053425 0 0.17324983187337631 -0.13165498831909611 0 0.1749190978293893 -0.1165979942053425 0 0.16471491079178111 -0.1205264202314431 0 0.16884250162088479 -0.1080310140379921 0 0.16471491079178111 -0.1205264202314431 0 0.15999890680388329 -0.1096406796162286 0 0.16884250162088479 -0.1080310140379921 0 0.1749190978293893 -0.1165979942053425 0 0.16471491079178111 -0.1205264202314431 0 0.17324983187337631 -0.13165498831909611 0 0.15485465026004211 -0.11932571079310079 0 0.16471491079178111 -0.1205264202314431 0 0.15557261582888751 -0.13003178131142151 0 0.15485465026004211 -0.11932571079310079 0 0.16471491079178111 -0.1205264202314431 0 0.15999890680388329 -0.1096406796162286 0 0.18054085757139629 -0.1015657359547559 0 0.1620153957752187 -0.097165399419701551 0 0.1674193516126988 -0.088794767656503876 0 0.18054085757139629 -0.1015657359547559 0 0.1620153957752187 -0.097165399419701551 0 0.14925441928633251 -0.10969288085116551 0 0.15999890680388329 -0.1096406796162286 0 0.1620153957752187 -0.097165399419701551 0 0.15999890680388329 -0.1096406796162286 0 0.1620153957752187 -0.097165399419701551 0 0.16884250162088479 -0.1080310140379921 0 0.18054085757139629 -0.1015657359547559 0 0.1620153957752187 -0.097165399419701551 0 0.16884250162088479 -0.1080310140379921 0 0.13464870039648349 0.00080453217212592717 0 0.15480995508657039 -0.001084596553268768 0 0.14892696920713289 -0.018041582065753459 0 0.13464870039648349 0.00080453217212592717 0 0.1294320674019063 -0.023146095115484211 0 0.14892696920713289 -0.018041582065753459 0 0.13464870039648349 0.00080453217212592717 0 0.1112777463759113 -0.012222875866518469 0 0.1294320674019063 -0.023146095115484211 0 0.1294320674019063 -0.023146095115484211 0 0.14892696920713289 -0.018041582065753459 0 0.14270131340979469 -0.036531096068384838 0 0.14892696920713289 -0.018041582065753459 0 0.14270131340979469 -0.036531096068384838 0 0.16089363356212191 -0.031604573197003549 0 0.14270131340979469 -0.036531096068384838 0 0.14464694777039611 -0.055277979731059648 0 0.16089363356212191 -0.031604573197003549 0 0.14464694777039611 -0.055277979731059648 0 0.15561449558007559 -0.051164132387281437 0 0.16089363356212191 -0.031604573197003549 0 0.14464694777039611 -0.055277979731059648 0 0.16089363356212191 -0.031604573197003549 0 0.14270131340979469 -0.036531096068384838 0 0.12954193793015309 -0.041748568408345607 0 0.14464694777039611 -0.055277979731059648 0 0.1294320674019063 -0.023146095115484211 0 0.14270131340979469 -0.036531096068384838 0 0.12954193793015309 -0.041748568408345607 0 0.12954193793015309 -0.041748568408345607 0 0.12664898879935529 -0.055605769639440771 0 0.14464694777039611 -0.055277979731059648 0 0.15680899227989839 -0.06637062400294011 0 0.14464694777039611 -0.055277979731059648 0 0.15561449558007559 -0.051164132387281437 0 0.15680899227989839 -0.06637062400294011 0 0.15561449558007559 -0.051164132387281437 0 0.1652446184022294 -0.054500080927008407 0 0.15561449558007559 -0.051164132387281437 0 0.1652446184022294 -0.054500080927008407 0 0.1617942405007988 -0.043199732881276223 0 0.1652446184022294 -0.054500080927008407 0 0.1746283364613696 -0.057560297553190053 0 0.1617942405007988 -0.043199732881276223 0 0.1717227713635387 -0.067009979361705274 0 0.1652446184022294 -0.054500080927008407 0 0.1717227713635387 -0.067009979361705274 0 0.1652446184022294 -0.054500080927008407 0 0.1746283364613696 -0.057560297553190053 0 0.1746283364613696 -0.057560297553190053 0 0.1828119860636557 -0.050363577362968731 0 0.1617942405007988 -0.043199732881276223 0 0.18346211879182289 -0.064955309332027283 0 0.1746283364613696 -0.057560297553190053 0 0.1828119860636557 -0.050363577362968731 0 0.18346211879182289 -0.064955309332027283 0 0.1828119860636557 -0.050363577362968731 0 0.19188844298534441 -0.056659859735039647 0 0.1617942405007988 -0.043199732881276223 0 0.18853740735089011 -0.033706188378118708 0 0.1828119860636557 -0.050363577362968731 0 0.1617942405007988 -0.043199732881276223 0 0.18853740735089011 -0.033706188378118708 0 0.15561449558007559 -0.051164132387281437 0 0.16089363356212191 -0.031604573197003549 0 0.1617942405007988 -0.043199732881276223 0 0.16089363356212191 -0.031604573197003549 0 0.1617942405007988 -0.043199732881276223 0 0.18853740735089011 -0.033706188378118708 0 0.16089363356212191 -0.031604573197003549 0 0.17714031935384769 -0.0079311666629475405 0 0.14892696920713289 -0.018041582065753459 0 0.16089363356212191 -0.031604573197003549 0 0.17714031935384769 -0.0079311666629475405 0 0.16089363356212191 -0.031604573197003549 0 0.17714031935384769 -0.0079311666629475405 0 0.18853740735089011 -0.033706188378118708 0 0.1657030786406338 0.0084270166623369204 0 0.15480995508657039 -0.001084596553268768 0 0.17714031935384769 -0.0079311666629475405 0 0.15480995508657039 -0.001084596553268768 0 0.14892696920713289 -0.018041582065753459 0 0.17714031935384769 -0.0079311666629475405 0 0.21351355446813719 -0.0021103410187178909 0 0.2110126965438916 -0.012672932103663791 0 0.2228246624943325 -0.0092295053444410857 0 0.2110126965438916 -0.012672932103663791 0 0.21911622703360889 -0.015650702578479541 0 0.2228246624943325 -0.0092295053444410857 0 0.21351355446813719 -0.0021103410187178909 0 0.2110126965438916 -0.012672932103663791 0 0.19836939172364151 -0.01016904411482358 0 0.1998105265397013 0.00335350757378736 0 0.21351355446813719 -0.0021103410187178909 0 0.19836939172364151 -0.01016904411482358 0 0.1998105265397013 0.00335350757378736 0 0.17714031935384769 -0.0079311666629475405 0 0.19836939172364151 -0.01016904411482358 0 0.17714031935384769 -0.0079311666629475405 0 0.19836939172364151 -0.01016904411482358 0 0.18853740735089011 -0.033706188378118708 0 0.2110126965438916 -0.012672932103663791 0 0.19836939172364151 -0.01016904411482358 0 0.18853740735089011 -0.033706188378118708 0 0.21528057420098159 -0.024212643874961401 0 0.18853740735089011 -0.033706188378118708 0 0.2110126965438916 -0.012672932103663791 0 0.21528057420098159 -0.024212643874961401 0 0.18853740735089011 -0.033706188378118708 0 0.21528057420098159 -0.024212643874961401 0 0.20886364623554921 -0.031523512657201581 0 0.18853740735089011 -0.033706188378118708 0 0.2110126965438916 -0.012672932103663791 0 0.21528057420098159 -0.024212643874961401 0 0.21911622703360889 -0.015650702578479541 0 0.21528057420098159 -0.024212643874961401 0 0.2158000993154765 -0.027276596113623111 0 0.21360323626451261 -0.02858374534336202 0 0.21528057420098159 -0.024212643874961401 0 0.2158000993154765 -0.027276596113623111 0 0.21995729679401421 -0.029331280632926501 0 0.2158000993154765 -0.027276596113623111 0 0.21503400689837671 -0.030930810510401429 0 0.21995729679401421 -0.029331280632926501 0 0.2158000993154765 -0.027276596113623111 0 0.21503400689837671 -0.030930810510401429 0 0.21360323626451261 -0.02858374534336202 0 0.21528057420098159 -0.024212643874961401 0 0.21360323626451261 -0.02858374534336202 0 0.20886364623554921 -0.031523512657201581 0 0.21503400689837671 -0.030930810510401429 0 0.21360323626451261 -0.02858374534336202 0 0.20886364623554921 -0.031523512657201581 0 0.2128060919330283 -0.035124071741943173 0 0.2180191377477218 -0.035203133534298187 0 0.2167024847658664 -0.043974661413588162 0 0.21503400689837671 -0.030930810510401429 0 0.2128060919330283 -0.035124071741943173 0 0.20886364623554921 -0.031523512657201581 0 0.21503400689837671 -0.030930810510401429 0 0.2128060919330283 -0.035124071741943173 0 0.2180191377477218 -0.035203133534298187 0 0.21503400689837671 -0.030930810510401429 0 0.2180191377477218 -0.035203133534298187 0 0.21995729679401421 -0.029331280632926501 0 0.2167024847658664 -0.043974661413588162 0 0.20890374551960481 -0.040729144831228678 0 0.20897987019450001 -0.050060865146210963 0 0.2128060919330283 -0.035124071741943173 0 0.2167024847658664 -0.043974661413588162 0 0.20890374551960481 -0.040729144831228678 0 0.20890374551960481 -0.040729144831228678 0 0.19655169947710091 -0.043788383486002072 0 0.20897987019450001 -0.050060865146210963 0 0.2128060919330283 -0.035124071741943173 0 0.20890374551960481 -0.040729144831228678 0 0.20886364623554921 -0.031523512657201581 0 0.20890374551960481 -0.040729144831228678 0 0.20886364623554921 -0.031523512657201581 0 0.19655169947710091 -0.043788383486002072 0 0.1828119860636557 -0.050363577362968731 0 0.18853740735089011 -0.033706188378118708 0 0.19655169947710091 -0.043788383486002072 0 0.20886364623554921 -0.031523512657201581 0 0.18853740735089011 -0.033706188378118708 0 0.19655169947710091 -0.043788383486002072 0 0.19655169947710091 -0.043788383486002072 0 0.20138343235632811 -0.055727139445542639 0 0.20897987019450001 -0.050060865146210963 0 0.19655169947710091 -0.043788383486002072 0 0.19188844298534441 -0.056659859735039647 0 0.20138343235632811 -0.055727139445542639 0 0.1828119860636557 -0.050363577362968731 0 0.19655169947710091 -0.043788383486002072 0 0.19188844298534441 -0.056659859735039647 0 0.19188844298534441 -0.056659859735039647 0 0.20138343235632811 -0.055727139445542639 0 0.1952329782378138 -0.068464889048657496 0 0.20138343235632811 -0.055727139445542639 0 0.22670270369963491 -0.067064047377793826 0 0.20138343235632811 -0.055727139445542639 0 0.21577564808412511 -0.056666161138016313 0 0.22670270369963491 -0.067064047377793826 0 0.20138343235632811 -0.055727139445542639 0 0.20897987019450001 -0.050060865146210963 0 0.21577564808412511 -0.056666161138016313 0 0.2167024847658664 -0.043974661413588162 0 0.20897987019450001 -0.050060865146210963 0 0.21577564808412511 -0.056666161138016313 0 0.21577564808412511 -0.056666161138016313 0 0.23694359709532001 -0.061394592404840097 0 0.22670270369963491 -0.067064047377793826 0 0.21577564808412511 -0.056666161138016313 0 0.22648325856373289 -0.049317463857355977 0 0.23694359709532001 -0.061394592404840097 0 0.21577564808412511 -0.056666161138016313 0 0.23694359709532001 -0.061394592404840097 0 0.2167024847658664 -0.043974661413588162 0 0.21577564808412511 -0.056666161138016313 0 0.22648325856373289 -0.049317463857355977 0 0.22648325856373289 -0.049317463857355977 0 0.23694359709532001 -0.061394592404840097 0 0.23716366819637241 -0.046229271507985323 0 0.25811154610651499 -0.066123023671663908 0 0.23694359709532001 -0.061394592404840097 0 0.24870160087168189 -0.052882304334001928 0 0.23694359709532001 -0.061394592404840097 0 0.24870160087168189 -0.052882304334001928 0 0.23716366819637241 -0.046229271507985323 0 0.24870160087168189 -0.052882304334001928 0 0.23716366819637241 -0.046229271507985323 0 0.24731406762381819 -0.035960341631652723 0 0.23716366819637241 -0.046229271507985323 0 0.24731406762381819 -0.035960341631652723 0 0.23342582712955959 -0.033308149953783547 0 0.23342582712955959 -0.033308149953783547 0 0.2258308946769807 -0.038322632822349968 0 0.22548915127375299 -0.027513718828695861 0 0.22648325856373289 -0.049317463857355977 0 0.23716366819637241 -0.046229271507985323 0 0.2258308946769807 -0.038322632822349968 0 0.23716366819637241 -0.046229271507985323 0 0.23342582712955959 -0.033308149953783547 0 0.2258308946769807 -0.038322632822349968 0 0.2180191377477218 -0.035203133534298187 0 0.2167024847658664 -0.043974661413588162 0 0.2258308946769807 -0.038322632822349968 0 0.2167024847658664 -0.043974661413588162 0 0.22648325856373289 -0.049317463857355977 0 0.2258308946769807 -0.038322632822349968 0 0.2180191377477218 -0.035203133534298187 0 0.2258308946769807 -0.038322632822349968 0 0.21995729679401421 -0.029331280632926501 0 0.2258308946769807 -0.038322632822349968 0 0.22548915127375299 -0.027513718828695861 0 0.21995729679401421 -0.029331280632926501 0 0.21528057420098159 -0.024212643874961401 0 0.2313313538768734 -0.018514784978234038 0 0.22829619310998309 -0.01520182636873813 0 0.21528057420098159 -0.024212643874961401 0 0.2313313538768734 -0.018514784978234038 0 0.21528057420098159 -0.024212643874961401 0 0.22548915127375299 -0.027513718828695861 0 0.2313313538768734 -0.018514784978234038 0 0.21528057420098159 -0.024212643874961401 0 0.22548915127375299 -0.027513718828695861 0 0.21995729679401421 -0.029331280632926501 0 0.21528057420098159 -0.024212643874961401 0 0.22829619310998309 -0.01520182636873813 0 0.21528057420098159 -0.024212643874961401 0 0.21911622703360889 -0.015650702578479541 0 0.22829619310998309 -0.01520182636873813 0 0.2313313538768734 -0.018514784978234038 0 0.22829619310998309 -0.01520182636873813 0 0.23342582712955959 -0.033308149953783547 0 0.22548915127375299 -0.027513718828695861 0 0.2313313538768734 -0.018514784978234038 0 0.25508119948702751 -0.010083838205662381 0 0.2313313538768734 -0.018514784978234038 0 0.2482857443068576 -0.021714794414400052 0 0.24731406762381819 -0.035960341631652723 0 0.2313313538768734 -0.018514784978234038 0 0.2482857443068576 -0.021714794414400052 0 0.24731406762381819 -0.035960341631652723 0 0.23342582712955959 -0.033308149953783547 0 0.2313313538768734 -0.018514784978234038 0 0.24731406762381819 -0.035960341631652723 0 0.2313313538768734 -0.018514784978234038 0 0.25508119948702751 -0.010083838205662381 0 0.2313313538768734 -0.018514784978234038 0 0.24138147174972829 -0.0061427828714447699 0 0.25508119948702751 -0.010083838205662381 0 0.2313313538768734 -0.018514784978234038 0 0.24138147174972829 -0.0061427828714447699 0 0.22829619310998309 -0.01520182636873813 0 0.25446675038947358 0.0029162606258486688 0 0.2541426920980116 -0.0036136263454906951 0 0.24138147174972829 -0.0061427828714447699 0 0.25446675038947358 0.0029162606258486688 0 0.24138147174972829 -0.0061427828714447699 0 0.22999165343287109 0.0038227322559807589 0 0.24138147174972829 -0.0061427828714447699 0 0.23189167676904729 -0.0064153040848911828 0 0.22999165343287109 0.0038227322559807589 0 0.23189167676904729 -0.0064153040848911828 0 0.2228246624943325 -0.0092295053444410857 0 0.22999165343287109 0.0038227322559807589 0 0.21351355446813719 -0.0021103410187178909 0 0.2228246624943325 -0.0092295053444410857 0 0.23189167676904729 -0.0064153040848911828 0 0.22829619310998309 -0.01520182636873813 0 0.2228246624943325 -0.0092295053444410857 0 0.2313313538768734 -0.018514784978234038 0 0.24138147174972829 -0.0061427828714447699 0 0.22829619310998309 -0.01520182636873813 0 0.24138147174972829 -0.0061427828714447699 0 0.23189167676904729 -0.0064153040848911828 0 0.22829619310998309 -0.01520182636873813 0 0.21911622703360889 -0.015650702578479541 0 0.22829619310998309 -0.01520182636873813 0 0.2228246624943325 -0.0092295053444410857 0 0.22829619310998309 -0.01520182636873813 0 0.2228246624943325 -0.0092295053444410857 0 0.2084634723971549 -0.097930235578601213 0 0.21737999015654699 -0.1103161024944793 0 0.2275791846540145 -0.10054182369239011 0 0.21737999015654699 -0.1103161024944793 0 0.19100769245097829 -0.1040519139747048 0 0.2084634723971549 -0.097930235578601213 0 0.21140608144591419 -0.084503356370523836 0 0.2275791846540145 -0.10054182369239011 0 0.2084634723971549 -0.097930235578601213 0 0.21737999015654699 -0.1103161024944793 0 0.19100769245097829 -0.1040519139747048 0 0.21737999015654699 -0.1103161024944793 0 0.21277072480774051 -0.1248863227998855 0 0.20025029595199689 -0.1218288277367077 0 0.21737999015654699 -0.1103161024944793 0 0.21277072480774051 -0.1248863227998855 0 0.2239597136694004 -0.1277946194696456 0 0.1862357176231304 -0.1238823921021804 0 0.20025029595199689 -0.1218288277367077 0 0.19100769245097829 -0.1040519139747048 0 0.21737999015654699 -0.1103161024944793 0 0.20025029595199689 -0.1218288277367077 0 0.19100769245097829 -0.1040519139747048 0 0.20025029595199689 -0.1218288277367077 0 0.19100769245097829 -0.1040519139747048 0 0.2084634723971549 -0.097930235578601213 0 0.19100769245097829 -0.1040519139747048 0 0.19624682445825681 -0.08914472739044943 0 0.18137547142311691 -0.085525622921553163 0 0.19100769245097829 -0.1040519139747048 0 0.19624682445825681 -0.08914472739044943 0 0.19624682445825681 -0.08914472739044943 0 0.1952329782378138 -0.068464889048657496 0 0.21140608144591419 -0.084503356370523836 0 0.18137547142311691 -0.085525622921553163 0 0.19624682445825681 -0.08914472739044943 0 0.1952329782378138 -0.068464889048657496 0 0.20138343235632811 -0.055727139445542639 0 0.1952329782378138 -0.068464889048657496 0 0.21149591893834541 -0.070957707586151192 0 0.18346211879182289 -0.064955309332027283 0 0.19188844298534441 -0.056659859735039647 0 0.1952329782378138 -0.068464889048657496 0 0.1952329782378138 -0.068464889048657496 0 0.21140608144591419 -0.084503356370523836 0 0.20138343235632811 -0.055727139445542639 0 0.21149591893834541 -0.070957707586151192 0 0.22670270369963491 -0.067064047377793826 0 0.1952329782378138 -0.068464889048657496 0 0.21149591893834541 -0.070957707586151192 0 0.21140608144591419 -0.084503356370523836 0 0.2084634723971549 -0.097930235578601213 0 0.19624682445825681 -0.08914472739044943 0 0.21140608144591419 -0.084503356370523836 0 0.21149591893834541 -0.070957707586151192 0 0.21140608144591419 -0.084503356370523836 0 0.2227543989520358 -0.079029105688238177 0 0.21140608144591419 -0.084503356370523836 0 0.2275791846540145 -0.10054182369239011 0 0.2227543989520358 -0.079029105688238177 0 0.23449163343577681 -0.083610487294907485 0 0.2275791846540145 -0.10054182369239011 0 0.21140608144591419 -0.084503356370523836 0 0.2227543989520358 -0.079029105688238177 0 0.2275791846540145 -0.10054182369239011 0 0.2227543989520358 -0.079029105688238177 0 0.22670270369963491 -0.067064047377793826 0 0.23449163343577681 -0.083610487294907485 0 0.21149591893834541 -0.070957707586151192 0 0.2227543989520358 -0.079029105688238177 0 0.22670270369963491 -0.067064047377793826 0 0.25202197504294188 -0.078400955310045109 0 0.25811154610651499 -0.066123023671663908 0 0.23694359709532001 -0.061394592404840097 0 0.25202197504294188 -0.078400955310045109 0 0.22670270369963491 -0.067064047377793826 0 0.25202197504294188 -0.078400955310045109 0 0.22670270369963491 -0.067064047377793826 0 0.23449163343577681 -0.083610487294907485 0 0.25202197504294188 -0.078400955310045109 0 0.23694359709532001 -0.061394592404840097 0 0.22670270369963491 -0.067064047377793826 0 0.25811154610651499 -0.066123023671663908 0 0.23694359709532001 -0.061394592404840097 0 0.25202197504294188 -0.078400955310045109 0 0.23449163343577681 -0.083610487294907485 0 0.24624903761231479 -0.086847438891893419 0 0.23449163343577681 -0.083610487294907485 0 0.24292322406264641 -0.096552741650977186 0 0.2275791846540145 -0.10054182369239011 0 0.23449163343577681 -0.083610487294907485 0 0.24624903761231479 -0.086847438891893419 0 0.24292322406264641 -0.096552741650977186 0 0.25304747237378489 -0.090741332181114118 0 0.24624903761231479 -0.086847438891893419 0 0.24292322406264641 -0.096552741650977186 0 0.2275791846540145 -0.10054182369239011 0 0.24375228786211539 -0.116580291014256 0 0.24292322406264641 -0.096552741650977186 0 0.2275791846540145 -0.10054182369239011 0 0.24375228786211539 -0.116580291014256 0 0.25771864553297669 -0.099620140202181948 0 0.24292322406264641 -0.096552741650977186 0 0.24375228786211539 -0.116580291014256 0 0.21737999015654699 -0.1103161024944793 0 0.2275791846540145 -0.10054182369239011 0 0.24375228786211539 -0.116580291014256 0 0.21737999015654699 -0.1103161024944793 0 0.24375228786211539 -0.116580291014256 0 0.2239597136694004 -0.1277946194696456 0 0.21737999015654699 -0.1103161024944793 0 0.24375228786211539 -0.116580291014256 0 0.24375228786211539 -0.116580291014256 0 0.235054631712311 -0.13955626642273861 0 0.24955680073527009 -0.143898101237383 0 0.235054631712311 -0.13955626642273861 0 0.24955680073527009 -0.143898101237383 0 0.23627457688356679 -0.15840319400941011 0 0.25449645062408999 -0.16331052089379791 0 0.24955680073527009 -0.143898101237383 0 0.23627457688356679 -0.15840319400941011 0 0.235054631712311 -0.13955626642273861 0 0.22199130801810529 -0.1478171468904442 0 0.23627457688356679 -0.15840319400941011 0 0.24375228786211539 -0.116580291014256 0 0.235054631712311 -0.13955626642273861 0 0.2239597136694004 -0.1277946194696456 0 0.235054631712311 -0.13955626642273861 0 0.22199130801810529 -0.1478171468904442 0 0.2239597136694004 -0.1277946194696456 0 0.20025029595199689 -0.1218288277367077 0 0.20949289945301761 -0.1396057414987095 0 0.22199130801810529 -0.1478171468904442 0 0.2239597136694004 -0.1277946194696456 0 0.20949289945301761 -0.1396057414987095 0 0.21277072480774051 -0.1248863227998855 0 0.20025029595199689 -0.1218288277367077 0 0.20949289945301761 -0.1396057414987095 0 0.21277072480774051 -0.1248863227998855 0 0.2239597136694004 -0.1277946194696456 0 0.20949289945301761 -0.1396057414987095 0 0.22199130801810529 -0.1478171468904442 0 0.20949289945301761 -0.1396057414987095 0 0.2069794531536403 -0.1537888919124783 0 0.20949289945301761 -0.1396057414987095 0 0.2069794531536403 -0.1537888919124783 0 0.1919305776748628 -0.1461990482496055 0 0.2069794531536403 -0.1537888919124783 0 0.1919305776748628 -0.1461990482496055 0 0.19225769977326759 -0.16432491474026781 0 0.1862357176231304 -0.1238823921021804 0 0.1919305776748628 -0.1461990482496055 0 0.19714487019074359 -0.1333469628700395 0 0.20025029595199689 -0.1218288277367077 0 0.20949289945301761 -0.1396057414987095 0 0.19714487019074359 -0.1333469628700395 0 0.20949289945301761 -0.1396057414987095 0 0.1919305776748628 -0.1461990482496055 0 0.19714487019074359 -0.1333469628700395 0 0.1862357176231304 -0.1238823921021804 0 0.1919305776748628 -0.1461990482496055 0 0.1862357176231304 -0.1238823921021804 0 0.20025029595199689 -0.1218288277367077 0 0.19714487019074359 -0.1333469628700395 0 0.19629081049063871 -0.1815365299480412 0 0.19225769977326759 -0.16432491474026781 0 0.17982600751226671 -0.1762593337595659 0 0.19629081049063871 -0.1815365299480412 0 0.19225769977326759 -0.16432491474026781 0 0.22018657323669569 -0.16775416802968299 0 0.2069794531536403 -0.1537888919124783 0 0.19225769977326759 -0.16432491474026781 0 0.22018657323669569 -0.16775416802968299 0 0.22199130801810529 -0.1478171468904442 0 0.2069794531536403 -0.1537888919124783 0 0.22018657323669569 -0.16775416802968299 0 0.19629081049063871 -0.1815365299480412 0 0.22018657323669569 -0.16775416802968299 0 0.21237941264848451 -0.18810475376770611 0 0.22018657323669569 -0.16775416802968299 0 0.23934418379307471 -0.18436482883247621 0 0.22018657323669569 -0.16775416802968299 0 0.23934418379307471 -0.18436482883247621 0 0.21237941264848451 -0.18810475376770611 0 0.22018657323669569 -0.16775416802968299 0 0.23627457688356679 -0.15840319400941011 0 0.23934418379307471 -0.18436482883247621 0 0.22199130801810529 -0.1478171468904442 0 0.22018657323669569 -0.16775416802968299 0 0.23627457688356679 -0.15840319400941011 0 0.25449645062408999 -0.16331052089379791 0 0.23627457688356679 -0.15840319400941011 0 0.23934418379307471 -0.18436482883247621 0 0.25850179434945381 -0.20097548963526929 0 0.23934418379307471 -0.18436482883247621 0 0.25850179434945381 -0.20097548963526929 0 0.23934418379307471 -0.18436482883247621 0 0.23907695871134879 -0.21289681242661959 0 0.23907695871134879 -0.21289681242661959 0 0.22308479462261119 -0.20217133576560289 0 0.21722062693650279 -0.2226466586169516 0 0.23934418379307471 -0.18436482883247621 0 0.22308479462261119 -0.20217133576560289 0 0.21237941264848451 -0.18810475376770611 0 0.23934418379307471 -0.18436482883247621 0 0.23907695871134879 -0.21289681242661959 0 0.22308479462261119 -0.20217133576560289 0 0.25037283077400019 -0.2416092145933311 0 0.23239962387573149 -0.2337287944253621 0 0.2339549802858914 -0.24933471903745599 0 0.25658827463044448 -0.2222138965281123 0 0.23907695871134879 -0.21289681242661959 0 0.2446094219978813 -0.2276121794933563 0 0.25037283077400019 -0.2416092145933311 0 0.2446094219978813 -0.2276121794933563 0 0.23239962387573149 -0.2337287944253621 0 0.23907695871134879 -0.21289681242661959 0 0.2446094219978813 -0.2276121794933563 0 0.23239962387573149 -0.2337287944253621 0 0.23907695871134879 -0.21289681242661959 0 0.23239962387573149 -0.2337287944253621 0 0.21722062693650279 -0.2226466586169516 0 0.23239962387573149 -0.2337287944253621 0 0.2194561222393229 -0.23682627783696539 0 0.21722062693650279 -0.2226466586169516 0 0.23239962387573149 -0.2337287944253621 0 0.22502312889380549 -0.2426362774769398 0 0.2339549802858914 -0.24933471903745599 0 0.2194561222393229 -0.23682627783696539 0 0.22502312889380549 -0.2426362774769398 0 0.21456577207223029 -0.24270171036535029 0 0.23239962387573149 -0.2337287944253621 0 0.2194561222393229 -0.23682627783696539 0 0.22502312889380549 -0.2426362774769398 0 0.22331750647786899 -0.25281133177650322 0 0.22502312889380549 -0.2426362774769398 0 0.21456577207223029 -0.24270171036535029 0 0.22331750647786899 -0.25281133177650322 0 0.22502312889380549 -0.2426362774769398 0 0.2339549802858914 -0.24933471903745599 0 0.2084475354763706 -0.25511513831035743 0 0.2080714594183444 -0.2424179483002232 0 0.21336353465090491 -0.24693864317134839 0 0.2080714594183444 -0.2424179483002232 0 0.21336353465090491 -0.24693864317134839 0 0.2080714594183444 -0.2424179483002232 0 0.21336353465090491 -0.24693864317134839 0 0.21456577207223029 -0.24270171036535029 0 0.2194561222393229 -0.23682627783696539 0 0.2080714594183444 -0.2424179483002232 0 0.21456577207223029 -0.24270171036535029 0 0.21722062693650279 -0.2226466586169516 0 0.20244123733496699 -0.2260211367091485 0 0.19848523837712481 -0.2136299623964425 0 0.2080714594183444 -0.2424179483002232 0 0.21722062693650279 -0.2226466586169516 0 0.2194561222393229 -0.23682627783696539 0 0.2080714594183444 -0.2424179483002232 0 0.21722062693650279 -0.2226466586169516 0 0.2080714594183444 -0.2424179483002232 0 0.21722062693650279 -0.2226466586169516 0 0.20244123733496699 -0.2260211367091485 0 0.2080714594183444 -0.2424179483002232 0 0.18716213711817259 -0.22455639835484539 0 0.2080714594183444 -0.2424179483002232 0 0.20244123733496699 -0.2260211367091485 0 0.18716213711817259 -0.22455639835484539 0 0.20244123733496699 -0.2260211367091485 0 0.19848523837712481 -0.2136299623964425 0 0.18716213711817259 -0.22455639835484539 0 0.2080714594183444 -0.2424179483002232 0 0.19254414318066221 -0.24961624770678509 0 0.1866817818972302 -0.23981118877977231 0 0.2080714594183444 -0.2424179483002232 0 0.1866817818972302 -0.23981118877977231 0 0.18716213711817259 -0.22455639835484539 0 0.19254414318066221 -0.24961624770678509 0 0.18399505531774341 -0.24981832115951039 0 0.1866817818972302 -0.23981118877977231 0 0.21237941264848451 -0.18810475376770611 0 0.20793523744788639 -0.20366419955677639 0 0.19447652973028121 -0.19759128756789451 0 0.22308479462261119 -0.20217133576560289 0 0.21237941264848451 -0.18810475376770611 0 0.20793523744788639 -0.20366419955677639 0 0.22308479462261119 -0.20217133576560289 0 0.21722062693650279 -0.2226466586169516 0 0.20793523744788639 -0.20366419955677639 0 0.21722062693650279 -0.2226466586169516 0 0.20793523744788639 -0.20366419955677639 0 0.19848523837712481 -0.2136299623964425 0 0.19848523837712481 -0.2136299623964425 0 0.19447652973028121 -0.19759128756789451 0 0.1831457957419608 -0.2071674304332729 0 0.20793523744788639 -0.20366419955677639 0 0.19848523837712481 -0.2136299623964425 0 0.19447652973028121 -0.19759128756789451 0 0.19848523837712481 -0.2136299623964425 0 0.1831457957419608 -0.2071674304332729 0 0.18716213711817259 -0.22455639835484539 0 0.19629081049063871 -0.1815365299480412 0 0.19447652973028121 -0.19759128756789451 0 0.1840061663436266 -0.1900566622106199 0 0.19629081049063871 -0.1815365299480412 0 0.21237941264848451 -0.18810475376770611 0 0.19447652973028121 -0.19759128756789451 0 0.19447652973028121 -0.19759128756789451 0 0.1840061663436266 -0.1900566622106199 0 0.1831457957419608 -0.2071674304332729 0 0.1840061663436266 -0.1900566622106199 0 0.1831457957419608 -0.2071674304332729 0 0.16486725365112659 -0.18785963188663279 0 0.1831457957419608 -0.2071674304332729 0 0.16486725365112659 -0.18785963188663279 0 0.1831457957419608 -0.2071674304332729 0 0.16625281481800089 -0.2066948484094672 0 0.18716213711817259 -0.22455639835484539 0 0.16625281481800089 -0.2066948484094672 0 0.18716213711817259 -0.22455639835484539 0 0.16625281481800089 -0.2066948484094672 0 0.18716213711817259 -0.22455639835484539 0 0.16937657335138201 -0.22198425569814831 0 0.16625281481800089 -0.2066948484094672 0 0.15661990237239229 -0.21733625041789439 0 0.14909823278687431 -0.20687378182447139 0 0.16625281481800089 -0.2066948484094672 0 0.15661990237239229 -0.21733625041789439 0 0.16937657335138201 -0.22198425569814831 0 0.1831457957419608 -0.2071674304332729 0 0.16625281481800089 -0.2066948484094672 0 0.16486725365112659 -0.18785963188663279 0 0.16625281481800089 -0.2066948484094672 0 0.16486725365112659 -0.18785963188663279 0 0.14534349251782941 -0.188833298464089 0 0.17619278994504239 -0.24587918172992959 0 0.18399505531774341 -0.24981832115951039 0 0.1866817818972302 -0.23981118877977231 0 0.17619278994504239 -0.24587918172992959 0 0.17450151464944069 -0.23276490516368609 0 0.16609645978724119 -0.24143951784646769 0 0.17619278994504239 -0.24587918172992959 0 0.1866817818972302 -0.23981118877977231 0 0.17450151464944069 -0.23276490516368609 0 0.17450151464944069 -0.23276490516368609 0 0.18716213711817259 -0.22455639835484539 0 0.16937657335138201 -0.22198425569814831 0 0.1866817818972302 -0.23981118877977231 0 0.17450151464944069 -0.23276490516368609 0 0.18716213711817259 -0.22455639835484539 0 0.15661990237239229 -0.21733625041789439 0 0.1623464977989032 -0.22856887614484861 0 0.15090654410468329 -0.22688320449844629 0 0.15661990237239229 -0.21733625041789439 0 0.16937657335138201 -0.22198425569814831 0 0.1623464977989032 -0.22856887614484861 0 0.17450151464944069 -0.23276490516368609 0 0.1623464977989032 -0.22856887614484861 0 0.16609645978724119 -0.24143951784646769 0 0.17450151464944069 -0.23276490516368609 0 0.16937657335138201 -0.22198425569814831 0 0.1623464977989032 -0.22856887614484861 0 0.1623464977989032 -0.22856887614484861 0 0.16609645978724119 -0.24143951784646769 0 0.1528270009437688 -0.23836283418195289 0 0.16001236861667459 -0.2513654190734112 0 0.16609645978724119 -0.24143951784646769 0 0.1528270009437688 -0.23836283418195289 0 0.16978669848249819 -0.25098739912941831 0 0.17619278994504239 -0.24587918172992959 0 0.16609645978724119 -0.24143951784646769 0 0.16001236861667459 -0.2513654190734112 0 0.16978669848249819 -0.25098739912941831 0 0.16609645978724119 -0.24143951784646769 0 0.1429630926125974 -0.2502577086919005 0 0.16001236861667459 -0.2513654190734112 0 0.1528270009437688 -0.23836283418195289 0 0.1429630926125974 -0.2502577086919005 0 0.1528270009437688 -0.23836283418195289 0 0.13988621804673579 -0.23152362256679451 0 0.1528270009437688 -0.23836283418195289 0 0.15090654410468329 -0.22688320449844629 0 0.13988621804673579 -0.23152362256679451 0 0.1623464977989032 -0.22856887614484861 0 0.1528270009437688 -0.23836283418195289 0 0.15090654410468329 -0.22688320449844629 0 0.15661990237239229 -0.21733625041789439 0 0.15090654410468329 -0.22688320449844629 0 0.1428531013616163 -0.21862443918074129 0 0.15090654410468329 -0.22688320449844629 0 0.13988621804673579 -0.23152362256679451 0 0.1428531013616163 -0.21862443918074129 0 0.12018370186474731 -0.23305432747703519 0 0.12895394136930069 -0.22163642029703709 0 0.13988621804673579 -0.23152362256679451 0 0.12895394136930069 -0.22163642029703709 0 0.13988621804673579 -0.23152362256679451 0 0.1428531013616163 -0.21862443918074129 0 0.1429630926125974 -0.2502577086919005 0 0.12018370186474731 -0.23305432747703519 0 0.1429630926125974 -0.2502577086919005 0 0.12018370186474731 -0.23305432747703519 0 0.13988621804673579 -0.23152362256679451 0 0.13217397618885759 -0.25462043987800831 0 0.1429630926125974 -0.2502577086919005 0 0.12018370186474731 -0.23305432747703519 0 0.16625281481800089 -0.2066948484094672 0 0.14534349251782941 -0.188833298464089 0 0.16625281481800089 -0.2066948484094672 0 0.14534349251782941 -0.188833298464089 0 0.14909823278687431 -0.20687378182447139 0 0.14534349251782941 -0.188833298464089 0 0.14909823278687431 -0.20687378182447139 0 0.1346280568372662 -0.20359450925845249 0 0.15661990237239229 -0.21733625041789439 0 0.14909823278687431 -0.20687378182447139 0 0.1428531013616163 -0.21862443918074129 0 0.14909823278687431 -0.20687378182447139 0 0.1428531013616163 -0.21862443918074129 0 0.1346280568372662 -0.20359450925845249 0 0.1178461100078927 -0.20838697738218431 0 0.12895394136930069 -0.22163642029703709 0 0.1346280568372662 -0.20359450925845249 0 0.12895394136930069 -0.22163642029703709 0 0.1428531013616163 -0.21862443918074129 0 0.1346280568372662 -0.20359450925845249 0 0.14534349251782941 -0.188833298464089 0 0.1346280568372662 -0.20359450925845249 0 0.13128332926409281 -0.18787359724935929 0 0.1237689835273371 -0.19605207676116951 0 0.1178461100078927 -0.20838697738218431 0 0.1346280568372662 -0.20359450925845249 0 0.1237689835273371 -0.19605207676116951 0 0.1346280568372662 -0.20359450925845249 0 0.13128332926409281 -0.18787359724935929 0 0.1237689835273371 -0.19605207676116951 0 0.1232013989280239 -0.1819146573535104 0 0.13128332926409281 -0.18787359724935929 0 0.12443417021765769 -0.1709717485187108 0 0.14534349251782941 -0.188833298464089 0 0.12443417021765769 -0.1709717485187108 0 0.1232013989280239 -0.1819146573535104 0 0.13128332926409281 -0.18787359724935929 0 0.12443417021765769 -0.1709717485187108 0 0.14534349251782941 -0.188833298464089 0 0.13128332926409281 -0.18787359724935929 0 0.12443417021765769 -0.1709717485187108 0 0.14534349251782941 -0.188833298464089 0 0.13540865390058859 -0.1688207667960602 0 0.14534349251782941 -0.188833298464089 0 0.14658871156029241 -0.16855183333999291 0 0.13540865390058859 -0.1688207667960602 0 0.16486725365112659 -0.18785963188663279 0 0.14658871156029241 -0.16855183333999291 0 0.16486725365112659 -0.18785963188663279 0 0.14534349251782941 -0.188833298464089 0 0.14658871156029241 -0.16855183333999291 0 0.14658871156029241 -0.16855183333999291 0 0.13391177650968769 -0.15242347890466901 0 0.14971917460686079 -0.1530450482394467 0 0.14658871156029241 -0.16855183333999291 0 0.14971917460686079 -0.1530450482394467 0 0.16192904395431579 -0.15800089119817939 0 0.14658871156029241 -0.16855183333999291 0 0.13391177650968769 -0.15242347890466901 0 0.12831016946945831 -0.1492440347933528 0 0.14658871156029241 -0.16855183333999291 0 0.12831016946945831 -0.1492440347933528 0 0.14658871156029241 -0.16855183333999291 0 0.13540865390058859 -0.1688207667960602 0 0.1290045142054978 -0.1612372837293575 0 0.14658871156029241 -0.16855183333999291 0 0.1290045142054978 -0.1612372837293575 0 0.12831016946945831 -0.1492440347933528 0 0.13540865390058859 -0.1688207667960602 0 0.12715697753007521 -0.16591248018761531 0 0.1290045142054978 -0.1612372837293575 0 0.12443417021765769 -0.1709717485187108 0 0.13540865390058859 -0.1688207667960602 0 0.12715697753007521 -0.16591248018761531 0 0.12098675462827781 -0.16200852072179159 0 0.12715697753007521 -0.16591248018761531 0 0.1290045142054978 -0.1612372837293575 0 0.12324902196630889 -0.15465793599018671 0 0.1227471198665283 -0.15880086614903269 0 0.1290045142054978 -0.1612372837293575 0 0.13391177650968769 -0.15242347890466901 0 0.12831016946945831 -0.1492440347933528 0 0.12532898621889721 -0.13663811256420449 0 0.12324902196630889 -0.15465793599018671 0 0.1290045142054978 -0.1612372837293575 0 0.12831016946945831 -0.1492440347933528 0 0.1217036921304827 -0.1482443959076799 0 0.12831016946945831 -0.1492440347933528 0 0.12532898621889721 -0.13663811256420449 0 0.13391177650968769 -0.15242347890466901 0 0.13188977167139071 -0.12546883223523481 0 0.13391177650968769 -0.15242347890466901 0 0.13188977167139071 -0.12546883223523481 0 0.1446303542042412 -0.1380662602394005 0 0.13391177650968769 -0.15242347890466901 0 0.13188977167139071 -0.12546883223523481 0 0.12532898621889721 -0.13663811256420449 0 0.11997683785091839 -0.1276371159963853 0 0.13188977167139071 -0.12546883223523481 0 0.12532898621889721 -0.13663811256420449 0 0.1446303542042412 -0.1380662602394005 0 0.15557261582888751 -0.13003178131142151 0 0.1621281360659286 -0.14191921566573409 0 0.14724036225017881 -0.1245170930860646 0 0.13188977167139071 -0.12546883223523481 0 0.1446303542042412 -0.1380662602394005 0 0.14724036225017881 -0.1245170930860646 0 0.1446303542042412 -0.1380662602394005 0 0.15557261582888751 -0.13003178131142151 0 0.13391177650968769 -0.15242347890466901 0 0.1446303542042412 -0.1380662602394005 0 0.14971917460686079 -0.1530450482394467 0 0.1446303542042412 -0.1380662602394005 0 0.14971917460686079 -0.1530450482394467 0 0.1621281360659286 -0.14191921566573409 0 0.1621281360659286 -0.14191921566573409 0 0.17324983187337631 -0.13165498831909611 0 0.17651024624945799 -0.1485415537171802 0 0.14971917460686079 -0.1530450482394467 0 0.1621281360659286 -0.14191921566573409 0 0.16192904395431579 -0.15800089119817939 0 0.1621281360659286 -0.14191921566573409 0 0.17651024624945799 -0.1485415537171802 0 0.16192904395431579 -0.15800089119817939 0 0.16471491079178111 -0.1205264202314431 0 0.15557261582888751 -0.13003178131142151 0 0.1639163736399934 -0.1310331013819237 0 0.15557261582888751 -0.13003178131142151 0 0.1621281360659286 -0.14191921566573409 0 0.1639163736399934 -0.1310331013819237 0 0.1621281360659286 -0.14191921566573409 0 0.1639163736399934 -0.1310331013819237 0 0.17324983187337631 -0.13165498831909611 0 0.16471491079178111 -0.1205264202314431 0 0.1639163736399934 -0.1310331013819237 0 0.17324983187337631 -0.13165498831909611 0 0.1862357176231304 -0.1238823921021804 0 0.1919305776748628 -0.1461990482496055 0 0.17324983187337631 -0.13165498831909611 0 0.1919305776748628 -0.1461990482496055 0 0.17324983187337631 -0.13165498831909611 0 0.17651024624945799 -0.1485415537171802 0 0.1919305776748628 -0.1461990482496055 0 0.19225769977326759 -0.16432491474026781 0 0.17651024624945799 -0.1485415537171802 0 0.19225769977326759 -0.16432491474026781 0 0.17526083145963689 -0.16308053239281189 0 0.17982600751226671 -0.1762593337595659 0 0.19225769977326759 -0.16432491474026781 0 0.17651024624945799 -0.1485415537171802 0 0.17526083145963689 -0.16308053239281189 0 0.17526083145963689 -0.16308053239281189 0 0.17982600751226671 -0.1762593337595659 0 0.16627328335530381 -0.17069773137902189 0 0.1840061663436266 -0.1900566622106199 0 0.16486725365112659 -0.18785963188663279 0 0.17982600751226671 -0.1762593337595659 0 0.19629081049063871 -0.1815365299480412 0 0.1840061663436266 -0.1900566622106199 0 0.17982600751226671 -0.1762593337595659 0 0.16486725365112659 -0.18785963188663279 0 0.14658871156029241 -0.16855183333999291 0 0.16627328335530381 -0.17069773137902189 0 0.16486725365112659 -0.18785963188663279 0 0.17982600751226671 -0.1762593337595659 0 0.16627328335530381 -0.17069773137902189 0 0.14658871156029241 -0.16855183333999291 0 0.16192904395431579 -0.15800089119817939 0 0.16627328335530381 -0.17069773137902189 0 0.17526083145963689 -0.16308053239281189 0 0.16192904395431579 -0.15800089119817939 0 0.16627328335530381 -0.17069773137902189 0 0.17651024624945799 -0.1485415537171802 0 0.17526083145963689 -0.16308053239281189 0 0.16192904395431579 -0.15800089119817939 0 
</DataArray>
</Points>
<Cells>
<DataArray type="UInt32" Name="connectivity" format="ascii">
0 1 2 3 4 5 6 7 8 9 10 11 12 13 14 15 16 17 18 19 20 21 22 23 24 25 26 27 28 29 30 31 32 33 34 35 36 37 38 39 40 41 42 43 44 45 46 47 48 49 50 51 52 53 54 55 56 57 58 59 60 61 62 63 64 65 66 67 68 69 70 71 72 73 74 75 76 77 78 79 80 81 82 83 84 85 86 87 88 89 90 91 92 93 94 95 96 97 98 99 100 101 102 103 104 105 106 107 108 109 110 111 112 113 114 115 116 117 118 119 120 121 122 123 124 125 126 127 128 129 130 131 132 133 134 135 136 137 138 139 140 141 142 143 144 145 146 147 148 149 150 151 152 153 154 155 156 157 158 159 160 161 162 163 164 165 166 167 168 169 170 171 172 173 174 175 176 177 178 179 180 181 182 183 184 185 186 187 188 189 190 191 192 193 194 195 196 197 198 199 200 201 202 203 204 205 206 207 208 209 210 211 212 213 214 215 216 217 218 219 220 221 222 223 224 225 226 227 228 229 230 231 232 233 234 235 236 237 238 239 240 241 242 243 244 245 246 247 248 249 250 251 252 253 254 255 256 257 258 259 260 261 262 263 264 265 266 267 268 269 270 271 272 273 274 275 276 277 278 279 280 281 282 283 284 285 286 287 288 289 290 291 292 293 294 295 296 297 298 299 300 301 302 303 304 305 306 307 308 309 310 311 312 313 314 315 316 317 318 319 320 321 322 323 324 325 326 327 328 329 330 331 332 333 334 335 336 337 338 339 340 341 342 343 344 345 346 347 348 349 350 351 352 353 354 355 356 357 358 359 360 361 362 363 364 365 366 367 368 369 370 371 372 373 374 375 376 377 378 379 380 381 382 383 384 385 386 387 388 389 390 391 392 393 394 395 396 397 398 399 400 401 402 403 404 405 406 407 408 409 410 411 412 413 414 415 416 417 418 419 420 421 422 423 424 425 426 427 428 429 430 431 432 433 434 435 436 437 438 439 440 441 442 443 444 445 446 447 448 449 450 451 452 453 454 455 456 457 458 459 460 461 462 463 464 465 466 467 468 469 470 471 472 473 474 475 476 477 478 479 480 481 482 483 484 485 486 487 488 489 490 491 492 493 494 495 496 497 498 499 500 501 502 503 504 505 506 507 508 509 510 511 512 513 514 515 516 517 518 519 520 521 522 523 524 525 526 527 528 529 530 531 532 533 534 535 536 537 538 539 540 541 542 543 544 545 546 547 548 549 550 551 552 553 554 555 556 557 558 559 560 561 562 563 564 565 566 567 568 569 570 571 572 573 574 575 576 577 578 579 580 581 582 583 584 585 586 587 588 589 590 591 592 593 594 595 596 597 598 599 600 601 602 603 604 605 606 607 608 609 610 611 612 613 614 615 616 617 618 619 620 621 622 623 624 625 626 627 628 629 630 631 632 633 634 635 636 637 638 639 640 641 642 643 644 645 646 647 648 649 650 651 652 653 654 655 656 657 658 659 660 661 662 663 664 665 666 667 668 669 670 671 672 673 674 675 676 677 678 679 680 681 682 683 684 685 686 687 688 689 690 691 692 693 694 695 696 697 698 699 700 701 702 703 704 705 706 707 708 709 710 711 712 713 714 715 716 717 718 719 720 721 722 723 724 725 726 727 728 729 730 731 732 733 734 735 736 737 738 739 740 741 742 743 744 745 746 747 748 749 750 751 752 753 754 755 756 757 758 759 760 761 762 763 764 765 766 767 768 769 770 771 772 773 774 775 776 777 778 779 780 781 782 783 784 785 786 787 788 789 790 791 792 793 794 795 796 797 798 799 800 801 802 803 804 805 806 807 808 809 810 811 812 813 814 815 816 817 818 819 820 821 822 823 824 825 826 827 828 829 830 831 832 833 834 835 836 837 838 839 840 841 842 843 844 845 846 847 848 849 850 851 852 853 854 855 856 857 858 859 860 861 862 863 864 865 866 867 868 869 870 871 872 873 874 875 876 877 878 879 880 881 882 883 884 885 886 887 888 889 890 891 892 893 894 895 896 897 898 899 900 901 902 903 904 905 906 907 908 909 910 911 912 913 914 915 916 917 918 919 920 921 922 923 924 925 926 927 928 929 930 931 932 933 934 935 936 937 938 939 940 941 942 943 944 945 946 947 948 949 950 951 952 953 954 955 956 957 958 959 960 961 962 963 964 965 966 967 968 969 970 971 972 973 974 975 976 977 978 979 980 981 982 983 984 985 986 987 988 989 990 991 992 993 994 995 996 997 998 999 1000 1001 1002 1003 1004 1005 1006 1007 1008 1009 1010 1011 1012 1013 1014 1015 1016 1017 1018 1019 1020 1021 1022 1023 1024 1025 1026 1027 1028 1029 1030 1031 1032 1033 1034 1035 1036 1037 1038 1039 1040 1041 1042 1043 1044 1045 1046 1047 1048 1049 1050 1051 1052 1053 1054 1055 1056 1057 1058 1059 1060 1061 1062 1063 1064 1065 1066 1067 1068 1069 1070 1071 1072 1073 1074 1075 1076 1077 1078 1079 1080 1081 1082 1083 1084 1085 1086 1087 1088 1089 1090 1091 1092 1093 1094 1095 1096 1097 1098 1099 1100 1101 1102 1103 1104 1105 1106 1107 1108 1109 1110 1111 1112 1113 1114 1115 1116 1117 1118 1119 1120 1121 1122 1123 1124 1125 1126 1127 1128 1129 1130 1131 1132 1133 1134 1135 1136 1137 1138 1139 1140 1141 1142 1143 1144 1145 1146 1147 1148 1149 1150 1151 1152 1153 1154 1155 1156 1157 1158 1159 1160 1161 1162 1163 1164 1165 1166 1167 1168 1169 1170 1171 1172 1173 1174 1175 1176 1177 1178 1179 1180 1181 1182 1183 1184 1185 1186 1187 1188 1189 1190 1191 1192 1193 1194 1195 1196 1197 1198 1199 1200 1201 1202 1203 1204 1205 1206 1207 1208 1209 1210 1211 1212 1213 1214 1215 1216 1217 1218 1219 1220 1221 1222 1223 1224 1225 1226 1227 1228 1229 1230 1231 1232 1233 1234 1235 1236 1237 1238 1239 1240 1241 1242 1243 1244 1245 1246 1247 1248 1249 1250 1251 1252 1253 1254 1255 1256 1257 1258 1259 1260 1261 1262 1263 1264 1265 1266 1267 1268 1269 1270 1271 1272 1273 1274 1275 1276 1277 1278 1279 1280 1281 1282 1283 1284 1285 1286 1287 1288 1289 1290 1291 1292 1293 1294 1295 1296 1297 1298 1299 1300 1301 1302 1303 1304 1305 1306 1307 1308 1309 1310 1311 1312 1313 1314 1315 1316 1317 1318 1319 1320 1321 1322 1323 1324 1325 1326 1327 1328 1329 1330 1331 1332 1333 1334 1335 1336 1337 1338 1339 1340 1341 1342 1343 1344 1345 1346 1347 1348 1349 1350 1351 1352 1353 1354 1355 1356 1357 1358 1359 1360 1361 1362 1363 1364 1365 1366 1367 1368 1369 1370 1371 1372 1373 1374 1375 1376 1377 1378 1379 1380 1381 1382 1383 1384 1385 1386 1387 1388 1389 1390 1391 1392 1393 1394 1395 1396 1397 1398 1399 1400 1401 1402 1403 1404 1405 1406 1407 1408 1409 1410 1411 1412 1413 1414 1415 1416 1417 1418 1419 1420 1421 1422 1423 1424 1425 1426 1427 1428 1429 1430 1431 1432 1433 1434 1435 1436 1437 1438 1439 1440 1441 1442 1443 1444 1445 1446 1447 1448 1449 1450 1451 1452 1453 1454 1455 1456 1457 1458 1459 1460 1461 1462 1463 1464 1465 1466 1467 1468 1469 1470 1471 1472 1473 1474 1475 1476 1477 1478 1479 1480 1481 1482 1483 1484 1485 1486 1487 1488 1489 1490 1491 1492 1493 1494 1495 1496 1497 1498 1499 1500 1501 1502 1503 1504 1505 1506 1507 1508 1509 1510 1511 1512 1513 1514 1515 1516 1517 1518 1519 1520 1521 1522 1523 1524 1525 1526 1527 1528 1529 1530 1531 1532 1533 1534 1535 1536 1537 1538 1539 1540 1541 1542 1543 1544 1545 1546 1547 1548 1549 1550 1551 1552 1553 1554 1555 1556 1557 1558 1559 1560 1561 1562 1563 1564 1565 1566 1567 1568 1569 1570 1571 1572 1573 1574 1575 1576 1577 1578 1579 1580 1581 1582 1583 1584 1585 1586 1587 1588 1589 1590 1591 1592 1593 1594 1595 1596 1597 1598 1599 1600 1601 1602 1603 1604 1605 1606 1607 1608 1609 1610 1611 1612 1613 1614 1615 1616 1617 1618 1619 1620 1621 1622 1623 1624 1625 1626 1627 1628 1629 1630 1631 1632 1633 1634 1635 1636 1637 1638 1639 1640 1641 1642 1643 1644 1645 1646 1647 1648 1649 1650 1651 1652 1653 1654 1655 1656 1657 1658 1659 1660 1661 1662 1663 1664 1665 1666 1667 1668 1669 1670 1671 1672 1673 1674 1675 1676 1677 1678 1679 1680 1681 1682 1683 1684 1685 1686 1687 1688 1689 1690 1691 1692 1693 1694 1695 1696 1697 1698 1699 1700 1701 1702 1703 1704 1705 1706 1707 1708 1709 1710 1711 1712 1713 1714 1715 1716 1717 1718 1719 1720 1721 1722 1723 1724 1725 1726 1727 1728 1729 1730 1731 1732 1733 1734 1735 1736 1737 1738 1739 1740 1741 1742 1743 1744 1745 1746 1747 1748 1749 1750 1751 1752 1753 1754 1755 1756 1757 1758 1759 1760 1761 1762 1763 1764 1765 1766 1767 1768 1769 1770 1771 1772 1773 1774 1775 1776 1777 1778 1779 1780 1781 1782 1783 1784 1785 1786 1787 1788 1789 1790 1791 1792 1793 1794 1795 1796 1797 1798 1799 1800 1801 1802 1803 1804 1805 1806 1807 1808 1809 1810 1811 1812 1813 1814 1815 1816 1817 1818 1819 1820 1821 1822 1823 1824 1825 1826 1827 1828 1829 1830 1831 1832 1833 1834 1835 1836 1837 1838 1839 1840 1841 1842 1843 1844 1845 1846 1847 1848 1849 1850 1851 1852 1853 1854 1855 1856 1857 1858 1859 1860 1861 1862 1863 1864 1865 1866 1867 1868 1869 1870 1871 1872 1873 1874 1875 1876 1877 1878 1879 1880 1881 1882 1883 1884 1885 1886 1887 1888 1889 1890 1891 1892 1893 1894 1895 1896 1897 1898 1899 1900 1901 1902 1903 1904 1905 1906 1907 1908 1909 1910 1911 1912 1913 1914 1915 1916 1917 1918 1919 1920 1921 1922 1923 1924 1925 1926 1927 1928 1929 1930 1931 1932 1933 1934 1935 1936 1937 1938 1939 1940 1941 1942 1943 1944 1945 1946 1947 1948 1949 1950 1951 1952 1953 1954 1955 1956 1957 1958 1959 1960 1961 1962 1963 1964 1965 1966 1967 1968 1969 1970 1971 1972 1973 1974 1975 1976 1977 1978 1979 1980 1981 1982 1983 1984 1985 1986 1987 1988 1989 1990 1991 1992 1993 1994 1995 1996 1997 1998 1999 2000 2001 2002 2003 2004 2005 2006 2007 2008 2009 2010 2011 2012 2013 2014 2015 2016 2017 2018 2019 2020 2021 2022 2023 2024 2025 2026 2027 2028 2029 2030 2031 2032 2033 2034 2035 2036 2037 2038 2039 2040 2041 2042 2043 2044 2045 2046 2047 2048 2049 2050 2051 2052 2053 2054 2055 2056 2057 2058 2059 2060 2061 2062 2063 2064 2065 2066 2067 2068 2069 2070 2071 2072 2073 2074 2075 2076 2077 2078 2079 2080 2081 2082 2083 2084 2085 2086 2087 2088 2089 2090 2091 2092 2093 2094 2095 2096 2097 2098 2099 2100 2101 2102 2103 2104 2105 2106 2107 2108 2109 2110 2111 2112 2113 2114 2115 2116 2117 2118 2119 2120 2121 2122 2123 2124 2125 2126 2127 2128 2129 2130 2131 2132 2133 2134 2135 2136 2137 2138 2139 2140 2141 2142 2143 2144 2145 2146 2147 2148 2149 2150 2151 2152 2153 2154 2155 2156 2157 2158 2159 2160 2161 2162 2163 2164 2165 2166 2167 2168 2169 2170 2171 2172 2173 2174 2175 2176 2177 2178 2179 2180 2181 2182 2183 2184 2185 2186 2187 2188 2189 2190 2191 2192 2193 2194 2195 2196 2197 2198 2199 2200 2201 2202 2203 2204 2205 2206 2207 2208 2209 2210 2211 2212 2213 2214 2215 2216 2217 2218 2219 2220 2221 2222 2223 2224 2225 2226 2227 2228 2229 2230 2231 2232 2233 2234 2235 2236 2237 2238 2239 2240 2241 2242 2243 2244 2245 2246 2247 2248 2249 2250 2251 2252 2253 2254 2255 2256 2257 2258 2259 2260 2261 2262 2263 2264 2265 2266 2267 2268 2269 2270 2271 2272 2273 2274 2275 2276 2277 2278 2279 2280 2281 2282 2283 2284 2285 2286 2287 2288 2289 2290 2291 2292 2293 2294 2295 2296 2297 2298 2299 2300 2301 2302 2303 2304 2305 2306 2307 2308 2309 2310 2311 2312 2313 2314 2315 2316 2317 2318 2319 2320 2321 2322 2323 2324 2325 2326 2327 2328 2329 2330 2331 2332 2333 2334 2335 2336 2337 2338 2339 2340 2341 2342 2343 2344 2345 2346 2347 2348 2349 2350 2351 2352 2353 2354 2355 2356 2357 2358 2359 2360 2361 2362 2363 2364 2365 2366 2367 2368 2369 2370 2371 2372 2373 2374 2375 2376 2377 2378 2379 2380 2381 2382 2383 2384 2385 2386 2387 2388 2389 2390 2391 2392 2393 2394 2395 2396 2397 2398 2399 2400 2401 2402 2403 2404 2405 2406 2407 2408 2409 2410 2411 2412 2413 2414 2415 2416 2417 2418 2419 2420 2421 2422 2423 2424 2425 2426 2427 2428 2429 2430 2431 2432 2433 2434 2435 2436 2437 2438 2439 2440 2441 2442 2443 2444 2445 2446 2447 2448 2449 2450 2451 2452 2453 2454 2455 2456 2457 2458 2459 2460 2461 2462 2463 2464 2465 2466 2467 2468 2469 2470 2471 2472 2473 2474 2475 2476 2477 2478 2479 2480 2481 2482 2483 2484 2485 2486 2487 2488 2489 2490 2491 2492 2493 2494 2495 2496 2497 2498 2499 2500 2501 2502 2503 2504 2505 2506 2507 2508 2509 2510 2511 2512 2513 2514 2515 2516 2517 2518 2519 2520 2521 2522 2523 2524 2525 2526 2527 2528 2529 2530 2531 2532 2533 2534 2535 2536 2537 2538 2539 2540 2541 2542 2543 2544 2545 2546 2547 2548 2549 2550 2551 2552 2553 2554 2555 2556 2557 2558 2559 2560 2561 2562 2563 2564 2565 2566 2567 2568 2569 2570 2571 2572 2573 2574 2575 2576 2577 2578 2579 2580 2581 2582 2583 2584 2585 2586 2587 2588 2589 2590 2591 2592 2593 2594 2595 2596 2597 2598 2599 2600 2601 2602 2603 2604 2605 2606 2607 2608 2609 2610 2611 2612 2613 2614 2615 2616 2617 2618 2619 2620 2621 2622 2623 2624 2625 2626 2627 2628 2629 2630 2631 2632 2633 2634 2635 2636 2637 2638 2639 2640 2641 2642 2643 2644 2645 2646 2647 2648 2649 2650 2651 2652 2653 2654 2655 2656 2657 2658 2659 2660 2661 2662 2663 2664 2665 2666 2667 2668 2669 2670 2671 2672 2673 2674 2675 2676 2677 2678 2679 2680 2681 2682 2683 2684 2685 2686 2687 2688 2689 2690 2691 2692 2693 2694 2695 2696 2697 2698 2699 2700 2701 2702 2703 2704 2705 2706 2707 2708 2709 2710 2711 2712 2713 2714 2715 2716 2717 2718 2719 2720 2721 2722 2723 2724 2725 2726 2727 2728 2729 2730 2731 2732 2733 2734 2735 2736 2737 2738 2739 2740 2741 2742 2743 2744 2745 2746 2747 2748 2749 2750 2751 2752 2753 2754 2755 2756 2757 2758 2759 2760 2761 2762 2763 2764 2765 2766 2767 2768 2769 2770 2771 2772 2773 2774 2775 2776 2777 2778 2779 2780 2781 2782 2783 2784 2785 2786 2787 2788 2789 2790 2791 2792 2793 2794 2795 2796 2797 2798 2799 2800 2801 2802 2803 2804 2805 2806 2807 2808 2809 2810 2811 2812 2813 2814 2815 2816 2817 2818 2819 2820 2821 2822 2823 2824 2825 2826 2827 2828 2829 2830 2831 2832 2833 2834 2835 2836 2837 2838 2839 2840 2841 2842 2843 2844 2845 2846 2847 2848 2849 2850 2851 2852 2853 2854 2855 2856 2857 2858 2859 2860 2861 2862 2863 2864 2865 2866 2867 2868 2869 2870 2871 2872 2873 2874 2875 2876 2877 2878 2879 2880 2881 2882 2883 2884 2885 2886 2887 2888 2889 2890 2891 2892 2893 2894 2895 2896 2897 2898 2899 2900 2901 2902 2903 2904 2905 2906 2907 2908 2909 2910 2911 2912 2913 2914 2915 2916 2917 2918 2919 2920 2921 2922 2923 2924 2925 2926 2927 2928 2929 2930 2931 2932 2933 2934 2935 2936 2937 2938 2939 2940 2941 2942 2943 2944 2945 2946 2947 2948 2949 2950 2951 2952 2953 2954 2955 2956 2957 2958 2959 2960 2961 2962 2963 2964 2965 2966 2967 2968 2969 2970 2971 2972 2973 2974 2975 2976 2977 2978 2979 2980 2981 2982 2983 2984 2985 2986 2987 2988 2989 2990 2991 2992 2993 2994 2995 2996 2997 2998 2999 3000 3001 3002 3003 3004 3005 3006 3007 3008 3009 3010 3011 3012 3013 3014 3015 3016 3017 3018 3019 3020 3021 3022 3023 3024 3025 3026 3027 3028 3029 3030 3031 3032 3033 3034 3035 3036 3037 3038 3039 3040 3041 3042 3043 3044 3045 3046 3047 3048 3049 3050 3051 3052 3053 3054 3055 3056 3057 3058 3059 3060 3061 3062 3063 3064 3065 3066 3067 3068 3069 3070 3071 3072 3073 3074 3075 3076 3077 3078 3079 3080 3081 3082 3083 3084 3085 3086 3087 3088 3089 3090 3091 3092 3093 3094 3095 3096 3097 3098 3099 3100 3101 3102 3103 3104 3105 3106 3107 3108 3109 3110 3111 3112 3113 3114 3115 3116 3117 3118 3119 3120 3121 3122 3123 3124 3125 3126 3127 3128 3129 3130 3131 3132 3133 3134 3135 3136 3137 3138 3139 3140 3141 3142 3143 3144 3145 3146 3147 3148 3149 3150 3151 3152 3153 3154 3155 3156 3157 3158 3159 3160 3161 3162 3163 3164 3165 3166 3167 3168 3169 3170 3171 3172 3173 3174 3175 3176 3177 3178 3179 3180 3181 3182 3183 3184 3185 3186 3187 3188 3189 3190 3191 3192 3193 3194 3195 3196 3197 3198 3199 3200 3201 3202 3203 3204 3205 3206 3207 3208 3209 3210 3211 3212 3213 3214 3215 3216 3217 3218 3219 3220 3221 3222 3223 3224 3225 3226 3227 3228 3229 3230 3231 3232 3233 3234 3235 3236 3237 3238 3239 3240 3241 3242 3243 3244 3245 3246 3247 3248 3249 3250 3251 3252 3253 3254 3255 3256 3257 3258 3259 3260 3261 3262 3263 3264 3265 3266 3267 3268 3269 3270 3271 3272 3273 3274 3275 3276 3277 3278 3279 3280 3281 3282 3283 3284 3285 3286 3287 3288 3289 3290 3291 3292 3293 3294 3295 3296 3297 3298 3299 3300 3301 3302 3303 3304 3305 3306 3307 3308 3309 3310 3311 3312 3313 3314 3315 3316 3317 3318 3319 3320 3321 3322 3323 3324 3325 3326 3327 3328 3329 3330 3331 3332 3333 3334 3335 3336 3337 3338 3339 3340 3341 3342 3343 3344 3345 3346 3347 3348 3349 3350 3351 3352 3353 3354 3355 3356 3357 3358 3359 3360 3361 3362 3363 3364 3365 3366 3367 3368 3369 3370 3371 3372 3373 3374 3375 3376 3377 3378 3379 3380 3381 3382 3383 3384 3385 3386 3387 3388 3389 3390 3391 3392 3393 3394 3395 3396 3397 3398 3399 3400 3401 3402 3403 3404 3405 3406 3407 3408 3409 3410 3411 3412 3413 3414 3415 3416 3417 3418 3419 3420 3421 3422 3423 3424 3425 3426 3427 3428 3429 3430 3431 3432 3433 3434 3435 3436 3437 3438 3439 3440 3441 3442 3443 3444 3445 3446 3447 3448 3449 3450 3451 3452 3453 3454 3455 3456 3457 3458 3459 3460 3461 3462 3463 3464 3465 3466 3467 3468 3469 3470 3471 3472 3473 3474 3475 3476 3477 3478 3479 3480 3481 3482 3483 3484 3485 3486 3487 3488 3489 3490 3491 3492 3493 3494 3495 3496 3497 3498 3499 3500 3501 3502 3503 3504 3505 3506 3507 3508 3509 3510 3511 3512 3513 3514 3515 3516 3517 3518 3519 3520 3521 3522 3523 3524 3525 3526 3527 3528 3529 3530 3531 3532 3533 3534 3535 3536 3537 3538 3539 3540 3541 3542 3543 3544 3545 3546 3547 3548 3549 3550 3551 3552 3553 3554 3555 3556 3557 3558 3559 3560 3561 3562 3563 3564 3565 3566 3567 3568 3569 3570 3571 3572 3573 3574 3575 3576 3577 3578 3579 3580 3581 3582 3583 3584 3585 3586 3587 3588 3589 3590 3591 3592 3593 3594 3595 3596 3597 3598 3599 3600 3601 3602 3603 3604 3605 3606 3607 3608 3609 3610 3611 3612 3613 3614 3615 3616 3617 3618 3619 3620 3621 3622 3623 3624 3625 3626 3627 3628 3629 3630 3631 3632 3633 3634 3635 3636 3637 3638 3639 3640 3641 3642 3643 3644 3645 3646 3647 3648 3649 3650 3651 3652 3653 3654 3655 3656 3657 3658 3659 3660 3661 3662 3663 3664 3665 3666 3667 3668 3669 3670 3671 3672 3673 3674 3675 3676 3677 3678 3679 3680 3681 3682 3683 3684 3685 3686 3687 3688 3689 3690 3691 3692 3693 3694 3695 3696 3697 3698 3699 3700 3701 3702 3703 3704 3705 3706 3707 3708 3709 3710 3711 3712 3713 3714 3715 3716 3717 3718 3719 3720 3721 3722 3723 3724 3725 3726 3727 3728 3729 3730 3731 3732 3733 3734 3735 3736 3737 3738 3739 3740 3741 3742 3743 3744 3745 3746 3747 3748 3749 3750 3751 3752 3753 3754 3755 3756 3757 3758 3759 3760 3761 3762 3763 3764 3765 3766 3767 3768 3769 3770 3771 3772 3773 3774 3775 3776 3777 3778 3779 3780 3781 3782 3783 3784 3785 3786 3787 3788 3789 3790 3791 3792 3793 3794 3795 3796 3797 3798 3799 3800 3801 3802 3803 3804 3805 3806 3807 3808 3809 3810 3811 3812 3813 3814 3815 3816 3817 3818 3819 3820 3821 3822 3823 3824 3825 3826 3827 3828 3829 3830 3831 3832 3833 3834 3835 3836 3837 3838 3839 3840 3841 3842 3843 3844 3845 3846 3847 3848 3849 3850 3851 3852 3853 3854 3855 3856 3857 3858 3859 3860 3861 3862 3863 3864 3865 3866 3867 3868 3869 3870 3871 3872 3873 3874 3875 3876 3877 3878 3879 3880 3881 3882 3883 3884 3885 3886 3887 3888 3889 3890 3891 3892 3893 3894 3895 3896 3897 3898 3899 3900 3901 3902 3903 3904 3905 3906 3907 3908 3909 3910 3911 3912 3913 3914 3915 3916 3917 3918 3919 3920 3921 3922 3923 3924 3925 3926 3927 3928 3929 3930 3931 3932 3933 3934 3935 3936 3937 3938 3939 3940 3941 3942 3943 3944 3945 3946 3947 3948 3949 3950 3951 3952 3953 3954 3955 3956 3957 3958 3959 3960 3961 3962 3963 3964 3965 3966 3967 3968 3969 3970 3971 3972 3973 3974 3975 3976 3977 3978 3979 3980 3981 3982 3983 3984 3985 3986 3987 3988 3989 3990 3991 3992 3993 3994 3995 3996 3997 3998 3999 4000 4001 4002 4003 4004 4005 4006 4007 4008 4009 4010 4011 4012 4013 4014 4015 4016 4017 4018 4019 4020 4021 4022 4023 4024 4025 4026 4027 4028 4029 4030 4031 4032 4033 4034 4035 4036 4037 4038 4039 4040 4041 4042 4043 4044 4045 4046 4047 4048 4049 4050 4051 4052 4053 4054 4055 4056 4057 4058 4059 4060 4061 4062 4063 4064 4065 4066 4067 4068 4069 4070 4071 4072 4073 4074 4075 4076 4077 4078 4079 4080 4081 4082 4083 4084 4085 4086 4087 4088 4089 4090 4091 4092 4093 4094 4095 4096 4097 4098 4099 4100 4101 4102 4103 4104 4105 4106 4107 4108 4109 4110 4111 4112 4113 4114 4115 4116 4117 4118 4119 4120 4121 4122 4123 4124 4125 4126 4127 4128 4129 4130 4131 4132 4133 4134 4135 4136 4137 4138 4139 4140 4141 4142 4143 4144 4145 4146 4147 4148 4149 4150 4151 4152 4153 4154 4155 4156 4157 4158 4159 4160 4161 4162 4163 4164 4165 4166 4167 4168 4169 4170 4171 4172 4173 4174 4175 4176 4177 4178 4179 4180 4181 4182 4183 4184 4185 4186 4187 4188 4189 4190 4191 4192 4193 4194 4195 4196 4197 4198 4199 4200 4201 4202 4203 4204 4205 4206 4207 4208 4209 4210 4211 4212 4213 4214 4215 4216 4217 4218 4219 4220 4221 4222 4223 4224 4225 4226 4227 4228 4229 4230 4231 4232 4233 4234 4235 4236 4237 4238 4239 4240 4241 4242 4243 4244 4245 4246 4247 4248 4249 4250 4251 4252 4253 4254 4255 4256 4257 4258 4259 4260 4261 4262 4263 4264 4265 4266 4267 4268 4269 4270 4271 4272 4273 4274 4275 4276 4277 4278 4279 4280 4281 4282 4283 4284 4285 4286 4287 4288 4289 4290 4291 4292 4293 4294 4295 4296 4297 4298 4299 4300 4301 4302 4303 4304 4305 4306 4307 4308 4309 4310 4311 4312 4313 4314 4315 4316 4317 4318 4319 4320 4321 4322 4323 4324 4325 4326 4327 4328 4329 4330 4331 4332 4333 4334 4335 4336 4337 4338 4339 4340 4341 4342 4343 4344 4345 4346 4347 4348 4349 4350 4351 4352 4353 4354 4355 4356 4357 4358 4359 4360 4361 4362 4363 4364 4365 4366 4367 4368 4369 4370 4371 4372 4373 4374 4375 4376 4377 4378 4379 4380 4381 4382 4383 4384 4385 4386 4387 4388 4389 4390 4391 4392 4393 4394 4395 4396 4397 4398 4399 4400 4401 4402 4403 4404 4405 4406 4407 4408 4409 4410 4411 4412 4413 4414 4415 4416 4417 4418 4419 4420 4421 4422 4423 4424 4425 4426 4427 4428 4429 4430 4431 4432 4433 4434 4435 4436 4437 4438 4439 4440 4441 4442 4443 4444 4445 4446 4447 4448 4449 4450 4451 4452 4453 4454 4455 4456 4457 4458 4459 4460 4461 4462 4463 4464 4465 4466 4467 4468 4469 4470 4471 4472 4473 4474 4475 4476 4477 4478 4479 4480 4481 4482 4483 4484 4485 4486 4487 4488 4489 4490 4491 4492 4493 4494 4495 4496 4497 4498 4499 4500 4501 4502 4503 4504 4505 4506 4507 4508 4509 4510 4511 4512 4513 4514 4515 4516 4517 4518 4519 4520 4521 4522 4523 4524 4525 4526 4527 4528 4529 4530 4531 4532 4533 4534 4535 4536 4537 4538 4539 4540 4541 4542 4543 4544 4545 4546 4547 4548 4549 4550 4551 4552 4553 4554 4555 4556 4557 4558 4559 4560 4561 4562 4563 4564 4565 4566 4567 4568 4569 4570 4571 4572 4573 4574 4575 4576 4577 4578 4579 4580 4581 4582 4583 4584 4585 4586 4587 4588 4589 4590 4591 4592 4593 4594 4595 4596 4597 4598 4599 4600 4601 4602 4603 4604 4605 4606 4607 4608 4609 4610 4611 4612 4613 4614 4615 4616 4617 4618 4619 4620 4621 4622 4623 4624 4625 4626 4627 4628 4629 4630 4631 4632 4633 4634 4635 4636 4637 4638 4639 4640 4641 4642 4643 4644 4645 4646 4647 4648 4649 4650 4651 4652 4653 4654 4655 4656 4657 4658 4659 4660 4661 4662 4663 4664 4665 4666 4667 4668 4669 4670 4671 4672 4673 4674 4675 4676 4677 4678 4679 4680 4681 4682 4683 4684 4685 4686 4687 4688 4689 4690 4691 4692 4693 4694 4695 4696 4697 4698 4699 4700 4701 4702 4703 4704 4705 4706 4707 4708 4709 4710 4711 4712 4713 4714 4715 4716 4717 4718 4719 4720 4721 4722 4723 4724 4725 4726 4727 4728 4729 4730 4731 4732 4733 4734 4735 4736 4737 4738 4739 4740 4741 4742 4743 4744 4745 4746 4747 4748 4749 4750 4751 4752 4753 4754 4755 4756 4757 4758 4759 4760 4761 4762 4763 4764 4765 4766 4767 4768 4769 4770 4771 4772 4773 4774 4775 4776 4777 4778 4779 4780 4781 4782 4783 4784 4785 4786 4787 4788 4789 4790 4791 4792 4793 4794 4795 4796 4797 4798 4799 4800 4801 4802 4803 4804 4805 4806 4807 4808 4809 4810 4811 4812 4813 4814 4815 4816 4817 4818 4819 4820 4821 4822 4823 4824 4825 4826 4827 4828 4829 4830 4831 4832 4833 4834 4835 4836 4837 4838 4839 4840 4841 4842 4843 4844 4845 4846 4847 4848 4849 4850 4851 4852 4853 4854 4855 4856 4857 4858 4859 4860 4861 4862 4863 4864 4865 4866 4867 4868 4869 4870 4871 4872 4873 4874 4875 4876 4877 4878 4879 4880 4881 4882 4883 4884 4885 4886 4887 4888 4889 4890 4891 4892 4893 4894 4895 4896 4897 4898 4899 4900 4901 4902 4903 4904 4905 4906 4907 4908 4909 4910 4911 4912 4913 4914 4915 4916 4917 4918 4919 4920 4921 4922 4923 4924 4925 4926 4927 4928 4929 4930 4931 4932 4933 4934 4935 4936 4937 4938 4939 4940 4941 4942 4943 4944 4945 4946 4947 4948 4949 4950 4951 4952 4953 4954 4955 4956 4957 4958 4959 4960 4961 4962 4963 4964 4965 4966 4967 4968 4969 4970 4971 4972 4973 4974 4975 4976 4977 4978 4979 4980 4981 4982 4983 4984 4985 4986 4987 4988 4989 4990 4991 4992 4993 4994 4995 4996 4997 4998 4999 5000 5001 5002 5003 5004 5005 5006 5007 5008 5009 5010 5011 5012 5013 5014 5015 5016 5017 5018 5019 5020 5021 5022 5023 5024 5025 5026 5027 5028 5029 5030 5031 5032 5033 5034 5035 5036 5037 5038 5039 5040 5041 5042 5043 5044 5045 5046 5047 5048 5049 5050 5051 5052 5053 5054 5055 5056 5057 5058 5059 5060 5061 5062 5063 5064 5065 5066 5067 5068 5069 5070 5071 5072 5073 5074 5075 5076 5077 5078 5079 5080 5081 5082 5083 5084 5085 5086 5087 5088 5089 5090 5091 5092 5093 5094 5095 5096 5097 5098 5099 5100 5101 5102 5103 5104 5105 5106 5107 5108 5109 5110 5111 5112 5113 5114 5115 5116 5117 5118 5119 5120 5121 5122 5123 5124 5125 5126 5127 5128 5129 5130 5131 5132 5133 5134 5135 5136 5137 5138 5139 5140 5141 5142 5143 5144 5145 5146 5147 5148 5149 5150 5151 5152 5153 5154 5155 5156 5157 5158 5159 5160 5161 5162 5163 5164 5165 5166 5167 5168 5169 5170 5171 5172 5173 5174 5175 5176 5177 5178 5179 5180 5181 5182 5183 5184 5185 5186 5187 5188 5189 5190 5191 5192 5193 5194 5195 5196 5197 5198 5199 5200 5201 5202 5203 5204 5205 5206 5207 5208 5209 5210 5211 5212 5213 5214 5215 5216 5217 5218 5219 5220 5221 5222 5223 5224 5225 5226 5227 5228 5229 5230 5231 5232 5233 5234 5235 5236 5237 5238 5239 5240 5241 5242 5243 5244 5245 5246 5247 5248 5249 5250 5251 5252 5253 5254 5255 5256 5257 5258 5259 5260 5261 5262 5263 5264 5265 5266 5267 5268 5269 5270 5271 5272 5273 5274 5275 5276 5277 5278 5279 5280 5281 5282 5283 5284 5285 5286 5287 5288 5289 5290 5291 5292 5293 5294 5295 5296 5297 5298 5299 5300 5301 5302 5303 5304 5305 5306 5307 5308 5309 5310 5311 5312 5313 5314 5315 5316 5317 5318 5319 5320 5321 5322 5323 5324 5325 5326 5327 5328 5329 5330 5331 5332 5333 5334 5335 5336 5337 5338 5339 5340 5341 5342 5343 5344 5345 5346 5347 5348 5349 5350 5351 5352 5353 5354 5355 5356 5357 5358 5359 5360 5361 5362 5363 5364 5365 5366 5367 5368 5369 5370 5371 5372 5373 5374 5375 5376 5377 5378 5379 5380 5381 5382 5383 5384 5385 5386 5387 5388 5389 5390 5391 5392 5393 5394 5395 5396 5397 5398 5399 5400 5401 5402 5403 5404 5405 5406 5407 5408 5409 5410 5411 5412 5413 5414 5415 5416 5417 5418 5419 5420 5421 5422 5423 5424 5425 5426 5427 5428 5429 5430 5431 5432 5433 5434 5435 5436 5437 5438 5439 5440 5441 5442 5443 5444 5445 5446 5447 5448 5449 5450 5451 5452 5453 5454 5455 5456 5457 5458 5459 5460 5461 5462 5463 5464 5465 5466 5467 5468 5469 5470 5471 5472 5473 5474 5475 5476 5477 5478 5479 5480 5481 5482 5483 5484 5485 5486 5487 5488 5489 5490 5491 5492 5493 5494 5495 5496 5497 5498 5499 5500 5501 5502 5503 5504 5505 5506 5507 5508 5509 5510 5511 5512 5513 5514 5515 5516 5517 5518 5519 5520 5521 5522 5523 5524 5525 5526 5527 5528 5529 5530 5531 5532 5533 5534 5535 5536 5537 5538 5539 5540 5541 5542 5543 5544 5545 5546 5547 5548 5549 5550 5551 5552 5553 5554 5555 5556 5557 5558 5559 5560 5561 5562 5563 5564 5565 5566 5567 5568 5569 5570 5571 5572 5573 5574 5575 5576 5577 5578 5579 5580 5581 5582 5583 5584 5585 5586 5587 5588 5589 5590 5591 5592 5593 5594 5595 5596 5597 5598 5599 5600 5601 5602 5603 5604 5605 5606 5607 5608 5609 5610 5611 5612 5613 5614 5615 5616 5617 5618 5619 5620 5621 5622 5623 5624 5625 5626 5627 5628 5629 5630 5631 5632 5633 5634 5635 5636 5637 5638 5639 5640 5641 5642 5643 5644 5645 5646 5647 5648 5649 5650 5651 5652 5653 5654 5655 5656 5657 5658 5659 5660 5661 5662 5663 5664 5665 5666 5667 5668 5669 5670 5671 5672 5673 5674 5675 5676 5677 5678 5679 5680 5681 5682 5683 5684 5685 5686 5687 5688 5689 5690 5691 5692 5693 5694 5695 5696 5697 5698 5699 5700 5701 5702 5703 5704 5705 5706 5707 5708 5709 5710 5711 5712 5713 5714 5715 5716 5717 5718 5719 5720 5721 5722 5723 5724 5725 5726 5727 5728 5729 5730 5731 5732 5733 5734 5735 5736 5737 5738 5739 5740 5741 5742 5743 5744 5745 5746 5747 5748 5749 5750 5751 5752 5753 5754 5755 5756 5757 5758 5759 5760 5761 5762 5763 5764 5765 5766 5767 5768 5769 5770 5771 5772 5773 5774 5775 5776 5777 5778 5779 5780 5781 5782 5783 5784 5785 5786 5787 5788 5789 5790 5791 5792 5793 5794 5795 5796 5797 5798 5799 5800 5801 5802 5803 5804 5805 5806 5807 5808 5809 5810 5811 5812 5813 5814 5815 5816 5817 5818 5819 5820 5821 5822 5823 5824 5825 5826 5827 5828 5829 5830 5831 5832 5833 5834 5835 5836 5837 5838 5839 5840 5841 5842 5843 5844 5845 5846 5847 5848 5849 5850 5851 5852 5853 5854 5855 5856 5857 5858 5859 5860 5861 5862 5863 5864 5865 5866 5867 5868 5869 5870 5871 5872 5873 5874 5875 5876 5877 5878 5879 5880 5881 5882 5883 5884 5885 5886 5887 5888 5889 5890 5891 5892 5893 5894 5895 5896 5897 5898 5899 5900 5901 5902 5903 5904 5905 5906 5907 5908 5909 5910 5911 5912 5913 5914 5915 5916 5917 5918 5919 5920 5921 5922 5923 5924 5925 5926 5927 5928 5929 5930 5931 5932 5933 5934 5935 5936 5937 5938 5939 5940 5941 5942 5943 5944 5945 5946 5947 5948 5949 5950 5951 5952 5953 5954 5955 5956 5957 5958 5959 5960 5961 5962 5963 5964 5965 5966 5967 5968 5969 5970 5971 5972 5973 5974 5975 5976 5977 5978 5979 5980 5981 5982 5983 5984 5985 5986 5987 5988 5989 5990 5991 5992 5993 5994 5995 5996 5997 5998 5999 6000 6001 6002 6003 6004 6005 6006 6007 6008 6009 6010 6011 6012 6013 6014 6015 6016 6017 6018 6019 6020 6021 6022 6023 6024 6025 6026 6027 6028 6029 6030 6031 6032 6033 6034 6035 6036 6037 6038 6039 6040 6041 6042 6043 6044 6045 6046 6047 6048 6049 6050 6051 6052 6053 6054 6055 6056 6057 6058 6059 6060 6061 6062 6063 6064 6065 6066 6067 6068 6069 6070 6071 6072 6073 6074 6075 6076 6077 6078 6079 6080 6081 6082 6083 6084 6085 6086 6087 6088 6089 6090 6091 6092 6093 6094 6095 6096 6097 6098 6099 6100 6101 6102 6103 6104 6105 6106 6107 6108 6109 6110 6111 6112 6113 6114 6115 6116 6117 6118 6119 6120 6121 6122 6123 6124 6125 6126 6127 6128 6129 6130 6131 6132 6133 6134 6135 6136 6137 6138 6139 6140 6141 6142 6143 6144 6145 6146 6147 6148 6149 6150 6151 6152 6153 6154 6155 6156 6157 6158 6159 6160 6161 6162 6163 6164 6165 6166 6167 6168 6169 6170 6171 6172 6173 6174 6175 6176 6177 6178 6179 6180 6181 6182 6183 6184 6185 6186 6187 6188 6189 6190 6191 6192 6193 6194 6195 6196 6197 6198 6199 6200 6201 6202 6203 6204 6205 6206 6207 6208 6209 6210 6211 6212 6213 6214 6215 6216 6217 6218 6219 6220 6221 6222 6223 6224 6225 6226 6227 6228 6229 6230 6231 6232 6233 6234 6235 6236 6237 6238 6239 6240 6241 6242 6243 6244 6245 6246 6247 6248 6249 6250 6251 6252 6253 6254 6255 6256 6257 6258 6259 6260 6261 6262 6263 6264 6265 6266 6267 6268 6269 6270 6271 6272 6273 6274 6275 6276 6277 6278 6279 6280 6281 6282 6283 6284 6285 6286 6287 6288 6289 6290 6291 6292 6293 6294 6295 6296 6297 6298 6299 6300 6301 6302 6303 6304 6305 6306 6307 6308 6309 6310 6311 6312 6313 6314 6315 6316 6317 6318 6319 6320 6321 6322 6323 6324 6325 6326 6327 6328 6329 6330 6331 6332 6333 6334 6335 6336 6337 6338 6339 6340 6341 6342 6343 6344 6345 6346 6347 6348 6349 6350 6351 6352 6353 6354 6355 6356 6357 6358 6359 6360 6361 6362 6363 6364 6365 6366 6367 6368 6369 6370 6371 6372 6373 6374 6375 6376 6377 6378 6379 6380 6381 6382 6383 6384 6385 6386 6387 6388 6389 6390 6391 6392 6393 6394 6395 6396 6397 6398 6399 6400 6401 6402 6403 6404 6405 6406 6407 6408 6409 6410 6411 6412 6413 6414 6415 6416 6417 6418 6419 6420 6421 6422 6423 6424 6425 6426 6427 6428 6429 6430 6431 6432 6433 6434 6435 6436 6437 6438 6439 6440 6441 6442 6443 6444 6445 6446 6447 6448 6449 6450 6451 6452 6453 6454 6455 6456 6457 6458 6459 6460 6461 6462 6463 6464 6465 6466 6467 6468 6469 6470 6471 6472 6473 6474 6475 6476 6477 6478 6479 6480 6481 6482 6483 6484 6485 6486 6487 6488 6489 6490 6491 6492 6493 6494 6495 6496 6497 6498 6499 6500 6501 6502 6503 6504 6505 6506 6507 6508 6509 6510 6511 6512 6513 6514 6515 6516 6517 6518 6519 6520 6521 6522 6523 6524 6525 6526 6527 6528 6529 6530 6531 6532 6533 6534 6535 6536 6537 6538 6539 6540 6541 6542 6543 6544 6545 6546 6547 6548 6549 6550 6551 6552 6553 6554 6555 6556 6557 6558 6559 6560 6561 6562 6563 6564 6565 6566 6567 6568 6569 6570 6571 6572 6573 6574 6575 6576 6577 6578 6579 6580 6581 6582 6583 6584 6585 6586 6587 6588 6589 6590 6591 6592 6593 6594 6595 6596 6597 6598 6599 6600 6601 6602 6603 6604 6605 6606 6607 6608 6609 6610 6611 6612 6613 6614 6615 6616 6617 6618 6619 6620 6621 6622 6623 6624 6625 6626 6627 6628 6629 6630 6631 6632 6633 6634 6635 6636 6637 6638 6639 6640 6641 6642 6643 6644 6645 6646 6647 6648 6649 6650 6651 6652 6653 6654 6655 6656 6657 6658 6659 6660 6661 6662 6663 6664 6665 6666 6667 6668 6669 6670 6671 6672 6673 6674 6675 6676 6677 6678 6679 6680 6681 6682 6683 6684 6685 6686 6687 6688 6689 6690 6691 6692 6693 6694 6695 6696 6697 6698 6699 6700 6701 6702 6703 6704 6705 6706 6707 6708 6709 6710 6711 6712 6713 6714 6715 6716 6717 6718 6719 6720 6721 6722 6723 6724 6725 6726 6727 6728 6729 6730 6731 6732 6733 6734 6735 6736 6737 6738 6739 6740 6741 6742 6743 6744 6745 6746 6747 6748 6749 6750 6751 6752 6753 6754 6755 6756 6757 6758 6759 6760 6761 6762 6763 6764 6765 6766 6767 6768 6769 6770 6771 6772 6773 6774 6775 6776 6777 6778 6779 6780 6781 6782 6783 6784 6785 6786 6787 6788 6789 6790 6791 6792 6793 6794 6795 6796 6797 6798 6799 6800 6801 6802 6803 6804 6805 6806 6807 6808 6809 6810 6811 6812 6813 6814 6815 6816 6817 6818 6819 6820 6821 6822 6823 6824 6825 6826 6827 6828 6829 6830 6831 6832 6833 6834 6835 6836 6837 6838 6839 6840 6841 6842 6843 6844 6845 6846 6847 6848 6849 6850 6851 6852 6853 6854 6855 6856 6857 6858 6859 6860 6861 6862 6863 6864 6865 6866 6867 6868 6869 6870 6871 6872 6873 6874 6875 6876 6877 6878 6879 6880 6881 6882 6883 6884 6885 6886 6887 6888 6889 6890 6891 6892 6893 6894 6895 6896 6897 6898 6899 6900 6901 6902 6903 6904 6905 6906 6907 6908 6909 6910 6911 6912 6913 6914 6915 6916 6917 6918 6919 6920 6921 6922 6923 6924 6925 6926 6927 6928 6929 6930 6931 6932 6933 6934 6935 6936 6937 6938 6939 6940 6941 6942 6943 6944 6945 6946 6947 6948 6949 6950 6951 6952 6953 6954 6955 6956 6957 6958 6959 6960 6961 6962 6963 6964 6965 6966 6967 6968 6969 6970 6971 6972 6973 6974 6975 6976 6977 6978 6979 6980 6981 6982 6983 6984 6985 6986 6987 6988 6989 6990 6991 6992 6993 6994 6995 6996 6997 6998 6999 7000 7001 7002 7003 7004 7005 7006 7007 7008 7009 7010 7011 7012 7013 7014 7015 7016 7017 7018 7019 7020 7021 7022 7023 7024 7025 7026 7027 7028 7029 7030 7031 7032 7033 7034 7035 7036 7037 7038 7039 7040 7041 7042 7043 7044 7045 7046 7047 7048 7049 7050 7051 7052 7053 7054 7055 7056 7057 7058 7059 7060 7061 7062 7063 7064 7065 7066 7067 7068 7069 7070 7071 7072 7073 7074 7075 7076 7077 7078 7079 7080 7081 7082 7083 7084 7085 7086 7087 7088 7089 7090 7091 7092 7093 7094 7095 7096 7097 7098 7099 7100 7101 7102 7103 7104 7105 7106 7107 7108 7109 7110 7111 7112 7113 7114 7115 7116 7117 7118 7119 7120 7121 7122 7123 7124 7125 7126 7127 7128 7129 7130 7131 7132 7133 7134 7135 7136 7137 7138 7139 7140 7141 7142 7143 7144 7145 7146 7147 7148 7149 7150 7151 7152 7153 7154 7155 7156 7157 7158 7159 7160 7161 7162 7163 7164 7165 7166 7167 7168 7169 7170 7171 7172 7173 7174 7175 7176 7177 7178 7179 7180 7181 7182 7183 7184 7185 7186 7187 7188 7189 7190 7191 7192 7193 7194 7195 7196 7197 7198 7199 7200 7201 7202 7203 7204 7205 7206 7207 7208 7209 7210 7211 7212 7213 7214 7215 7216 7217 7218 7219 7220 7221 7222 7223 7224 7225 7226 7227 7228 7229 7230 7231 7232 7233 7234 7235 7236 7237 7238 7239 7240 7241 7242 7243 7244 7245 7246 7247 7248 7249 7250 7251 7252 7253 7254 7255 7256 7257 7258 7259 7260 7261 7262 7263 7264 7265 7266 7267 7268 7269 7270 7271 7272 7273 7274 7275 7276 7277 7278 7279 7280 7281 7282 7283 7284 7285 7286 7287 7288 7289 7290 7291 7292 7293 7294 7295 7296 7297 7298 7299 7300 7301 7302 7303 7304 7305 7306 7307 7308 7309 7310 7311 7312 7313 7314 7315 7316 7317 7318 7319 7320 7321 7322 7323 7324 7325 7326 7327 7328 7329 7330 7331 7332 7333 7334 7335 7336 7337 7338 7339 7340 7341 7342 7343 7344 7345 7346 7347 7348 7349 7350 7351 7352 7353 7354 7355 7356 7357 7358 7359 7360 7361 7362 7363 7364 7365 7366 7367 7368 7369 7370 7371 7372 7373 7374 7375 7376 7377 7378 7379 7380 7381 7382 7383 7384 7385 7386 7387 7388 7389 7390 7391 7392 7393 7394 7395 7396 7397 7398 7399 7400 7401 7402 7403 7404 7405 7406 7407 7408 7409 7410 7411 7412 7413 7414 7415 7416 7417 7418 7419 7420 7421 7422 7423 7424 7425 7426 7427 7428 7429 7430 7431 7432 7433 7434 7435 7436 7437 7438 7439 7440 7441 7442 7443 7444 7445 7446 7447 7448 7449 7450 7451 7452 7453 7454 7455 7456 7457 7458 7459 7460 7461 7462 7463 7464 7465 7466 7467 7468 7469 7470 7471 7472 7473 7474 7475 7476 7477 7478 7479 7480 7481 7482 7483 7484 7485 7486 7487 7488 7489 7490 7491 7492 7493 7494 7495 7496 7497 7498 7499 7500 7501 7502 7503 7504 7505 7506 7507 7508 7509 7510 7511 7512 7513 7514 7515 7516 7517 7518 7519 7520 7521 7522 7523 7524 7525 7526 7527 7528 7529 7530 7531 7532 7533 7534 7535 7536 7537 7538 7539 7540 7541 7542 7543 7544 7545 7546 7547 7548 7549 7550 7551 7552 7553 7554 7555 7556 7557 7558 7559 7560 7561 7562 7563 7564 7565 7566 7567 7568 7569 7570 7571 7572 7573 7574 7575 7576 7577 7578 7579 7580 7581 7582 7583 7584 7585 7586 7587 7588 7589 7590 7591 7592 7593 7594 7595 7596 7597 7598 7599 7600 7601 7602 7603 7604 7605 7606 7607 7608 7609 7610 7611 7612 7613 7614 7615 7616 7617 7618 7619 7620 7621 7622 7623 7624 7625 7626 7627 7628 7629 7630 7631 7632 7633 7634 7635 7636 7637 7638 7639 7640 7641 7642 7643 7644 7645 7646 7647 7648 7649 7650 7651 7652 7653 7654 7655 7656 7657 7658 7659 7660 7661 7662 7663 7664 7665 7666 7667 7668 7669 7670 7671 7672 7673 7674 7675 7676 7677 7678 7679 7680 7681 7682 7683 7684 7685 7686 7687 7688 7689 7690 7691 7692 7693 7694 7695 7696 7697 7698 7699 7700 7701 7702 7703 7704 7705 7706 7707 7708 7709 7710 7711 7712 7713 7714 7715 7716 7717 7718 7719 7720 7721 7722 7723 7724 7725 7726 7727 7728 7729 7730 7731 7732 7733 7734 7735 7736 7737 7738 7739 7740 7741 7742 7743 7744 7745 7746 7747 7748 7749 7750 7751 7752 7753 7754 7755 7756 7757 7758 7759 7760 7761 7762 7763 7764 7765 7766 7767 7768 7769 7770 7771 7772 7773 7774 7775 7776 7777 7778 7779 7780 7781 7782 7783 7784 7785 7786 7787 7788 7789 7790 7791 7792 7793 7794 7795 7796 7797 7798 7799 7800 7801 7802 7803 7804 7805 7806 7807 7808 7809 7810 7811 7812 7813 7814 7815 7816 7817 7818 7819 7820 7821 7822 7823 7824 7825 7826 7827 7828 7829 7830 7831 7832 7833 7834 7835 7836 7837 7838 7839 7840 7841 7842 7843 7844 7845 7846 7847 7848 7849 7850 7851 7852 7853 7854 7855 7856 7857 7858 7859 7860 7861 7862 7863 7864 7865 7866 7867 7868 7869 7870 7871 7872 7873 7874 7875 7876 7877 7878 7879 7880 7881 7882 7883 7884 7885 7886 7887 7888 7889 7890 7891 7892 7893 7894 7895 7896 7897 7898 7899 7900 7901 7902 7903 7904 7905 7906 7907 7908 7909 7910 7911 7912 7913 7914 7915 7916 7917 7918 7919 7920 7921 7922 7923 7924 7925 7926 7927 7928 7929 7930 7931 7932 7933 7934 7935 7936 7937 7938 7939 7940 7941 7942 7943 7944 7945 7946 7947 7948 7949 7950 7951 7952 7953 7954 7955 7956 7957 7958 7959 7960 7961 7962 7963 7964 7965 7966 7967 7968 7969 7970 7971 7972 7973 7974 7975 7976 7977 7978 7979 7980 7981 7982 7983 7984 7985 7986 7987 7988 7989 7990 7991 7992 7993 7994 7995 7996 7997 7998 7999 8000 8001 8002 8003 8004 8005 8006 8007 8008 8009 8010 8011 8012 8013 8014 8015 8016 8017 8018 8019 8020 8021 8022 8023 8024 8025 8026 8027 8028 8029 8030 8031 8032 8033 8034 8035 8036 8037 8038 8039 8040 8041 8042 8043 8044 8045 8046 8047 8048 8049 8050 8051 8052 8053 8054 8055 8056 8057 8058 8059 8060 8061 8062 8063 8064 8065 8066 8067 8068 8069 8070 8071 8072 8073 8074 8075 8076 8077 8078 8079 8080 8081 8082 8083 8084 8085 8086 8087 8088 8089 8090 8091 8092 8093 8094 8095 8096 8097 8098 8099 8100 8101 8102 8103 8104 8105 8106 8107 8108 8109 8110 8111 8112 8113 8114 8115 8116 8117 8118 8119 8120 8121 8122 8123 8124 8125 8126 8127 8128 8129 8130 8131 8132 8133 8134 8135 8136 8137 8138 8139 8140 8141 8142 8143 8144 8145 8146 8147 8148 8149 8150 8151 8152 8153 8154 8155 8156 8157 8158 8159 8160 8161 8162 8163 8164 8165 8166 8167 8168 8169 8170 8171 8172 8173 8174 8175 8176 8177 8178 8179 8180 8181 8182 8183 8184 8185 8186 8187 8188 8189 8190 8191 8192 8193 8194 8195 8196 8197 8198 8199 8200 8201 8202 8203 8204 8205 8206 8207 8208 8209 8210 8211 8212 8213 8214 8215 8216 8217 8218 8219 8220 8221 8222 8223 8224 8225 8226 8227 8228 8229 8230 8231 8232 8233 8234 8235 8236 8237 8238 8239 8240 8241 8242 8243 8244 8245 8246 8247 8248 8249 8250 8251 8252 8253 8254 8255 8256 8257 8258 8259 8260 8261 8262 8263 8264 8265 8266 8267 8268 8269 8270 8271 8272 8273 8274 8275 8276 8277 8278 8279 8280 8281 8282 8283 8284 8285 8286 8287 8288 8289 8290 8291 8292 8293 8294 8295 8296 8297 8298 8299 8300 8301 8302 8303 8304 8305 8306 8307 8308 8309 8310 8311 8312 8313 8314 8315 8316 8317 8318 8319 8320 8321 8322 8323 8324 8325 8326 8327 8328 8329 8330 8331 8332 8333 8334 8335 8336 8337 8338 8339 8340 8341 8342 8343 8344 8345 8346 8347 8348 8349 8350 8351 8352 8353 8354 8355 8356 8357 8358 8359 8360 8361 8362 8363 8364 8365 8366 8367 8368 8369 8370 8371 8372 8373 8374 8375 8376 8377 8378 8379 8380 8381 8382 8383 8384 8385 8386 8387 8388 8389 8390 8391 8392 8393 8394 8395 8396 8397 8398 8399 8400 8401 8402 8403 8404 8405 8406 8407 8408 8409 8410 8411 8412 8413 8414 8415 8416 8417 8418 8419 8420 8421 8422 8423 8424 8425 8426 8427 8428 8429 8430 8431 8432 8433 8434 8435 8436 8437 8438 8439 8440 8441 8442 8443 8444 8445 8446 8447 8448 8449 8450 8451 8452 8453 8454 8455 8456 8457 8458 8459 8460 8461 8462 8463 8464 8465 8466 8467 8468 8469 8470 8471 8472 8473 8474 8475 8476 8477 8478 8479 8480 8481 8482 8483 8484 8485 8486 8487 8488 8489 8490 8491 8492 8493 8494 8495 8496 8497 8498 8499 8500 8501 8502 8503 8504 8505 8506 8507 8508 8509 8510 8511 8512 8513 8514 8515 8516 8517 8518 8519 8520 8521 8522 8523 8524 8525 8526 8527 8528 8529 8530 8531 8532 8533 8534 8535 8536 8537 8538 8539 8540 8541 8542 8543 8544 8545 8546 8547 8548 8549 8550 8551 8552 8553 8554 8555 8556 8557 8558 8559 8560 8561 8562 8563 8564 8565 8566 8567 8568 8569 8570 8571 8572 8573 8574 8575 8576 8577 8578 8579 8580 8581 8582 8583 8584 8585 8586 8587 8588 8589 8590 8591 8592 8593 8594 8595 8596 8597 8598 8599 8600 8601 8602 8603 8604 8605 8606 8607 8608 8609 8610 8611 8612 8613 8614 8615 8616 8617 8618 8619 8620 8621 8622 8623 8624 8625 8626 8627 8628 8629 8630 8631 8632 8633 8634 8635 8636 8637 8638 8639 8640 8641 8642 8643 8644 8645 8646 8647 8648 8649 8650 8651 8652 8653 8654 8655 8656 8657 8658 8659 8660 8661 8662 8663 8664 8665 8666 8667 8668 8669 8670 8671 8672 8673 8674 8675 8676 8677 8678 8679 8680 8681 8682 8683 8684 8685 8686 8687 8688 8689 8690 8691 8692 8693 8694 8695 8696 8697 8698 8699 8700 8701 8702 8703 8704 8705 8706 8707 8708 8709 8710 8711 8712 8713 8714 8715 8716 8717 8718 8719 8720 8721 8722 8723 8724 8725 8726 8727 8728 8729 8730 8731 8732 8733 8734 8735 8736 8737 8738 8739 8740 8741 8742 8743 8744 8745 8746 8747 8748 8749 8750 8751 8752 8753 8754 8755 8756 8757 8758 8759 8760 8761 8762 8763 8764 8765 8766 8767 8768 8769 8770 8771 8772 8773 8774 8775 8776 8777 8778 8779 8780 8781 8782 8783 8784 8785 8786 8787 8788 8789 8790 8791 8792 8793 8794 8795 8796 8797 8798 8799 8800 8801 8802 8803 8804 8805 8806 8807 8808 8809 8810 8811 8812 8813 8814 8815 8816 8817 8818 8819 8820 8821 8822 8823 8824 8825 8826 8827 8828 8829 8830 8831 8832 8833 8834 8835 8836 8837 8838 8839 8840 8841 8842 8843 8844 8845 8846 8847 8848 8849 8850 8851 8852 8853 8854 8855 8856 8857 8858 8859 8860 8861 8862 8863 8864 8865 8866 8867 8868 8869 8870 8871 8872 8873 8874 8875 8876 8877 8878 8879 8880 8881 8882 8883 8884 8885 8886 8887 8888 8889 8890 8891 8892 8893 8894 8895 8896 8897 8898 8899 8900 8901 8902 8903 8904 8905 8906 8907 8908 8909 8910 8911 8912 8913 8914 8915 8916 8917 8918 8919 8920 8921 8922 8923 8924 8925 8926 8927 8928 8929 8930 8931 8932 8933 8934 8935 8936 8937 8938 8939 8940 8941 8942 8943 8944 8945 8946 8947 8948 8949 8950 8951 8952 8953 8954 8955 8956 8957 8958 8959 8960 8961 8962 8963 8964 8965 8966 8967 8968 8969 8970 8971 8972 8973 8974 8975 8976 8977 8978 8979 8980 8981 8982 8983 8984 8985 8986 8987 8988 8989 8990 8991 8992 8993 8994 8995 8996 8997 8998 8999 9000 9001 9002 9003 9004 9005 9006 9007 9008 9009 9010 9011 9012 9013 9014 9015 9016 9017 9018 9019 9020 9021 9022 9023 9024 9025 9026 9027 9028 9029 9030 9031 9032 9033 9034 9035 9036 9037 9038 9039 9040 9041 9042 9043 9044 9045 9046 9047 9048 9049 9050 9051 9052 9053 9054 9055 9056 9057 9058 9059 9060 9061 9062 9063 9064 9065 9066 9067 9068 9069 9070 9071 9072 9073 9074 9075 9076 9077 9078 9079 9080 9081 9082 9083 9084 9085 9086 9087 9088 9089 9090 9091 9092 9093 9094 9095 9096 9097 9098 9099 9100 9101 9102 9103 9104 9105 9106 9107 9108 9109 9110 9111 9112 9113 9114 9115 9116 9117 9118 9119 9120 9121 9122 9123 9124 9125 9126 9127 9128 9129 9130 9131 9132 9133 9134 9135 9136 9137 9138 9139 9140 9141 9142 9143 9144 9145 9146 9147 9148 9149 9150 9151 9152 9153 9154 9155 9156 9157 9158 9159 9160 9161 9162 9163 9164 9165 9166 9167 9168 9169 9170 9171 9172 9173 9174 9175 9176 9177 9178 9179 9180 9181 9182 9183 9184 9185 9186 9187 9188 9189 9190 9191 9192 9193 9194 9195 9196 9197 9198 9199 9200 9201 9202 9203 9204 9205 9206 9207 9208 9209 9210 9211 9212 9213 9214 9215 9216 9217 9218 9219 9220 9221 9222 9223 9224 9225 9226 9227 9228 9229 9230 9231 9232 9233 9234 9235 9236 9237 9238 9239 9240 9241 9242 9243 9244 9245 9246 9247 9248 9249 9250 9251 9252 9253 9254 9255 9256 9257 9258 9259 9260 9261 9262 9263 9264 9265 9266 9267 9268 9269 9270 9271 9272 9273 9274 9275 9276 9277 9278 9279 9280 9281 9282 9283 9284 9285 9286 9287 9288 9289 9290 9291 9292 9293 9294 9295 9296 9297 9298 9299 9300 9301 9302 9303 9304 9305 9306 9307 9308 9309 9310 9311 9312 9313 9314 9315 9316 9317 9318 9319 9320 9321 9322 9323 9324 9325 9326 9327 9328 9329 9330 9331 9332 9333 9334 9335 9336 9337 9338 9339 9340 9341 9342 9343 9344 9345 9346 9347 9348 9349 9350 9351 9352 9353 9354 9355 9356 9357 9358 9359 9360 9361 9362 9363 9364 9365 9366 9367 9368 9369 9370 9371 9372 9373 9374 9375 9376 9377 9378 9379 9380 9381 9382 9383 9384 9385 9386 9387 9388 9389 9390 9391 9392 9393 9394 9395 9396 9397 9398 9399 9400 9401 9402 9403 9404 9405 9406 9407 9408 9409 9410 9411 9412 9413 9414 9415 9416 9417 9418 9419 9420 9421 9422 9423 9424 9425 9426 9427 9428 9429 9430 9431 9432 9433 9434 9435 9436 9437 9438 9439 9440 9441 9442 9443 9444 9445 9446 9447 9448 9449 9450 9451 9452 9453 9454 9455 9456 9457 9458 9459 9460 9461 9462 9463 9464 9465 9466 9467 9468 9469 9470 9471 9472 9473 9474 9475 9476 9477 9478 9479 9480 9481 9482 9483 9484 9485 9486 9487 9488 9489 9490 9491 9492 9493 9494 9495 9496 9497 9498 9499 9500 9501 9502 9503 9504 9505 9506 9507 9508 9509 9510 9511 9512 9513 9514 9515 9516 9517 9518 9519 9520 9521 9522 9523 9524 9525 9526 9527 9528 9529 9530 9531 9532 9533 9534 9535 9536 9537 9538 9539 9540 9541 9542 9543 9544 9545 9546 9547 9548 9549 9550 9551 9552 9553 9554 9555 9556 9557 9558 9559 9560 9561 9562 9563 9564 9565 9566 9567 9568 9569 9570 9571 9572 9573 9574 9575 9576 9577 9578 9579 9580 9581 9582 9583 9584 9585 9586 9587 9588 9589 9590 9591 9592 9593 9594 9595 9596 9597 9598 9599 9600 9601 9602 9603 9604 9605 9606 9607 9608 9609 9610 9611 9612 9613 9614 9615 9616 9617 9618 9619 9620 9621 9622 9623 9624 9625 9626 9627 9628 9629 9630 9631 9632 9633 9634 9635 9636 9637 9638 9639 9640 9641 9642 9643 9644 9645 9646 9647 9648 9649 9650 9651 9652 9653 9654 9655 9656 9657 9658 9659 9660 9661 9662 9663 9664 9665 9666 9667 9668 9669 9670 9671 9672 9673 9674 9675 9676 9677 9678 9679 9680 9681 9682 9683 9684 9685 9686 9687 9688 9689 9690 9691 9692 9693 9694 9695 9696 9697 9698 9699 9700 9701 9702 9703 9704 9705 9706 9707 9708 9709 9710 9711 9712 9713 9714 9715 9716 9717 9718 9719 9720 9721 9722 9723 9724 9725 9726 9727 9728 9729 9730 9731 9732 9733 9734 9735 9736 9737 9738 9739 9740 9741 9742 9743 9744 9745 9746 9747 9748 9749 9750 9751 9752 9753 9754 9755 9756 9757 9758 9759 9760 9761 9762 9763 9764 9765 9766 9767 9768 9769 9770 9771 9772 9773 9774 9775 9776 9777 9778 9779 9780 9781 9782 9783 9784 9785 9786 9787 9788 9789 9790 9791 9792 9793 9794 9795 9796 9797 9798 9799 9800 9801 9802 9803 9804 9805 9806 9807 9808 9809 9810 9811 9812 9813 9814 9815 9816 9817 9818 9819 9820 9821 9822 9823 9824 9825 9826 9827 9828 9829 9830 9831 9832 9833 9834 9835 9836 9837 9838 9839 9840 9841 9842 9843 9844 9845 9846 9847 9848 9849 9850 9851 9852 9853 9854 9855 9856 9857 9858 9859 9860 9861 9862 9863 9864 9865 9866 9867 9868 9869 9870 9871 9872 9873 9874 9875 9876 9877 9878 9879 9880 9881 9882 9883 9884 9885 9886 9887 9888 9889 9890 9891 9892 9893 9894 9895 9896 9897 9898 9899 9900 9901 9902 9903 9904 9905 9906 9907 9908 9909 9910 9911 9912 9913 9914 9915 9916 9917 9918 9919 9920 9921 9922 9923 9924 9925 9926 9927 9928 9929 9930 9931 9932 9933 9934 9935 9936 9937 9938 9939 9940 9941 9942 9943 9944 9945 9946 9947 9948 9949 9950 9951 9952 9953 9954 9955 9956 9957 9958 9959 9960 9961 9962 9963 9964 9965 9966 9967 9968 9969 9970 9971 9972 9973 9974 9975 9976 9977 9978 9979 9980 9981 9982 9983 9984 9985 9986 9987 9988 9989 9990 9991 9992 9993 9994 9995 9996 9997 9998 9999 10000 10001 10002 10003 10004 10005 10006 10007 10008 10009 10010 10011 10012 10013 10014 10015 10016 10017 10018 10019 10020 10021 10022 10023 10024 10025 10026 10027 10028 10029 10030 10031 10032 10033 10034 10035 10036 10037 10038 10039 10040 10041 10042 10043 10044 10045 10046 10047 10048 10049 10050 10051 10052 10053 10054 10055 10056 10057 10058 10059 10060 10061 10062 10063 10064 10065 10066 10067 10068 10069 10070 10071 10072 10073 10074 10075 10076 10077 10078 10079 10080 10081 10082 10083 10084 10085 10086 10087 10088 10089 10090 10091 10092 10093 10094 10095 10096 10097 10098 10099 10100 10101 10102 10103 10104 10105 10106 10107 10108 10109 10110 10111 10112 10113 10114 10115 10116 10117 10118 10119 10120 10121 10122 10123 10124 10125 10126 10127 10128 10129 10130 10131 10132 10133 10134 10135 10136 10137 10138 10139 10140 10141 10142 10143 10144 10145 10146 10147 10148 10149 10150 10151 10152 10153 10154 10155 10156 10157 10158 10159 10160 10161 10162 10163 10164 10165 10166 10167 10168 10169 10170 10171 10172 10173 10174 10175 10176 10177 10178 10179 10180 10181 10182 10183 10184 10185 10186 10187 10188 10189 10190 10191 10192 10193 10194 10195 10196 10197 10198 10199 10200 10201 10202 10203 10204 10205 10206 10207 10208 10209 10210 10211 10212 10213 10214 10215 10216 10217 10218 10219 10220 10221 10222 10223 10224 10225 10226 10227 10228 10229 10230 10231 10232 10233 10234 10235 10236 10237 10238 10239 10240 10241 10242 10243 10244 10245 10246 10247 10248 10249 10250 10251 10252 10253 10254 10255 10256 10257 10258 10259 10260 10261 10262 10263 10264 10265 10266 10267 10268 10269 10270 10271 10272 10273 10274 10275 10276 10277 10278 10279 10280 10281 10282 10283 10284 10285 10286 10287 10288 10289 10290 10291 10292 10293 10294 10295 10296 10297 10298 10299 10300 10301 10302 10303 10304 10305 10306 10307 10308 10309 10310 10311 10312 10313 10314 10315 10316 10317 10318 10319 10320 10321 10322 10323 10324 10325 10326 10327 10328 10329 10330 10331 10332 10333 10334 10335 10336 10337 10338 10339 10340 10341 10342 10343 10344 10345 10346 10347 10348 10349 10350 10351 10352 10353 10354 10355 10356 10357 10358 10359 10360 10361 10362 10363 10364 10365 10366 10367 10368 10369 10370 10371 10372 10373 10374 10375 10376 10377 10378 10379 10380 10381 10382 10383 10384 10385 10386 10387 10388 10389 10390 10391 10392 10393 10394 10395 10396 10397 10398 10399 10400 10401 10402 10403 10404 10405 10406 10407 10408 10409 10410 10411 10412 10413 10414 10415 10416 10417 10418 10419 10420 10421 10422 10423 10424 10425 10426 10427 10428 10429 10430 10431 10432 10433 10434 10435 10436 10437 10438 10439 10440 10441 10442 10443 10444 10445 10446 10447 10448 10449 10450 10451 10452 10453 10454 10455 10456 10457 10458 10459 10460 10461 10462 10463 10464 10465 10466 10467 10468 10469 10470 10471 10472 10473 10474 10475 10476 10477 10478 10479 10480 10481 10482 10483 10484 10485 10486 10487 10488 10489 10490 10491 10492 10493 10494 10495 10496 10497 10498 10499 10500 10501 10502 10503 10504 10505 10506 10507 10508 10509 10510 10511 10512 10513 10514 10515 10516 10517 10518 10519 10520 10521 10522 10523 10524 10525 10526 10527 10528 10529 10530 10531 10532 10533 10534 10535 10536 10537 10538 10539 10540 10541 10542 10543 10544 10545 10546 10547 10548 10549 10550 10551 10552 10553 10554 10555 10556 10557 10558 10559 10560 10561 10562 10563 10564 10565 10566 10567 10568 10569 10570 10571 10572 10573 10574 10575 10576 10577 10578 10579 10580 10581 10582 10583 10584 10585 10586 10587 10588 10589 10590 10591 10592 10593 10594 10595 10596 10597 10598 10599 10600 10601 10602 10603 10604 10605 10606 10607 10608 10609 10610 10611 10612 10613 10614 10615 10616 10617 10618 10619 10620 10621 10622 10623 10624 10625 10626 10627 10628 10629 10630 10631 10632 10633 10634 10635 10636 10637 10638 10639 10640 10641 10642 10643 10644 10645 10646 10647 10648 10649 10650 10651 10652 10653 10654 10655 10656 10657 10658 10659 10660 10661 10662 10663 10664 10665 10666 10667 10668 10669 10670 10671 10672 10673 10674 10675 10676 10677 10678 10679 10680 10681 10682 10683 10684 10685 10686 10687 10688 10689 10690 10691 10692 10693 10694 10695 10696 10697 10698 10699 10700 10701 10702 10703 10704 10705 10706 10707 10708 10709 10710 10711 10712 10713 10714 10715 10716 10717 10718 10719 10720 10721 10722 10723 10724 10725 10726 10727 10728 10729 10730 10731 10732 10733 10734 10735 10736 10737 10738 10739 10740 10741 10742 10743 10744 10745 10746 10747 10748 10749 10750 10751 10752 10753 10754 10755 10756 10757 10758 10759 10760 10761 10762 10763 10764 10765 10766 10767 10768 10769 10770 10771 10772 10773 10774 10775 10776 10777 10778 10779 10780 10781 10782 10783 10784 10785 10786 10787 10788 10789 10790 10791 10792 10793 10794 10795 10796 10797 10798 10799 10800 10801 10802 10803 10804 10805 10806 10807 10808 10809 10810 10811 10812 10813 10814 10815 10816 10817 10818 10819 10820 10821 10822 10823 10824 10825 10826 10827 10828 10829 10830 10831 10832 10833 10834 10835 10836 10837 10838 10839 10840 10841 10842 10843 10844 10845 10846 10847 10848 10849 10850 10851 10852 10853 10854 10855 10856 10857 10858 10859 10860 10861 10862 10863 10864 10865 10866 10867 10868 10869 10870 10871 10872 10873 10874 10875 10876 10877 10878 10879 10880 10881 10882 10883 10884 10885 10886 10887 10888 10889 10890 10891 10892 10893 10894 10895 10896 10897 10898 10899 10900 10901 10902 10903 10904 10905 10906 10907 10908 10909 10910 10911 10912 10913 10914 10915 10916 10917 10918 10919 10920 10921 10922 10923 10924 10925 10926 10927 10928 10929 10930 10931 10932 10933 10934 10935 10936 10937 10938 10939 10940 10941 10942 10943 10944 10945 10946 10947 10948 10949 10950 10951 10952 10953 10954 10955 10956 10957 10958 10959 10960 10961 10962 10963 10964 10965 10966 10967 10968 10969 10970 10971 10972 10973 10974 10975 10976 10977 10978 10979 10980 10981 10982 10983 10984 10985 10986 10987 10988 10989 10990 10991 10992 10993 10994 10995 10996 10997 10998 10999 11000 11001 11002 11003 11004 11005 11006 11007 11008 11009 11010 11011 11012 11013 11014 11015 11016 11017 11018 11019 11020 11021 11022 11023 11024 11025 11026 11027 11028 11029 11030 11031 11032 11033 11034 11035 11036 11037 11038 11039 11040 11041 11042 11043 11044 11045 11046 11047 11048 11049 11050 11051 11052 11053 11054 11055 11056 11057 11058 11059 11060 11061 11062 11063 11064 11065 11066 11067 11068 11069 11070 11071 11072 11073 11074 11075 11076 11077 11078 11079 11080 11081 11082 11083 11084 11085 11086 11087 11088 11089 11090 11091 11092 11093 11094 11095 11096 11097 11098 11099 11100 11101 11102 11103 11104 11105 11106 11107 11108 11109 11110 11111 11112 11113 11114 11115 11116 11117 11118 11119 11120 11121 11122 11123 11124 11125 11126 11127 11128 11129 11130 11131 11132 11133 11134 11135 11136 11137 11138 11139 11140 11141 11142 11143 11144 11145 11146 11147 11148 11149 11150 11151 11152 11153 11154 11155 11156 11157 11158 11159 11160 11161 11162 11163 11164 11165 11166 11167 11168 11169 11170 11171 11172 11173 11174 11175 11176 11177 11178 11179 11180 11181 11182 11183 11184 11185 11186 11187 11188 11189 11190 11191 11192 11193 11194 11195 11196 11197 11198 11199 11200 11201 11202 11203 11204 11205 11206 11207 11208 11209 11210 11211 11212 11213 11214 11215 11216 11217 11218 11219 11220 11221 11222 11223 11224 11225 11226 11227 11228 11229 11230 11231 11232 11233 11234 11235 11236 11237 11238 11239 11240 11241 11242 11243 11244 11245 11246 11247 11248 11249 11250 11251 11252 11253 11254 11255 11256 11257 11258 11259 11260 11261 11262 11263 11264 11265 11266 11267 11268 11269 11270 11271 11272 11273 11274 11275 11276 11277 11278 11279 11280 11281 11282 11283 11284 11285 11286 11287 11288 11289 11290 11291 11292 11293 11294 11295 11296 11297 11298 11299 11300 11301 11302 11303 11304 11305 11306 11307 11308 11309 11310 11311 11312 11313 11314 11315 11316 11317 11318 11319 11320 11321 11322 11323 11324 11325 11326 11327 11328 11329 11330 11331 11332 11333 11334 11335 11336 11337 11338 11339 11340 11341 11342 11343 11344 11345 11346 11347 11348 11349 11350 11351 11352 11353 11354 11355 11356 11357 11358 11359 11360 11361 11362 11363 11364 11365 11366 11367 11368 11369 11370 11371 11372 11373 11374 11375 11376 11377 11378 11379 11380 11381 11382 11383 11384 11385 11386 11387 11388 11389 11390 11391 11392 11393 11394 11395 11396 11397 11398 11399 11400 11401 11402 11403 11404 11405 11406 11407 11408 11409 11410 11411 11412 11413 11414 11415 11416 11417 11418 11419 11420 11421 11422 11423 11424 11425 11426 11427 11428 11429 11430 11431 11432 11433 11434 11435 11436 11437 11438 11439 11440 11441 11442 11443 11444 11445 11446 11447 11448 11449 11450 11451 11452 11453 11454 11455 11456 11457 11458 11459 11460 11461 11462 11463 11464 11465 11466 11467 11468 11469 11470 11471 11472 11473 11474 11475 11476 11477 11478 11479 11480 11481 11482 11483 11484 11485 11486 11487 11488 11489 11490 11491 11492 11493 11494 11495 11496 11497 11498 11499 11500 11501 11502 11503 11504 11505 11506 11507 11508 11509 11510 11511 11512 11513 11514 11515 11516 11517 11518 11519 11520 11521 11522 11523 11524 11525 11526 11527 11528 11529 11530 11531 11532 11533 11534 11535 11536 11537 11538 11539 11540 11541 11542 11543 11544 11545 11546 11547 11548 11549 11550 11551 11552 11553 11554 11555 11556 11557 11558 11559 11560 11561 11562 11563 11564 11565 11566 11567 11568 11569 11570 11571 11572 11573 11574 11575 11576 11577 11578 11579 11580 11581 11582 11583 11584 11585 11586 11587 11588 11589 11590 11591 11592 11593 11594 11595 11596 11597 11598 11599 11600 11601 11602 11603 11604 11605 11606 11607 11608 11609 11610 11611 11612 11613 11614 11615 11616 11617 11618 11619 11620 11621 11622 11623 11624 11625 11626 11627 11628 11629 11630 11631 11632 11633 11634 11635 11636 11637 11638 11639 11640 11641 11642 11643 11644 11645 11646 11647 11648 11649 11650 11651 11652 11653 11654 11655 11656 11657 11658 11659 11660 11661 11662 11663 11664 11665 11666 11667 11668 11669 11670 11671 11672 11673 11674 11675 11676 11677 11678 11679 11680 11681 11682 11683 11684 11685 11686 11687 11688 11689 11690 11691 11692 11693 11694 11695 11696 11697 11698 11699 11700 11701 11702 11703 11704 11705 11706 11707 11708 11709 11710 11711 11712 11713 11714 11715 11716 11717 11718 11719 11720 11721 11722 11723 11724 11725 11726 11727 11728 11729 11730 11731 11732 11733 11734 11735 11736 11737 11738 11739 11740 11741 11742 11743 11744 11745 11746 11747 11748 11749 11750 11751 11752 11753 11754 11755 11756 11757 11758 11759 11760 11761 11762 11763 11764 11765 11766 11767 11768 11769 11770 11771 11772 11773 11774 11775 11776 11777 11778 11779 11780 11781 11782 11783 11784 11785 11786 11787 11788 11789 11790 11791 11792 11793 11794 11795 11796 11797 11798 11799 11800 11801 11802 11803 11804 11805 11806 11807 11808 11809 11810 11811 11812 11813 11814 11815 11816 11817 11818 11819 11820 11821 11822 11823 11824 11825 11826 11827 11828 11829 11830 11831 11832 11833 11834 11835 11836 11837 11838 11839 11840 11841 11842 11843 11844 11845 11846 11847 11848 11849 11850 11851 11852 11853 11854 11855 11856 11857 11858 11859 11860 11861 11862 11863 11864 11865 11866 11867 11868 11869 11870 11871 11872 11873 11874 11875 11876 11877 11878 11879 11880 11881 11882 11883 11884 11885 11886 11887 11888 11889 11890 11891 11892 11893 11894 11895 11896 11897 11898 11899 11900 11901 11902 11903 11904 11905 11906 11907 11908 11909 11910 11911 11912 11913 11914 11915 11916 11917 11918 11919 11920 11921 11922 11923 11924 11925 11926 11927 11928 11929 11930 11931 11932 11933 11934 11935 11936 11937 11938 11939 11940 11941 11942 11943 11944 11945 11946 11947 11948 11949 11950 11951 11952 11953 11954 11955 11956 11957 11958 11959 11960 11961 11962 11963 11964 11965 11966 11967 11968 11969 11970 11971 11972 11973 11974 11975 11976 11977 11978 11979 11980 11981 11982 11983 11984 11985 11986 11987 11988 11989 11990 11991 11992 11993 11994 11995 11996 11997 11998 11999 12000 12001 12002 12003 12004 12005 12006 12007 12008 12009 12010 12011 12012 12013 12014 12015 12016 12017 12018 12019 12020 12021 12022 12023 12024 12025 12026 12027 12028 12029 12030 12031 12032 12033 12034 12035 12036 12037 12038 12039 12040 12041 12042 12043 12044 12045 12046 12047 12048 12049 12050 12051 12052 12053 12054 12055 12056 12057 12058 12059 12060 12061 12062 12063 12064 12065 12066 12067 12068 12069 12070 12071 12072 12073 12074 12075 12076 12077 12078 12079 12080 12081 12082 12083 12084 12085 12086 12087 12088 12089 12090 12091 12092 12093 12094 12095 12096 12097 12098 12099 12100 12101 12102 12103 12104 12105 12106 12107 12108 12109 12110 12111 12112 12113 12114 12115 12116 12117 12118 12119 12120 12121 12122 12123 12124 12125 12126 12127 12128 12129 12130 12131 12132 12133 12134 12135 12136 12137 12138 12139 12140 12141 12142 12143 12144 12145 12146 12147 12148 12149 12150 12151 12152 12153 12154 12155 12156 12157 12158 12159 12160 12161 12162 12163 12164 12165 12166 12167 12168 12169 12170 12171 12172 12173 12174 12175 12176 12177 12178 12179 12180 12181 12182 12183 12184 12185 12186 12187 12188 12189 12190 12191 12192 12193 12194 12195 12196 12197 12198 12199 12200 12201 12202 12203 12204 12205 12206 12207 12208 12209 12210 12211 12212 12213 12214 12215 12216 12217 12218 12219 12220 12221 12222 12223 12224 12225 12226 12227 12228 12229 12230 12231 12232 12233 12234 12235 12236 12237 12238 12239 12240 12241 12242 12243 12244 12245 12246 12247 12248 12249 12250 12251 12252 12253 12254 12255 12256 12257 12258 12259 12260 12261 12262 12263 12264 12265 12266 12267 12268 12269 12270 12271 12272 12273 12274 12275 12276 12277 12278 12279 12280 12281 12282 12283 12284 12285 12286 12287 12288 12289 12290 12291 12292 12293 12294 12295 12296 12297 12298 12299 12300 12301 12302 12303 12304 12305 12306 12307 12308 12309 12310 12311 12312 12313 12314 12315 12316 12317 12318 12319 12320 12321 12322 12323 12324 12325 12326 12327 12328 12329 12330 12331 12332 12333 12334 12335 12336 12337 12338 12339 12340 12341 12342 12343 12344 12345 12346 12347 12348 12349 12350 12351 12352 12353 12354 12355 12356 12357 12358 12359 12360 12361 12362 12363 12364 12365 12366 12367 12368 12369 12370 12371 12372 12373 12374 12375 12376 12377 12378 12379 12380 12381 12382 12383 12384 12385 12386 12387 12388 12389 12390 12391 12392 12393 12394 12395 12396 12397 12398 12399 12400 12401 12402 12403 12404 12405 12406 12407 12408 12409 12410 12411 12412 12413 12414 12415 12416 12417 12418 12419 12420 12421 12422 12423 12424 12425 12426 12427 12428 12429 12430 12431 12432 12433 12434 12435 12436 12437 12438 12439 12440 12441 12442 12443 12444 12445 12446 12447 12448 12449 12450 12451 12452 12453 12454 12455 12456 12457 12458 12459 12460 12461 12462 12463 12464 12465 12466 12467 12468 12469 12470 12471 12472 12473 12474 12475 12476 12477 12478 12479 12480 12481 12482 12483 12484 12485 12486 12487 12488 12489 12490 12491 12492 12493 12494 12495 12496 12497 12498 12499 12500 12501 12502 12503 12504 12505 12506 12507 12508 12509 12510 12511 12512 12513 12514 12515 12516 12517 12518 12519 12520 12521 12522 12523 12524 12525 12526 12527 12528 12529 12530 12531 12532 12533 12534 12535 12536 12537 12538 12539 12540 12541 12542 12543 12544 12545 12546 12547 12548 12549 12550 12551 12552 12553 12554 12555 12556 12557 12558 12559 12560 12561 12562 12563 12564 12565 12566 12567 12568 12569 12570 12571 12572 12573 12574 12575 12576 12577 12578 12579 12580 12581 12582 12583 12584 12585 12586 12587 12588 12589 12590 12591 12592 12593 12594 12595 12596 12597 12598 12599 12600 12601 12602 12603 12604 12605 12606 12607 12608 12609 12610 12611 12612 12613 12614 12615 12616 12617 12618 12619 12620 12621 12622 12623 12624 12625 12626 12627 12628 12629 12630 12631 12632 12633 12634 12635 12636 12637 12638 12639 12640 12641 12642 12643 12644 12645 12646 12647 12648 12649 12650 12651 12652 12653 12654 12655 12656 12657 12658 12659 12660 12661 12662 12663 12664 12665 12666 12667 12668 12669 12670 12671 12672 12673 12674 12675 12676 12677 12678 12679 12680 12681 12682 12683 12684 12685 12686 12687 12688 12689 12690 12691 12692 12693 12694 12695 12696 12697 12698 12699 12700 12701 12702 12703 12704 12705 12706 12707 12708 12709 12710 12711 12712 12713 12714 12715 12716 12717 12718 12719 12720 12721 12722 12723 12724 12725 12726 12727 12728 12729 12730 12731 12732 12733 12734 12735 12736 12737 12738 12739 12740 12741 12742 12743 12744 12745 12746 12747 12748 12749 12750 12751 12752 12753 12754 12755 12756 12757 12758 12759 12760 12761 12762 12763 12764 12765 12766 12767 12768 12769 12770 12771 12772 12773 12774 12775 12776 12777 12778 12779 12780 12781 12782 12783 12784 12785 12786 12787 12788 12789 12790 12791 12792 12793 12794 12795 12796 12797 12798 12799 12800 12801 12802 12803 12804 12805 12806 12807 12808 12809 12810 12811 12812 12813 12814 12815 12816 12817 12818 12819 12820 12821 12822 12823 12824 12825 12826 12827 12828 12829 12830 12831 12832 12833 12834 12835 12836 12837 12838 12839 12840 12841 12842 12843 12844 12845 12846 12847 12848 12849 12850 12851 12852 12853 12854 12855 12856 12857 12858 12859 12860 12861 12862 12863 12864 12865 12866 12867 12868 12869 12870 12871 12872 12873 12874 12875 12876 12877 12878 12879 12880 12881 12882 12883 12884 12885 12886 12887 12888 12889 12890 12891 12892 12893 12894 12895 12896 12897 12898 12899 12900 12901 12902 12903 12904 12905 12906 12907 12908 12909 12910 12911 12912 12913 12914 12915 12916 12917 12918 12919 12920 12921 12922 12923 12924 12925 12926 12927 12928 12929 12930 12931 12932 12933 12934 12935 12936 12937 12938 12939 12940 12941 12942 12943 12944 12945 12946 12947 12948 12949 12950 12951 12952 12953 12954 12955 12956 12957 12958 12959 12960 12961 12962 12963 12964 12965 12966 12967 12968 12969 12970 12971 12972 12973 12974 12975 12976 12977 12978 12979 12980 12981 12982 12983 12984 12985 12986 12987 12988 12989 12990 12991 12992 12993 12994 12995 12996 12997 12998 12999 13000 13001 13002 13003 13004 13005 13006 13007 13008 13009 13010 13011 13012 13013 13014 13015 13016 13017 13018 13019 13020 13021 13022 13023 13024 13025 13026 13027 13028 13029 13030 13031 13032 13033 13034 13035 13036 13037 13038 13039 13040 13041 13042 13043 13044 13045 13046 13047 13048 13049 13050 13051 13052 13053 13054 13055 13056 13057 13058 13059 13060 13061 13062 13063 13064 13065 13066 13067 13068 13069 13070 13071 13072 13073 13074 13075 13076 13077 13078 13079 13080 13081 13082 13083 13084 13085 13086 13087 13088 13089 13090 13091 13092 13093 13094 13095 13096 13097 13098 13099 13100 13101 13102 13103 13104 13105 13106 13107 13108 13109 13110 13111 13112 13113 13114 13115 13116 13117 13118 13119 13120 13121 13122 13123 13124 13125 13126 13127 13128 13129 13130 13131 13132 13133 13134 13135 13136 13137 13138 13139 13140 13141 13142 13143 13144 13145 13146 13147 13148 13149 13150 13151 13152 13153 13154 13155 13156 13157 13158 13159 13160 13161 13162 13163 13164 13165 13166 13167 13168 13169 13170 13171 13172 13173 13174 13175 13176 13177 13178 13179 13180 13181 13182 13183 13184 13185 13186 13187 13188 13189 13190 13191 13192 13193 13194 13195 13196 13197 13198 13199 13200 13201 13202 13203 13204 13205 13206 13207 13208 13209 13210 13211 13212 13213 13214 13215 13216 13217 13218 13219 13220 13221 13222 13223 13224 13225 13226 13227 13228 13229 13230 13231 13232 13233 13234 13235 13236 13237 13238 13239 13240 13241 13242 13243 13244 13245 13246 13247 13248 13249 13250 13251 13252 13253 13254 13255 13256 13257 13258 13259 13260 13261 13262 13263 13264 13265 13266 13267 13268 13269 13270 13271 13272 13273 13274 13275 13276 13277 13278 13279 13280 13281 13282 13283 13284 13285 13286 13287 13288 13289 13290 13291 13292 13293 13294 13295 13296 13297 13298 13299 13300 13301 13302 13303 13304 13305 13306 13307 13308 13309 13310 13311 13312 13313 13314 13315 13316 13317 13318 13319 13320 13321 13322 13323 13324 13325 13326 13327 13328 13329 13330 13331 13332 13333 13334 13335 13336 13337 13338 13339 13340 13341 13342 13343 13344 13345 13346 13347 13348 13349 13350 13351 13352 13353 13354 13355 13356 13357 13358 13359 13360 13361 13362 13363 13364 13365 13366 13367 13368 13369 13370 13371 13372 13373 13374 13375 13376 13377 13378 13379 13380 13381 13382 13383 13384 13385 13386 13387 13388 13389 13390 13391 13392 13393 13394 13395 13396 13397 13398 13399 13400 13401 13402 13403 13404 13405 13406 13407 13408 13409 13410 13411 13412 13413 13414 13415 13416 13417 13418 13419 13420 13421 13422 13423 13424 13425 13426 13427 13428 13429 13430 13431 13432 13433 13434 13435 13436 13437 13438 13439 13440 13441 13442 13443 13444 13445 13446 13447 13448 13449 13450 13451 13452 13453 13454 13455 13456 13457 13458 13459 13460 13461 13462 13463 13464 13465 13466 13467 13468 13469 13470 13471 13472 13473 13474 13475 13476 13477 13478 13479 13480 13481 13482 13483 13484 13485 13486 13487 13488 13489 13490 13491 13492 13493 13494 13495 13496 13497 13498 13499 13500 13501 13502 13503 13504 13505 13506 13507 13508 13509 13510 13511 13512 13513 13514 13515 13516 13517 13518 13519 13520 13521 13522 13523 13524 13525 13526 13527 13528 13529 13530 13531 13532 13533 13534 13535 13536 13537 13538 13539 13540 13541 13542 13543 13544 13545 13546 13547 13548 13549 13550 13551 13552 13553 13554 13555 13556 13557 13558 13559 13560 13561 13562 13563 13564 13565 13566 13567 13568 13569 13570 13571 13572 13573 13574 13575 13576 13577 13578 13579 13580 13581 13582 13583 13584 13585 13586 13587 13588 13589 13590 13591 13592 13593 13594 13595 13596 13597 13598 13599 13600 13601 13602 13603 13604 13605 13606 13607 13608 13609 13610 13611 13612 13613 13614 13615 13616 13617 13618 13619 13620 13621 13622 13623 13624 13625 13626 13627 13628 13629 13630 13631 13632 13633 13634 13635 13636 13637 13638 13639 13640 13641 13642 13643 13644 13645 13646 13647 13648 13649 13650 13651 13652 13653 13654 13655 13656 13657 13658 13659 13660 13661 13662 13663 13664 13665 13666 13667 13668 13669 13670 13671 13672 13673 13674 13675 13676 13677 13678 13679 13680 13681 13682 13683 13684 13685 13686 13687 13688 13689 13690 13691 13692 13693 13694 13695 13696 13697 13698 13699 13700 13701 13702 13703 13704 13705 13706 13707 13708 13709 13710 13711 13712 13713 13714 13715 13716 13717 13718 13719 13720 13721 13722 13723 13724 13725 13726 13727 13728 13729 13730 13731 13732 13733 13734 13735 13736 13737 13738 13739 13740 13741 13742 13743 13744 13745 13746 13747 13748 13749 13750 13751 13752 13753 13754 13755 13756 13757 13758 13759 13760 13761 13762 13763 13764 13765 13766 13767 13768 13769 13770 13771 13772 13773 13774 13775 13776 13777 13778 13779 13780 13781 13782 13783 13784 13785 13786 13787 13788 13789 13790 13791 13792 13793 13794 13795 13796 13797 13798 13799 13800 13801 13802 13803 13804 13805 13806 13807 13808 13809 13810 13811 13812 13813 13814 13815 13816 13817 13818 13819 13820 13821 13822 13823 13824 13825 13826 13827 13828 13829 13830 13831 13832 13833 13834 13835 13836 13837 13838 13839 13840 13841 13842 13843 13844 13845 13846 13847 13848 13849 13850 13851 13852 13853 13854 13855 13856 13857 13858 13859 13860 13861 13862 13863 13864 13865 13866 13867 13868 13869 13870 13871 13872 13873 13874 13875 13876 13877 13878 13879 13880 13881 13882 13883 13884 13885 13886 13887 13888 13889 13890 13891 13892 13893 13894 13895 13896 13897 13898 13899 13900 13901 13902 13903 13904 13905 13906 13907 13908 13909 13910 13911 13912 13913 13914 13915 13916 13917 13918 13919 13920 13921 13922 13923 13924 13925 13926 13927 13928 13929 13930 13931 13932 13933 13934 13935 13936 13937 13938 13939 13940 13941 13942 13943 13944 13945 13946 13947 13948 13949 13950 13951 13952 13953 13954 13955 13956 13957 13958 13959 13960 13961 13962 13963 13964 13965 13966 13967 13968 13969 13970 13971 13972 13973 13974 13975 13976 13977 13978 13979 13980 13981 13982 13983 13984 13985 13986 13987 13988 13989 13990 13991 13992 13993 13994 13995 13996 13997 13998 13999 14000 14001 14002 14003 14004 14005 14006 14007 14008 14009 14010 14011 14012 14013 14014 14015 14016 14017 14018 14019 14020 14021 14022 14023 14024 14025 14026 14027 14028 14029 14030 14031 14032 14033 14034 14035 14036 14037 14038 14039 14040 14041 14042 14043 14044 14045 14046 14047 14048 14049 14050 14051 14052 14053 14054 14055 14056 14057 14058 14059 14060 14061 14062 14063 14064 14065 14066 14067 14068 14069 14070 14071 14072 14073 14074 14075 14076 14077 14078 14079 14080 14081 14082 14083 14084 14085 14086 14087 14088 14089 14090 14091 14092 14093 14094 14095 14096 14097 14098 14099 14100 14101 14102 14103 14104 14105 14106 14107 14108 14109 14110 14111 14112 14113 14114 14115 14116 14117 14118 14119 14120 14121 14122 14123 14124 14125 14126 14127 14128 14129 14130 14131 14132 14133 14134 14135 14136 14137 14138 14139 14140 14141 14142 14143 14144 14145 14146 14147 14148 14149 14150 14151 14152 14153 14154 14155 14156 14157 14158 14159 14160 14161 14162 14163 14164 14165 14166 14167 14168 14169 14170 14171 14172 14173 14174 14175 14176 14177 14178 14179 14180 14181 14182 14183 14184 14185 14186 14187 14188 14189 14190 14191 14192 14193 14194 14195 14196 14197 14198 14199 14200 14201 14202 14203 14204 14205 14206 14207 14208 14209 14210 14211 14212 14213 14214 14215 14216 14217 14218 14219 14220 14221 14222 14223 14224 14225 14226 14227 14228 14229 14230 14231 14232 14233 14234 14235 14236 14237 14238 14239 14240 14241 14242 14243 14244 14245 14246 14247 14248 14249 14250 14251 14252 14253 14254 14255 14256 14257 14258 14259 14260 14261 14262 14263 14264 14265 14266 14267 14268 14269 14270 14271 14272 14273 14274 14275 14276 14277 14278 14279 14280 14281 14282 14283 14284 14285 14286 14287 14288 14289 14290 14291 14292 14293 14294 14295 14296 14297 14298 14299 14300 14301 14302 14303 14304 14305 14306 14307 14308 14309 14310 14311 14312 14313 14314 14315 14316 14317 14318 14319 14320 14321 14322 14323 14324 14325 14326 14327 14328 14329 14330 14331 14332 14333 14334 14335 14336 14337 14338 14339 14340 14341 14342 14343 14344 14345 14346 14347 14348 14349 14350 14351 14352 14353 14354 14355 14356 14357 14358 14359 14360 14361 14362 14363 14364 14365 14366 14367 14368 14369 14370 14371 14372 14373 14374 14375 14376 14377 14378 14379 14380 14381 14382 14383 14384 14385 14386 14387 14388 14389 14390 14391 14392 14393 14394 14395 14396 14397 14398 14399 14400 14401 14402 14403 14404 14405 14406 14407 14408 14409 14410 14411 14412 14413 14414 14415 14416 14417 14418 14419 14420 14421 14422 14423 14424 14425 14426 14427 14428 14429 14430 14431 14432 14433 14434 14435 14436 14437 14438 14439 14440 14441 14442 14443 14444 14445 14446 14447 14448 14449 14450 14451 14452 14453 14454 14455 14456 14457 14458 14459 14460 14461 14462 14463 14464 14465 14466 14467 14468 14469 14470 14471 14472 14473 14474 14475 14476 14477 14478 14479 14480 14481 14482 14483 14484 14485 14486 14487 14488 14489 14490 14491 14492 14493 14494 14495 14496 14497 14498 14499 14500 14501 14502 14503 14504 14505 14506 14507 14508 14509 14510 14511 14512 14513 14514 14515 14516 14517 14518 14519 14520 14521 14522 14523 14524 14525 14526 14527 14528 14529 14530 14531 14532 14533 14534 14535 14536 14537 14538 14539 14540 14541 14542 14543 14544 14545 14546 14547 14548 14549 14550 14551 14552 14553 14554 14555 14556 14557 14558 14559 14560 14561 14562 14563 14564 14565 14566 14567 14568 14569 14570 14571 14572 14573 14574 14575 14576 14577 14578 14579 14580 14581 14582 14583 14584 14585 14586 14587 14588 14589 14590 14591 14592 14593 14594 14595 14596 14597 14598 14599 14600 14601 14602 14603 14604 14605 14606 14607 14608 14609 14610 14611 14612 14613 14614 14615 14616 14617 14618 14619 14620 14621 14622 14623 14624 14625 14626 14627 14628 14629 14630 14631 14632 14633 14634 14635 14636 14637 14638 14639 14640 14641 14642 14643 14644 14645 14646 14647 14648 14649 14650 14651 14652 14653 14654 14655 14656 14657 14658 14659 14660 14661 14662 14663 14664 14665 14666 14667 14668 14669 14670 14671 14672 14673 14674 14675 14676 14677 14678 14679 14680 14681 14682 14683 14684 14685 14686 14687 14688 14689 14690 14691 14692 14693 14694 14695 14696 14697 14698 14699 14700 14701 14702 14703 14704 14705 14706 14707 14708 14709 14710 14711 14712 14713 14714 14715 14716 14717 14718 14719 14720 14721 14722 14723 14724 14725 14726 14727 14728 14729 14730 14731 14732 14733 14734 14735 14736 14737 14738 14739 14740 14741 14742 14743 14744 14745 14746 14747 14748 14749 14750 14751 14752 14753 14754 14755 14756 14757 14758 14759 14760 14761 14762 14763 14764 14765 14766 14767 14768 14769 14770 14771 14772 14773 14774 14775 14776 14777 14778 14779 14780 14781 14782 14783 14784 14785 14786 14787 14788 14789 14790 14791 14792 14793 14794 14795 14796 14797 14798 14799 14800 14801 14802 14803 14804 14805 14806 14807 14808 14809 14810 14811 14812 14813 14814 14815 14816 14817 14818 14819 14820 14821 14822 14823 14824 14825 14826 14827 14828 14829 14830 14831 14832 14833 14834 14835 14836 14837 14838 14839 14840 14841 14842 14843 14844 14845 14846 14847 14848 14849 14850 14851 14852 14853 14854 14855 14856 14857 14858 14859 14860 14861 14862 14863 14864 14865 14866 14867 14868 14869 14870 14871 14872 14873 14874 14875 14876 14877 14878 14879 14880 14881 14882 14883 14884 14885 14886 14887 14888 14889 14890 14891 14892 14893 14894 14895 14896 14897 14898 14899 14900 14901 14902 14903 14904 14905 14906 14907 14908 14909 14910 14911 14912 14913 14914 14915 14916 14917 14918 14919 14920 14921 14922 14923 14924 14925 14926 14927 14928 14929 14930 14931 14932 14933 14934 14935 14936 14937 14938 14939 14940 14941 14942 14943 14944 14945 14946 14947 14948 14949 14950 14951 14952 14953 14954 14955 14956 14957 14958 14959 14960 14961 14962 14963 14964 14965 14966 14967 14968 14969 14970 14971 14972 14973 14974 14975 14976 14977 14978 14979 14980 14981 14982 14983 14984 14985 14986 14987 14988 14989 14990 14991 14992 14993 14994 14995 14996 14997 14998 14999 15000 15001 15002 15003 15004 15005 15006 15007 15008 15009 15010 15011 15012 15013 15014 15015 15016 15017 15018 15019 15020 15021 15022 15023 15024 15025 15026 15027 15028 15029 15030 15031 15032 15033 15034 15035 15036 15037 15038 15039 15040 15041 15042 15043 15044 15045 15046 15047 15048 15049 15050 15051 15052 15053 15054 15055 15056 15057 15058 15059 15060 15061 15062 15063 15064 15065 15066 15067 15068 15069 15070 15071 15072 15073 15074 15075 15076 15077 15078 15079 15080 15081 15082 15083 15084 15085 15086 15087 15088 15089 15090 15091 15092 15093 15094 15095 15096 15097 15098 15099 15100 15101 15102 15103 15104 15105 15106 15107 15108 15109 15110 15111 15112 15113 15114 15115 15116 15117 15118 15119 15120 15121 15122 15123 15124 15125 15126 15127 15128 15129 15130 15131 15132 15133 15134 15135 15136 15137 15138 15139 15140 15141 15142 15143 15144 15145 15146 15147 15148 15149 15150 15151 15152 15153 15154 15155 15156 15157 15158 15159 15160 15161 15162 15163 15164 15165 15166 15167 15168 15169 15170 15171 15172 15173 15174 15175 15176 15177 15178 15179 15180 15181 15182 15183 15184 15185 15186 15187 15188 15189 15190 15191 15192 15193 15194 15195 15196 15197 15198 15199 15200 15201 15202 15203 15204 15205 15206 15207 15208 15209 15210 15211 15212 15213 15214 15215 15216 15217 15218 15219 15220 15221 15222 15223 15224 15225 15226 15227 15228 15229 15230 15231 15232 15233 15234 15235 15236 15237 15238 15239 15240 15241 15242 15243 15244 15245 15246 15247 15248 15249 15250 15251 15252 15253 15254 15255 15256 15257 15258 15259 15260 15261 15262 15263 15264 15265 15266 15267 15268 15269 15270 15271 15272 15273 15274 15275 15276 15277 15278 15279 15280 15281 15282 15283 15284 15285 15286 15287 15288 15289 15290 15291 15292 15293 15294 15295 15296 15297 15298 15299 15300 15301 15302 15303 15304 15305 15306 15307 15308 15309 15310 15311 15312 15313 15314 15315 15316 15317 15318 15319 15320 15321 15322 15323 15324 15325 15326 15327 15328 15329 15330 15331 15332 15333 15334 15335 15336 15337 15338 15339 15340 15341 15342 15343 15344 15345 15346 15347 15348 15349 15350 15351 15352 15353 15354 15355 15356 15357 15358 15359 15360 15361 15362 15363 15364 15365 15366 15367 15368 15369 15370 15371 15372 15373 15374 15375 15376 15377 15378 15379 15380 15381 15382 15383 15384 15385 15386 15387 15388 15389 15390 15391 15392 15393 15394 15395 15396 15397 15398 15399 15400 15401 15402 15403 15404 15405 15406 15407 15408 15409 15410 15411 15412 15413 15414 15415 15416 15417 15418 15419 15420 15421 15422 15423 15424 15425 15426 15427 15428 15429 15430 15431 15432 15433 15434 15435 15436 15437 15438 15439 15440 15441 15442 15443 15444 15445 15446 15447 15448 15449 15450 15451 15452 15453 15454 15455 15456 15457 15458 15459 15460 15461 15462 15463 15464 15465 15466 15467 15468 15469 15470 15471 15472 15473 15474 15475 15476 15477 15478 15479 15480 15481 15482 15483 15484 15485 15486 15487 15488 15489 15490 15491 15492 15493 15494 15495 15496 15497 15498 15499 15500 15501 15502 15503 15504 15505 15506 15507 15508 15509 15510 15511 15512 15513 15514 15515 15516 15517 15518 15519 15520 15521 15522 15523 15524 15525 15526 15527 15528 15529 15530 15531 15532 15533 15534 15535 15536 15537 15538 15539 15540 15541 15542 15543 15544 15545 15546 15547 15548 15549 15550 15551 15552 15553 15554 15555 15556 15557 15558 15559 15560 15561 15562 15563 15564 15565 15566 15567 15568 15569 15570 15571 15572 15573 15574 15575 15576 15577 15578 15579 15580 15581 15582 15583 15584 15585 15586 15587 15588 15589 15590 15591 15592 15593 15594 15595 15596 15597 15598 15599 15600 15601 15602 15603 15604 15605 15606 15607 15608 15609 15610 15611 15612 15613 15614 15615 15616 15617 15618 15619 15620 15621 15622 15623 15624 15625 15626 15627 15628 15629 15630 15631 15632 15633 15634 15635 15636 15637 15638 15639 15640 15641 15642 15643 15644 15645 15646 15647 15648 15649 15650 15651 15652 15653 15654 15655 15656 15657 15658 15659 15660 15661 15662 15663 15664 15665 15666 15667 15668 15669 15670 15671 15672 15673 15674 15675 15676 15677 15678 15679 15680 15681 15682 15683 15684 15685 15686 15687 15688 15689 15690 15691 15692 15693 15694 15695 15696 15697 15698 15699 15700 15701 15702 15703 15704 15705 15706 15707 15708 15709 15710 15711 15712 15713 15714 15715 15716 15717 15718 15719 15720 15721 15722 15723 15724 15725 15726 15727 15728 15729 15730 15731 15732 15733 15734 15735 15736 15737 15738 15739 15740 15741 15742 15743 15744 15745 15746 15747 15748 15749 15750 15751 15752 15753 15754 15755 15756 15757 15758 15759 15760 15761 15762 15763 15764 15765 15766 15767 15768 15769 15770 15771 15772 15773 15774 15775 15776 15777 15778 15779 15780 15781 15782 15783 15784 15785 15786 15787 15788 15789 15790 15791 15792 15793 15794 15795 15796 15797 15798 15799 15800 15801 15802 15803 15804 15805 15806 15807 15808 15809 15810 15811 15812 15813 15814 15815 15816 15817 15818 15819 15820 15821 15822 15823 15824 15825 15826 15827 15828 15829 15830 15831 15832 15833 15834 15835 15836 15837 15838 15839 15840 15841 15842 15843 15844 15845 15846 15847 15848 15849 15850 15851 15852 15853 15854 15855 15856 15857 15858 15859 15860 15861 15862 15863 15864 15865 15866 15867 15868 15869 15870 15871 15872 15873 15874 15875 15876 15877 15878 15879 15880 15881 15882 15883 15884 15885 15886 15887 15888 15889 15890 15891 15892 15893 15894 15895 15896 15897 15898 15899 15900 15901 15902 15903 15904 15905 15906 15907 15908 15909 15910 15911 15912 15913 15914 15915 15916 15917 15918 15919 15920 15921 15922 15923 15924 15925 15926 15927 15928 15929 15930 15931 15932 15933 15934 15935 15936 15937 15938 15939 15940 15941 15942 15943 15944 15945 15946 15947 15948 15949 15950 15951 15952 15953 15954 15955 15956 15957 15958 15959 15960 15961 15962 15963 15964 15965 15966 15967 15968 15969 15970 15971 15972 15973 15974 15975 15976 15977 15978 15979 15980 15981 15982 15983 15984 15985 15986 15987 15988 15989 15990 15991 15992 15993 15994 15995 15996 15997 15998 15999 16000 16001 16002 16003 16004 16005 16006 16007 16008 16009 16010 16011 16012 16013 16014 16015 16016 16017 16018 16019 16020 16021 16022 16023 16024 16025 16026 16027 16028 16029 16030 16031 16032 16033 16034 16035 16036 16037 16038 16039 16040 16041 16042 16043 16044 16045 16046 16047 16048 16049 16050 16051 16052 16053 16054 16055 16056 16057 16058 16059 16060 16061 16062 16063 16064 16065 16066 16067 16068 16069 16070 16071 16072 16073 16074 16075 16076 16077 16078 16079 16080 16081 16082 16083 16084 16085 16086 16087 16088 16089 16090 16091 16092 16093 16094 16095 16096 16097 16098 16099 16100 16101 16102 16103 16104 16105 16106 16107 16108 16109 16110 16111 16112 16113 16114 16115 16116 16117 16118 16119 16120 16121 16122 16123 16124 16125 16126 16127 16128 16129 16130 16131 16132 16133 16134 16135 16136 16137 16138 16139 16140 16141 16142 16143 16144 16145 16146 16147 16148 16149 16150 16151 16152 16153 16154 16155 16156 16157 16158 16159 16160 16161 16162 16163 16164 16165 16166 16167 16168 16169 16170 16171 16172 16173 16174 16175 16176 16177 16178 16179 16180 16181 16182 16183 16184 16185 16186 16187 16188 16189 16190 16191 16192 16193 16194 16195 16196 16197 16198 16199 16200 16201 16202 16203 16204 16205 16206 16207 16208 16209 16210 16211 16212 16213 16214 16215 16216 16217 16218 16219 16220 16221 16222 16223 16224 16225 16226 16227 16228 16229 16230 16231 16232 16233 16234 16235 16236 16237 16238 16239 16240 16241 16242 16243 16244 16245 16246 16247 16248 16249 16250 16251 16252 16253 16254 16255 16256 16257 16258 16259 16260 16261 16262 16263 16264 16265 16266 16267 16268 16269 16270 16271 16272 16273 16274 16275 16276 16277 16278 16279 16280 16281 16282 16283 16284 16285 16286 16287 16288 16289 16290 16291 16292 16293 16294 16295 16296 16297 16298 16299 16300 16301 16302 16303 16304 16305 16306 16307 16308 16309 16310 16311 16312 16313 16314 16315 16316 16317 16318 16319 16320 16321 16322 16323 16324 16325 16326 16327 16328 16329 16330 16331 16332 16333 16334 16335 16336 16337 16338 16339 16340 16341 16342 16343 16344 16345 16346 16347 16348 16349 16350 16351 16352 16353 16354 16355 16356 16357 16358 16359 16360 16361 16362 16363 16364 16365 16366 16367 16368 16369 16370 16371 16372 16373 16374 16375 16376 16377 16378 16379 16380 16381 16382 16383 16384 16385 16386 16387 16388 16389 16390 16391 16392 16393 16394 16395 16396 16397 16398 16399 16400 16401 16402 16403 16404 16405 16406 16407 16408 16409 16410 16411 16412 16413 16414 16415 16416 16417 16418 16419 16420 16421 16422 16423 16424 16425 16426 16427 16428 16429 16430 16431 16432 16433 16434 16435 16436 16437 16438 16439 16440 16441 16442 16443 16444 16445 16446 16447 16448 16449 16450 16451 16452 16453 16454 16455 16456 16457 16458 16459 16460 16461 16462 16463 16464 16465 16466 16467 16468 16469 16470 16471 16472 16473 16474 16475 16476 16477 16478 16479 16480 16481 16482 16483 16484 16485 16486 16487 16488 16489 16490 16491 16492 16493 16494 16495 16496 16497 16498 16499 16500 16501 16502 16503 16504 16505 16506 16507 16508 16509 16510 16511 16512 16513 16514 16515 16516 16517 16518 16519 16520 16521 16522 16523 16524 16525 16526 16527 16528 16529 16530 16531 16532 16533 16534 16535 16536 16537 16538 16539 16540 16541 16542 16543 16544 16545 16546 16547 16548 16549 16550 16551 16552 16553 16554 16555 16556 16557 16558 16559 16560 16561 16562 16563 16564 16565 16566 16567 16568 16569 16570 16571 16572 16573 16574 16575 16576 16577 16578 16579 16580 16581 16582 16583 16584 16585 16586 16587 16588 16589 16590 16591 16592 16593 16594 16595 16596 16597 16598 16599 16600 16601 16602 16603 16604 16605 16606 16607 16608 16609 16610 16611 16612 16613 16614 16615 16616 16617 16618 16619 16620 16621 16622 16623 16624 16625 16626 16627 16628 16629 16630 16631 16632 16633 16634 16635 16636 16637 16638 16639 16640 16641 16642 16643 16644 16645 16646 16647 16648 16649 16650 16651 16652 16653 16654 16655 16656 16657 16658 16659 16660 16661 16662 16663 16664 16665 16666 16667 16668 16669 16670 16671 16672 16673 16674 16675 16676 16677 16678 16679 16680 16681 16682 16683 16684 16685 16686 16687 16688 16689 16690 16691 16692 16693 16694 16695 16696 16697 16698 16699 16700 16701 16702 16703 16704 16705 16706 16707 16708 16709 16710 16711 16712 16713 16714 16715 16716 16717 16718 16719 16720 16721 16722 16723 16724 16725 16726 16727 16728 16729 16730 16731 16732 16733 16734 16735 16736 16737 16738 16739 16740 16741 16742 16743 16744 16745 16746 16747 16748 16749 16750 16751 16752 16753 16754 16755 16756 16757 16758 16759 16760 16761 16762 16763 16764 16765 16766 16767 16768 16769 16770 16771 16772 16773 16774 16775 16776 16777 16778 16779 16780 16781 16782 16783 16784 16785 16786 16787 16788 16789 16790 16791 16792 16793 16794 16795 16796 16797 16798 16799 16800 16801 16802 16803 16804 16805 16806 16807 16808 16809 16810 16811 16812 16813 16814 16815 16816 16817 16818 16819 16820 16821 16822 16823 16824 16825 16826 16827 16828 16829 16830 16831 16832 16833 16834 16835 16836 16837 16838 16839 16840 16841 16842 16843 16844 16845 16846 16847 16848 16849 16850 16851 16852 16853 16854 16855 16856 16857 16858 16859 16860 16861 16862 16863 16864 16865 16866 16867 16868 16869 16870 16871 16872 16873 16874 16875 16876 16877 16878 16879 16880 16881 16882 16883 16884 16885 16886 16887 16888 16889 16890 16891 16892 16893 16894 16895 16896 16897 16898 16899 16900 16901 16902 16903 16904 16905 16906 16907 16908 16909 16910 16911 16912 16913 16914 16915 16916 16917 16918 16919 16920 16921 16922 16923 16924 16925 16926 16927 16928 16929 16930 16931 16932 16933 16934 16935 16936 16937 16938 16939 16940 16941 16942 16943 16944 16945 16946 16947 16948 16949 16950 16951 16952 16953 16954 16955 16956 16957 16958 16959 16960 16961 16962 16963 16964 16965 16966 16967 16968 16969 16970 16971 16972 16973 16974 16975 16976 16977 16978 16979 16980 16981 16982 16983 16984 16985 16986 16987 16988 16989 16990 16991 16992 16993 16994 16995 16996 16997 16998 16999 17000 17001 17002 17003 17004 17005 17006 17007 17008 17009 17010 17011 17012 17013 17014 17015 17016 17017 17018 17019 17020 17021 17022 17023 17024 17025 17026 17027 17028 17029 17030 17031 17032 17033 17034 17035 17036 17037 17038 17039 17040 17041 17042 17043 17044 17045 17046 17047 17048 17049 17050 17051 17052 17053 17054 17055 17056 17057 17058 17059 17060 17061 17062 17063 17064 17065 17066 17067 17068 17069 17070 17071 17072 17073 17074 17075 17076 17077 17078 17079 17080 17081 17082 17083 17084 17085 17086 17087 17088 17089 17090 17091 17092 17093 17094 17095 17096 17097 17098 17099 17100 17101 17102 17103 17104 17105 17106 17107 17108 17109 17110 17111 17112 17113 17114 17115 17116 17117 17118 17119 17120 17121 17122 17123 17124 17125 17126 17127 17128 17129 17130 17131 17132 17133 17134 17135 17136 17137 17138 17139 17140 17141 17142 17143 17144 17145 17146 17147 17148 17149 17150 17151 17152 17153 17154 17155 17156 17157 17158 17159 17160 17161 17162 17163 17164 17165 17166 17167 17168 17169 17170 17171 17172 17173 17174 17175 17176 17177 17178 17179 17180 17181 17182 17183 17184 17185 17186 17187 17188 17189 17190 17191 17192 17193 17194 17195 17196 17197 17198 17199 17200 17201 17202 17203 17204 17205 17206 17207 17208 17209 17210 17211 17212 17213 17214 17215 17216 17217 17218 17219 17220 17221 17222 17223 17224 17225 17226 17227 17228 17229 17230 17231 17232 17233 17234 17235 17236 17237 17238 17239 17240 17241 17242 17243 17244 17245 17246 17247 17248 17249 17250 17251 17252 17253 17254 17255 17256 17257 17258 17259 17260 17261 17262 17263 17264 17265 17266 17267 17268 17269 17270 17271 17272 17273 17274 17275 17276 17277 17278 17279 17280 17281 17282 17283 17284 17285 17286 17287 17288 17289 17290 17291 17292 17293 17294 17295 17296 17297 17298 17299 17300 17301 17302 17303 17304 17305 17306 17307 17308 17309 17310 17311 17312 17313 17314 17315 17316 17317 17318 17319 17320 17321 17322 17323 17324 17325 17326 17327 17328 17329 17330 17331 17332 17333 17334 17335 17336 17337 17338 17339 17340 17341 17342 17343 17344 17345 17346 17347 17348 17349 17350 17351 17352 17353 17354 17355 17356 17357 17358 17359 17360 17361 17362 17363 17364 17365 17366 17367 17368 17369 17370 17371 17372 17373 17374 17375 17376 17377 17378 17379 17380 17381 17382 17383 17384 17385 17386 17387 17388 17389 17390 17391 17392 17393 17394 17395 17396 17397 17398 17399 17400 17401 17402 17403 17404 17405 17406 17407 17408 17409 17410 17411 17412 17413 17414 17415 17416 17417 17418 17419 17420 17421 17422 17423 17424 17425 17426 17427 17428 17429 17430 17431 17432 17433 17434 17435 17436 17437 17438 17439 17440 17441 17442 17443 17444 17445 17446 17447 17448 17449 17450 17451 17452 17453 17454 17455 17456 17457 17458 17459 17460 17461 17462 17463 17464 17465 17466 17467 17468 17469 17470 17471 17472 17473 17474 17475 17476 17477 17478 17479 17480 17481 17482 17483 17484 17485 17486 17487 17488 17489 17490 17491 17492 17493 17494 17495 17496 17497 17498 17499 17500 17501 17502 17503 17504 17505 17506 17507 17508 17509 17510 17511 17512 17513 17514 17515 17516 17517 17518 17519 17520 17521 17522 17523 17524 17525 17526 17527 17528 17529 17530 17531 17532 17533 17534 17535 17536 17537 17538 17539 17540 17541 17542 17543 17544 17545 17546 17547 17548 17549 17550 17551 17552 17553 17554 17555 17556 17557 17558 17559 17560 17561 17562 17563 17564 17565 17566 17567 17568 17569 17570 17571 17572 17573 17574 17575 17576 17577 17578 17579 17580 17581 17582 17583 17584 17585 17586 17587 17588 17589 17590 17591 17592 17593 17594 17595 17596 17597 17598 17599 17600 17601 17602 17603 17604 17605 17606 17607 17608 17609 17610 17611 17612 17613 17614 17615 17616 17617 17618 17619 17620 17621 17622 17623 17624 17625 17626 17627 17628 17629 17630 17631 17632 17633 17634 17635 17636 17637 17638 17639 17640 17641 17642 17643 17644 17645 17646 17647 17648 17649 17650 17651 17652 17653 17654 17655 17656 17657 17658 17659 17660 17661 17662 17663 17664 17665 17666 17667 17668 17669 17670 17671 17672 17673 17674 17675 17676 17677 17678 17679 17680 17681 17682 17683 17684 17685 17686 17687 17688 17689 17690 17691 17692 17693 17694 17695 17696 17697 17698 17699 17700 17701 17702 17703 17704 17705 17706 17707 17708 17709 17710 17711 17712 17713 17714 17715 17716 17717 17718 17719 17720 17721 17722 17723 17724 17725 17726 17727 17728 17729 17730 17731 17732 17733 17734 17735 17736 17737 17738 17739 17740 17741 17742 17743 17744 17745 17746 17747 17748 17749 17750 17751 17752 17753 17754 17755 17756 17757 17758 17759 17760 17761 17762 17763 17764 17765 17766 17767 17768 17769 17770 17771 17772 17773 17774 17775 17776 17777 17778 17779 17780 17781 17782 17783 17784 17785 17786 17787 17788 17789 17790 17791 17792 17793 17794 17795 17796 17797 17798 17799 17800 17801 17802 17803 17804 17805 17806 17807 17808 17809 17810 17811 17812 17813 17814 17815 17816 17817 17818 17819 17820 17821 17822 17823 17824 17825 17826 17827 17828 17829 17830 17831 17832 17833 17834 17835 17836 17837 17838 17839 17840 17841 17842 17843 17844 17845 17846 17847 17848 17849 17850 17851 17852 17853 17854 17855 17856 17857 17858 17859 17860 17861 17862 17863 17864 17865 17866 17867 17868 17869 17870 17871 17872 17873 17874 17875 17876 17877 17878 17879 17880 17881 17882 17883 17884 17885 17886 17887 17888 17889 17890 17891 17892 17893 17894 17895 17896 17897 17898 17899 17900 17901 17902 17903 17904 17905 17906 17907 17908 17909 17910 17911 17912 17913 17914 17915 17916 17917 17918 17919 17920 17921 17922 17923 17924 17925 17926 17927 17928 17929 17930 17931 17932 17933 17934 17935 17936 17937 17938 17939 17940 17941 17942 17943 17944 17945 17946 17947 17948 17949 17950 17951 17952 17953 17954 17955 17956 17957 17958 17959 17960 17961 17962 17963 17964 17965 17966 17967 17968 17969 17970 17971 17972 17973 17974 17975 17976 17977 17978 17979 17980 17981 17982 17983 17984 17985 17986 17987 17988 17989 17990 17991 17992 17993 17994 17995 17996 17997 17998 17999 18000 18001 18002 18003 18004 18005 18006 18007 18008 18009 18010 18011 18012 18013 18014 18015 18016 18017 18018 18019 18020 18021 18022 18023 18024 18025 18026 18027 18028 18029 18030 18031 18032 18033 18034 18035 18036 18037 18038 18039 18040 18041 18042 18043 18044 18045 18046 18047 18048 18049 18050 18051 18052 18053 18054 18055 18056 18057 18058 18059 18060 18061 18062 18063 18064 18065 18066 18067 18068 18069 18070 18071 18072 18073 18074 18075 18076 18077 18078 18079 18080 18081 18082 18083 18084 18085 18086 18087 18088 18089 18090 18091 18092 18093 18094 18095 18096 18097 18098 18099 18100 18101 18102 18103 18104 18105 18106 18107 18108 18109 18110 18111 18112 18113 18114 18115 18116 18117 18118 18119 18120 18121 18122 18123 18124 18125 18126 18127 18128 18129 18130 18131 18132 18133 18134 18135 18136 18137 18138 18139 18140 18141 18142 18143 18144 18145 18146 18147 18148 18149 18150 18151 18152 18153 18154 18155 18156 18157 18158 18159 18160 18161 18162 18163 18164 18165 18166 18167 18168 18169 18170 18171 18172 18173 18174 18175 18176 18177 18178 18179 18180 18181 18182 18183 18184 18185 18186 18187 18188 18189 18190 18191 18192 18193 18194 18195 18196 18197 18198 18199 18200 18201 18202 18203 18204 18205 18206 18207 18208 18209 18210 18211 18212 18213 18214 18215 18216 18217 18218 18219 18220 18221 18222 18223 18224 18225 18226 18227 18228 18229 18230 18231 18232 18233 18234 18235 18236 18237 18238 18239 18240 18241 18242 18243 18244 18245 18246 18247 18248 18249 18250 18251 18252 18253 18254 18255 18256 18257 18258 18259 18260 18261 18262 18263 18264 18265 18266 18267 18268 18269 18270 18271 18272 18273 18274 18275 18276 18277 18278 18279 18280 18281 18282 18283 18284 18285 18286 18287 18288 18289 18290 18291 18292 18293 18294 18295 18296 18297 18298 18299 18300 18301 18302 18303 18304 18305 18306 18307 18308 18309 18310 18311 18312 18313 18314 18315 18316 18317 18318 18319 18320 18321 18322 18323 18324 18325 18326 18327 18328 18329 18330 18331 18332 18333 18334 18335 18336 18337 18338 18339 18340 18341 18342 18343 18344 18345 18346 18347 18348 18349 18350 18351 18352 18353 18354 18355 18356 18357 18358 18359 18360 18361 18362 18363 18364 18365 18366 18367 18368 18369 18370 18371 18372 18373 18374 18375 18376 18377 18378 18379 18380 18381 18382 18383 18384 18385 18386 18387 18388 18389 18390 18391 18392 18393 18394 18395 18396 18397 18398 18399 18400 18401 18402 18403 18404 18405 18406 18407 18408 18409 18410 18411 18412 18413 18414 18415 18416 18417 18418 18419 18420 18421 18422 18423 18424 18425 18426 18427 18428 18429 18430 18431 18432 18433 18434 18435 18436 18437 18438 18439 18440 18441 18442 18443 18444 18445 18446 18447 18448 18449 18450 18451 18452 18453 18454 18455 18456 18457 18458 18459 18460 18461 18462 18463 18464 18465 18466 18467 18468 18469 18470 18471 18472 18473 18474 18475 18476 18477 18478 18479 18480 18481 18482 18483 18484 18485 18486 18487 18488 18489 18490 18491 18492 18493 18494 18495 18496 18497 18498 18499 18500 18501 18502 18503 18504 18505 18506 18507 18508 18509 18510 18511 18512 18513 18514 18515 18516 18517 18518 18519 18520 18521 18522 18523 18524 18525 18526 18527 18528 18529 18530 18531 18532 18533 18534 18535 18536 18537 18538 18539 18540 18541 18542 18543 18544 18545 18546 18547 18548 18549 18550 18551 18552 18553 18554 18555 18556 18557 18558 18559 18560 18561 18562 18563 18564 18565 18566 18567 18568 18569 18570 18571 18572 18573 18574 18575 18576 18577 18578 18579 18580 18581 18582 18583 18584 18585 18586 18587 18588 18589 18590 18591 18592 18593 18594 18595 18596 18597 18598 18599 18600 18601 18602 18603 18604 18605 18606 18607 18608 18609 18610 18611 18612 18613 18614 18615 18616 18617 18618 18619 18620 18621 18622 18623 18624 18625 18626 18627 18628 18629 18630 18631 18632 18633 18634 18635 18636 18637 18638 18639 18640 18641 18642 18643 18644 18645 18646 18647 18648 18649 18650 18651 18652 18653 18654 18655 18656 18657 18658 18659 18660 18661 18662 18663 18664 18665 18666 18667 18668 18669 18670 18671 18672 18673 18674 18675 18676 18677 18678 18679 18680 18681 18682 18683 18684 18685 18686 18687 18688 18689 18690 18691 18692 18693 18694 18695 18696 18697 18698 18699 18700 18701 18702 18703 18704 18705 18706 18707 18708 18709 18710 18711 18712 18713 18714 18715 18716 18717 18718 18719 18720 18721 18722 18723 18724 18725 18726 18727 18728 18729 18730 18731 18732 18733 18734 18735 18736 18737 18738 18739 18740 18741 18742 18743 18744 18745 18746 18747 18748 18749 18750 18751 18752 18753 18754 18755 18756 18757 18758 18759 18760 18761 18762 18763 18764 18765 18766 18767 18768 18769 18770 18771 18772 18773 18774 18775 18776 18777 18778 18779 18780 18781 18782 18783 18784 18785 18786 18787 18788 18789 18790 18791 18792 18793 18794 18795 18796 18797 18798 18799 18800 18801 18802 18803 18804 18805 18806 18807 18808 18809 18810 18811 18812 18813 18814 18815 18816 18817 18818 18819 18820 18821 18822 18823 18824 18825 18826 18827 18828 18829 18830 18831 18832 18833 18834 18835 18836 18837 18838 18839 18840 18841 18842 18843 18844 18845 18846 18847 18848 18849 18850 18851 18852 18853 18854 18855 18856 18857 18858 18859 18860 18861 18862 18863 18864 18865 18866 18867 18868 18869 18870 18871 18872 18873 18874 18875 18876 18877 18878 18879 18880 18881 18882 18883 18884 18885 18886 18887 18888 18889 18890 18891 18892 18893 18894 18895 18896 18897 18898 18899 18900 18901 18902 18903 18904 18905 18906 18907 18908 18909 18910 18911 18912 18913 18914 18915 18916 18917 18918 18919 18920 18921 18922 18923 18924 18925 18926 18927 18928 18929 18930 18931 18932 18933 18934 18935 18936 18937 18938 18939 18940 18941 18942 18943 18944 18945 18946 18947 18948 18949 18950 18951 18952 18953 18954 18955 18956 18957 18958 18959 18960 18961 18962 18963 18964 18965 18966 18967 18968 18969 18970 18971 18972 18973 18974 18975 18976 18977 18978 18979 18980 18981 18982 18983 18984 18985 18986 18987 18988 18989 18990 18991 18992 18993 18994 18995 18996 18997 18998 18999 19000 19001 19002 19003 19004 19005 19006 19007 19008 19009 19010 19011 19012 19013 19014 19015 19016 19017 19018 19019 19020 19021 19022 19023 19024 19025 19026 19027 19028 19029 19030 19031 19032 19033 19034 19035 19036 19037 19038 19039 19040 19041 19042 19043 19044 19045 19046 19047 19048 19049 19050 19051 19052 19053 19054 19055 19056 19057 19058 19059 19060 19061 19062 19063 19064 19065 19066 19067 19068 19069 19070 19071 19072 19073 19074 19075 19076 19077 19078 19079 19080 19081 19082 19083 19084 19085 19086 19087 19088 19089 19090 19091 19092 19093 19094 19095 19096 19097 19098 19099 19100 19101 19102 19103 19104 19105 19106 19107 19108 19109 19110 19111 19112 19113 19114 19115 19116 19117 19118 19119 19120 19121 19122 19123 19124 19125 19126 19127 19128 19129 19130 19131 19132 19133 19134 19135 19136 19137 19138 19139 19140 19141 19142 19143 19144 19145 19146 19147 19148 19149 19150 19151 19152 19153 19154 19155 19156 19157 19158 19159 19160 19161 19162 19163 19164 19165 19166 19167 19168 19169 19170 19171 19172 19173 19174 19175 19176 19177 19178 19179 19180 19181 19182 19183 19184 19185 19186 19187 19188 19189 19190 19191 19192 19193 19194 19195 19196 19197 19198 19199 19200 19201 19202 19203 19204 19205 19206 19207 19208 19209 19210 19211 19212 19213 19214 19215 19216 19217 19218 19219 19220 19221 19222 19223 19224 19225 19226 19227 19228 19229 19230 19231 19232 19233 19234 19235 19236 19237 19238 19239 19240 19241 19242 19243 19244 19245 19246 19247 19248 19249 19250 19251 19252 19253 19254 19255 19256 19257 19258 19259 19260 19261 19262 19263 19264 19265 19266 19267 19268 19269 19270 19271 19272 19273 19274 19275 19276 19277 19278 19279 19280 19281 19282 19283 19284 19285 19286 19287 19288 19289 19290 19291 19292 19293 19294 19295 19296 19297 19298 19299 19300 19301 19302 19303 19304 19305 19306 19307 19308 19309 19310 19311 19312 19313 19314 19315 19316 19317 19318 19319 19320 19321 19322 19323 19324 19325 19326 19327 19328 19329 19330 19331 19332 19333 19334 19335 19336 19337 19338 19339 19340 19341 19342 19343 19344 19345 19346 19347 19348 19349 19350 19351 19352 19353 19354 19355 19356 19357 19358 19359 19360 19361 19362 19363 19364 19365 19366 19367 19368 19369 19370 19371 19372 19373 19374 19375 19376 19377 19378 19379 19380 19381 19382 19383 19384 19385 19386 19387 19388 19389 19390 19391 19392 19393 19394 19395 19396 19397 19398 19399 19400 19401 19402 19403 19404 19405 19406 19407 19408 19409 19410 19411 19412 19413 19414 19415 19416 19417 19418 19419 19420 19421 19422 19423 19424 19425 19426 19427 19428 19429 19430 19431 19432 19433 19434 19435 19436 19437 19438 19439 19440 19441 19442 19443 19444 19445 19446 19447 19448 19449 19450 19451 19452 19453 19454 19455 19456 19457 19458 19459 19460 19461 19462 19463 19464 19465 19466 19467 19468 19469 19470 19471 19472 19473 19474 19475 19476 19477 19478 19479 19480 19481 19482 19483 19484 19485 19486 19487 19488 19489 19490 19491 19492 19493 19494 19495 19496 19497 19498 19499 19500 19501 19502 19503 19504 19505 19506 19507 19508 19509 19510 19511 19512 19513 19514 19515 19516 19517 19518 19519 19520 19521 19522 19523 19524 19525 19526 19527 19528 19529 19530 19531 19532 19533 19534 19535 19536 19537 19538 19539 19540 19541 19542 19543 19544 19545 19546 19547 19548 19549 19550 19551 19552 19553 19554 19555 19556 19557 19558 19559 19560 19561 19562 19563 19564 19565 19566 19567 19568 19569 19570 19571 19572 19573 19574 19575 19576 19577 19578 19579 19580 19581 19582 19583 19584 19585 19586 19587 19588 19589 19590 19591 19592 19593 19594 19595 19596 19597 19598 19599 19600 19601 19602 19603 19604 19605 19606 19607 19608 19609 19610 19611 19612 19613 19614 19615 19616 19617 19618 19619 19620 19621 19622 19623 19624 19625 19626 19627 19628 19629 19630 19631 19632 19633 19634 19635 19636 19637 19638 19639 19640 19641 19642 19643 19644 19645 19646 19647 19648 19649 19650 19651 19652 19653 19654 19655 19656 19657 19658 19659 19660 19661 19662 19663 19664 19665 19666 19667 19668 19669 19670 19671 19672 19673 19674 19675 19676 19677 19678 19679 19680 19681 19682 19683 19684 19685 19686 19687 19688 19689 19690 19691 19692 19693 19694 19695 19696 19697 19698 19699 19700 19701 19702 19703 19704 19705 19706 19707 19708 19709 19710 19711 19712 19713 19714 19715 19716 19717 19718 19719 19720 19721 19722 19723 19724 19725 19726 19727 19728 19729 19730 19731 19732 19733 19734 19735 19736 19737 19738 19739 19740 19741 19742 19743 19744 19745 19746 19747 19748 19749 19750 19751 19752 19753 19754 19755 19756 19757 19758 19759 19760 19761 19762 19763 19764 19765 19766 19767 19768 19769 19770 19771 19772 19773 19774 19775 19776 19777 19778 19779 19780 19781 19782 19783 19784 19785 19786 19787 19788 19789 19790 19791 19792 19793 19794 19795 19796 19797 19798 19799 19800 19801 19802 19803 19804 19805 19806 19807 19808 19809 19810 19811 19812 19813 19814 19815 19816 19817 19818 19819 19820 19821 19822 19823 19824 19825 19826 19827 19828 19829 19830 19831 19832 19833 19834 19835 19836 19837 19838 19839 19840 19841 19842 19843 19844 19845 19846 19847 19848 19849 19850 19851 19852 19853 19854 19855 19856 19857 19858 19859 19860 19861 19862 19863 19864 19865 19866 19867 19868 19869 19870 19871 19872 19873 19874 19875 19876 19877 19878 19879 19880 19881 19882 19883 19884 19885 19886 19887 19888 19889 19890 19891 19892 19893 19894 19895 19896 19897 19898 19899 19900 19901 19902 19903 19904 19905 19906 19907 19908 19909 19910 19911 19912 19913 19914 19915 19916 19917 19918 19919 19920 19921 19922 19923 19924 19925 19926 19927 19928 19929 19930 19931 19932 19933 19934 19935 19936 19937 19938 19939 19940 19941 19942 19943 19944 19945 19946 19947 19948 19949 19950 19951 19952 19953 19954 19955 19956 19957 19958 19959 19960 19961 19962 19963 19964 19965 19966 19967 19968 19969 19970 19971 19972 19973 19974 19975 19976 19977 19978 19979 19980 19981 19982 19983 19984 19985 19986 19987 19988 19989 19990 19991 19992 19993 19994 19995 19996 19997 19998 19999 20000 20001 20002 20003 20004 20005 20006 20007 20008 20009 20010 20011 20012 20013 20014 20015 20016 20017 20018 20019 20020 20021 20022 20023 20024 20025 20026 20027 20028 20029 20030 20031 20032 20033 20034 20035 20036 20037 20038 20039 20040 20041 20042 20043 20044 20045 20046 20047 20048 20049 20050 20051 20052 20053 20054 20055 20056 20057 20058 20059 20060 20061 20062 20063 20064 20065 20066 20067 20068 20069 20070 20071 20072 20073 20074 20075 20076 20077 20078 20079 20080 20081 20082 20083 20084 20085 20086 20087 20088 20089 20090 20091 20092 20093 20094 20095 20096 20097 20098 20099 20100 20101 20102 20103 20104 20105 20106 20107 20108 20109 20110 20111 20112 20113 20114 20115 20116 20117 20118 20119 20120 20121 20122 20123 20124 20125 20126 20127 20128 20129 20130 20131 20132 20133 20134 20135 20136 20137 20138 20139 20140 20141 20142 20143 20144 20145 20146 20147 20148 20149 20150 20151 20152 20153 20154 20155 20156 20157 20158 20159 20160 20161 20162 20163 20164 20165 20166 20167 20168 20169 20170 20171 20172 20173 20174 20175 20176 20177 20178 20179 20180 20181 20182 20183 20184 20185 20186 20187 20188 20189 20190 20191 20192 20193 20194 20195 20196 20197 20198 20199 20200 20201 20202 20203 20204 20205 20206 20207 20208 20209 20210 20211 20212 20213 20214 20215 20216 20217 20218 20219 20220 20221 20222 20223 20224 20225 20226 20227 20228 20229 20230 20231 20232 20233 20234 20235 20236 20237 20238 20239 20240 20241 20242 20243 20244 20245 20246 20247 20248 20249 20250 20251 20252 20253 20254 20255 20256 20257 20258 20259 20260 20261 20262 20263 20264 20265 20266 20267 20268 20269 20270 20271 20272 20273 20274 20275 20276 20277 20278 20279 20280 20281 20282 20283 20284 20285 20286 20287 20288 20289 20290 20291 20292 20293 20294 20295 20296 20297 20298 20299 20300 20301 20302 20303 20304 20305 20306 20307 20308 20309 20310 20311 20312 20313 20314 20315 20316 20317 20318 20319 20320 20321 20322 20323 20324 20325 20326 20327 20328 20329 20330 20331 20332 20333 20334 20335 20336 20337 20338 20339 20340 20341 20342 20343 20344 20345 20346 20347 20348 20349 20350 20351 20352 20353 20354 20355 20356 20357 20358 20359 20360 20361 20362 20363 20364 20365 20366 20367 20368 20369 20370 20371 20372 20373 20374 20375 20376 20377 20378 20379 20380 20381 20382 20383 20384 20385 20386 20387 20388 20389 20390 20391 20392 20393 20394 20395 20396 20397 20398 20399 20400 20401 20402 20403 20404 20405 20406 20407 20408 20409 20410 20411 20412 20413 20414 20415 20416 20417 20418 20419 20420 20421 20422 20423 20424 20425 20426 20427 20428 20429 20430 20431 20432 20433 20434 20435 20436 20437 20438 20439 20440 20441 20442 20443 20444 20445 20446 20447 20448 20449 20450 20451 20452 20453 20454 20455 20456 20457 20458 20459 20460 20461 20462 20463 20464 20465 20466 20467 20468 20469 20470 20471 20472 20473 20474 20475 20476 20477 20478 20479 20480 20481 20482 20483 20484 20485 20486 20487 20488 20489 20490 20491 20492 20493 20494 20495 20496 20497 20498 20499 20500 20501 20502 20503 20504 20505 20506 20507 20508 20509 20510 20511 20512 20513 20514 20515 20516 20517 20518 20519 20520 20521 20522 20523 20524 20525 20526 20527 20528 20529 20530 20531 20532 20533 20534 20535 20536 20537 20538 20539 20540 20541 20542 20543 20544 20545 20546 20547 20548 20549 20550 20551 20552 20553 20554 20555 20556 20557 20558 20559 20560 20561 20562 20563 20564 20565 20566 20567 20568 20569 20570 20571 20572 20573 20574 20575 20576 20577 20578 20579 20580 20581 20582 20583 20584 20585 20586 20587 20588 20589 20590 20591 20592 20593 20594 20595 20596 20597 20598 20599 20600 20601 20602 20603 20604 20605 20606 20607 20608 20609 20610 20611 20612 20613 20614 20615 20616 20617 20618 20619 20620 20621 20622 20623 20624 20625 20626 20627 20628 20629 20630 20631 20632 20633 20634 20635 20636 20637 20638 20639 20640 20641 20642 20643 20644 20645 20646 20647 20648 20649 20650 20651 20652 20653 20654 20655 20656 20657 20658 20659 20660 20661 20662 20663 20664 20665 20666 20667 20668 20669 20670 20671 20672 20673 20674 20675 20676 20677 20678 20679 20680 20681 20682 20683 20684 20685 20686 20687 20688 20689 20690 20691 20692 20693 20694 20695 20696 20697 20698 20699 20700 20701 20702 20703 20704 20705 20706 20707 20708 20709 20710 20711 20712 20713 20714 20715 20716 20717 20718 20719 20720 20721 20722 20723 20724 20725 20726 20727 20728 20729 20730 20731 20732 20733 20734 20735 20736 20737 20738 20739 20740 20741 20742 20743 20744 20745 20746 20747 20748 20749 20750 20751 20752 20753 20754 20755 20756 20757 20758 20759 20760 20761 20762 20763 20764 20765 20766 20767 20768 20769 20770 20771 20772 20773 20774 20775 20776 20777 20778 20779 20780 20781 20782 20783 20784 20785 20786 20787 20788 20789 20790 20791 20792 20793 20794 20795 20796 20797 20798 20799 20800 20801 20802 20803 20804 20805 20806 20807 20808 20809 20810 20811 20812 20813 20814 20815 20816 20817 20818 20819 20820 20821 20822 20823 20824 20825 20826 20827 20828 20829 20830 20831 20832 20833 20834 20835 20836 20837 20838 20839 20840 20841 20842 20843 20844 20845 20846 20847 20848 20849 20850 20851 20852 20853 20854 20855 20856 20857 20858 20859 20860 20861 20862 20863 20864 20865 20866 20867 20868 20869 20870 20871 20872 20873 20874 20875 20876 20877 20878 20879 20880 20881 20882 20883 20884 20885 20886 20887 20888 20889 20890 20891 20892 20893 20894 20895 20896 20897 20898 20899 20900 20901 20902 20903 20904 20905 20906 20907 20908 20909 20910 20911 20912 20913 20914 20915 20916 20917 20918 20919 20920 20921 20922 20923 20924 20925 20926 20927 20928 20929 20930 20931 20932 20933 20934 20935 20936 20937 20938 20939 20940 20941 20942 20943 20944 20945 20946 20947 20948 20949 20950 20951 20952 20953 20954 20955 20956 20957 20958 20959 20960 20961 20962 20963 20964 20965 20966 20967 20968 20969 20970 20971 20972 20973 20974 20975 20976 20977 20978 20979 20980 20981 20982 20983 20984 20985 20986 20987 20988 20989 20990 20991 20992 20993 20994 20995 20996 20997 20998 20999 21000 21001 21002 21003 21004 21005 21006 21007 21008 21009 21010 21011 21012 21013 21014 21015 21016 21017 21018 21019 21020 21021 21022 21023 21024 21025 21026 21027 21028 21029 21030 21031 21032 21033 21034 21035 21036 21037 21038 21039 21040 21041 21042 21043 21044 21045 21046 21047 21048 21049 21050 21051 21052 21053 21054 21055 21056 21057 21058 21059 21060 21061 21062 21063 21064 21065 21066 21067 21068 21069 21070 21071 21072 21073 21074 21075 21076 21077 21078 21079 21080 21081 21082 21083 21084 21085 21086 21087 21088 21089 21090 21091 21092 21093 21094 21095 21096 21097 21098 21099 21100 21101 21102 21103 21104 21105 21106 21107 21108 21109 21110 21111 21112 21113 21114 21115 21116 21117 21118 21119 21120 21121 21122 21123 21124 21125 21126 21127 21128 21129 21130 21131 21132 21133 21134 21135 21136 21137 21138 21139 21140 21141 21142 21143 21144 21145 21146 21147 21148 21149 21150 21151 21152 21153 21154 21155 21156 21157 21158 21159 21160 21161 21162 21163 21164 21165 21166 21167 21168 21169 21170 21171 21172 21173 21174 21175 21176 21177 21178 21179 21180 21181 21182 21183 21184 21185 21186 21187 21188 21189 21190 21191 21192 21193 21194 21195 21196 21197 21198 21199 21200 21201 21202 21203 21204 21205 21206 21207 21208 21209 21210 21211 21212 21213 21214 21215 21216 21217 21218 21219 21220 21221 21222 21223 21224 21225 21226 21227 21228 21229 21230 21231 21232 21233 21234 21235 21236 21237 21238 21239 21240 21241 21242 21243 21244 21245 21246 21247 21248 21249 21250 21251 21252 21253 21254 21255 21256 21257 21258 21259 21260 21261 21262 21263 21264 21265 21266 21267 21268 21269 21270 21271 21272 21273 21274 21275 21276 21277 21278 21279 21280 21281 21282 21283 21284 21285 21286 21287 21288 21289 21290 21291 21292 21293 21294 21295 21296 21297 21298 21299 21300 21301 21302 21303 21304 21305 21306 21307 21308 21309 21310 21311 21312 21313 21314 21315 21316 21317 21318 21319 21320 21321 21322 21323 21324 21325 21326 21327 21328 21329 21330 21331 21332 21333 21334 21335 21336 21337 21338 21339 21340 21341 21342 21343 21344 21345 21346 21347 21348 21349 21350 21351 21352 21353 21354 21355 21356 21357 21358 21359 21360 21361 21362 21363 21364 21365 21366 21367 21368 21369 21370 21371 21372 21373 21374 21375 21376 21377 21378 21379 21380 21381 21382 21383 21384 21385 21386 21387 21388 21389 21390 21391 21392 21393 21394 21395 21396 21397 21398 21399 21400 21401 21402 21403 21404 21405 21406 21407 21408 21409 21410 21411 21412 21413 21414 21415 21416 21417 21418 21419 21420 21421 21422 21423 21424 21425 21426 21427 21428 21429 21430 21431 21432 21433 21434 21435 21436 21437 21438 21439 21440 21441 21442 21443 21444 21445 21446 21447 21448 21449 21450 21451 21452 21453 21454 21455 21456 21457 21458 21459 21460 21461 21462 21463 21464 21465 21466 21467 21468 21469 21470 21471 21472 21473 21474 21475 21476 21477 21478 21479 21480 21481 21482 21483 21484 21485 21486 21487 21488 21489 21490 21491 21492 21493 21494 21495 21496 21497 21498 21499 21500 21501 21502 21503 21504 21505 21506 21507 21508 21509 21510 21511 21512 21513 21514 21515 21516 21517 21518 21519 21520 21521 21522 21523 21524 21525 21526 21527 21528 21529 21530 21531 21532 21533 21534 21535 21536 21537 21538 21539 21540 21541 21542 21543 21544 21545 21546 21547 21548 21549 21550 21551 21552 21553 21554 21555 21556 21557 21558 21559 21560 21561 21562 21563 21564 21565 21566 21567 21568 21569 21570 21571 21572 21573 21574 21575 21576 21577 21578 21579 21580 21581 21582 21583 21584 21585 21586 21587 21588 21589 21590 21591 21592 21593 21594 21595 21596 21597 21598 21599 21600 21601 21602 21603 21604 21605 21606 21607 21608 21609 21610 21611 21612 21613 21614 21615 21616 21617 21618 21619 21620 21621 21622 21623 21624 21625 21626 21627 21628 21629 21630 21631 21632 21633 21634 21635 21636 21637 21638 21639 21640 21641 21642 21643 21644 21645 21646 21647 21648 21649 21650 21651 21652 21653 21654 21655 21656 21657 21658 21659 21660 21661 21662 21663 21664 21665 21666 21667 21668 21669 21670 21671 21672 21673 21674 21675 21676 21677 21678 21679 21680 21681 21682 21683 21684 21685 21686 21687 21688 21689 21690 21691 21692 21693 21694 21695 21696 21697 21698 21699 21700 21701 21702 21703 21704 21705 21706 21707 21708 21709 21710 21711 21712 21713 21714 21715 21716 21717 21718 21719 21720 21721 21722 21723 21724 21725 21726 21727 21728 21729 21730 21731 21732 21733 21734 21735 21736 21737 21738 21739 21740 21741 21742 21743 21744 21745 21746 21747 21748 21749 21750 21751 21752 21753 21754 21755 21756 21757 21758 21759 21760 21761 21762 21763 21764 21765 21766 21767 21768 21769 21770 21771 21772 21773 21774 21775 21776 21777 21778 21779 21780 21781 21782 21783 21784 21785 21786 21787 21788 21789 21790 21791 21792 21793 21794 21795 21796 21797 21798 21799 21800 21801 21802 21803 21804 21805 21806 21807 21808 21809 21810 21811 21812 21813 21814 21815 21816 21817 21818 21819 21820 21821 21822 21823 21824 21825 21826 21827 21828 21829 21830 21831 21832 21833 21834 21835 21836 21837 21838 21839 21840 21841 21842 21843 21844 21845 21846 21847 21848 21849 21850 21851 21852 21853 21854 21855 21856 21857 21858 21859 21860 21861 21862 21863 21864 21865 21866 21867 21868 21869 21870 21871 21872 21873 21874 21875 21876 21877 21878 21879 21880 21881 21882 21883 21884 21885 21886 21887 21888 21889 21890 21891 21892 21893 21894 21895 21896 21897 21898 21899 21900 21901 21902 21903 21904 21905 21906 21907 21908 21909 21910 21911 21912 21913 21914 21915 21916 21917 21918 21919 21920 21921 21922 21923 21924 21925 21926 21927 21928 21929 21930 21931 21932 21933 21934 21935 21936 21937 21938 21939 21940 21941 21942 21943 21944 21945 21946 21947 21948 21949 21950 21951 21952 21953 21954 21955 21956 21957 21958 21959 21960 21961 21962 21963 21964 21965 21966 21967 21968 21969 21970 21971 21972 21973 21974 21975 21976 21977 21978 21979 21980 21981 21982 21983 21984 21985 21986 21987 21988 21989 21990 21991 21992 21993 21994 21995 21996 21997 21998 21999 22000 22001 22002 22003 22004 22005 22006 22007 22008 22009 22010 22011 22012 22013 22014 22015 22016 22017 22018 22019 22020 22021 22022 22023 22024 22025 22026 22027 22028 22029 22030 22031 22032 22033 22034 22035 22036 22037 22038 22039 22040 22041 22042 22043 22044 22045 22046 22047 22048 22049 22050 22051 22052 22053 22054 22055 22056 22057 22058 22059 22060 22061 22062 22063 22064 22065 22066 22067 22068 22069 22070 22071 22072 22073 22074 22075 22076 22077 22078 22079 22080 22081 22082 22083 22084 22085 22086 22087 22088 22089 22090 22091 22092 22093 22094 22095 22096 22097 22098 22099 22100 22101 22102 22103 22104 22105 22106 22107 22108 22109 22110 22111 22112 22113 22114 22115 22116 22117 22118 22119 22120 22121 22122 22123 22124 22125 22126 22127 22128 22129 22130 22131 22132 22133 22134 22135 22136 22137 22138 22139 22140 22141 22142 22143 22144 22145 22146 22147 22148 22149 22150 22151 22152 22153 22154 22155 22156 22157 22158 22159 22160 22161 22162 22163 22164 22165 22166 22167 22168 22169 22170 22171 22172 22173 22174 22175 22176 22177 22178 22179 22180 22181 22182 22183 22184 22185 22186 22187 22188 22189 22190 22191 22192 22193 22194 22195 22196 22197 22198 22199 22200 22201 22202 22203 22204 22205 22206 22207 22208 22209 22210 22211 22212 22213 22214 22215 22216 22217 22218 22219 22220 22221 22222 22223 22224 22225 22226 22227 22228 22229 22230 22231 22232 22233 22234 22235 22236 22237 22238 22239 22240 22241 22242 22243 22244 22245 22246 22247 22248 22249 22250 22251 22252 22253 22254 22255 22256 22257 22258 22259 22260 22261 22262 22263 22264 22265 22266 22267 22268 22269 22270 22271 22272 22273 22274 22275 22276 22277 22278 22279 22280 22281 22282 22283 22284 22285 22286 22287 22288 22289 22290 22291 22292 22293 22294 22295 22296 22297 22298 22299 22300 22301 22302 22303 22304 22305 22306 22307 22308 22309 22310 22311 22312 22313 22314 22315 22316 22317 22318 22319 22320 22321 22322 22323 22324 22325 22326 22327 22328 22329 22330 22331 22332 22333 22334 22335 22336 22337 22338 22339 22340 22341 22342 22343 22344 22345 22346 22347 22348 22349 22350 22351 22352 22353 22354 22355 22356 22357 22358 22359 22360 22361 22362 22363 22364 22365 22366 22367 22368 22369 22370 22371 22372 22373 22374 22375 22376 22377 22378 22379 22380 22381 22382 22383 22384 22385 22386 22387 22388 22389 22390 22391 22392 22393 22394 22395 22396 22397 22398 22399 22400 22401 22402 22403 22404 22405 22406 22407 22408 22409 22410 22411 22412 22413 22414 22415 22416 22417 22418 22419 22420 22421 22422 22423 22424 22425 22426 22427 22428 22429 22430 22431 22432 22433 22434 22435 22436 22437 22438 22439 22440 22441 22442 22443 22444 22445 22446 22447 22448 22449 22450 22451 22452 22453 22454 22455 22456 22457 22458 22459 22460 22461 22462 22463 22464 22465 22466 22467 22468 22469 22470 22471 22472 22473 22474 22475 22476 22477 22478 22479 22480 22481 22482 22483 22484 22485 22486 22487 22488 22489 22490 22491 22492 22493 22494 22495 22496 22497 22498 22499 22500 22501 22502 22503 22504 22505 22506 22507 22508 22509 22510 22511 22512 22513 22514 22515 22516 22517 22518 22519 22520 22521 22522 22523 22524 22525 22526 22527 22528 22529 22530 22531 22532 22533 22534 22535 22536 22537 22538 22539 22540 22541 22542 22543 22544 22545 22546 22547 22548 22549 22550 22551 22552 22553 22554 22555 22556 22557 22558 22559 22560 22561 22562 22563 22564 22565 22566 22567 22568 22569 22570 22571 22572 22573 22574 22575 22576 22577 22578 22579 22580 22581 22582 22583 22584 22585 22586 22587 22588 22589 22590 22591 22592 22593 22594 22595 22596 22597 22598 22599 22600 22601 22602 22603 22604 22605 22606 22607 22608 22609 22610 22611 22612 22613 22614 22615 22616 22617 22618 22619 22620 22621 22622 22623 22624 22625 22626 22627 22628 22629 22630 22631 22632 22633 22634 22635 22636 22637 22638 22639 22640 22641 22642 22643 22644 22645 22646 22647 22648 22649 22650 22651 22652 22653 22654 22655 22656 22657 22658 22659 22660 22661 22662 22663 22664 22665 22666 22667 22668 22669 22670 22671 22672 22673 22674 22675 22676 22677 22678 22679 22680 22681 22682 22683 22684 22685 22686 22687 22688 22689 22690 22691 22692 22693 22694 22695 22696 22697 22698 22699 22700 22701 22702 22703 22704 22705 22706 22707 22708 22709 22710 22711 22712 22713 22714 22715 22716 22717 22718 22719 22720 22721 22722 22723 22724 22725 22726 22727 22728 22729 22730 22731 22732 22733 22734 22735 22736 22737 22738 22739 22740 22741 22742 22743 22744 22745 22746 22747 22748 22749 22750 22751 22752 22753 22754 22755 22756 22757 22758 22759 22760 22761 22762 22763 22764 22765 22766 22767 22768 22769 22770 22771 22772 22773 22774 22775 22776 22777 22778 22779 22780 22781 22782 22783 22784 22785 22786 22787 22788 22789 22790 22791 22792 22793 22794 22795 22796 22797 22798 22799 22800 22801 22802 22803 22804 22805 22806 22807 22808 22809 22810 22811 22812 22813 22814 22815 22816 22817 22818 22819 22820 22821 22822 22823 22824 22825 22826 22827 22828 22829 22830 22831 22832 22833 22834 22835 22836 22837 22838 22839 22840 22841 22842 22843 22844 22845 22846 22847 22848 22849 22850 22851 22852 22853 22854 22855 22856 22857 22858 22859 22860 22861 22862 22863 22864 22865 22866 22867 22868 22869 22870 22871 22872 22873 22874 22875 22876 22877 22878 22879 22880 22881 22882 22883 22884 22885 22886 22887 22888 22889 22890 22891 22892 22893 22894 22895 22896 22897 22898 22899 22900 22901 22902 22903 22904 22905 22906 22907 22908 22909 22910 22911 22912 22913 22914 22915 22916 22917 22918 22919 22920 22921 22922 22923 22924 22925 22926 22927 22928 22929 22930 22931 22932 22933 22934 22935 22936 22937 22938 22939 22940 22941 22942 22943 22944 22945 22946 22947 22948 22949 22950 22951 22952 22953 22954 22955 22956 22957 22958 22959 22960 22961 22962 22963 22964 22965 22966 22967 22968 22969 22970 22971 22972 22973 22974 22975 22976 22977 22978 22979 22980 22981 22982 22983 22984 22985 22986 22987 22988 22989 22990 22991 22992 22993 22994 22995 22996 22997 22998 22999 23000 23001 23002 23003 23004 23005 23006 23007 23008 23009 23010 23011 23012 23013 23014 23015 23016 23017 23018 23019 23020 23021 23022 23023 23024 23025 23026 23027 23028 23029 23030 23031 23032 23033 23034 23035 23036 23037 23038 23039 23040 23041 23042 23043 23044 23045 23046 23047 23048 23049 23050 23051 23052 23053 23054 23055 23056 23057 23058 23059 23060 23061 23062 23063 23064 23065 23066 23067 23068 23069 23070 23071 23072 23073 23074 23075 23076 23077 23078 23079 23080 23081 23082 23083 23084 23085 23086 23087 23088 23089 23090 23091 23092 23093 23094 23095 23096 23097 23098 23099 23100 23101 23102 23103 23104 23105 23106 23107 23108 23109 23110 23111 23112 23113 23114 23115 23116 23117 23118 23119 23120 23121 23122 23123 23124 23125 23126 23127 23128 23129 23130 23131 23132 23133 23134 23135 23136 23137 23138 23139 23140 23141 23142 23143 23144 23145 23146 23147 23148 23149 23150 23151 23152 23153 23154 23155 23156 23157 23158 23159 23160 23161 23162 23163 23164 23165 23166 23167 23168 23169 23170 23171 23172 23173 23174 23175 23176 23177 23178 23179 23180 23181 23182 23183 23184 23185 23186 23187 23188 23189 23190 23191 23192 23193 23194 23195 23196 23197 23198 23199 23200 23201 23202 23203 23204 23205 23206 23207 23208 23209 23210 23211 23212 23213 23214 23215 23216 23217 23218 23219 23220 23221 23222 23223 23224 23225 23226 23227 23228 23229 23230 23231 23232 23233 23234 23235 23236 23237 23238 23239 23240 23241 23242 23243 23244 23245 23246 23247 23248 23249 23250 23251 23252 23253 23254 23255 23256 23257 23258 23259 23260 23261 23262 23263 23264 23265 23266 23267 23268 23269 23270 23271 23272 23273 23274 23275 23276 23277 23278 23279 23280 23281 23282 23283 23284 23285 23286 23287 23288 23289 23290 23291 23292 23293 23294 23295 23296 23297 23298 23299 23300 23301 23302 23303 23304 23305 23306 23307 23308 23309 23310 23311 23312 23313 23314 23315 23316 23317 23318 23319 23320 23321 23322 23323 23324 23325 23326 23327 23328 23329 23330 23331 23332 23333 23334 23335 23336 23337 23338 23339 23340 23341 23342 23343 23344 23345 23346 23347 23348 23349 23350 23351 23352 23353 23354 23355 23356 23357 23358 23359 23360 23361 23362 23363 23364 23365 23366 23367 23368 23369 23370 23371 23372 23373 23374 23375 23376 23377 23378 23379 23380 23381 23382 23383 23384 23385 23386 23387 23388 23389 23390 23391 23392 23393 23394 23395 23396 23397 23398 23399 23400 23401 23402 23403 23404 23405 23406 23407 23408 23409 23410 23411 23412 23413 23414 23415 23416 23417 23418 23419 23420 23421 23422 23423 23424 23425 23426 23427 23428 23429 23430 23431 23432 23433 23434 23435 23436 23437 23438 23439 23440 23441 23442 23443 23444 23445 23446 23447 23448 23449 23450 23451 23452 23453 23454 23455 23456 23457 23458 23459 23460 23461 23462 23463 23464 23465 23466 23467 23468 23469 23470 23471 23472 23473 23474 23475 23476 23477 23478 23479 23480 23481 23482 23483 23484 23485 23486 23487 23488 23489 23490 23491 23492 23493 23494 23495 23496 23497 23498 23499 23500 23501 23502 23503 23504 23505 23506 23507 23508 23509 23510 23511 23512 23513 23514 23515 23516 23517 23518 23519 23520 23521 23522 23523 23524 23525 23526 23527 23528 23529 23530 23531 23532 23533 23534 23535 23536 23537 23538 23539 23540 23541 23542 23543 23544 23545 23546 23547 23548 23549 23550 23551 23552 23553 23554 23555 23556 23557 23558 23559 23560 23561 23562 23563 23564 23565 23566 23567 23568 23569 23570 23571 23572 23573 23574 23575 23576 23577 23578 23579 23580 23581 23582 23583 23584 23585 23586 23587 23588 23589 23590 23591 23592 23593 23594 23595 23596 23597 23598 23599 23600 23601 23602 23603 23604 23605 23606 23607 23608 23609 23610 23611 23612 23613 23614 23615 23616 23617 23618 23619 23620 23621 23622 23623 23624 23625 23626 23627 23628 23629 23630 23631 23632 23633 23634 23635 23636 23637 23638 23639 23640 23641 23642 23643 23644 23645 23646 23647 23648 23649 23650 23651 23652 23653 23654 23655 23656 23657 23658 23659 23660 23661 23662 23663 23664 23665 23666 23667 23668 23669 23670 23671 23672 23673 23674 23675 23676 23677 23678 23679 23680 23681 23682 23683 23684 23685 23686 23687 23688 23689 23690 23691 23692 23693 23694 23695 23696 23697 23698 23699 23700 23701 23702 23703 23704 23705 23706 23707 23708 23709 23710 23711 23712 23713 23714 23715 23716 23717 23718 23719 23720 23721 23722 23723 23724 23725 23726 23727 23728 23729 23730 23731 23732 23733 23734 23735 23736 23737 23738 23739 23740 23741 23742 23743 23744 23745 23746 23747 23748 23749 23750 23751 23752 23753 23754 23755 23756 23757 23758 23759 23760 23761 23762 23763 23764 23765 23766 23767 23768 23769 23770 23771 23772 23773 23774 23775 23776 23777 23778 23779 23780 23781 23782 23783 23784 23785 23786 23787 23788 23789 23790 23791 23792 23793 23794 23795 23796 23797 23798 23799 23800 23801 23802 23803 23804 23805 23806 23807 23808 23809 23810 23811 23812 23813 23814 23815 23816 23817 23818 23819 23820 23821 23822 23823 23824 23825 23826 23827 23828 23829 23830 23831 23832 23833 23834 23835 23836 23837 23838 23839 23840 23841 23842 23843 23844 23845 23846 23847 23848 23849 23850 23851 23852 23853 23854 23855 23856 23857 23858 23859 23860 23861 23862 23863 23864 23865 23866 23867 23868 23869 23870 23871 23872 23873 23874 23875 23876 23877 23878 23879 23880 23881 23882 23883 23884 23885 23886 23887 23888 23889 23890 23891 23892 23893 23894 23895 23896 23897 23898 23899 23900 23901 23902 23903 23904 23905 23906 23907 23908 23909 23910 23911 23912 23913 23914 23915 23916 23917 23918 23919 23920 23921 23922 23923 23924 23925 23926 23927 23928 23929 23930 23931 23932 23933 23934 23935 23936 23937 23938 23939 23940 23941 23942 23943 23944 23945 23946 23947 23948 23949 23950 23951 23952 23953 23954 23955 23956 23957 23958 23959 23960 23961 23962 23963 23964 23965 23966 23967 23968 23969 23970 23971 23972 23973 23974 23975 23976 23977 23978 23979 23980 23981 23982 23983 23984 23985 23986 23987 23988 23989 23990 23991 23992 23993 23994 23995 23996 23997 23998 23999 24000 24001 24002 24003 24004 24005 24006 24007 24008 24009 24010 24011 24012 24013 24014 24015 24016 24017 24018 24019 24020 24021 24022 24023 24024 24025 24026 24027 24028 24029 24030 24031 24032 24033 24034 24035 24036 24037 24038 24039 24040 24041 24042 24043 24044 24045 24046 24047 24048 24049 24050 24051 24052 24053 24054 24055 24056 24057 24058 24059 24060 24061 24062 24063 24064 24065 24066 24067 24068 24069 24070 24071 24072 24073 24074 24075 24076 24077 24078 24079 24080 24081 24082 24083 24084 24085 24086 24087 24088 24089 24090 24091 24092 24093 24094 24095 24096 24097 24098 24099 24100 24101 24102 24103 24104 24105 24106 24107 24108 24109 24110 24111 24112 24113 24114 24115 24116 24117 24118 24119 24120 24121 24122 24123 24124 24125 24126 24127 24128 24129 24130 24131 24132 24133 24134 24135 24136 24137 24138 24139 24140 24141 24142 24143 24144 24145 24146 24147 24148 24149 24150 24151 24152 24153 24154 24155 24156 24157 24158 24159 24160 24161 24162 24163 24164 24165 24166 24167 24168 24169 24170 24171 24172 24173 24174 24175 24176 24177 24178 24179 24180 24181 24182 24183 24184 24185 24186 24187 24188 24189 24190 24191 24192 24193 24194 24195 24196 24197 24198 24199 24200 24201 24202 24203 24204 24205 24206 24207 24208 24209 24210 24211 24212 24213 24214 24215 24216 24217 24218 24219 24220 24221 24222 24223 24224 24225 24226 24227 24228 24229 24230 24231 24232 24233 24234 24235 24236 24237 24238 24239 24240 24241 24242 24243 24244 24245 24246 24247 24248 24249 24250 24251 24252 24253 24254 24255 24256 24257 24258 24259 24260 24261 24262 24263 24264 24265 24266 24267 24268 24269 24270 24271 24272 24273 24274 24275 24276 24277 24278 24279 24280 24281 24282 24283 24284 24285 24286 24287 24288 24289 24290 24291 24292 24293 24294 24295 24296 24297 24298 24299 24300 24301 24302 24303 24304 24305 24306 24307 24308 24309 24310 24311 24312 24313 24314 24315 24316 24317 24318 24319 24320 24321 24322 24323 24324 24325 24326 24327 24328 24329 24330 24331 24332 24333 24334 24335 24336 24337 24338 24339 24340 24341 24342 24343 24344 24345 24346 24347 24348 24349 24350 24351 24352 24353 24354 24355 24356 24357 24358 24359 24360 24361 24362 24363 24364 24365 24366 24367 24368 24369 24370 24371 24372 24373 24374 24375 24376 24377 24378 24379 24380 24381 24382 24383 24384 24385 24386 24387 24388 24389 24390 24391 24392 24393 24394 24395 24396 24397 24398 24399 24400 24401 24402 24403 24404 24405 24406 24407 24408 24409 24410 24411 24412 24413 24414 24415 24416 24417 24418 24419 24420 24421 24422 24423 24424 24425 24426 24427 24428 24429 24430 24431 24432 24433 24434 24435 24436 24437 24438 24439 24440 24441 24442 24443 24444 24445 24446 24447 24448 24449 24450 24451 24452 24453 24454 24455 24456 24457 24458 24459 24460 24461 24462 24463 24464 24465 24466 24467 24468 24469 24470 24471 24472 24473 24474 24475 24476 24477 24478 24479 24480 24481 24482 24483 24484 24485 24486 24487 24488 24489 24490 24491 24492 24493 24494 24495 24496 24497 24498 24499 24500 24501 24502 24503 24504 24505 24506 24507 24508 24509 24510 24511 24512 24513 24514 24515 24516 24517 24518 24519 24520 24521 24522 24523 24524 24525 24526 24527 24528 24529 24530 24531 24532 24533 24534 24535 24536 24537 24538 24539 24540 24541 24542 24543 24544 24545 24546 24547 24548 24549 24550 24551 24552 24553 24554 24555 24556 24557 24558 24559 24560 24561 24562 24563 24564 24565 24566 24567 24568 24569 24570 24571 24572 24573 24574 24575 24576 24577 24578 24579 24580 24581 24582 24583 24584 24585 24586 24587 24588 24589 24590 24591 24592 24593 24594 24595 24596 24597 24598 24599 24600 24601 24602 24603 24604 24605 24606 24607 24608 24609 24610 24611 24612 24613 24614 24615 24616 24617 24618 24619 24620 24621 24622 24623 24624 24625 24626 24627 24628 24629 24630 24631 24632 24633 24634 24635 24636 24637 24638 24639 24640 24641 24642 24643 24644 24645 24646 24647 24648 24649 24650 24651 24652 24653 24654 24655 24656 24657 24658 24659 24660 24661 24662 24663 24664 24665 24666 24667 24668 24669 24670 24671 24672 24673 24674 24675 24676 24677 24678 24679 24680 24681 24682 24683 24684 24685 24686 24687 24688 24689 24690 24691 24692 24693 24694 24695 24696 24697 24698 24699 24700 24701 24702 24703 24704 24705 24706 24707 24708 24709 24710 24711 24712 24713 24714 24715 24716 24717 24718 24719 24720 24721 24722 24723 24724 24725 24726 24727 24728 24729 24730 24731 24732 24733 24734 24735 24736 24737 24738 24739 24740 24741 24742 24743 24744 24745 24746 24747 24748 24749 24750 24751 24752 24753 24754 24755 24756 24757 24758 24759 24760 24761 24762 24763 24764 24765 24766 24767 24768 24769 24770 24771 24772 24773 24774 24775 24776 24777 24778 24779 24780 24781 24782 24783 24784 24785 24786 24787 24788 24789 24790 24791 24792 24793 24794 24795 24796 24797 24798 24799 24800 24801 24802 24803 24804 24805 24806 24807 24808 24809 24810 24811 24812 24813 24814 24815 24816 24817 24818 24819 24820 24821 24822 24823 24824 24825 24826 24827 24828 24829 24830 24831 24832 24833 24834 24835 24836 24837 24838 24839 24840 24841 24842 24843 24844 24845 24846 24847 24848 24849 24850 24851 24852 24853 24854 24855 24856 24857 24858 24859 24860 24861 24862 24863 24864 24865 24866 24867 24868 24869 24870 24871 24872 24873 24874 24875 24876 24877 24878 24879 24880 24881 24882 24883 24884 24885 24886 24887 24888 24889 24890 24891 24892 24893 24894 24895 24896 24897 24898 24899 24900 24901 24902 24903 24904 24905 24906 24907 24908 24909 24910 24911 24912 24913 24914 24915 24916 24917 24918 24919 24920 24921 24922 24923 24924 24925 24926 24927 24928 24929 24930 24931 24932 24933 24934 24935 24936 24937 24938 24939 24940 24941 24942 24943 24944 24945 24946 24947 24948 24949 24950 24951 24952 24953 24954 24955 24956 24957 24958 24959 24960 24961 24962 24963 24964 24965 24966 24967 24968 24969 24970 24971 24972 24973 24974 24975 24976 24977 24978 24979 24980 24981 24982 24983 24984 24985 24986 24987 24988 24989 24990 24991 24992 24993 24994 24995 24996 24997 24998 24999 25000 25001 25002 25003 25004 25005 25006 25007 25008 25009 25010 25011 25012 25013 25014 25015 25016 25017 25018 25019 25020 25021 25022 25023 25024 25025 25026 25027 25028 25029 25030 25031 25032 25033 25034 25035 25036 25037 25038 25039 25040 25041 25042 25043 25044 25045 25046 25047 25048 25049 25050 25051 25052 25053 25054 25055 25056 25057 25058 25059 25060 25061 25062 25063 25064 25065 25066 25067 25068 25069 25070 25071 25072 25073 25074 25075 25076 25077 25078 25079 25080 25081 25082 25083 25084 25085 25086 25087 25088 25089 25090 25091 25092 25093 25094 25095 25096 25097 25098 25099 25100 25101 25102 25103 25104 25105 25106 25107 25108 25109 25110 25111 25112 25113 25114 25115 25116 25117 25118 25119 25120 25121 25122 25123 25124 25125 25126 25127 25128 25129 25130 25131 25132 25133 25134 25135 25136 25137 25138 25139 25140 25141 25142 25143 25144 25145 25146 25147 25148 25149 25150 25151 25152 25153 25154 25155 25156 25157 25158 25159 25160 25161 25162 25163 25164 25165 25166 25167 25168 25169 25170 25171 25172 25173 25174 25175 25176 25177 25178 25179 25180 25181 25182 25183 25184 25185 25186 25187 25188 25189 25190 25191 25192 25193 25194 25195 25196 25197 25198 25199 25200 25201 25202 25203 25204 25205 25206 25207 25208 25209 25210 25211 25212 25213 25214 25215 25216 25217 25218 25219 25220 25221 25222 25223 25224 25225 25226 25227 25228 25229 25230 25231 25232 25233 25234 25235 25236 25237 25238 25239 25240 25241 25242 25243 25244 25245 25246 25247 25248 25249 25250 25251 25252 25253 25254 25255 25256 25257 25258 25259 25260 25261 25262 25263 25264 25265 25266 25267 25268 25269 25270 25271 25272 25273 25274 25275 25276 25277 25278 25279 25280 25281 25282 25283 25284 25285 25286 25287 25288 25289 25290 25291 25292 25293 25294 25295 25296 25297 25298 25299 25300 25301 25302 25303 25304 25305 25306 25307 25308 25309 25310 25311 25312 25313 25314 25315 25316 25317 25318 25319 25320 25321 25322 25323 25324 25325 25326 25327 25328 25329 25330 25331 25332 25333 25334 25335 25336 25337 25338 25339 25340 25341 25342 25343 25344 25345 25346 25347 25348 25349 25350 25351 25352 25353 25354 25355 25356 25357 25358 25359 25360 25361 25362 25363 25364 25365 25366 25367 25368 25369 25370 25371 25372 25373 25374 25375 25376 25377 25378 25379 25380 25381 25382 25383 25384 25385 25386 25387 25388 25389 25390 25391 25392 25393 25394 25395 25396 25397 25398 25399 25400 25401 25402 25403 25404 25405 25406 25407 25408 25409 25410 25411 25412 25413 25414 25415 25416 25417 25418 25419 25420 25421 25422 25423 25424 25425 25426 25427 25428 25429 25430 25431 25432 25433 25434 25435 25436 25437 25438 25439 25440 25441 25442 25443 25444 25445 25446 25447 25448 25449 25450 25451 25452 25453 25454 25455 25456 25457 25458 25459 25460 25461 25462 25463 25464 25465 25466 25467 25468 25469 25470 25471 25472 25473 25474 25475 25476 25477 25478 25479 25480 25481 25482 25483 25484 25485 25486 25487 25488 25489 25490 25491 25492 25493 25494 25495 25496 25497 25498 25499 25500 25501 25502 25503 25504 25505 25506 25507 25508 25509 25510 25511 25512 25513 25514 25515 25516 25517 25518 25519 25520 25521 25522 25523 25524 25525 25526 25527 25528 25529 25530 25531 25532 25533 25534 25535 25536 25537 25538 25539 25540 25541 25542 25543 25544 25545 25546 25547 25548 25549 25550 25551 25552 25553 25554 25555 25556 25557 25558 25559 25560 25561 25562 25563 25564 25565 25566 25567 25568 25569 25570 25571 25572 25573 25574 25575 25576 25577 25578 25579 25580 25581 25582 25583 25584 25585 25586 25587 25588 25589 25590 25591 25592 25593 25594 25595 25596 25597 25598 25599 25600 25601 25602 25603 25604 25605 25606 25607 25608 25609 25610 25611 25612 25613 25614 25615 25616 25617 25618 25619 25620 25621 25622 25623 25624 25625 25626 25627 25628 25629 25630 25631 25632 25633 25634 25635 25636 25637 25638 25639 25640 25641 25642 25643 25644 25645 25646 25647 25648 25649 25650 25651 25652 25653 25654 25655 25656 25657 25658 25659 25660 25661 25662 25663 25664 25665 25666 25667 25668 25669 25670 25671 25672 25673 25674 25675 25676 25677 25678 25679 25680 25681 25682 25683 25684 25685 25686 25687 25688 25689 25690 25691 25692 25693 25694 25695 25696 25697 25698 25699 25700 25701 25702 25703 25704 25705 25706 25707 25708 25709 25710 25711 25712 25713 25714 25715 25716 25717 25718 25719 25720 25721 25722 25723 25724 25725 25726 25727 25728 25729 25730 25731 25732 25733 25734 25735 25736 25737 25738 25739 25740 25741 25742 25743 25744 25745 25746 25747 25748 25749 25750 25751 25752 25753 25754 25755 25756 25757 25758 25759 25760 25761 25762 25763 25764 25765 25766 25767 25768 25769 25770 25771 25772 25773 25774 25775 25776 25777 25778 25779 25780 25781 25782 25783 25784 25785 25786 25787 25788 25789 25790 25791 25792 25793 25794 25795 25796 25797 25798 25799 25800 25801 25802 25803 25804 25805 25806 25807 25808 25809 25810 25811 25812 25813 25814 25815 25816 25817 25818 25819 25820 25821 25822 25823 25824 25825 25826 25827 25828 25829 25830 25831 25832 25833 25834 25835 25836 25837 25838 25839 25840 25841 25842 25843 25844 25845 25846 25847 25848 25849 25850 25851 25852 25853 25854 25855 25856 25857 25858 25859 25860 25861 25862 25863 25864 25865 25866 25867 25868 25869 25870 25871 25872 25873 25874 25875 25876 25877 25878 25879 25880 25881 25882 25883 25884 25885 25886 25887 25888 25889 25890 25891 25892 25893 25894 25895 25896 25897 25898 25899 25900 25901 25902 25903 25904 25905 25906 25907 25908 25909 25910 25911 25912 25913 25914 25915 25916 25917 25918 25919 25920 25921 25922 25923 25924 25925 25926 25927 25928 25929 25930 25931 25932 25933 25934 25935 25936 25937 25938 25939 25940 25941 25942 25943 25944 25945 25946 25947 25948 25949 25950 25951 25952 25953 25954 25955 25956 25957 25958 25959 25960 25961 25962 25963 25964 25965 25966 25967 25968 25969 25970 25971 25972 25973 25974 25975 25976 25977 25978 25979 25980 25981 25982 25983 25984 25985 25986 25987 25988 25989 25990 25991 25992 25993 25994 25995 25996 25997 25998 25999 26000 26001 26002 26003 26004 26005 26006 26007 26008 26009 26010 26011 26012 26013 26014 26015 26016 26017 26018 26019 26020 26021 26022 26023 26024 26025 26026 26027 26028 26029 26030 26031 26032 26033 26034 26035 26036 26037 26038 26039 26040 26041 26042 26043 26044 26045 26046 26047 26048 26049 26050 26051 26052 26053 26054 26055 26056 26057 26058 26059 26060 26061 26062 26063 26064 26065 26066 26067 26068 26069 26070 26071 26072 26073 26074 26075 26076 26077 26078 26079 26080 26081 26082 26083 26084 26085 26086 26087 26088 26089 26090 26091 26092 26093 26094 26095 26096 26097 26098 26099 26100 26101 26102 26103 26104 26105 26106 26107 26108 26109 26110 26111 26112 26113 26114 26115 26116 26117 26118 26119 26120 26121 26122 26123 26124 26125 26126 26127 26128 26129 26130 26131 26132 26133 26134 26135 26136 26137 26138 26139 26140 26141 26142 26143 26144 26145 26146 26147 26148 26149 26150 26151 26152 26153 26154 26155 26156 26157 26158 26159 26160 26161 26162 26163 26164 26165 26166 26167 26168 26169 26170 26171 26172 26173 26174 26175 26176 26177 26178 26179 26180 26181 26182 26183 26184 26185 26186 26187 26188 26189 26190 26191 26192 26193 26194 26195 26196 26197 26198 26199 26200 26201 26202 26203 26204 26205 26206 26207 26208 26209 26210 26211 26212 26213 26214 26215 26216 26217 26218 26219 26220 26221 26222 26223 26224 26225 26226 26227 26228 26229 26230 26231 26232 26233 26234 26235 26236 26237 26238 26239 26240 26241 26242 26243 26244 26245 26246 26247 26248 26249 26250 26251 26252 26253 26254 26255 26256 26257 26258 26259 26260 26261 26262 26263 26264 26265 26266 26267 26268 26269 26270 26271 26272 26273 26274 26275 26276 26277 26278 26279 26280 26281 26282 26283 26284 26285 26286 26287 26288 26289 26290 26291 26292 26293 26294 26295 26296 26297 26298 26299 26300 26301 26302 26303 26304 26305 26306 26307 26308 26309 26310 26311 26312 26313 26314 26315 26316 26317 26318 26319 26320 26321 26322 26323 26324 26325 26326 26327 26328 26329 26330 26331 26332 26333 26334 26335 26336 26337 26338 26339 26340 26341 26342 26343 26344 26345 26346 26347 26348 26349 26350 26351 26352 26353 26354 26355 26356 26357 26358 26359 26360 26361 26362 26363 26364 26365 26366 26367 26368 26369 26370 26371 26372 26373 26374 26375 26376 26377 26378 26379 26380 26381 26382 26383 26384 26385 26386 26387 26388 26389 26390 26391 26392 26393 26394 26395 26396 26397 26398 26399 26400 26401 26402 26403 26404 26405 26406 26407 26408 26409 26410 26411 26412 26413 26414 26415 26416 26417 26418 26419 26420 26421 26422 26423 26424 26425 26426 26427 26428 26429 26430 26431 26432 26433 26434 26435 26436 26437 26438 26439 26440 26441 26442 26443 26444 26445 26446 26447 26448 26449 26450 26451 26452 26453 26454 26455 26456 26457 26458 26459 26460 26461 26462 26463 26464 26465 26466 26467 26468 26469 26470 26471 26472 26473 26474 26475 26476 26477 26478 26479 26480 26481 26482 26483 26484 26485 26486 26487 26488 26489 26490 26491 26492 26493 26494 26495 26496 26497 26498 26499 26500 26501 26502 26503 26504 26505 26506 26507 26508 26509 26510 26511 26512 26513 26514 26515 26516 26517 26518 26519 26520 26521 26522 26523 26524 26525 26526 26527 26528 26529 26530 26531 26532 26533 26534 26535 26536 26537 26538 26539 26540 26541 26542 26543 26544 26545 26546 26547 26548 26549 26550 26551 26552 26553 26554 26555 26556 26557 26558 26559 26560 26561 26562 26563 26564 26565 26566 26567 26568 26569 26570 26571 26572 26573 26574 26575 26576 26577 26578 26579 26580 26581 26582 26583 26584 26585 26586 26587 26588 26589 26590 26591 26592 26593 26594 26595 26596 26597 26598 26599 26600 26601 26602 26603 26604 26605 26606 26607 26608 26609 26610 26611 26612 26613 26614 26615 26616 26617 26618 26619 26620 26621 26622 26623 26624 26625 26626 26627 26628 26629 26630 26631 26632 26633 26634 26635 26636 26637 26638 26639 26640 26641 26642 26643 26644 26645 26646 26647 26648 26649 26650 26651 26652 26653 26654 26655 26656 26657 26658 26659 26660 26661 26662 26663 26664 26665 26666 26667 26668 26669 26670 26671 26672 26673 26674 26675 26676 26677 26678 26679 26680 26681 26682 26683 26684 26685 26686 26687 26688 26689 26690 26691 26692 26693 26694 26695 26696 26697 26698 26699 26700 26701 26702 26703 26704 26705 26706 26707 26708 26709 26710 26711 26712 26713 26714 26715 26716 26717 26718 26719 26720 26721 26722 26723 26724 26725 26726 26727 26728 26729 26730 26731 26732 26733 26734 26735 26736 26737 26738 26739 26740 26741 26742 26743 26744 26745 26746 26747 26748 26749 26750 26751 26752 26753 26754 26755 26756 26757 26758 26759 26760 26761 26762 26763 26764 26765 26766 26767 26768 26769 26770 26771 26772 26773 26774 26775 26776 26777 26778 26779 26780 26781 26782 26783 26784 26785 26786 26787 26788 26789 26790 26791 26792 26793 26794 26795 26796 26797 26798 26799 26800 26801 26802 26803 26804 26805 26806 26807 26808 26809 26810 26811 26812 26813 26814 26815 26816 26817 26818 26819 26820 26821 26822 26823 26824 26825 26826 26827 26828 26829 26830 26831 26832 26833 26834 26835 26836 26837 26838 26839 26840 26841 26842 26843 26844 26845 26846 26847 26848 26849 26850 26851 26852 26853 26854 26855 26856 26857 26858 26859 26860 26861 26862 26863 26864 26865 26866 26867 26868 26869 26870 26871 26872 26873 26874 26875 26876 26877 26878 26879 26880 26881 26882 26883 26884 26885 26886 26887 26888 26889 26890 26891 26892 26893 26894 26895 26896 26897 26898 26899 26900 26901 26902 26903 26904 26905 26906 26907 26908 26909 26910 26911 26912 26913 26914 26915 26916 26917 26918 26919 26920 26921 26922 26923 26924 26925 26926 26927 26928 26929 26930 26931 26932 26933 26934 26935 26936 26937 26938 26939 26940 26941 26942 26943 26944 26945 26946 26947 26948 26949 26950 26951 26952 26953 26954 26955 26956 26957 26958 26959 26960 26961 26962 26963 26964 26965 26966 26967 26968 26969 26970 26971 26972 26973 26974 26975 26976 26977 26978 26979 26980 26981 26982 26983 26984 26985 26986 26987 26988 26989 26990 26991 26992 26993 26994 26995 26996 26997 26998 26999 27000 27001 27002 27003 27004 27005 27006 27007 27008 27009 27010 27011 27012 27013 27014 27015 27016 27017 27018 27019 27020 27021 27022 27023 27024 27025 27026 27027 27028 27029 27030 27031 27032 27033 27034 27035 27036 27037 27038 27039 27040 27041 27042 27043 27044 27045 27046 27047 27048 27049 27050 27051 27052 27053 27054 27055 27056 27057 27058 27059 27060 27061 27062 27063 27064 27065 27066 27067 27068 27069 27070 27071 27072 27073 27074 27075 27076 27077 27078 27079 27080 27081 27082 27083 27084 27085 27086 27087 27088 27089 27090 27091 27092 27093 27094 27095 27096 27097 27098 27099 27100 27101 27102 27103 27104 27105 27106 27107 27108 27109 27110 27111 27112 27113 27114 27115 27116 27117 27118 27119 27120 27121 27122 27123 27124 27125 27126 27127 27128 27129 27130 27131 27132 27133 27134 27135 27136 27137 27138 27139 27140 27141 27142 27143 27144 27145 27146 27147 27148 27149 27150 27151 27152 27153 27154 27155 27156 27157 27158 27159 27160 27161 27162 27163 27164 27165 27166 27167 27168 27169 27170 27171 27172 27173 27174 27175 27176 27177 27178 27179 27180 27181 27182 27183 27184 27185 27186 27187 27188 27189 27190 27191 27192 27193 27194 27195 27196 27197 27198 27199 27200 27201 27202 27203 27204 27205 27206 27207 27208 27209 27210 27211 27212 27213 27214 27215 27216 27217 27218 27219 27220 27221 27222 27223 27224 27225 27226 27227 27228 27229 27230 27231 27232 27233 27234 27235 27236 27237 27238 27239 27240 27241 27242 27243 27244 27245 27246 27247 27248 27249 27250 27251 27252 27253 27254 27255 27256 27257 27258 27259 27260 27261 27262 27263 27264 27265 27266 27267 27268 27269 27270 27271 27272 27273 27274 27275 27276 27277 27278 27279 27280 27281 27282 27283 27284 27285 27286 27287 27288 27289 27290 27291 27292 27293 27294 27295 27296 27297 27298 27299 27300 27301 27302 27303 27304 27305 27306 27307 27308 27309 27310 27311 27312 27313 27314 27315 27316 27317 27318 27319 27320 27321 27322 27323 27324 27325 27326 27327 27328 27329 27330 27331 27332 27333 27334 27335 27336 27337 27338 27339 27340 27341 27342 27343 27344 27345 27346 27347 27348 27349 27350 27351 27352 27353 27354 27355 27356 27357 27358 27359 27360 27361 27362 27363 27364 27365 27366 27367 27368 27369 27370 27371 27372 27373 27374 27375 27376 27377 27378 27379 27380 27381 27382 27383 27384 27385 27386 27387 27388 27389 27390 27391 27392 27393 27394 27395 27396 27397 27398 27399 27400 27401 27402 27403 27404 27405 27406 27407 27408 27409 27410 27411 27412 27413 27414 27415 27416 27417 27418 27419 27420 27421 27422 27423 27424 27425 27426 27427 27428 27429 27430 27431 27432 27433 27434 27435 27436 27437 27438 27439 27440 27441 27442 27443 27444 27445 27446 27447 27448 27449 27450 27451 27452 27453 27454 27455 27456 27457 27458 27459 27460 27461 27462 27463 27464 27465 27466 27467 27468 27469 27470 27471 27472 27473 27474 27475 27476 27477 27478 27479 27480 27481 27482 27483 27484 27485 27486 27487 27488 27489 27490 27491 27492 27493 27494 27495 27496 27497 27498 27499 27500 27501 27502 27503 27504 27505 27506 27507 27508 27509 27510 27511 27512 27513 27514 27515 27516 27517 27518 27519 27520 27521 27522 27523 27524 27525 27526 27527 27528 27529 27530 27531 27532 27533 27534 27535 27536 27537 27538 27539 27540 27541 27542 27543 27544 27545 27546 27547 27548 27549 27550 27551 27552 27553 27554 27555 27556 27557 27558 27559 27560 27561 27562 27563 27564 27565 27566 27567 27568 27569 27570 27571 27572 27573 27574 27575 27576 27577 27578 27579 27580 27581 27582 27583 27584 27585 27586 27587 27588 27589 27590 27591 27592 27593 27594 27595 27596 27597 27598 27599 27600 27601 27602 27603 27604 27605 27606 27607 27608 27609 27610 27611 27612 27613 27614 27615 27616 27617 27618 27619 27620 27621 27622 27623 27624 27625 27626 27627 27628 27629 27630 27631 27632 27633 27634 27635 27636 27637 27638 27639 27640 27641 27642 27643 27644 27645 27646 27647 27648 27649 27650 27651 27652 27653 27654 27655 27656 27657 27658 27659 27660 27661 27662 27663 27664 27665 27666 27667 27668 27669 27670 27671 27672 27673 27674 27675 27676 27677 27678 27679 27680 27681 27682 27683 27684 27685 27686 27687 27688 27689 27690 27691 27692 27693 27694 27695 27696 27697 27698 27699 27700 27701 27702 27703 27704 27705 27706 27707 27708 27709 27710 27711 27712 27713 27714 27715 27716 27717 27718 27719 27720 27721 27722 27723 27724 27725 27726 27727 27728 27729 27730 27731 27732 27733 27734 27735 27736 27737 27738 27739 27740 27741 27742 27743 27744 27745 27746 27747 27748 27749 27750 27751 27752 27753 27754 27755 27756 27757 27758 27759 27760 27761 27762 27763 27764 27765 27766 27767 27768 27769 27770 27771 27772 27773 27774 27775 27776 27777 27778 27779 27780 27781 27782 27783 27784 27785 27786 27787 27788 27789 27790 27791 27792 27793 27794 27795 27796 27797 27798 27799 27800 27801 27802 27803 27804 27805 27806 27807 27808 27809 27810 27811 27812 27813 27814 27815 27816 27817 27818 27819 27820 27821 27822 27823 27824 27825 27826 27827 27828 27829 27830 27831 27832 27833 27834 27835 27836 27837 27838 27839 27840 27841 27842 27843 27844 27845 27846 27847 27848 27849 27850 27851 27852 27853 27854 27855 27856 27857 27858 27859 27860 27861 27862 27863 27864 27865 27866 27867 27868 27869 27870 27871 27872 27873 27874 27875 27876 27877 27878 27879 27880 27881 27882 27883 27884 27885 27886 27887 27888 27889 27890 27891 27892 27893 27894 27895 27896 27897 27898 27899 27900 27901 27902 27903 27904 27905 27906 27907 27908 27909 27910 27911 27912 27913 27914 27915 27916 27917 27918 27919 27920 27921 27922 27923 27924 27925 27926 27927 27928 27929 27930 27931 27932 27933 27934 27935 27936 27937 27938 27939 27940 27941 27942 27943 27944 27945 27946 27947 27948 27949 27950 27951 27952 27953 27954 27955 27956 27957 27958 27959 27960 27961 27962 27963 27964 27965 27966 27967 27968 27969 27970 27971 27972 27973 27974 27975 27976 27977 27978 27979 27980 27981 27982 27983 27984 27985 27986 27987 27988 27989 27990 27991 27992 27993 27994 27995 27996 27997 27998 27999 28000 28001 28002 28003 28004 28005 28006 28007 28008 28009 28010 28011 28012 28013 28014 28015 28016 28017 28018 28019 28020 28021 28022 28023 28024 28025 28026 28027 28028 28029 28030 28031 28032 28033 28034 28035 28036 28037 28038 28039 28040 28041 28042 28043 28044 28045 28046 28047 28048 28049 28050 28051 28052 28053 28054 28055 28056 28057 28058 28059 28060 28061 28062 28063 28064 28065 28066 28067 28068 28069 28070 28071 28072 28073 28074 28075 28076 28077 28078 28079 28080 28081 28082 28083 28084 28085 28086 28087 28088 28089 28090 28091 28092 28093 28094 28095 28096 28097 28098 28099 28100 28101 28102 28103 28104 28105 28106 28107 28108 28109 28110 28111 28112 28113 28114 28115 28116 28117 28118 28119 28120 28121 28122 28123 28124 28125 28126 28127 28128 28129 28130 28131 28132 28133 28134 28135 28136 28137 28138 28139 28140 28141 28142 28143 28144 28145 28146 28147 28148 28149 28150 28151 28152 28153 28154 28155 28156 28157 28158 28159 28160 28161 28162 28163 28164 28165 28166 28167 28168 28169 28170 28171 28172 28173 28174 28175 28176 28177 28178 28179 28180 28181 28182 28183 28184 28185 28186 28187 28188 28189 28190 28191 28192 28193 28194 28195 28196 28197 28198 28199 28200 28201 28202 28203 28204 28205 28206 28207 28208 28209 28210 28211 28212 28213 28214 28215 28216 28217 28218 28219 28220 28221 28222 28223 28224 28225 28226 28227 28228 28229 28230 28231 28232 28233 28234 28235 28236 28237 28238 28239 28240 28241 28242 28243 28244 28245 28246 28247 28248 28249 28250 28251 28252 28253 28254 28255 28256 28257 28258 28259 28260 28261 28262 28263 28264 28265 28266 28267 28268 28269 28270 28271 28272 28273 28274 28275 28276 28277 28278 28279 28280 28281 28282 28283 28284 28285 28286 28287 28288 28289 28290 28291 28292 28293 28294 28295 28296 28297 28298 28299 28300 28301 28302 28303 28304 28305 28306 28307 28308 28309 28310 28311 28312 28313 28314 28315 28316 28317 28318 28319 28320 28321 28322 28323 28324 28325 28326 28327 28328 28329 28330 28331 28332 28333 28334 28335 28336 28337 28338 28339 28340 28341 28342 28343 28344 28345 28346 28347 28348 28349 28350 28351 28352 28353 28354 28355 28356 28357 28358 28359 28360 28361 28362 28363 28364 28365 28366 28367 28368 28369 28370 28371 28372 28373 28374 28375 28376 28377 28378 28379 28380 28381 28382 28383 28384 28385 28386 28387 28388 28389 28390 28391 28392 28393 28394 28395 28396 28397 28398 28399 28400 28401 28402 28403 28404 28405 28406 28407 28408 28409 28410 28411 28412 28413 28414 28415 28416 28417 28418 28419 28420 28421 28422 28423 28424 28425 28426 28427 28428 28429 28430 28431 28432 28433 28434 28435 28436 28437 28438 28439 28440 28441 28442 28443 28444 28445 28446 28447 28448 28449 28450 28451 28452 28453 28454 28455 28456 28457 28458 28459 28460 28461 28462 28463 28464 28465 28466 28467 28468 28469 28470 28471 28472 28473 28474 28475 28476 28477 28478 28479 28480 28481 28482 28483 28484 28485 28486 28487 28488 28489 28490 28491 28492 28493 28494 28495 28496 28497 28498 28499 28500 28501 28502 28503 28504 28505 28506 28507 28508 28509 28510 28511 28512 28513 28514 28515 28516 28517 28518 28519 28520 28521 28522 28523 28524 28525 28526 28527 28528 28529 28530 28531 28532 28533 28534 28535 28536 28537 28538 28539 28540 28541 28542 28543 28544 28545 28546 28547 28548 28549 28550 28551 28552 28553 28554 28555 28556 28557 28558 28559 28560 28561 28562 28563 28564 28565 28566 28567 28568 28569 28570 28571 28572 28573 28574 28575 28576 28577 28578 28579 28580 28581 28582 28583 28584 28585 28586 28587 28588 28589 28590 28591 28592 28593 28594 28595 28596 28597 28598 28599 28600 28601 28602 28603 28604 28605 28606 28607 28608 28609 28610 28611 28612 28613 28614 28615 28616 28617 28618 28619 28620 28621 28622 28623 28624 28625 28626 28627 28628 28629 28630 28631 28632 28633 28634 28635 28636 28637 28638 28639 28640 28641 28642 28643 28644 28645 28646 28647 28648 28649 28650 28651 28652 28653 28654 28655 28656 28657 28658 28659 28660 28661 28662 28663 28664 28665 28666 28667 28668 28669 28670 28671 28672 28673 28674 28675 28676 28677 28678 28679 28680 28681 28682 28683 28684 28685 28686 28687 28688 28689 28690 28691 28692 28693 28694 28695 28696 28697 28698 28699 28700 28701 28702 28703 28704 28705 28706 28707 28708 28709 28710 28711 28712 28713 28714 28715 28716 28717 28718 28719 28720 28721 28722 28723 28724 28725 28726 28727 28728 28729 28730 28731 28732 28733 28734 28735 28736 28737 28738 28739 28740 28741 28742 28743 28744 28745 28746 28747 28748 28749 28750 28751 28752 28753 28754 28755 28756 28757 28758 28759 28760 28761 28762 28763 28764 28765 28766 28767 28768 28769 28770 28771 28772 28773 28774 28775 28776 28777 28778 28779 28780 28781 28782 28783 28784 28785 28786 28787 28788 28789 28790 28791 28792 28793 28794 28795 28796 28797 28798 28799 28800 28801 28802 28803 28804 28805 28806 28807 28808 28809 28810 28811 28812 28813 28814 28815 28816 28817 28818 28819 28820 28821 28822 28823 28824 28825 28826 28827 28828 28829 28830 28831 28832 28833 28834 28835 28836 28837 28838 28839 28840 28841 28842 28843 28844 28845 28846 28847 28848 28849 28850 28851 28852 28853 28854 28855 28856 28857 28858 28859 28860 28861 28862 28863 28864 28865 28866 28867 28868 28869 28870 28871 28872 28873 28874 28875 28876 28877 28878 28879 28880 28881 28882 28883 28884 28885 28886 28887 28888 28889 28890 28891 28892 28893 28894 28895 28896 28897 28898 28899 28900 28901 28902 28903 28904 28905 28906 28907 28908 28909 28910 28911 28912 28913 28914 28915 28916 28917 28918 28919 28920 28921 28922 28923 28924 28925 28926 28927 28928 28929 28930 28931 28932 28933 28934 28935 28936 28937 28938 28939 28940 28941 28942 28943 28944 28945 28946 28947 28948 28949 28950 28951 28952 28953 28954 28955 28956 28957 28958 28959 28960 28961 28962 28963 28964 28965 28966 28967 28968 28969 28970 28971 28972 28973 28974 28975 28976 28977 28978 28979 28980 28981 28982 28983 28984 28985 28986 28987 28988 28989 28990 28991 28992 28993 28994 28995 28996 28997 28998 28999 29000 29001 29002 29003 29004 29005 29006 29007 29008 29009 29010 29011 29012 29013 29014 29015 29016 29017 29018 29019 29020 29021 29022 29023 29024 29025 29026 29027 29028 29029 29030 29031 29032 29033 29034 29035 29036 29037 29038 29039 29040 29041 29042 29043 29044 29045 29046 29047 29048 29049 29050 29051 29052 29053 29054 29055 29056 29057 29058 29059 29060 29061 29062 29063 29064 29065 29066 29067 29068 29069 29070 29071 29072 29073 29074 29075 29076 29077 29078 29079 29080 29081 29082 29083 29084 29085 29086 29087 29088 29089 29090 29091 29092 29093 29094 29095 29096 29097 29098 29099 29100 29101 29102 29103 29104 29105 29106 29107 29108 29109 29110 29111 29112 29113 29114 29115 29116 29117 29118 29119 29120 29121 29122 29123 29124 29125 29126 29127 29128 29129 29130 29131 29132 29133 29134 29135 29136 29137 29138 29139 29140 29141 29142 29143 29144 29145 29146 29147 29148 29149 29150 29151 29152 29153 29154 29155 29156 29157 29158 29159 29160 29161 29162 29163 29164 29165 29166 29167 29168 29169 29170 29171 29172 29173 29174 29175 29176 29177 29178 29179 29180 29181 29182 29183 29184 29185 29186 29187 29188 29189 29190 29191 29192 29193 29194 29195 29196 29197 29198 29199 29200 29201 29202 29203 29204 29205 29206 29207 29208 29209 29210 29211 29212 29213 29214 29215 29216 29217 29218 29219 29220 29221 29222 29223 29224 29225 29226 29227 29228 29229 29230 29231 29232 29233 29234 29235 29236 29237 29238 29239 29240 29241 29242 29243 29244 29245 29246 29247 29248 29249 29250 29251 29252 29253 29254 29255 29256 29257 29258 29259 29260 29261 29262 29263 29264 29265 29266 29267 29268 29269 29270 29271 29272 29273 29274 29275 29276 29277 29278 29279 29280 29281 29282 29283 29284 29285 29286 29287 29288 29289 29290 29291 29292 29293 29294 29295 29296 29297 29298 29299 29300 29301 29302 29303 29304 29305 29306 29307 29308 29309 29310 29311 29312 29313 29314 29315 29316 29317 29318 29319 29320 29321 29322 29323 29324 29325 29326 29327 29328 29329 29330 29331 29332 29333 29334 29335 29336 29337 29338 29339 29340 29341 29342 29343 29344 29345 29346 29347 29348 29349 29350 29351 29352 29353 29354 29355 29356 29357 29358 29359 29360 29361 29362 29363 29364 29365 29366 29367 29368 29369 29370 29371 29372 29373 29374 29375 29376 29377 29378 29379 29380 29381 29382 29383 29384 29385 29386 29387 29388 29389 29390 29391 29392 29393 29394 29395 29396 29397 29398 29399 29400 29401 29402 29403 29404 29405 29406 29407 29408 29409 29410 29411 29412 29413 29414 29415 29416 29417 29418 29419 29420 29421 29422 29423 29424 29425 29426 29427 29428 29429 29430 29431 29432 29433 29434 29435 29436 29437 29438 29439 29440 29441 29442 29443 29444 29445 29446 29447 29448 29449 29450 29451 29452 29453 29454 29455 29456 29457 29458 29459 29460 29461 29462 29463 29464 29465 29466 29467 29468 29469 29470 29471 29472 29473 29474 29475 29476 29477 29478 29479 29480 29481 29482 29483 29484 29485 29486 29487 29488 29489 29490 29491 29492 29493 29494 29495 29496 29497 29498 29499 29500 29501 29502 29503 29504 29505 29506 29507 29508 29509 29510 29511 29512 29513 29514 29515 29516 29517 29518 29519 29520 29521 29522 29523 29524 29525 29526 29527 29528 29529 29530 29531 29532 29533 29534 29535 29536 29537 29538 29539 29540 29541 29542 29543 29544 29545 29546 29547 29548 29549 29550 29551 29552 29553 29554 29555 29556 29557 29558 29559 29560 29561 29562 29563 29564 29565 29566 29567 29568 29569 29570 29571 29572 29573 29574 29575 29576 29577 29578 29579 29580 29581 29582 29583 29584 29585 29586 29587 29588 29589 29590 29591 29592 29593 29594 29595 29596 29597 29598 29599 29600 29601 29602 29603 29604 29605 29606 29607 29608 29609 29610 29611 29612 29613 29614 29615 29616 29617 29618 29619 29620 29621 29622 29623 29624 29625 29626 29627 29628 29629 29630 29631 29632 29633 29634 29635 29636 29637 29638 29639 29640 29641 29642 29643 29644 29645 29646 29647 29648 29649 29650 29651 29652 29653 29654 29655 29656 29657 29658 29659 29660 29661 29662 29663 29664 29665 29666 29667 29668 29669 29670 29671 29672 29673 29674 29675 29676 29677 29678 29679 29680 29681 29682 29683 29684 29685 29686 29687 29688 29689 29690 29691 29692 29693 29694 29695 29696 29697 29698 29699 29700 29701 29702 29703 29704 29705 29706 29707 29708 29709 29710 29711 29712 29713 29714 29715 29716 29717 29718 29719 29720 29721 29722 29723 29724 29725 29726 29727 29728 29729 29730 29731 29732 29733 29734 29735 29736 29737 29738 29739 29740 29741 29742 29743 29744 29745 29746 29747 29748 29749 29750 29751 29752 29753 29754 29755 29756 29757 29758 29759 29760 29761 29762 29763 29764 29765 29766 29767 29768 29769 29770 29771 29772 29773 29774 29775 29776 29777 29778 29779 29780 29781 29782 29783 29784 29785 29786 29787 29788 29789 29790 29791 29792 29793 29794 29795 29796 29797 29798 29799 29800 29801 29802 29803 29804 29805 29806 29807 29808 29809 29810 29811 29812 29813 29814 29815 29816 29817 29818 29819 29820 29821 29822 29823 29824 29825 29826 29827 29828 29829 29830 29831 29832 29833 29834 29835 29836 29837 29838 29839 29840 29841 29842 29843 29844 29845 29846 29847 29848 29849 29850 29851 29852 29853 29854 29855 29856 29857 29858 29859 29860 29861 29862 29863 29864 29865 29866 29867 29868 29869 29870 29871 29872 29873 29874 29875 29876 29877 29878 29879 29880 29881 29882 29883 29884 29885 29886 29887 29888 29889 29890 29891 29892 29893 29894 29895 29896 29897 29898 29899 29900 29901 29902 29903 29904 29905 29906 29907 29908 29909 29910 29911 29912 29913 29914 29915 29916 29917 29918 29919 29920 29921 29922 29923 29924 29925 29926 29927 29928 29929 29930 29931 29932 29933 29934 29935 29936 29937 29938 29939 29940 29941 29942 29943 29944 29945 29946 29947 29948 29949 29950 29951 29952 29953 29954 29955 29956 29957 29958 29959 29960 29961 29962 29963 29964 29965 29966 29967 29968 29969 29970 29971 29972 29973 29974 29975 29976 29977 29978 29979 29980 29981 29982 29983 29984 29985 29986 29987 29988 29989 29990 29991 29992 29993 29994 29995 29996 29997 29998 29999 30000 30001 30002 30003 30004 30005 30006 30007 30008 30009 30010 30011 30012 30013 30014 30015 30016 30017 30018 30019 30020 30021 30022 30023 30024 30025 30026 30027 30028 30029 30030 30031 30032 30033 30034 30035 30036 30037 30038 30039 30040 30041 30042 30043 30044 30045 30046 30047 30048 30049 30050 30051 30052 30053 30054 30055 30056 30057 30058 30059 30060 30061 30062 30063 30064 30065 30066 30067 30068 30069 30070 30071 30072 30073 30074 30075 30076 30077 30078 30079 30080 30081 30082 30083 30084 30085 30086 30087 30088 30089 30090 30091 30092 30093 30094 30095 30096 30097 30098 30099 30100 30101 30102 30103 30104 30105 30106 30107 30108 30109 30110 30111 30112 30113 30114 30115 30116 30117 30118 30119 30120 30121 30122 30123 30124 30125 30126 30127 30128 30129 30130 30131 30132 30133 30134 30135 30136 30137 30138 30139 30140 30141 30142 30143 30144 30145 30146 30147 30148 30149 30150 30151 30152 30153 30154 30155 30156 30157 30158 30159 30160 30161 30162 30163 30164 30165 30166 30167 30168 30169 30170 30171 30172 30173 30174 30175 30176 30177 30178 30179 30180 30181 30182 30183 30184 30185 30186 30187 30188 30189 30190 30191 30192 30193 30194 30195 30196 30197 30198 30199 30200 30201 30202 30203 30204 30205 30206 30207 30208 30209 30210 30211 30212 30213 30214 30215 30216 30217 30218 30219 30220 30221 30222 30223 30224 30225 30226 30227 30228 30229 30230 30231 30232 30233 30234 30235 30236 30237 30238 30239 30240 30241 30242 30243 30244 30245 30246 30247 30248 30249 30250 30251 30252 30253 30254 30255 30256 30257 30258 30259 30260 30261 30262 30263 30264 30265 30266 30267 30268 30269 30270 30271 30272 30273 30274 30275 30276 30277 30278 30279 30280 30281 30282 30283 30284 30285 30286 30287 30288 30289 30290 30291 30292 30293 30294 30295 30296 30297 30298 30299 30300 30301 30302 30303 30304 30305 30306 30307 30308 30309 30310 30311 30312 30313 30314 30315 30316 30317 30318 30319 30320 30321 30322 30323 30324 30325 30326 30327 30328 30329 30330 30331 30332 30333 30334 30335 30336 30337 30338 30339 30340 30341 30342 30343 30344 30345 30346 30347 30348 30349 30350 30351 30352 30353 30354 30355 30356 30357 30358 30359 30360 30361 30362 30363 30364 30365 30366 30367 30368 30369 30370 30371 30372 30373 30374 30375 30376 30377 30378 30379 30380 30381 30382 30383 30384 30385 30386 30387 30388 30389 30390 30391 30392 30393 30394 30395 30396 30397 30398 30399 30400 30401 30402 30403 30404 30405 30406 30407 30408 30409 30410 30411 30412 30413 30414 30415 30416 30417 30418 30419 30420 30421 30422 30423 30424 30425 30426 30427 30428 30429 30430 30431 30432 30433 30434 30435 30436 30437 30438 30439 30440 30441 30442 30443 30444 30445 30446 30447 30448 30449 30450 30451 30452 30453 30454 30455 30456 30457 30458 30459 30460 30461 30462 30463 30464 30465 30466 30467 30468 30469 30470 30471 30472 30473 30474 30475 30476 30477 30478 30479 30480 30481 30482 30483 30484 30485 30486 30487 30488 30489 30490 30491 30492 30493 30494 30495 30496 30497 30498 30499 30500 30501 30502 30503 30504 30505 30506 30507 30508 30509 30510 30511 30512 30513 30514 30515 30516 30517 30518 30519 30520 30521 30522 30523 30524 30525 30526 30527 30528 30529 30530 30531 30532 30533 30534 30535 30536 30537 30538 30539 30540 30541 30542 30543 30544 30545 30546 30547 30548 30549 30550 30551 30552 30553 30554 30555 30556 30557 30558 30559 30560 30561 30562 30563 30564 30565 30566 30567 30568 30569 30570 30571 30572 30573 30574 30575 30576 30577 30578 30579 30580 30581 30582 30583 30584 30585 30586 30587 30588 30589 30590 30591 30592 30593 30594 30595 30596 30597 30598 30599 30600 30601 30602 30603 30604 30605 30606 30607 30608 30609 30610 30611 30612 30613 30614 30615 30616 30617 30618 30619 30620 30621 30622 30623 30624 30625 30626 30627 30628 30629 30630 30631 30632 30633 30634 30635 30636 30637 30638 30639 30640 30641 30642 30643 30644 30645 30646 30647 30648 30649 30650 30651 30652 30653 30654 30655 30656 30657 30658 30659 30660 30661 30662 30663 30664 30665 30666 30667 30668 30669 30670 30671 30672 30673 30674 30675 30676 30677 30678 30679 30680 30681 30682 30683 30684 30685 30686 30687 30688 30689 30690 30691 30692 30693 30694 30695 30696 30697 30698 30699 30700 30701 30702 30703 30704 30705 30706 30707 30708 30709 30710 30711 30712 30713 30714 30715 30716 30717 30718 30719 30720 30721 30722 30723 30724 30725 30726 30727 30728 30729 30730 30731 30732 30733 30734 30735 30736 30737 30738 30739 30740 30741 30742 30743 30744 30745 30746 30747 30748 30749 30750 30751 30752 30753 30754 30755 30756 30757 30758 30759 30760 30761 30762 30763 30764 30765 30766 30767 30768 30769 30770 30771 30772 30773 30774 30775 30776 30777 30778 30779 30780 30781 30782 30783 30784 30785 30786 30787 30788 30789 30790 30791 30792 30793 30794 30795 30796 30797 30798 30799 30800 30801 30802 30803 30804 30805 30806 30807 30808 30809 30810 30811 30812 30813 30814 30815 30816 30817 30818 30819 30820 30821 30822 30823 30824 30825 30826 30827 30828 30829 30830 30831 30832 30833 30834 30835 30836 30837 30838 30839 30840 30841 30842 30843 30844 30845 30846 30847 30848 30849 30850 30851 30852 30853 30854 30855 30856 30857 30858 30859 30860 30861 30862 30863 30864 30865 30866 30867 30868 30869 30870 30871 30872 30873 30874 30875 30876 30877 30878 30879 30880 30881 30882 30883 30884 30885 30886 30887 30888 30889 30890 30891 30892 30893 30894 30895 30896 30897 30898 30899 30900 30901 30902 30903 30904 30905 30906 30907 30908 30909 30910 30911 30912 30913 30914 30915 30916 30917 30918 30919 30920 30921 30922 30923 30924 30925 30926 30927 30928 30929 30930 30931 30932 30933 30934 30935 30936 30937 30938 30939 30940 30941 30942 30943 30944 30945 30946 30947 30948 30949 30950 30951 30952 30953 30954 30955 30956 30957 30958 30959 30960 30961 30962 30963 30964 30965 30966 30967 30968 30969 30970 30971 30972 30973 30974 30975 30976 30977 30978 30979 30980 30981 30982 30983 30984 30985 30986 30987 30988 30989 30990 30991 30992 30993 30994 30995 30996 30997 30998 30999 31000 31001 31002 31003 31004 31005 31006 31007 31008 31009 31010 31011 31012 31013 31014 31015 31016 31017 31018 31019 31020 31021 31022 31023 31024 31025 31026 31027 31028 31029 31030 31031 31032 31033 31034 31035 31036 31037 31038 31039 31040 31041 31042 31043 31044 31045 31046 31047 31048 31049 31050 31051 31052 31053 31054 31055 31056 31057 31058 31059 31060 31061 31062 31063 31064 31065 31066 31067 31068 31069 31070 31071 31072 31073 31074 31075 31076 31077 31078 31079 31080 31081 31082 31083 31084 31085 31086 31087 31088 31089 31090 31091 31092 31093 31094 31095 31096 31097 31098 31099 31100 31101 31102 31103 31104 31105 31106 31107 31108 31109 31110 31111 31112 31113 31114 31115 31116 31117 31118 31119 31120 31121 31122 31123 31124 31125 31126 31127 31128 31129 31130 31131 31132 31133 31134 31135 31136 31137 31138 31139 31140 31141 31142 31143 31144 31145 31146 31147 31148 31149 31150 31151 31152 31153 31154 31155 31156 31157 31158 31159 31160 31161 31162 31163 31164 31165 31166 31167 31168 31169 31170 31171 31172 31173 31174 31175 31176 31177 31178 31179 31180 31181 31182 31183 31184 31185 31186 31187 31188 31189 31190 31191 31192 31193 31194 31195 31196 31197 31198 31199 31200 31201 31202 31203 31204 31205 31206 31207 31208 31209 31210 31211 31212 31213 31214 31215 31216 31217 31218 31219 31220 31221 31222 31223 31224 31225 31226 31227 31228 31229 31230 31231 31232 31233 31234 31235 31236 31237 31238 31239 31240 31241 31242 31243 31244 31245 31246 31247 31248 31249 31250 31251 31252 31253 31254 31255 31256 31257 31258 31259 31260 31261 31262 31263 31264 31265 31266 31267 31268 31269 31270 31271 31272 31273 31274 31275 31276 31277 31278 31279 31280 31281 31282 31283 31284 31285 31286 31287 31288 31289 31290 31291 31292 31293 31294 31295 31296 31297 31298 31299 31300 31301 31302 31303 31304 31305 31306 31307 31308 31309 31310 31311 31312 31313 31314 31315 31316 31317 31318 31319 31320 31321 31322 31323 31324 31325 31326 31327 31328 31329 31330 31331 31332 31333 31334 31335 31336 31337 31338 31339 31340 31341 31342 31343 31344 31345 31346 31347 31348 31349 31350 31351 31352 31353 31354 31355 31356 31357 31358 31359 31360 31361 31362 31363 31364 31365 31366 31367 31368 31369 31370 31371 31372 31373 31374 31375 31376 31377 31378 31379 31380 31381 31382 31383 31384 31385 31386 31387 31388 31389 31390 31391 31392 31393 31394 31395 31396 31397 31398 31399 31400 31401 31402 31403 31404 31405 31406 31407 31408 31409 31410 31411 31412 31413 31414 31415 31416 31417 31418 31419 31420 31421 31422 31423 31424 31425 31426 31427 31428 31429 31430 31431 31432 31433 31434 31435 31436 31437 31438 31439 31440 31441 31442 31443 31444 31445 31446 31447 31448 31449 31450 31451 31452 31453 31454 31455 31456 31457 31458 31459 31460 31461 31462 31463 31464 31465 31466 31467 31468 31469 31470 31471 31472 31473 31474 31475 31476 31477 31478 31479 31480 31481 31482 31483 31484 31485 31486 31487 31488 31489 31490 31491 31492 31493 31494 31495 31496 31497 31498 31499 31500 31501 31502 31503 31504 31505 31506 31507 31508 31509 31510 31511 31512 31513 31514 31515 31516 31517 31518 31519 31520 31521 31522 31523 31524 31525 31526 31527 31528 31529 31530 31531 31532 31533 31534 31535 31536 31537 31538 31539 31540 31541 31542 31543 31544 31545 31546 31547 31548 31549 31550 31551 31552 31553 31554 31555 31556 31557 31558 31559 31560 31561 31562 31563 31564 31565 31566 31567 31568 31569 31570 31571 31572 31573 31574 31575 31576 31577 31578 31579 31580 31581 31582 31583 31584 31585 31586 31587 31588 31589 31590 31591 31592 31593 31594 31595 31596 31597 31598 31599 31600 31601 31602 31603 31604 31605 31606 31607 31608 31609 31610 31611 31612 31613 31614 31615 31616 31617 31618 31619 31620 31621 31622 31623 31624 31625 31626 31627 31628 31629 31630 31631 31632 31633 31634 31635 31636 31637 31638 31639 31640 31641 31642 31643 31644 31645 31646 31647 31648 31649 31650 31651 31652 31653 31654 31655 31656 31657 31658 31659 31660 31661 31662 31663 31664 31665 31666 31667 31668 31669 31670 31671 31672 31673 31674 31675 31676 31677 31678 31679 31680 31681 31682 31683 31684 31685 31686 31687 31688 31689 31690 31691 31692 31693 31694 31695 31696 31697 31698 31699 31700 31701 31702 31703 31704 31705 31706 31707 31708 31709 31710 31711 31712 31713 31714 31715 31716 31717 31718 31719 31720 31721 31722 31723 31724 31725 31726 31727 31728 31729 31730 31731 31732 31733 31734 31735 31736 31737 31738 31739 31740 31741 31742 31743 31744 31745 31746 31747 31748 31749 31750 31751 31752 31753 31754 31755 31756 31757 31758 31759 31760 31761 31762 31763 31764 31765 31766 31767 31768 31769 31770 31771 31772 31773 31774 31775 31776 31777 31778 31779 31780 31781 31782 31783 31784 31785 31786 31787 31788 31789 31790 31791 31792 31793 31794 31795 31796 31797 31798 31799 31800 31801 31802 31803 31804 31805 31806 31807 31808 31809 31810 31811 31812 31813 31814 31815 31816 31817 31818 31819 31820 31821 31822 31823 31824 31825 31826 31827 31828 31829 31830 31831 31832 31833 31834 31835 31836 31837 31838 31839 31840 31841 31842 31843 31844 31845 31846 31847 31848 31849 31850 31851 31852 31853 31854 31855 31856 31857 31858 31859 31860 31861 31862 31863 31864 31865 31866 31867 31868 31869 31870 31871 31872 31873 31874 31875 31876 31877 31878 31879 31880 31881 31882 31883 31884 31885 31886 31887 31888 31889 31890 31891 31892 31893 31894 31895 31896 31897 
</DataArray>
<DataArray type="UInt32" Name="offsets" format="ascii">
3 6 9 12 15 17 20 23 26 29 32 35 38 40 43 46 49 52 54 57 60 62 65 68 71 74 76 79 82 85 88 90 93 96 99 102 105 108 111 114 117 120 123 126 129 131 134 137 139 142 145 148 151 154 156 159 162 165 168 171 174 177 179 182 185 188 191 193 196 199 202 205 208 211 214 217 220 222 225 228 230 233 236 238 241 244 247 250 252 255 258 261 264 267 270 273 275 277 279 282 285 287 290 293 296 299 302 304 307 310 313 316 319 322 325 328 331 334 337 340 343 345 348 351 354 356 359 362 365 368 371 374 376 379 382 385 388 391 394 397 400 403 406 409 412 415 418 421 424 427 430 433 436 439 442 445 448 451 453 456 459 462 464 467 470 472 475 478 481 484 487 490 493 496 499 502 505 507 510 513 516 519 522 525 528 531 533 536 539 542 545 548 551 554 557 559 562 565 568 571 574 577 580 583 586 588 591 594 597 600 603 606 609 612 615 618 621 624 627 630 633 636 639 642 645 648 651 654 657 659 662 665 668 670 673 675 678 680 683 686 688 691 694 697 699 702 704 707 709 712 714 716 719 721 724 727 729 732 734 737 740 743 745 748 750 752 755 758 760 763 766 769 771 774 776 778 780 783 785 788 791 794 796 799 801 803 805 808 811 813 815 818 821 824 827 829 832 834 837 840 842 845 848 851 853 856 858 860 862 865 868 871 873 876 878 880 882 884 887 890 893 895 897 900 903 905 907 909 912 914 917 920 923 926 928 931 934 937 940 943 946 949 951 954 957 960 963 966 969 971 973 976 979 982 984 987 990 993 995 998 1000 1003 1005 1007 1010 1013 1016 1019 1021 1024 1027 1029 1032 1035 1038 1041 1043 1046 1048 1051 1054 1057 1060 1063 1065 1067 1070 1073 1076 1079 1082 1085 1088 1091 1093 1096 1099 1102 1104 1107 1110 1112 1115 1117 1120 1123 1126 1129 1132 1135 1138 1141 1144 1147 1150 1152 1155 1157 1160 1162 1165 1168 1171 1173 1176 1178 1181 1183 1186 1189 1192 1195 1198 1201 1203 1206 1208 1211 1214 1217 1219 1222 1225 1228 1230 1233 1235 1237 1240 1243 1246 1249 1251 1254 1257 1260 1263 1265 1267 1270 1273 1275 1278 1280 1283 1285 1287 1290 1293 1296 1298 1301 1304 1307 1310 1312 1315 1318 1321 1324 1327 1330 1333 1336 1339 1342 1345 1347 1350 1353 1356 1359 1361 1364 1367 1370 1372 1375 1377 1379 1381 1384 1387 1390 1392 1394 1397 1399 1402 1405 1407 1410 1413 1416 1419 1421 1424 1427 1430 1433 1436 1439 1442 1445 1448 1451 1454 1456 1458 1461 1464 1466 1469 1472 1475 1477 1480 1483 1486 1489 1492 1495 1497 1500 1503 1506 1508 1511 1514 1517 1519 1522 1525 1528 1531 1534 1537 1540 1543 1546 1549 1552 1554 1557 1560 1563 1565 1568 1571 1574 1577 1580 1583 1586 1588 1591 1594 1597 1600 1603 1605 1608 1611 1614 1617 1620 1623 1626 1629 1632 1635 1638 1641 1644 1647 1650 1653 1656 1659 1662 1664 1667 1670 1673 1676 1678 1681 1684 1686 1689 1692 1695 1698 1701 1704 1707 1709 1712 1715 1718 1721 1724 1727 1730 1733 1735 1738 1740 1743 1746 1748 1751 1754 1757 1759 1762 1765 1767 1770 1773 1776 1778 1781 1783 1786 1789 1791 1794 1796 1799 1802 1805 1808 1811 1814 1817 1820 1823 1826 1829 1832 1835 1838 1841 1844 1847 1850 1853 1856 1859 1862 1864 1867 1869 1872 1874 1877 1880 1883 1886 1889 1892 1895 1898 1901 1904 1907 1910 1913 1916 1919 1921 1924 1927 1930 1933 1936 1939 1942 1945 1948 1950 1953 1956 1959 1962 1965 1968 1971 1974 1977 1980 1983 1986 1989 1992 1995 1998 2001 2004 2007 2010 2013 2016 2019 2022 2025 2028 2031 2034 2037 2039 2042 2045 2047 2050 2053 2056 2058 2060 2063 2065 2068 2071 2074 2077 2080 2082 2085 2088 2091 2094 2097 2099 2102 2105 2108 2111 2114 2117 2120 2123 2126 2129 2132 2135 2138 2141 2144 2147 2150 2153 2156 2159 2162 2165 2168 2171 2174 2177 2180 2183 2186 2189 2192 2195 2198 2201 2204 2207 2210 2213 2216 2219 2222 2225 2228 2231 2234 2237 2240 2243 2246 2248 2251 2254 2257 2260 2263 2266 2269 2272 2275 2278 2281 2284 2287 2290 2293 2295 2298 2301 2304 2307 2309 2312 2315 2318 2321 2324 2327 2330 2333 2336 2339 2342 2345 2348 2351 2354 2357 2360 2363 2366 2369 2372 2375 2378 2381 2384 2387 2390 2392 2395 2398 2400 2403 2405 2407 2409 2411 2414 2417 2419 2422 2425 2428 2431 2434 2437 2440 2443 2446 2449 2452 2455 2458 2461 2464 2467 2470 2472 2475 2478 2480 2483 2485 2488 2491 2494 2497 2499 2502 2504 2507 2510 2513 2516 2518 2521 2524 2527 2529 2532 2535 2538 2541 2544 2546 2549 2551 2554 2557 2559 2561 2564 2566 2569 2572 2575 2578 2581 2584 2587 2590 2593 2596 2599 2601 2604 2607 2610 2612 2615 2618 2621 2623 2626 2629 2631 2633 2635 2638 2641 2644 2647 2650 2653 2656 2659 2662 2665 2668 2670 2673 2676 2679 2682 2685 2688 2691 2694 2696 2698 2700 2703 2706 2709 2712 2715 2718 2721 2724 2726 2728 2731 2734 2737 2739 2742 2745 2747 2750 2753 2756 2759 2762 2765 2768 2771 2774 2777 2780 2782 2785 2788 2791 2794 2797 2800 2803 2806 2808 2811 2814 2817 2820 2823 2826 2829 2832 2835 2838 2840 2843 2845 2847 2849 2852 2855 2858 2861 2864 2867 2870 2872 2874 2877 2879 2882 2885 2888 2891 2894 2896 2899 2901 2903 2906 2909 2912 2914 2917 2919 2922 2925 2928 2931 2933 2936 2939 2942 2945 2948 2951 2954 2957 2960 2963 2966 2969 2972 2975 2978 2981 2984 2986 2989 2992 2995 2997 3000 3003 3006 3009 3012 3014 3017 3020 3023 3026 3029 3032 3034 3037 3039 3042 3045 3048 3051 3054 3057 3060 3063 3065 3068 3071 3074 3076 3079 3082 3085 3088 3091 3094 3097 3100 3103 3106 3109 3112 3115 3118 3121 3124 3127 3130 3133 3136 3139 3142 3145 3148 3151 3153 3155 3157 3160 3163 3166 3169 3171 3174 3177 3180 3183 3185 3188 3191 3194 3197 3200 3203 3206 3208 3211 3214 3217 3220 3223 3226 3229 3232 3234 3237 3240 3243 3246 3249 3252 3255 3258 3261 3264 3267 3270 3272 3275 3278 3281 3284 3287 3290 3292 3295 3298 3301 3304 3307 3310 3313 3316 3318 3321 3324 3327 3329 3332 3335 3338 3341 3344 3347 3350 3353 3356 3359 3362 3365 3367 3370 3373 3376 3379 3382 3385 3388 3391 3394 3397 3400 3403 3406 3409 3412 3415 3418 3421 3424 3427 3430 3433 3436 3439 3442 3445 3448 3451 3454 3457 3460 3463 3466 3469 3472 3475 3478 3481 3484 3487 3490 3493 3496 3499 3502 3505 3508 3510 3513 3516 3519 3522 3525 3528 3531 3534 3537 3540 3543 3546 3549 3552 3555 3558 3561 3564 3567 3570 3573 3576 3579 3582 3584 3587 3590 3593 3596 3599 3602 3605 3608 3611 3614 3616 3619 3622 3624 3627 3630 3633 3636 3639 3642 3645 3648 3651 3653 3656 3658 3661 3664 3667 3670 3672 3675 3678 3680 3683 3685 3688 3691 3694 3697 3700 3702 3705 3708 3711 3714 3717 3720 3723 3726 3728 3731 3734 3737 3740 3743 3746 3749 3752 3755 3758 3761 3764 3767 3770 3772 3775 3777 3779 3782 3785 3788 3791 3794 3796 3799 3802 3805 3808 3811 3814 3817 3820 3823 3826 3829 3832 3835 3838 3841 3843 3846 3849 3852 3855 3858 3861 3864 3867 3870 3873 3876 3879 3882 3885 3888 3891 3893 3896 3899 3902 3905 3908 3910 3912 3915 3918 3920 3923 3926 3929 3932 3935 3938 3941 3944 3947 3950 3952 3955 3958 3961 3964 3967 3970 3973 3976 3979 3981 3984 3986 3989 3992 3995 3998 4001 4003 4006 4009 4012 4015 4017 4020 4023 4026 4028 4031 4034 4037 4039 4042 4045 4047 4050 4053 4056 4059 4062 4065 4068 4071 4074 4077 4080 4083 4086 4089 4092 4095 4097 4100 4103 4106 4109 4112 4115 4118 4120 4123 4126 4129 4132 4135 4138 4141 4144 4147 4150 4153 4156 4159 4162 4165 4168 4171 4174 4177 4180 4183 4186 4189 4192 4195 4198 4201 4203 4206 4209 4212 4215 4217 4220 4223 4226 4228 4231 4234 4237 4240 4243 4246 4249 4252 4255 4257 4260 4262 4265 4268 4271 4274 4277 4280 4283 4286 4289 4292 4295 4298 4301 4304 4307 4310 4313 4316 4318 4320 4323 4326 4329 4331 4334 4337 4339 4342 4345 4347 4350 4353 4356 4358 4361 4364 4366 4369 4372 4375 4378 4381 4384 4387 4390 4393 4396 4399 4402 4405 4408 4411 4414 4417 4420 4423 4426 4428 4431 4433 4436 4439 4442 4445 4448 4451 4454 4457 4460 4463 4466 4468 4471 4473 4476 4479 4482 4484 4487 4490 4493 4496 4499 4501 4504 4507 4510 4513 4516 4519 4521 4524 4527 4530 4533 4536 4539 4542 4545 4548 4551 4554 4556 4559 4562 4565 4568 4571 4574 4577 4580 4582 4585 4588 4591 4593 4596 4599 4601 4604 4607 4610 4613 4616 4618 4621 4624 4627 4630 4633 4636 4639 4642 4645 4647 4650 4653 4655 4658 4660 4663 4665 4667 4669 4672 4674 4677 4680 4683 4686 4689 4692 4694 4697 4700 4703 4706 4709 4712 4714 4717 4720 4723 4726 4729 4732 4735 4737 4740 4743 4746 4749 4751 4754 4757 4760 4763 4766 4768 4771 4773 4776 4779 4782 4785 4788 4791 4794 4797 4800 4803 4805 4808 4811 4814 4817 4820 4823 4826 4828 4831 4834 4837 4840 4843 4846 4849 4851 4854 4856 4859 4862 4865 4868 4871 4874 4877 4880 4882 4885 4888 4891 4893 4895 4898 4901 4904 4907 4910 4912 4914 4917 4919 4922 4925 4927 4930 4933 4935 4938 4941 4944 4947 4950 4953 4956 4959 4961 4964 4967 4970 4973 4976 4978 4981 4984 4987 4990 4992 4995 4998 5000 5003 5006 5009 5012 5015 5018 5021 5024 5027 5030 5033 5036 5039 5042 5045 5048 5051 5054 5057 5060 5063 5066 5069 5072 5075 5078 5081 5084 5087 5090 5093 5096 5099 5102 5105 5108 5111 5114 5117 5120 5123 5125 5128 5131 5133 5136 5139 5142 5145 5148 5150 5153 5156 5159 5162 5164 5167 5170 5173 5176 5179 5182 5185 5188 5191 5194 5197 5200 5203 5206 5209 5212 5215 5218 5221 5224 5227 5230 5233 5236 5238 5241 5244 5247 5249 5252 5255 5258 5261 5264 5267 5269 5272 5275 5278 5281 5284 5287 5290 5293 5296 5299 5302 5304 5307 5309 5311 5314 5317 5319 5322 5325 5328 5331 5334 5337 5340 5343 5346 5349 5352 5354 5357 5360 5362 5365 5368 5371 5374 5377 5380 5383 5386 5389 5392 5395 5398 5401 5404 5407 5409 5412 5415 5418 5421 5424 5427 5430 5432 5435 5437 5440 5443 5446 5449 5451 5454 5456 5459 5462 5465 5468 5471 5474 5477 5480 5483 5485 5488 5491 5494 5497 5500 5503 5506 5509 5512 5515 5518 5521 5524 5527 5530 5533 5536 5538 5541 5544 5547 5550 5553 5556 5559 5562 5565 5568 5571 5574 5577 5580 5583 5586 5589 5592 5595 5598 5601 5604 5607 5610 5613 5615 5617 5620 5623 5626 5629 5632 5635 5638 5641 5644 5647 5650 5652 5655 5658 5661 5664 5666 5669 5672 5675 5678 5680 5683 5686 5689 5692 5695 5698 5701 5704 5706 5709 5712 5715 5718 5721 5724 5727 5730 5733 5735 5738 5741 5744 5747 5750 5753 5756 5759 5762 5765 5768 5771 5774 5777 5780 5783 5786 5789 5792 5795 5797 5800 5803 5806 5809 5812 5815 5818 5821 5824 5827 5830 5833 5836 5839 5841 5844 5846 5849 5852 5855 5858 5861 5864 5867 5870 5872 5875 5878 5880 5883 5886 5889 5892 5895 5898 5901 5904 5907 5910 5913 5916 5919 5922 5925 5928 5931 5934 5937 5940 5943 5946 5949 5952 5955 5958 5961 5964 5967 5970 5973 5976 5979 5982 5985 5988 5990 5993 5996 5998 6001 6004 6007 6010 6012 6015 6017 6020 6023 6025 6028 6030 6033 6036 6039 6042 6045 6047 6050 6053 6056 6059 6062 6065 6068 6071 6074 6077 6080 6083 6085 6088 6091 6094 6096 6099 6102 6105 6108 6111 6114 6117 6120 6123 6125 6128 6131 6134 6137 6139 6141 6144 6147 6150 6153 6156 6159 6162 6165 6167 6170 6173 6176 6179 6182 6184 6187 6190 6193 6195 6198 6201 6204 6206 6209 6212 6215 6218 6220 6223 6226 6229 6232 6235 6238 6241 6244 6247 6250 6253 6256 6259 6262 6264 6267 6270 6273 6276 6279 6282 6284 6287 6289 6291 6294 6296 6299 6301 6304 6307 6310 6313 6315 6318 6321 6324 6327 6329 6332 6335 6338 6341 6344 6347 6350 6353 6356 6358 6361 6364 6367 6370 6373 6376 6379 6382 6385 6388 6391 6394 6397 6400 6402 6405 6408 6411 6413 6416 6419 6422 6424 6427 6429 6432 6435 6438 6441 6444 6447 6450 6453 6456 6459 6462 6465 6468 6471 6474 6477 6479 6482 6485 6488 6491 6494 6497 6499 6502 6505 6508 6511 6514 6517 6520 6523 6526 6529 6532 6535 6538 6541 6544 6547 6550 6553 6555 6558 6561 6564 6567 6570 6573 6576 6579 6582 6585 6588 6591 6594 6597 6600 6603 6606 6609 6612 6615 6618 6621 6624 6627 6630 6633 6636 6639 6642 6645 6648 6651 6654 6657 6659 6662 6665 6668 6671 6673 6676 6679 6682 6685 6688 6691 6694 6696 6699 6702 6705 6708 6711 6714 6717 6720 6723 6725 6728 6731 6733 6736 6739 6742 6745 6748 6750 6753 6756 6759 6761 6764 6767 6769 6772 6775 6778 6781 6784 6787 6790 6793 6796 6799 6802 6805 6808 6811 6814 6817 6820 6823 6826 6829 6831 6834 6837 6840 6843 6846 6849 6852 6855 6858 6861 6863 6865 6868 6870 6873 6876 6879 6882 6885 6887 6890 6893 6896 6899 6901 6904 6907 6910 6913 6916 6918 6921 6923 6926 6929 6931 6934 6937 6940 6943 6946 6949 6952 6955 6957 6960 6963 6966 6969 6972 6975 6977 6980 6983 6986 6989 6992 6995 6997 7000 7003 7006 7009 7011 7014 7017 7019 7022 7024 7027 7030 7032 7035 7038 7041 7044 7047 7050 7052 7055 7058 7061 7064 7066 7069 7072 7075 7078 7081 7084 7087 7090 7092 7094 7097 7100 7103 7106 7109 7112 7115 7118 7120 7123 7126 7129 7132 7135 7138 7140 7143 7146 7149 7152 7155 7158 7161 7163 7166 7169 7172 7174 7177 7180 7183 7186 7189 7192 7195 7198 7201 7204 7207 7210 7212 7215 7218 7221 7224 7226 7229 7232 7234 7237 7240 7243 7246 7248 7251 7254 7257 7259 7261 7264 7267 7270 7272 7275 7278 7281 7283 7286 7289 7292 7295 7298 7301 7304 7307 7310 7312 7315 7318 7321 7323 7326 7329 7332 7335 7338 7341 7344 7347 7350 7353 7356 7359 7361 7364 7366 7369 7372 7374 7377 7380 7382 7385 7388 7391 7394 7397 7400 7403 7405 7408 7411 7414 7417 7420 7422 7425 7427 7430 7433 7436 7438 7440 7443 7445 7447 7450 7452 7455 7458 7461 7464 7467 7470 7472 7475 7477 7480 7483 7486 7489 7492 7495 7498 7501 7504 7507 7510 7513 7516 7518 7521 7524 7526 7529 7531 7534 7537 7539 7542 7545 7548 7550 7552 7555 7558 7560 7563 7566 7569 7572 7575 7578 7581 7584 7587 7590 7593 7596 7599 7602 7605 7608 7611 7614 7617 7620 7623 7626 7629 7631 7633 7636 7638 7641 7643 7646 7649 7651 7653 7656 7659 7661 7664 7667 7669 7672 7675 7677 7680 7682 7685 7688 7691 7694 7696 7699 7702 7705 7708 7710 7713 7715 7717 7720 7722 7725 7728 7730 7732 7735 7738 7741 7743 7746 7749 7752 7755 7757 7759 7762 7765 7768 7771 7774 7776 7779 7782 7785 7788 7791 7794 7797 7800 7803 7806 7809 7811 7814 7816 7819 7821 7824 7827 7829 7832 7834 7837 7840 7843 7846 7849 7852 7855 7858 7860 7863 7866 7868 7871 7874 7877 7880 7882 7885 7888 7891 7894 7897 7900 7903 7906 7909 7912 7915 7918 7920 7923 7926 7929 7932 7935 7938 7941 7944 7947 7950 7953 7955 7958 7961 7964 7967 7970 7973 7975 7978 7980 7983 7986 7988 7991 7994 7997 8000 8003 8006 8009 8012 8015 8018 8021 8024 8027 8030 8033 8036 8039 8041 8043 8046 8049 8052 8054 8057 8060 8062 8065 8068 8071 8074 8077 8080 8083 8086 8089 8092 8095 8098 8101 8104 8107 8110 8113 8116 8119 8122 8125 8128 8131 8134 8137 8139 8141 8144 8147 8150 8153 8156 8159 8162 8165 8168 8171 8174 8176 8179 8182 8185 8188 8191 8194 8197 8200 8203 8206 8209 8212 8215 8218 8221 8224 8227 8230 8233 8236 8239 8242 8245 8248 8251 8254 8257 8260 8263 8266 8269 8272 8275 8277 8280 8283 8286 8289 8292 8294 8297 8300 8302 8305 8308 8310 8312 8315 8318 8321 8324 8327 8330 8333 8336 8339 8342 8345 8348 8351 8353 8356 8359 8361 8364 8367 8370 8373 8376 8379 8381 8384 8387 8389 8392 8395 8398 8401 8404 8407 8410 8413 8416 8419 8422 8425 8428 8430 8433 8436 8439 8442 8445 8448 8451 8453 8456 8459 8462 8465 8468 8471 8474 8477 8480 8483 8486 8489 8491 8494 8497 8499 8502 8505 8508 8511 8514 8517 8520 8523 8526 8529 8532 8535 8538 8541 8544 8547 8550 8553 8556 8559 8561 8564 8567 8569 8572 8574 8577 8580 8583 8585 8588 8591 8593 8596 8598 8601 8604 8607 8609 8612 8615 8618 8621 8623 8626 8629 8632 8635 8638 8641 8644 8646 8649 8652 8655 8657 8660 8663 8666 8669 8672 8675 8678 8681 8684 8687 8690 8693 8695 8698 8701 8704 8707 8710 8713 8716 8719 8721 8724 8727 8730 8733 8736 8739 8742 8745 8748 8751 8754 8756 8759 8762 8765 8768 8771 8774 8777 8780 8783 8786 8789 8792 8795 8798 8801 8804 8807 8810 8813 8815 8817 8820 8823 8826 8828 8831 8834 8837 8840 8843 8846 8849 8852 8855 8858 8861 8864 8866 8869 8872 8875 8878 8881 8884 8887 8890 8893 8895 8898 8901 8904 8907 8910 8913 8916 8919 8922 8925 8928 8931 8934 8937 8940 8943 8945 8948 8950 8953 8956 8959 8962 8965 8967 8970 8973 8976 8979 8981 8984 8987 8990 8992 8995 8998 9001 9003 9006 9009 9012 9015 9018 9021 9024 9027 9030 9032 9035 9038 9041 9043 9046 9049 9051 9054 9057 9060 9063 9066 9069 9071 9074 9077 9080 9083 9086 9089 9092 9095 9097 9100 9103 9106 9108 9111 9114 9117 9120 9123 9126 9129 9132 9135 9138 9141 9144 9147 9150 9153 9156 9159 9162 9165 9168 9171 9174 9177 9180 9183 9186 9189 9191 9194 9197 9200 9203 9206 9209 9212 9214 9217 9220 9223 9226 9229 9232 9235 9238 9241 9244 9247 9250 9253 9256 9259 9262 9265 9268 9271 9274 9277 9280 9283 9286 9289 9291 9294 9296 9299 9302 9305 9308 9311 9314 9316 9319 9322 9325 9327 9330 9333 9335 9338 9341 9344 9347 9350 9353 9356 9359 9362 9365 9368 9371 9373 9376 9379 9382 9385 9388 9390 9393 9396 9399 9402 9405 9408 9411 9414 9417 9420 9423 9426 9429 9431 9434 9437 9440 9442 9445 9448 9451 9454 9457 9460 9463 9466 9469 9472 9475 9478 9480 9482 9485 9488 9491 9494 9496 9499 9502 9505 9508 9511 9514 9517 9520 9523 9525 9527 9530 9533 9536 9539 9542 9544 9547 9550 9553 9556 9559 9561 9564 9567 9570 9573 9576 9578 9581 9583 9586 9589 9592 9595 9597 9600 9602 9605 9607 9609 9612 9615 9618 9621 9624 9627 9630 9632 9634 9637 9640 9643 9646 9649 9652 9654 9656 9658 9661 9663 9665 9668 9671 9674 9676 9679 9682 9685 9688 9691 9693 9695 9697 9700 9702 9705 9708 9711 9713 9716 9718 9720 9723 9726 9729 9732 9735 9738 9741 9743 9745 9748 9751 9753 9755 9757 9760 9763 9766 9769 9772 9775 9778 9781 9784 9787 9790 9793 9796 9799 9802 9805 9808 9811 9814 9817 9820 9823 9826 9829 9832 9835 9838 9841 9844 9847 9850 9853 9856 9859 9862 9865 9868 9871 9874 9877 9879 9882 9885 9888 9891 9894 9897 9900 9903 9906 9909 9911 9914 9917 9920 9923 9926 9929 9931 9934 9937 9939 9942 9945 9948 9951 9954 9957 9960 9963 9966 9969 9972 9975 9978 9980 9983 9985 9988 9991 9994 9997 9999 10002 10005 10008 10010 10013 10016 10018 10021 10024 10027 10029 10032 10035 10037 10040 10043 10046 10049 10052 10054 10057 10060 10063 10066 10069 10072 10075 10077 10080 10083 10086 10089 10092 10095 10098 10100 10103 10106 10108 10111 10114 10117 10120 10122 10125 10127 10130 10133 10136 10139 10142 10144 10147 10150 10153 10156 10158 10161 10164 10167 10170 10173 10176 10178 10180 10183 10186 10189 10192 10195 10197 10200 10203 10205 10208 10211 10214 10217 10220 10223 10226 10229 10232 10235 10237 10240 10243 10246 10249 10252 10255 10258 10261 10264 10267 10270 10273 10276 10279 10282 10285 10288 10291 10293 10296 10299 10302 10305 10308 10311 10313 10316 10319 10322 10325 10328 10331 10334 10336 10338 10341 10344 10347 10350 10352 10355 10358 10361 10364 10367 10370 10373 10375 10378 10381 10383 10386 10388 10390 10392 10395 10398 10401 10404 10407 10410 10412 10415 10418 10421 10424 10427 10429 10432 10435 10438 10441 10443 10446 10449 10452 10454 10457 10460 10463 10465 10468 10471 10474 10477 10480 10483 10486 10489 10492 10495 10498 10501 10504 10507 10510 10513 10516 10519 10522 10525 10528 10531 10534 10537 10540 10542 10545 10548 10551 10554 10557 10560 10563 10565 10568 10570 10573 10576 10579 10582 10585 10588 10590 10593 10596 10598 10601 10604 10607 10609 10612 10615 10617 10620 10623 10626 10629 10632 10634 10637 10640 10643 10645 10647 10650 10653 10656 10659 10662 10665 10668 10671 10674 10677 10680 10683 10685 10688 10691 10694 10697 10700 10703 10706 10709 10712 10714 10717 10720 10723 10726 10729 10731 10733 10736 10739 10742 10745 10748 10751 10754 10757 10760 10762 10765 10768 10771 10774 10777 10780 10783 10786 10788 10791 10794 10797 10800 10803 10806 10809 10812 10815 10818 10821 10824 10827 10830 10833 10836 10839 10842 10844 10847 10850 10853 10856 10858 10861 10863 10866 10868 10871 10874 10877 10880 10883 10886 10889 10892 10895 10898 10901 10904 10907 10910 10913 10916 10919 10921 10924 10927 10930 10933 10936 10938 10941 10944 10947 10949 10951 10954 10957 10960 10963 10966 10968 10971 10974 10977 10980 10982 10985 10988 10991 10994 10997 11000 11003 11006 11008 11011 11014 11017 11020 11023 11026 11029 11031 11034 11037 11040 11043 11046 11049 11052 11055 11058 11060 11063 11066 11069 11072 11075 11078 11081 11084 11087 11090 11093 11096 11099 11102 11105 11108 11111 11114 11116 11119 11122 11125 11128 11131 11134 11137 11140 11143 11146 11149 11152 11155 11157 11160 11163 11166 11169 11172 11175 11177 11180 11183 11185 11188 11191 11193 11196 11199 11202 11205 11208 11211 11214 11217 11220 11223 11226 11229 11232 11235 11238 11241 11244 11247 11250 11253 11256 11259 11262 11265 11268 11271 11273 11276 11278 11281 11283 11285 11288 11291 11294 11296 11299 11302 11305 11308 11311 11314 11317 11320 11323 11325 11327 11330 11332 11335 11338 11341 11344 11347 11350 11353 11356 11359 11362 11365 11368 11371 11374 11376 11379 11381 11383 11386 11388 11391 11394 11397 11400 11403 11406 11409 11412 11415 11417 11419 11422 11425 11428 11431 11434 11437 11440 11443 11446 11449 11452 11455 11458 11461 11464 11467 11470 11473 11476 11479 11482 11485 11487 11490 11493 11496 11499 11502 11504 11507 11510 11513 11516 11519 11521 11524 11527 11530 11532 11535 11538 11541 11544 11547 11550 11553 11556 11559 11561 11564 11567 11570 11573 11575 11578 11581 11584 11587 11590 11593 11595 11598 11601 11604 11607 11610 11613 11616 11618 11621 11624 11627 11630 11632 11635 11638 11641 11644 11647 11650 11653 11656 11659 11662 11664 11667 11670 11673 11676 11678 11681 11684 11687 11689 11692 11695 11698 11701 11704 11706 11709 11712 11715 11718 11721 11724 11727 11730 11733 11736 11739 11742 11745 11748 11750 11752 11755 11758 11760 11763 11766 11769 11772 11775 11778 11781 11783 11786 11789 11792 11795 11798 11801 11803 11806 11809 11812 11815 11818 11821 11824 11827 11830 11833 11836 11839 11842 11845 11848 11851 11854 11857 11860 11863 11866 11869 11872 11874 11877 11880 11883 11886 11889 11892 11895 11898 11900 11903 11906 11909 11912 11914 11917 11920 11923 11926 11929 11931 11934 11936 11939 11941 11944 11947 11950 11953 11956 11959 11962 11964 11967 11970 11973 11975 11978 11981 11984 11987 11990 11992 11995 11998 12001 12004 12007 12009 12012 12014 12017 12020 12022 12025 12027 12030 12033 12036 12039 12042 12044 12047 12050 12053 12055 12058 12061 12064 12067 12070 12073 12076 12079 12082 12085 12087 12090 12093 12096 12099 12102 12105 12108 12111 12114 12117 12120 12123 12126 12129 12132 12135 12138 12141 12144 12147 12150 12153 12155 12158 12161 12164 12167 12170 12173 12176 12179 12182 12185 12188 12191 12194 12197 12200 12203 12206 12209 12211 12214 12217 12220 12222 12225 12228 12231 12234 12237 12240 12242 12245 12248 12251 12253 12255 12258 12260 12263 12265 12267 12270 12272 12275 12278 12280 12283 12286 12288 12290 12293 12296 12299 12302 12305 12308 12311 12314 12316 12319 12321 12324 12327 12330 12333 12336 12339 12342 12345 12348 12351 12354 12357 12360 12363 12366 12369 12372 12375 12378 12381 12384 12387 12389 12392 12395 12398 12401 12404 12407 12410 12413 12415 12418 12421 12423 12426 12429 12431 12433 12436 12439 12441 12444 12447 12450 12453 12456 12459 12462 12465 12468 12471 12474 12477 12480 12483 12486 12489 12492 12495 12498 12501 12504 12507 12510 12513 12516 12519 12522 12525 12528 12531 12534 12537 12540 12543 12546 12549 12552 12555 12558 12560 12563 12565 12568 12571 12574 12577 12580 12583 12586 12589 12592 12595 12598 12601 12604 12607 12610 12613 12616 12619 12622 12625 12628 12631 12634 12637 12640 12643 12646 12649 12652 12655 12658 12661 12664 12667 12670 12673 12676 12679 12682 12685 12687 12690 12693 12695 12698 12701 12704 12707 12710 12712 12715 12717 12720 12723 12725 12728 12731 12734 12737 12740 12743 12745 12748 12751 12754 12757 12760 12763 12766 12769 12772 12775 12778 12780 12783 12786 12788 12790 12793 12795 12798 12801 12803 12806 12809 12812 12815 12817 12820 12823 12826 12829 12832 12835 12838 12841 12844 12846 12849 12851 12854 12857 12860 12863 12866 12869 12872 12874 12877 12879 12882 12885 12888 12891 12894 12897 12900 12903 12906 12908 12911 12913 12916 12919 12922 12925 12928 12931 12934 12937 12940 12943 12945 12948 12951 12954 12956 12959 12962 12964 12967 12970 12972 12975 12978 12981 12984 12986 12989 12992 12995 12997 13000 13003 13006 13009 13012 13015 13018 13021 13024 13027 13030 13033 13036 13039 13041 13044 13047 13050 13053 13056 13059 13061 13064 13066 13069 13071 13074 13077 13080 13082 13085 13088 13091 13094 13097 13100 13103 13106 13108 13111 13114 13117 13120 13123 13125 13128 13131 13133 13136 13139 13142 13145 13148 13151 13154 13157 13160 13162 13165 13168 13171 13173 13176 13179 13182 13185 13188 13191 13193 13196 13199 13202 13205 13208 13211 13214 13217 13220 13223 13226 13229 13232 13235 13238 13241 13244 13247 13250 13253 13256 13259 13262 13265 13268 13271 13274 13277 13280 13283 13286 13288 13291 13294 13297 13300 13303 13305 13308 13311 13313 13315 13318 13321 13324 13327 13329 13332 13335 13338 13341 13344 13346 13349 13352 13355 13358 13361 13364 13367 13370 13373 13376 13379 13382 13385 13388 13391 13394 13396 13399 13402 13405 13408 13411 13414 13417 13420 13422 13424 13427 13430 13433 13436 13439 13442 13444 13447 13450 13453 13456 13458 13461 13464 13467 13470 13473 13476 13479 13482 13485 13488 13491 13494 13497 13500 13503 13506 13509 13512 13515 13518 13521 13524 13527 13530 13532 13535 13538 13540 13543 13546 13549 13552 13555 13558 13561 13564 13567 13570 13573 13576 13579 13582 13585 13588 13591 13594 13597 13600 13603 13606 13609 13612 13615 13618 13621 13623 13626 13628 13631 13634 13637 13640 13643 13645 13648 13651 13654 13657 13660 13663 13666 13669 13672 13675 13678 13681 13684 13687 13690 13693 13696 13699 13702 13705 13707 13709 13712 13714 13717 13720 13723 13726 13729 13732 13735 13738 13741 13744 13747 13750 13753 13756 13759 13762 13764 13767 13770 13773 13775 13778 13781 13784 13787 13790 13793 13796 13799 13802 13805 13808 13811 13814 13816 13819 13822 13825 13828 13831 13834 13837 13840 13843 13846 13849 13852 13855 13858 13861 13864 13867 13870 13873 13876 13879 13882 13884 13887 13890 13893 13896 13899 13902 13905 13908 13911 13914 13917 13920 13923 13925 13928 13930 13933 13936 13938 13940 13943 13946 13949 13952 13955 13958 13961 13964 13967 13970 13973 13976 13979 13982 13985 13988 13991 13994 13997 14000 14002 14005 14008 14010 14013 14016 14019 14021 14024 14027 14030 14033 14036 14039 14041 14044 14047 14050 14052 14055 14058 14061 14064 14067 14070 14073 14076 14078 14081 14084 14086 14089 14092 14094 14097 14099 14102 14105 14108 14111 14113 14115 14118 14121 14123 14125 14128 14131 14133 14136 14139 14142 14145 14147 14150 14153 14155 14157 14160 14162 14165 14168 14171 14174 14177 14180 14183 14186 14189 14192 14195 14198 14201 14204 14207 14210 14213 14216 14219 14222 14224 14227 14230 14233 14236 14238 14241 14244 14247 14250 14252 14254 14257 14260 14263 14266 14269 14272 14275 14278 14281 14284 14287 14290 14292 14295 14298 14301 14303 14306 14309 14312 14315 14318 14321 14324 14326 14329 14332 14335 14337 14340 14343 14345 14347 14350 14353 14356 14358 14361 14364 14367 14369 14372 14375 14378 14381 14384 14387 14390 14393 14396 14399 14402 14405 14408 14411 14414 14417 14420 14423 14425 14428 14431 14434 14437 14440 14443 14446 14449 14452 14455 14458 14461 14464 14467 14470 14473 14476 14479 14481 14483 14486 14489 14492 14495 14498 14500 14502 14505 14507 14510 14513 14516 14519 14522 14525 14528 14531 14534 14536 14539 14542 14545 14547 14550 14553 14556 14559 14562 14565 14568 14571 14574 14577 14580 14583 14586 14589 14591 14594 14597 14600 14603 14606 14609 14612 14614 14617 14620 14622 14625 14628 14631 14634 14637 14640 14642 14645 14648 14651 14654 14656 14659 14662 14665 14668 14671 14674 14676 14679 14682 14685 14688 14691 14694 14697 14700 14702 14704 14707 14710 14713 14715 14717 14720 14723 14726 14729 14732 14734 14737 14740 14743 14746 14749 14752 14754 14757 14760 14763 14766 14768 14771 14774 14777 14780 14783 14785 14788 14791 14794 14797 14799 14802 14805 14808 14811 14814 14817 14820 14823 14826 14829 14832 14835 14838 14841 14844 14847 14850 14853 14856 14859 14862 14865 14868 14871 14874 14876 14879 14882 14885 14888 14890 14893 14895 14898 14900 14903 14906 14908 14911 14914 14916 14919 14922 14924 14927 14930 14933 14936 14939 14942 14944 14947 14950 14952 14955 14957 14959 14961 14964 14967 14969 14972 14974 14976 14979 14982 14985 14987 14990 14992 14995 14998 15001 15004 15007 15010 15012 15015 15018 15021 15023 15026 15029 15032 15035 15038 15041 15044 15046 15049 15052 15055 15057 15060 15062 15064 15067 15070 15073 15076 15079 15082 15085 15087 15090 15093 15096 15099 15102 15105 15108 15111 15113 15115 15118 15121 15124 15127 15129 15132 15135 15137 15140 15143 15146 15148 15151 15154 15157 15159 15161 15164 15167 15170 15173 15175 15178 15181 15184 15187 15190 15192 15194 15197 15200 15203 15206 15209 15212 15215 15218 15221 15224 15227 15230 15233 15236 15239 15242 15245 15248 15251 15254 15257 15260 15263 15266 15269 15272 15275 15278 15281 15284 15287 15289 15292 15295 15298 15300 15303 15306 15309 15312 15315 15318 15321 15324 15327 15330 15333 15336 15339 15342 15345 15347 15350 15352 15354 15357 15360 15362 15365 15368 15371 15374 15377 15380 15383 15386 15389 15392 15395 15398 15401 15404 15407 15410 15413 15416 15419 15422 15425 15428 15431 15433 15436 15439 15441 15443 15446 15449 15452 15455 15458 15461 15464 15466 15469 15472 15475 15477 15480 15483 15486 15489 15491 15493 15496 15499 15502 15505 15508 15511 15514 15516 15519 15522 15525 15528 15530 15533 15536 15539 15542 15544 15547 15550 15553 15556 15559 15562 15565 15568 15571 15574 15577 15580 15583 15586 15589 15592 15595 15598 15601 15603 15606 15609 15612 15615 15618 15621 15624 15627 15630 15633 15636 15639 15642 15645 15648 15651 15653 15656 15659 15662 15664 15667 15670 15673 15676 15679 15682 15685 15688 15691 15693 15696 15699 15702 15705 15708 15711 15714 15717 15720 15723 15726 15729 15732 15735 15738 15741 15744 15747 15750 15753 15756 15758 15761 15764 15767 15770 15773 15776 15779 15782 15785 15788 15791 15794 15797 15800 15803 15806 15809 15811 15814 15817 15820 15823 15826 15828 15831 15834 15837 15840 15843 15846 15849 15852 15855 15858 15861 15864 15867 15870 15873 15876 15879 15882 15885 15888 15891 15894 15897 15900 15903 15906 15909 15911 15914 15917 15919 15922 15925 15928 15930 15933 15936 15939 15942 15945 15948 15951 15954 15957 15960 15963 15966 15969 15972 15975 15977 15980 15982 15985 15988 15991 15994 15997 16000 16003 16006 16009 16011 16014 16017 16020 16023 16026 16029 16032 16035 16038 16040 16042 16045 16048 16051 16054 16057 16060 16063 16066 16069 16072 16075 16078 16081 16084 16087 16090 16093 16096 16099 16102 16105 16108 16111 16114 16117 16120 16123 16126 16129 16132 16135 16138 16141 16144 16147 16150 16153 16156 16159 16162 16165 16168 16171 16174 16177 16180 16183 16186 16189 16192 16195 16198 16201 16204 16207 16210 16213 16216 16219 16222 16225 16228 16231 16234 16237 16240 16243 16246 16249 16252 16255 16257 16260 16263 16266 16269 16272 16275 16277 16280 16283 16286 16289 16292 16295 16298 16301 16304 16306 16309 16311 16314 16317 16320 16323 16326 16329 16332 16335 16338 16341 16344 16347 16350 16353 16356 16359 16362 16365 16368 16371 16374 16377 16380 16383 16386 16389 16392 16395 16398 16401 16404 16407 16410 16413 16415 16418 16421 16424 16426 16428 16431 16434 16437 16440 16443 16446 16449 16452 16455 16458 16461 16464 16467 16470 16473 16476 16479 16482 16485 16488 16491 16494 16496 16498 16501 16504 16507 16510 16513 16516 16519 16522 16524 16527 16530 16533 16536 16539 16542 16544 16547 16550 16553 16556 16559 16561 16564 16567 16570 16573 16575 16578 16581 16584 16586 16589 16592 16595 16597 16600 16603 16605 16608 16611 16614 16617 16620 16623 16626 16629 16632 16635 16638 16641 16644 16646 16649 16652 16655 16658 16661 16664 16667 16670 16672 16675 16678 16681 16684 16687 16690 16693 16696 16699 16702 16705 16707 16710 16713 16716 16718 16721 16724 16727 16730 16732 16735 16738 16741 16744 16747 16750 16753 16756 16758 16761 16763 16766 16769 16771 16774 16777 16780 16783 16786 16788 16791 16794 16797 16800 16803 16806 16809 16812 16815 16818 16821 16824 16826 16829 16832 16835 16838 16841 16844 16847 16850 16853 16855 16858 16861 16864 16867 16870 16873 16875 16878 16881 16884 16887 16890 16893 16896 16898 16901 16904 16907 16910 16913 16915 16918 16921 16924 16927 16930 16933 16936 16939 16942 16945 16948 16951 16954 16957 16960 16963 16966 16969 16972 16975 16978 16981 16984 16987 16990 16993 16996 16999 17002 17005 17008 17011 17014 17017 17020 17023 17026 17029 17032 17035 17038 17041 17044 17047 17050 17053 17056 17058 17061 17063 17066 17069 17072 17075 17078 17081 17084 17087 17090 17093 17096 17099 17102 17105 17107 17110 17113 17116 17119 17122 17125 17128 17131 17134 17137 17140 17143 17146 17149 17152 17154 17157 17160 17162 17165 17167 17170 17173 17176 17179 17182 17184 17187 17190 17193 17196 17199 17202 17205 17208 17211 17214 17217 17220 17223 17226 17229 17232 17235 17238 17241 17244 17246 17249 17252 17255 17258 17261 17264 17267 17270 17273 17276 17279 17281 17284 17286 17289 17292 17294 17297 17299 17302 17305 17308 17311 17314 17317 17320 17322 17325 17327 17330 17333 17336 17339 17341 17344 17347 17350 17353 17355 17357 17360 17363 17365 17368 17371 17374 17377 17380 17383 17386 17389 17392 17395 17398 17401 17404 17407 17410 17413 17415 17418 17421 17424 17427 17430 17433 17436 17439 17442 17445 17448 17451 17454 17457 17459 17462 17464 17467 17470 17473 17476 17479 17482 17485 17487 17490 17492 17495 17498 17501 17504 17507 17510 17513 17516 17519 17521 17523 17526 17529 17532 17534 17537 17540 17543 17546 17548 17551 17553 17556 17559 17561 17564 17566 17568 17570 17573 17576 17578 17581 17584 17587 17589 17591 17593 17596 17599 17602 17605 17608 17611 17614 17617 17620 17623 17626 17628 17631 17634 17637 17640 17643 17646 17648 17651 17654 17657 17659 17662 17665 17668 17671 17674 17677 17680 17683 17685 17688 17691 17694 17696 17699 17702 17705 17708 17711 17714 17717 17720 17723 17726 17729 17732 17735 17738 17741 17744 17747 17750 17753 17756 17759 17762 17765 17768 17771 17774 17777 17780 17783 17786 17789 17792 17795 17798 17801 17804 17807 17810 17813 17816 17819 17822 17825 17828 17831 17834 17837 17840 17843 17846 17849 17852 17855 17858 17861 17864 17867 17870 17873 17876 17878 17881 17884 17887 17890 17893 17895 17898 17901 17904 17907 17909 17912 17915 17918 17920 17923 17926 17929 17932 17935 17938 17941 17944 17947 17950 17953 17956 17959 17962 17965 17968 17971 17974 17977 17980 17983 17986 17989 17992 17995 17998 18001 18004 18007 18010 18013 18016 18019 18022 18025 18028 18031 18034 18037 18040 18042 18045 18048 18050 18053 18056 18059 18062 18065 18068 18071 18073 18076 18079 18082 18085 18088 18091 18094 18097 18100 18103 18106 18108 18111 18114 18116 18119 18121 18124 18127 18130 18132 18135 18138 18141 18144 18147 18150 18153 18156 18158 18161 18164 18167 18170 18172 18175 18178 18181 18184 18186 18189 18191 18194 18197 18200 18203 18206 18209 18212 18215 18218 18221 18224 18227 18229 18232 18234 18237 18240 18243 18246 18249 18252 18255 18258 18261 18264 18267 18270 18273 18275 18278 18281 18284 18287 18290 18293 18296 18299 18302 18304 18307 18310 18313 18315 18318 18321 18324 18327 18330 18333 18336 18339 18342 18345 18348 18351 18354 18357 18360 18363 18366 18369 18372 18375 18378 18381 18384 18387 18390 18393 18396 18399 18402 18405 18408 18411 18414 18417 18420 18422 18425 18428 18430 18433 18436 18439 18442 18444 18447 18450 18453 18456 18459 18462 18465 18468 18471 18474 18477 18480 18483 18486 18489 18491 18494 18497 18500 18503 18506 18509 18512 18515 18518 18520 18523 18525 18528 18531 18534 18537 18540 18543 18546 18548 18551 18554 18557 18560 18563 18566 18569 18572 18575 18578 18581 18584 18587 18590 18592 18595 18598 18601 18604 18607 18610 18613 18616 18619 18622 18625 18627 18630 18633 18636 18639 18642 18645 18648 18651 18654 18657 18660 18663 18666 18669 18672 18675 18678 18681 18684 18687 18690 18693 18696 18698 18701 18703 18706 18709 18712 18715 18718 18721 18723 18726 18728 18731 18734 18737 18739 18742 18745 18748 18750 18753 18756 18759 18761 18764 18767 18769 18772 18775 18778 18781 18784 18787 18790 18792 18795 18798 18801 18804 18807 18810 18813 18815 18818 18821 18824 18827 18830 18833 18836 18839 18842 18845 18848 18851 18854 18856 18859 18862 18865 18868 18871 18874 18877 18880 18882 18885 18888 18891 18894 18897 18900 18903 18906 18909 18912 18915 18918 18921 18924 18927 18930 18933 18936 18939 18942 18944 18947 18950 18953 18956 18959 18962 18965 18968 18971 18974 18977 18980 18983 18986 18989 18992 18995 18998 19001 19004 19007 19010 19013 19016 19019 19022 19025 19028 19031 19034 19037 19040 19043 19046 19049 19052 19055 19058 19061 19064 19067 19070 19073 19076 19079 19082 19085 19088 19091 19094 19096 19099 19101 19104 19107 19110 19112 19115 19118 19120 19122 19125 19127 19130 19133 19136 19139 19142 19145 19148 19151 19154 19157 19160 19163 19166 19169 19172 19175 19178 19181 19184 19187 19190 19193 19196 19199 19202 19205 19208 19211 19214 19217 19220 19223 19226 19229 19232 19234 19237 19240 19243 19246 19248 19251 19254 19256 19259 19262 19265 19267 19270 19273 19276 19279 19281 19284 19286 19288 19291 19294 19297 19300 19302 19305 19308 19311 19313 19316 19319 19322 19324 19327 19330 19333 19336 19339 19342 19344 19347 19350 19353 19356 19359 19362 19365 19368 19371 19374 19377 19380 19383 19386 19389 19392 19395 19398 19401 19404 19406 19409 19412 19415 19418 19421 19424 19427 19430 19433 19436 19439 19442 19445 19448 19451 19454 19457 19460 19462 19465 19468 19470 19473 19476 19478 19481 19484 19487 19490 19493 19496 19499 19502 19505 19508 19511 19513 19516 19519 19522 19525 19527 19530 19533 19536 19539 19541 19544 19547 19550 19552 19555 19558 19561 19564 19567 19570 19573 19576 19579 19582 19585 19588 19591 19594 19597 19600 19603 19606 19609 19612 19615 19618 19621 19624 19627 19629 19632 19635 19638 19641 19644 19647 19650 19653 19655 19658 19661 19664 19666 19669 19672 19675 19678 19681 19684 19687 19690 19693 19696 19699 19702 19705 19708 19711 19714 19717 19720 19723 19726 19729 19732 19735 19738 19740 19743 19746 19749 19751 19754 19757 19760 19763 19766 19769 19772 19775 19777 19780 19783 19785 19788 19791 19794 19797 19799 19802 19805 19808 19811 19814 19817 19820 19822 19825 19827 19830 19833 19835 19838 19841 19843 19845 19848 19851 19854 19857 19860 19863 19866 19869 19872 19875 19878 19881 19884 19887 19890 19893 19896 19899 19902 19905 19908 19910 19913 19916 19919 19922 19924 19927 19930 19933 19936 19939 19942 19945 19948 19951 19954 19957 19960 19963 19965 19968 19971 19973 19976 19979 19982 19985 19988 19991 19994 19997 20000 20003 20006 20009 20012 20015 20018 20021 20024 20027 20030 20033 20036 20039 20042 20045 20048 20051 20054 20057 20060 20063 20066 20069 20072 20075 20078 20081 20084 20087 20090 20093 20096 20099 20102 20105 20108 20111 20114 20117 20120 20123 20126 20129 20132 20135 20138 20141 20144 20147 20150 20153 20156 20159 20162 20165 20168 20171 20174 20177 20180 20183 20186 20189 20192 20195 20198 20201 20204 20207 20210 20213 20216 20219 20222 20225 20228 20231 20234 20237 20240 20243 20246 20249 20252 20255 20258 20261 20264 20267 20270 20273 20276 20279 20282 20285 20288 20291 20294 20297 20300 20303 20306 20309 20312 20315 20318 20321 20324 20327 20330 20333 20336 20339 20342 20345 20348 20351 20354 20357 20359 20362 20365 20368 20371 20374 20377 20380 20382 20385 20388 20391 20394 20397 20400 20403 20406 20409 20411 20414 20416 20419 20422 20425 20427 20430 20433 20435 20438 20441 20444 20447 20450 20453 20456 20459 20462 20465 20468 20471 20474 20477 20480 20483 20486 20489 20492 20495 20498 20501 20504 20507 20510 20513 20516 20519 20522 20525 20528 20531 20534 20537 20540 20543 20546 20548 20551 20554 20556 20558 20561 20564 20566 20569 20572 20574 20577 20580 20583 20585 20588 20591 20594 20597 20600 20603 20606 20609 20612 20614 20617 20620 20623 20626 20629 20632 20634 20637 20640 20643 20646 20649 20652 20655 20658 20661 20664 20667 20670 20673 20676 20679 20682 20685 20688 20691 20694 20697 20700 20703 20706 20709 20712 20715 20718 20721 20724 20727 20729 20732 20735 20738 20741 20744 20747 20750 20753 20756 20759 20762 20765 20768 20771 20774 20777 20780 20783 20786 20789 20792 20795 20798 20801 20804 20807 20810 20813 20816 20819 20822 20825 20828 20831 20834 20837 20840 20843 20846 20849 20852 20855 20858 20861 20864 20867 20869 20872 20874 20877 20880 20883 20886 20888 20891 20894 20897 20900 20902 20905 20908 20911 20914 20916 20919 20922 20925 20928 20931 20934 20937 20940 20942 20945 20948 20950 20953 20955 20958 20961 20964 20967 20969 20972 20975 20977 20979 20982 20985 20988 20991 20994 20997 20999 21002 21005 21008 21011 21014 21017 21020 21023 21026 21029 21031 21033 21036 21039 21042 21045 21048 21050 21053 21056 21058 21061 21064 21067 21070 21072 21075 21078 21080 21083 21086 21089 21092 21095 21098 21101 21104 21107 21110 21113 21116 21119 21122 21125 21128 21131 21134 21137 21140 21143 21146 21149 21152 21155 21158 21161 21164 21167 21169 21172 21174 21177 21180 21183 21186 21189 21192 21195 21198 21201 21204 21207 21210 21213 21215 21218 21221 21224 21227 21229 21231 21234 21237 21240 21243 21246 21249 21252 21255 21258 21261 21264 21267 21270 21273 21276 21279 21282 21285 21288 21291 21294 21297 21300 21303 21306 21309 21312 21315 21318 21321 21324 21327 21330 21333 21336 21339 21342 21345 21348 21351 21354 21357 21359 21362 21365 21368 21370 21373 21376 21379 21382 21385 21388 21391 21394 21397 21400 21403 21406 21409 21412 21415 21418 21421 21424 21427 21430 21432 21435 21438 21440 21443 21446 21449 21452 21455 21458 21461 21464 21467 21469 21472 21475 21478 21481 21484 21486 21489 21492 21495 21498 21501 21503 21506 21508 21511 21514 21517 21520 21523 21526 21529 21532 21535 21538 21541 21544 21547 21549 21552 21555 21558 21560 21562 21565 21568 21571 21574 21577 21580 21583 21586 21588 21591 21594 21596 21599 21602 21604 21606 21609 21612 21615 21618 21621 21623 21626 21629 21632 21635 21638 21641 21644 21646 21649 21652 21654 21656 21659 21662 21665 21668 21671 21674 21676 21678 21681 21684 21687 21689 21692 21695 21698 21701 21704 21707 21710 21712 21715 21718 21721 21724 21727 21730 21733 21736 21739 21742 21745 21748 21751 21754 21757 21760 21763 21766 21769 21772 21775 21778 21781 21784 21787 21790 21792 21795 21798 21801 21804 21807 21810 21813 21815 21818 21821 21824 21827 21830 21833 21836 21839 21842 21845 21848 21850 21853 21856 21859 21862 21865 21868 21871 21874 21876 21879 21882 21885 21888 21891 21894 21897 21900 21903 21906 21909 21912 21915 21918 21921 21924 21926 21929 21932 21935 21937 21940 21943 21946 21949 21952 21954 21957 21960 21963 21966 21969 21972 21975 21978 21981 21984 21987 21990 21993 21996 21998 22001 22004 22007 22010 22012 22015 22018 22020 22023 22026 22029 22032 22035 22037 22040 22043 22046 22049 22052 22055 22058 22061 22064 22067 22070 22073 22076 22079 22081 22084 22086 22089 22092 22095 22097 22100 22102 22105 22107 22110 22113 22116 22119 22122 22125 22127 22129 22132 22135 22138 22141 22144 22147 22149 22152 22154 22157 22160 22163 22166 22169 22172 22175 22178 22181 22184 22187 22190 22193 22196 22199 22202 22205 22207 22210 22213 22216 22218 22220 22223 22226 22229 22232 22235 22237 22240 22243 22245 22247 22250 22253 22256 22259 22262 22265 22268 22271 22274 22277 22280 22283 22286 22289 22292 22295 22298 22301 22304 22307 22310 22313 22316 22319 22322 22325 22328 22331 22334 22337 22340 22343 22346 22349 22352 22355 22358 22361 22364 22367 22370 22373 22376 22379 22381 22384 22387 22389 22391 22393 22396 22399 22402 22405 22408 22411 22413 22416 22419 22422 22425 22428 22431 22434 22437 22440 22442 22445 22448 22451 22453 22456 22459 22462 22465 22468 22471 22474 22477 22480 22483 22486 22489 22492 22495 22498 22501 22504 22507 22510 22513 22515 22518 22521 22524 22527 22529 22532 22535 22538 22541 22544 22547 22550 22553 22556 22559 22562 22565 22568 22571 22574 22577 22580 22583 22586 22589 22592 22595 22598 22601 22604 22607 22610 22613 22616 22619 22622 22625 22628 22631 22633 22636 22638 22641 22644 22647 22650 22653 22656 22659 22662 22664 22667 22670 22673 22675 22678 22680 22683 22686 22689 22692 22695 22698 22701 22704 22706 22709 22712 22715 22718 22720 22723 22726 22729 22732 22734 22737 22740 22743 22746 22749 22752 22755 22757 22760 22763 22766 22769 22771 22774 22777 22780 22783 22786 22789 22792 22795 22798 22801 22804 22807 22810 22813 22816 22819 22822 22825 22828 22831 22834 22837 22840 22843 22846 22849 22852 22855 22858 22861 22864 22867 22870 22873 22876 22879 22882 22885 22888 22891 22894 22897 22900 22903 22906 22909 22911 22914 22917 22920 22923 22925 22927 22930 22933 22935 22937 22940 22943 22946 22949 22952 22955 22958 22961 22964 22967 22970 22973 22976 22979 22982 22985 22988 22991 22994 22996 22999 23002 23005 23007 23009 23012 23015 23018 23021 23024 23027 23030 23033 23036 23039 23042 23045 23048 23051 23054 23057 23060 23063 23066 23069 23072 23075 23078 23081 23084 23087 23090 23092 23095 23098 23101 23104 23107 23110 23113 23115 23118 23121 23124 23127 23130 23133 23136 23139 23142 23145 23148 23151 23154 23157 23160 23162 23165 23168 23171 23174 23177 23180 23183 23186 23188 23191 23193 23195 23198 23201 23204 23207 23210 23213 23216 23219 23222 23225 23228 23231 23233 23236 23239 23242 23245 23248 23251 23254 23257 23260 23263 23266 23269 23272 23275 23278 23281 23284 23287 23289 23292 23295 23298 23300 23303 23306 23309 23312 23315 23318 23321 23324 23326 23329 23332 23335 23338 23341 23344 23347 23350 23353 23356 23359 23362 23365 23368 23371 23373 23376 23379 23382 23384 23387 23390 23393 23396 23399 23402 23405 23408 23411 23414 23417 23420 23423 23426 23429 23432 23435 23438 23441 23444 23447 23450 23453 23456 23459 23462 23465 23468 23471 23474 23477 23480 23483 23485 23488 23490 23493 23496 23499 23502 23505 23508 23511 23514 23516 23519 23522 23525 23528 23531 23534 23537 23540 23543 23545 23548 23551 23553 23556 23559 23562 23565 23568 23570 23573 23576 23579 23582 23584 23587 23590 23593 23596 23598 23601 23604 23607 23609 23612 23614 23617 23620 23622 23625 23628 23631 23634 23637 23640 23643 23646 23649 23652 23655 23658 23661 23664 23666 23669 23672 23674 23677 23679 23682 23685 23688 23690 23693 23696 23698 23701 23704 23707 23710 23712 23715 23717 23720 23723 23726 23729 23732 23735 23737 23740 23742 23745 23748 23751 23754 23757 23759 23762 23765 23768 23771 23773 23776 23779 23782 23785 23788 23791 23793 23796 23799 23802 23805 23808 23811 23814 23817 23820 23823 23826 23829 23832 23835 23838 23841 23844 23847 23850 23853 23856 23859 23862 23865 23868 23871 23874 23877 23880 23883 23886 23889 23892 23894 23896 23899 23902 23905 23908 23911 23914 23917 23920 23923 23926 23928 23931 23934 23936 23938 23941 23943 23946 23949 23952 23955 23958 23961 23964 23966 23969 23972 23975 23978 23981 23984 23987 23990 23993 23996 23999 24002 24004 24007 24010 24013 24016 24018 24021 24024 24027 24030 24033 24036 24039 24042 24045 24048 24051 24054 24056 24059 24062 24065 24068 24071 24074 24077 24080 24083 24086 24089 24092 24095 24098 24101 24104 24107 24109 24112 24115 24118 24121 24124 24126 24129 24132 24135 24137 24140 24143 24146 24149 24152 24155 24157 24160 24162 24165 24168 24171 24173 24176 24179 24182 24185 24188 24191 24194 24197 24200 24202 24205 24208 24210 24213 24216 24219 24222 24225 24228 24231 24233 24236 24239 24242 24245 24248 24251 24254 24257 24260 24263 24266 24269 24272 24274 24277 24280 24282 24285 24288 24291 24294 24297 24300 24302 24305 24308 24311 24314 24317 24320 24322 24325 24328 24331 24334 24337 24340 24343 24345 24348 24351 24354 24357 24360 24363 24366 24369 24372 24375 24378 24381 24384 24387 24390 24393 24396 24399 24402 24405 24408 24411 24413 24416 24419 24422 24425 24428 24431 24434 24437 24440 24443 24445 24448 24451 24454 24457 24459 24461 24464 24467 24470 24473 24475 24478 24481 24484 24487 24490 24493 24496 24499 24502 24504 24507 24510 24513 24516 24519 24522 24525 24528 24531 24534 24537 24539 24542 24545 24548 24550 24553 24556 24559 24561 24564 24567 24570 24573 24576 24579 24582 24585 24588 24591 24594 24597 24599 24602 24605 24608 24611 24614 24616 24619 24622 24624 24627 24630 24633 24636 24639 24642 24645 24648 24651 24654 24657 24660 24663 24666 24668 24671 24674 24677 24680 24683 24686 24689 24691 24694 24697 24700 24702 24705 24708 24711 24714 24717 24719 24722 24725 24728 24731 24734 24737 24740 24743 24746 24748 24751 24754 24757 24760 24763 24766 24769 24772 24774 24777 24780 24783 24786 24789 24791 24794 24797 24800 24803 24806 24809 24812 24814 24817 24820 24823 24826 24829 24832 24835 24838 24841 24844 24847 24850 24853 24856 24859 24862 24865 24868 24871 24874 24877 24880 24883 24886 24889 24892 24895 24898 24901 24904 24907 24910 24913 24916 24919 24922 24925 24928 24931 24934 24937 24940 24943 24946 24949 24952 24955 24958 24960 24963 24966 24969 24972 24975 24978 24981 24983 24986 24989 24992 24995 24998 25001 25004 25007 25010 25013 25016 25019 25022 25025 25028 25031 25034 25037 25040 25043 25046 25049 25051 25053 25056 25059 25061 25063 25066 25069 25072 25075 25078 25081 25084 25086 25089 25092 25095 25098 25101 25104 25107 25110 25113 25116 25119 25122 25125 25128 25130 25133 25136 25139 25142 25145 25148 25151 25154 25156 25159 25162 25164 25167 25170 25173 25175 25178 25181 25184 25187 25190 25193 25196 25199 25202 25205 25208 25211 25214 25217 25220 25223 25226 25229 25232 25235 25238 25241 25244 25247 25250 25253 25256 25259 25261 25264 25267 25270 25273 25276 25279 25282 25285 25287 25290 25293 25296 25299 25302 25305 25307 25309 25312 25315 25318 25321 25323 25326 25329 25331 25334 25337 25339 25342 25345 25348 25351 25354 25357 25359 25362 25365 25368 25371 25374 25377 25380 25383 25385 25388 25391 25394 25397 25400 25403 25406 25409 25412 25415 25418 25420 25423 25426 25428 25431 25434 25437 25440 25443 25446 25449 25451 25454 25457 25460 25462 25465 25467 25470 25472 25475 25478 25481 25484 25487 25490 25493 25496 25499 25502 25505 25508 25511 25514 25517 25520 25523 25525 25528 25530 25533 25536 25539 25542 25545 25548 25551 25554 25557 25560 25562 25565 25568 25571 25574 25577 25580 25583 25585 25588 25591 25594 25596 25599 25601 25603 25606 25609 25611 25614 25617 25620 25623 25625 25628 25631 25634 25636 25639 25642 25645 25647 25650 25652 25654 25657 25660 25663 25666 25669 25672 25674 25677 25680 25683 25686 25689 25692 25695 25698 25700 25702 25704 25707 25709 25712 25715 25717 25719 25722 25725 25727 25730 25733 25736 25739 25742 25745 25748 25751 25754 25757 25760 25762 25765 25768 25771 25774 25777 25780 25783 25786 25789 25792 25795 25798 25801 25803 25805 25808 25811 25814 25817 25819 25822 25825 25828 25830 25833 25836 25839 25842 25845 25847 25849 25852 25855 25858 25860 25863 25866 25869 25872 25875 25878 25881 25884 25887 25890 25893 25896 25899 25902 25905 25907 25910 25913 25916 25918 25921 25924 25927 25929 25932 25935 25938 25941 25944 25947 25949 25952 25955 25958 25961 25964 25966 25969 25972 25975 25978 25981 25984 25987 25990 25992 25995 25998 26001 26004 26007 26010 26013 26016 26019 26021 26024 26027 26030 26033 26035 26038 26040 26043 26046 26048 26051 26053 26056 26059 26062 26065 26068 26071 26073 26076 26078 26080 26083 26086 26089 26092 26095 26098 26101 26104 26106 26109 26111 26114 26116 26119 26121 26124 26127 26130 26133 26136 26139 26142 26145 26148 26151 26154 26156 26159 26162 26165 26167 26170 26173 26176 26179 26182 26185 26188 26191 26193 26196 26199 26202 26205 26208 26211 26214 26217 26220 26222 26225 26228 26231 26234 26236 26239 26242 26244 26247 26250 26253 26256 26259 26262 26265 26268 26271 26273 26276 26279 26282 26284 26287 26290 26293 26296 26299 26302 26305 26308 26311 26314 26317 26320 26323 26326 26329 26332 26335 26338 26341 26343 26346 26349 26352 26355 26358 26361 26364 26367 26370 26373 26375 26378 26381 26384 26387 26390 26393 26396 26399 26402 26405 26408 26411 26414 26417 26420 26423 26426 26429 26432 26435 26438 26441 26444 26447 26450 26453 26456 26459 26462 26465 26468 26471 26474 26477 26480 26483 26486 26489 26492 26495 26498 26501 26504 26507 26510 26512 26514 26517 26520 26523 26526 26529 26532 26535 26538 26541 26544 26547 26550 26553 26555 26557 26560 26563 26566 26568 26571 26574 26576 26579 26582 26585 26587 26590 26593 26596 26598 26601 26604 26607 26610 26613 26616 26619 26622 26624 26627 26630 26632 26635 26637 26639 26642 26645 26648 26651 26654 26657 26659 26662 26664 26666 26668 26671 26674 26676 26679 26682 26684 26686 26689 26692 26695 26698 26701 26704 26707 26710 26713 26716 26719 26722 26725 26728 26731 26734 26737 26740 26743 26746 26749 26751 26754 26757 26760 26763 26766 26769 26772 26775 26778 26780 26783 26786 26789 26792 26795 26798 26801 26803 26805 26808 26811 26814 26817 26820 26823 26826 26829 26832 26835 26838 26841 26844 26847 26850 26853 26856 26859 26862 26865 26868 26871 26874 26876 26879 26881 26884 26887 26890 26893 26896 26899 26902 26904 26907 26910 26913 26915 26917 26920 26923 26925 26928 26931 26934 26937 26939 26942 26945 26948 26950 26953 26956 26959 26961 26964 26967 26970 26973 26976 26979 26982 26985 26988 26990 26992 26995 26998 27001 27004 27007 27009 27012 27015 27017 27019 27021 27024 27027 27030 27033 27036 27038 27041 27044 27047 27050 27053 27056 27059 27062 27065 27067 27070 27072 27075 27078 27081 27084 27087 27090 27093 27096 27099 27102 27105 27108 27111 27114 27117 27120 27123 27126 27129 27132 27135 27138 27141 27144 27146 27149 27152 27155 27158 27160 27162 27165 27168 27171 27173 27176 27179 27182 27185 27188 27191 27194 27197 27200 27203 27206 27209 27212 27215 27218 27221 27223 27226 27229 27232 27234 27237 27240 27242 27245 27248 27251 27254 27257 27260 27263 27266 27269 27272 27275 27278 27281 27283 27286 27289 27291 27294 27297 27300 27302 27305 27307 27310 27312 27315 27317 27319 27321 27324 27327 27330 27333 27336 27339 27342 27345 27347 27350 27353 27356 27359 27362 27365 27368 27371 27373 27376 27379 27381 27384 27387 27390 27393 27396 27399 27402 27405 27408 27411 27414 27417 27420 27423 27426 27429 27432 27435 27438 27441 27444 27446 27449 27452 27455 27458 27461 27464 27467 27470 27473 27476 27478 27481 27483 27486 27489 27491 27494 27496 27499 27501 27504 27507 27509 27512 27514 27517 27520 27522 27525 27528 27531 27533 27536 27539 27542 27545 27548 27551 27554 27557 27560 27563 27566 27569 27572 27575 27578 27581 27584 27587 27590 27593 27596 27599 27602 27605 27608 27611 27614 27617 27620 27623 27626 27629 27632 27635 27638 27641 27644 27647 27650 27653 27656 27659 27662 27665 27668 27671 27674 27677 27680 27683 27686 27689 27692 27695 27698 27701 27704 27707 27710 27713 27716 27718 27721 27724 27726 27729 27732 27735 27738 27741 27744 27746 27748 27751 27754 27757 27760 27763 27766 27769 27772 27775 27778 27781 27784 27787 27790 27793 27796 27799 27802 27804 27807 27810 27813 27815 27818 27821 27824 27827 27830 27833 27836 27839 27842 27845 27848 27851 27854 27857 27860 27863 27865 27868 27871 27874 27877 27880 27883 27886 27888 27891 27894 27897 27900 27903 27906 27909 27912 27914 27917 27919 27922 27925 27928 27931 27934 27937 27940 27943 27946 27949 27952 27955 27958 27961 27964 27967 27969 27972 27975 27978 27981 27984 27987 27990 27992 27995 27998 28001 28004 28006 28009 28012 28015 28018 28021 28024 28027 28029 28032 28035 28037 28039 28042 28045 28047 28050 28053 28056 28059 28062 28065 28067 28070 28073 28076 28079 28082 28085 28088 28091 28094 28096 28099 28102 28104 28107 28110 28112 28115 28118 28120 28123 28126 28129 28132 28135 28137 28140 28143 28146 28149 28152 28155 28158 28161 28163 28166 28169 28172 28175 28178 28181 28184 28186 28189 28192 28195 28198 28201 28204 28207 28210 28213 28216 28219 28222 28224 28227 28230 28233 28236 28239 28242 28245 28247 28249 28252 28254 28257 28259 28262 28265 28268 28271 28274 28277 28280 28283 28286 28289 28292 28295 28298 28301 28304 28306 28309 28311 28314 28317 28320 28323 28326 28329 28332 28335 28337 28340 28342 28345 28347 28350 28352 28355 28357 28360 28363 28365 28368 28371 28374 28377 28380 28382 28385 28388 28391 28394 28397 28400 28403 28406 28408 28411 28414 28417 28420 28423 28425 28428 28431 28433 28436 28438 28440 28443 28446 28449 28452 28455 28458 28461 28464 28466 28469 28472 28475 28478 28481 28484 28487 28490 28493 28496 28499 28502 28505 28507 28510 28513 28516 28519 28522 28525 28528 28530 28533 28536 28539 28541 28544 28547 28550 28553 28556 28559 28562 28565 28568 28571 28574 28577 28580 28583 28586 28589 28592 28594 28597 28600 28603 28606 28609 28612 28615 28617 28620 28623 28625 28628 28631 28634 28637 28640 28643 28646 28649 28652 28655 28658 28661 28664 28667 28670 28672 28675 28678 28681 28684 28686 28689 28692 28695 28698 28701 28704 28707 28710 28713 28716 28719 28722 28725 28728 28731 28734 28737 28740 28743 28746 28749 28752 28755 28758 28761 28763 28766 28769 28772 28775 28778 28781 28783 28786 28789 28792 28795 28798 28801 28804 28807 28810 28812 28814 28817 28820 28823 28825 28828 28830 28833 28836 28839 28842 28845 28848 28851 28854 28857 28860 28863 28866 28869 28872 28875 28877 28880 28883 28886 28889 28892 28895 28898 28901 28904 28907 28910 28913 28915 28917 28920 28923 28926 28929 28932 28935 28938 28941 28943 28946 28949 28951 28954 28957 28959 28961 28964 28967 28970 28973 28976 28979 28982 28984 28987 28990 28993 28996 28999 29002 29005 29008 29011 29013 29016 29019 29022 29024 29027 29030 29033 29036 29039 29041 29044 29047 29050 29053 29056 29059 29062 29065 29068 29071 29074 29077 29079 29082 29085 29088 29090 29093 29096 29099 29101 29104 29107 29110 29113 29116 29119 29122 29125 29128 29131 29134 29137 29140 29143 29146 29149 29152 29155 29158 29161 29164 29167 29170 29173 29176 29179 29182 29185 29188 29191 29194 29197 29199 29202 29205 29208 29211 29214 29217 29220 29223 29226 29229 29232 29235 29238 29241 29244 29247 29250 29253 29256 29259 29262 29265 29268 29271 29273 29276 29278 29281 29284 29286 29289 29292 29295 29298 29301 29304 29307 29310 29313 29315 29318 29321 29324 29327 29330 29333 29336 29339 29342 29345 29348 29351 29354 29357 29359 29362 29365 29368 29371 29373 29376 29379 29382 29384 29387 29390 29393 29396 29399 29402 29405 29408 29411 29414 29417 29420 29423 29426 29429 29432 29435 29438 29441 29444 29447 29450 29453 29456 29459 29462 29465 29468 29471 29474 29477 29480 29483 29486 29489 29492 29495 29498 29501 29504 29507 29510 29513 29516 29519 29522 29525 29528 29531 29534 29537 29540 29543 29546 29549 29552 29555 29558 29561 29564 29567 29570 29573 29576 29579 29582 29585 29588 29591 29594 29597 29600 29603 29606 29609 29612 29615 29618 29621 29624 29627 29630 29633 29636 29639 29642 29645 29648 29651 29654 29657 29660 29663 29666 29669 29672 29675 29678 29681 29684 29687 29690 29693 29696 29699 29702 29705 29708 29711 29714 29717 29720 29723 29726 29729 29732 29735 29738 29741 29744 29747 29750 29753 29756 29759 29762 29765 29768 29771 29774 29777 29780 29783 29786 29789 29792 29795 29798 29801 29804 29807 29810 29813 29816 29819 29822 29825 29828 29831 29834 29837 29840 29843 29846 29849 29852 29855 29858 29861 29864 29867 29870 29873 29876 29879 29882 29885 29888 29891 29894 29897 29900 29903 29906 29909 29912 29915 29918 29921 29924 29927 29930 29933 29936 29939 29942 29945 29948 29951 29953 29956 29959 29962 29965 29968 29971 29974 29977 29980 29983 29986 29989 29992 29995 29998 30001 30003 30006 30009 30012 30015 30018 30021 30024 30027 30029 30032 30035 30038 30041 30043 30046 30049 30052 30055 30058 30061 30064 30067 30070 30073 30076 30079 30082 30085 30088 30091 30094 30097 30100 30103 30106 30109 30111 30114 30117 30120 30123 30126 30129 30132 30135 30138 30141 30144 30147 30150 30152 30154 30157 30160 30163 30166 30169 30171 30174 30176 30179 30182 30185 30188 30191 30194 30197 30200 30203 30206 30209 30211 30214 30217 30220 30223 30226 30229 30232 30234 30237 30240 30243 30246 30249 30252 30255 30258 30261 30264 30267 30270 30273 30276 30279 30281 30283 30286 30289 30292 30295 30298 30301 30304 30307 30310 30313 30316 30319 30321 30324 30327 30330 30333 30336 30339 30342 30345 30348 30351 30354 30357 30360 30363 30366 30369 30371 30374 30377 30380 30383 30386 30389 30392 30394 30397 30400 30403 30406 30409 30412 30415 30418 30421 30424 30426 30428 30431 30434 30437 30440 30443 30446 30449 30452 30455 30458 30461 30464 30467 30470 30473 30476 30479 30482 30485 30488 30491 30494 30497 30500 30503 30506 30509 30512 30515 30518 30520 30523 30526 30529 30532 30535 30537 30540 30543 30546 30549 30552 30555 30558 30561 30564 30567 30569 30572 30575 30578 30581 30583 30586 30589 30592 30595 30598 30601 30604 30607 30610 30613 30615 30618 30620 30623 30626 30629 30632 30635 30638 30641 30644 30647 30650 30653 30656 30659 30662 30665 30668 30671 30674 30677 30680 30683 30686 30689 30692 30695 30698 30701 30704 30707 30710 30713 30715 30718 30721 30724 30727 30730 30732 30735 30738 30741 30744 30747 30750 30753 30756 30759 30762 30765 30768 30771 30774 30777 30780 30783 30786 30788 30791 30794 30796 30799 30802 30805 30807 30810 30813 30816 30819 30822 30824 30827 30830 30833 30836 30839 30842 30845 30848 30851 30854 30856 30859 30862 30865 30868 30871 30874 30876 30879 30882 30885 30888 30891 30893 30895 30898 30901 30903 30906 30909 30911 30914 30917 30920 30923 30926 30929 30932 30935 30938 30941 30943 30946 30949 30951 30954 30957 30959 30962 30965 30967 30970 30973 30975 30978 30981 30983 30986 30989 30992 30995 30998 31001 31003 31006 31009 31012 31015 31018 31021 31024 31027 31030 31033 31036 31038 31041 31044 31047 31050 31053 31056 31059 31061 31064 31067 31070 31073 31075 31078 31081 31084 31086 31089 31092 31095 31098 31101 31104 31107 31110 31113 31116 31119 31121 31124 31127 31130 31133 31136 31139 31142 31145 31148 31151 31154 31157 31160 31163 31166 31169 31172 31175 31178 31181 31184 31187 31190 31193 31195 31198 31201 31204 31207 31210 31212 31215 31218 31221 31224 31227 31230 31233 31236 31239 31242 31245 31248 31251 31254 31256 31259 31262 31264 31267 31269 31272 31275 31278 31281 31283 31286 31288 31290 31293 31295 31298 31301 31304 31307 31310 31313 31316 31318 31321 31323 31326 31329 31332 31335 31338 31341 31343 31346 31349 31352 31355 31358 31361 31363 31366 31369 31372 31375 31377 31380 31383 31386 31389 31392 31394 31397 31400 31402 31405 31408 31411 31414 31416 31419 31422 31425 31428 31430 31433 31436 31439 31442 31445 31448 31450 31453 31456 31459 31462 31465 31468 31471 31474 31477 31479 31482 31485 31488 31491 31494 31497 31499 31502 31505 31508 31511 31513 31516 31519 31522 31525 31528 31531 31534 31537 31540 31543 31546 31549 31552 31555 31558 31561 31563 31566 31569 31572 31574 31577 31580 31582 31585 31588 31591 31594 31597 31600 31603 31606 31609 31612 31615 31618 31621 31624 31627 31630 31632 31635 31637 31640 31643 31646 31649 31652 31655 31658 31661 31664 31667 31670 31673 31676 31679 31682 31685 31688 31691 31694 31697 31700 31703 31706 31709 31712 31715 31717 31720 31723 31725 31728 31731 31734 31737 31740 31743 31746 31749 31752 31755 31757 31760 31763 31766 31769 31771 31774 31777 31780 31783 31785 31788 31791 31794 31797 31800 31803 31806 31809 31812 31814 31817 31820 31823 31826 31829 31832 31835 31838 31841 31844 31847 31850 31853 31856 31859 31862 31865 31868 31871 31874 31877 31880 31883 31886 31889 31892 31895 31898 
</DataArray>
<DataArray type="UInt32" Name="types" format="ascii">
5 5 5 5 5 3 5 5 5 5 5 5 5 3 5 5 5 5 3 5 5 3 5 5 5 5 3 5 5 5 5 3 5 5 5 5 5 5 5 5 5 5 5 5 5 3 5 5 3 5 5 5 5 5 3 5 5 5 5 5 5 5 3 5 5 5 5 3 5 5 5 5 5 5 5 5 5 3 5 5 3 5 5 3 5 5 5 5 3 5 5 5 5 5 5 5 3 3 3 5 5 3 5 5 5 5 5 3 5 5 5 5 5 5 5 5 5 5 5 5 5 3 5 5 5 3 5 5 5 5 5 5 3 5 5 5 5 5 5 5 5 5 5 5 5 5 5 5 5 5 5 5 5 5 5 5 5 5 3 5 5 5 3 5 5 3 5 5 5 5 5 5 5 5 5 5 5 3 5 5 5 5 5 5 5 5 3 5 5 5 5 5 5 5 5 3 5 5 5 5 5 5 5 5 5 3 5 5 5 5 5 5 5 5 5 5 5 5 5 5 5 5 5 5 5 5 5 5 5 3 5 5 5 3 5 3 5 3 5 5 3 5 5 5 3 5 3 5 3 5 3 3 5 3 5 5 3 5 3 5 5 5 3 5 3 3 5 5 3 5 5 5 3 5 3 3 3 5 3 5 5 5 3 5 3 3 3 5 5 3 3 5 5 5 5 3 5 3 5 5 3 5 5 5 3 5 3 3 3 5 5 5 3 5 3 3 3 3 5 5 5 3 3 5 5 3 3 3 5 3 5 5 5 5 3 5 5 5 5 5 5 5 3 5 5 5 5 5 5 3 3 5 5 5 3 5 5 5 3 5 3 5 3 3 5 5 5 5 3 5 5 3 5 5 5 5 3 5 3 5 5 5 5 5 3 3 5 5 5 5 5 5 5 5 3 5 5 5 3 5 5 3 5 3 5 5 5 5 5 5 5 5 5 5 5 3 5 3 5 3 5 5 5 3 5 3 5 3 5 5 5 5 5 5 3 5 3 5 5 5 3 5 5 5 3 5 3 3 5 5 5 5 3 5 5 5 5 3 3 5 5 3 5 3 5 3 3 5 5 5 3 5 5 5 5 3 5 5 5 5 5 5 5 5 5 5 5 3 5 5 5 5 3 5 5 5 3 5 3 3 3 5 5 5 3 3 5 3 5 5 3 5 5 5 5 3 5 5 5 5 5 5 5 5 5 5 5 3 3 5 5 3 5 5 5 3 5 5 5 5 5 5 3 5 5 5 3 5 5 5 3 5 5 5 5 5 5 5 5 5 5 5 3 5 5 5 3 5 5 5 5 5 5 5 3 5 5 5 5 5 3 5 5 5 5 5 5 5 5 5 5 5 5 5 5 5 5 5 5 5 3 5 5 5 5 3 5 5 3 5 5 5 5 5 5 5 3 5 5 5 5 5 5 5 5 3 5 3 5 5 3 5 5 5 3 5 5 3 5 5 5 3 5 3 5 5 3 5 3 5 5 5 5 5 5 5 5 5 5 5 5 5 5 5 5 5 5 5 5 5 5 3 5 3 5 3 5 5 5 5 5 5 5 5 5 5 5 5 5 5 5 3 5 5 5 5 5 5 5 5 5 3 5 5 5 5 5 5 5 5 5 5 5 5 5 5 5 5 5 5 5 5 5 5 5 5 5 5 5 5 5 3 5 5 3 5 5 5 3 3 5 3 5 5 5 5 5 3 5 5 5 5 5 3 5 5 5 5 5 5 5 5 5 5 5 5 5 5 5 5 5 5 5 5 5 5 5 5 5 5 5 5 5 5 5 5 5 5 5 5 5 5 5 5 5 5 5 5 5 5 5 5 5 3 5 5 5 5 5 5 5 5 5 5 5 5 5 5 5 3 5 5 5 5 3 5 5 5 5 5 5 5 5 5 5 5 5 5 5 5 5 5 5 5 5 5 5 5 5 5 5 5 3 5 5 3 5 3 3 3 3 5 5 3 5 5 5 5 5 5 5 5 5 5 5 5 5 5 5 5 5 3 5 5 3 5 3 5 5 5 5 3 5 3 5 5 5 5 3 5 5 5 3 5 5 5 5 5 3 5 3 5 5 3 3 5 3 5 5 5 5 5 5 5 5 5 5 5 3 5 5 5 3 5 5 5 3 5 5 3 3 3 5 5 5 5 5 5 5 5 5 5 5 3 5 5 5 5 5 5 5 5 3 3 3 5 5 5 5 5 5 5 5 3 3 5 5 5 3 5 5 3 5 5 5 5 5 5 5 5 5 5 5 3 5 5 5 5 5 5 5 5 3 5 5 5 5 5 5 5 5 5 5 3 5 3 3 3 5 5 5 5 5 5 5 3 3 5 3 5 5 5 5 5 3 5 3 3 5 5 5 3 5 3 5 5 5 5 3 5 5 5 5 5 5 5 5 5 5 5 5 5 5 5 5 5 3 5 5 5 3 5 5 5 5 5 3 5 5 5 5 5 5 3 5 3 5 5 5 5 5 5 5 5 3 5 5 5 3 5 5 5 5 5 5 5 5 5 5 5 5 5 5 5 5 5 5 5 5 5 5 5 5 5 3 3 3 5 5 5 5 3 5 5 5 5 3 5 5 5 5 5 5 5 3 5 5 5 5 5 5 5 5 3 5 5 5 5 5 5 5 5 5 5 5 5 3 5 5 5 5 5 5 3 5 5 5 5 5 5 5 5 3 5 5 5 3 5 5 5 5 5 5 5 5 5 5 5 5 3 5 5 5 5 5 5 5 5 5 5 5 5 5 5 5 5 5 5 5 5 5 5 5 5 5 5 5 5 5 5 5 5 5 5 5 5 5 5 5 5 5 5 5 5 5 5 5 3 5 5 5 5 5 5 5 5 5 5 5 5 5 5 5 5 5 5 5 5 5 5 5 5 3 5 5 5 5 5 5 5 5 5 5 3 5 5 3 5 5 5 5 5 5 5 5 5 3 5 3 5 5 5 5 3 5 5 3 5 3 5 5 5 5 5 3 5 5 5 5 5 5 5 5 3 5 5 5 5 5 5 5 5 5 5 5 5 5 5 3 5 3 3 5 5 5 5 5 3 5 5 5 5 5 5 5 5 5 5 5 5 5 5 5 3 5 5 5 5 5 5 5 5 5 5 5 5 5 5 5 5 3 5 5 5 5 5 3 3 5 5 3 5 5 5 5 5 5 5 5 5 5 3 5 5 5 5 5 5 5 5 5 3 5 3 5 5 5 5 5 3 5 5 5 5 3 5 5 5 3 5 5 5 3 5 5 3 5 5 5 5 5 5 5 5 5 5 5 5 5 5 5 5 3 5 5 5 5 5 5 5 3 5 5 5 5 5 5 5 5 5 5 5 5 5 5 5 5 5 5 5 5 5 5 5 5 5 5 5 3 5 5 5 5 3 5 5 5 3 5 5 5 5 5 5 5 5 5 3 5 3 5 5 5 5 5 5 5 5 5 5 5 5 5 5 5 5 5 5 3 3 5 5 5 3 5 5 3 5 5 3 5 5 5 3 5 5 3 5 5 5 5 5 5 5 5 5 5 5 5 5 5 5 5 5 5 5 5 3 5 3 5 5 5 5 5 5 5 5 5 5 5 3 5 3 5 5 5 3 5 5 5 5 5 3 5 5 5 5 5 5 3 5 5 5 5 5 5 5 5 5 5 5 3 5 5 5 5 5 5 5 5 3 5 5 5 3 5 5 3 5 5 5 5 5 3 5 5 5 5 5 5 5 5 5 3 5 5 3 5 3 5 3 3 3 5 3 5 5 5 5 5 5 3 5 5 5 5 5 5 3 5 5 5 5 5 5 5 3 5 5 5 5 3 5 5 5 5 5 3 5 3 5 5 5 5 5 5 5 5 5 5 3 5 5 5 5 5 5 5 3 5 5 5 5 5 5 5 3 5 3 5 5 5 5 5 5 5 5 3 5 5 5 3 3 5 5 5 5 5 3 3 5 3 5 5 3 5 5 3 5 5 5 5 5 5 5 5 3 5 5 5 5 5 3 5 5 5 5 3 5 5 3 5 5 5 5 5 5 5 5 5 5 5 5 5 5 5 5 5 5 5 5 5 5 5 5 5 5 5 5 5 5 5 5 5 5 5 5 5 5 5 5 5 3 5 5 3 5 5 5 5 5 3 5 5 5 5 3 5 5 5 5 5 5 5 5 5 5 5 5 5 5 5 5 5 5 5 5 5 5 5 5 3 5 5 5 3 5 5 5 5 5 5 3 5 5 5 5 5 5 5 5 5 5 5 3 5 3 3 5 5 3 5 5 5 5 5 5 5 5 5 5 5 3 5 5 3 5 5 5 5 5 5 5 5 5 5 5 5 5 5 5 3 5 5 5 5 5 5 5 3 5 3 5 5 5 5 3 5 3 5 5 5 5 5 5 5 5 5 3 5 5 5 5 5 5 5 5 5 5 5 5 5 5 5 5 5 3 5 5 5 5 5 5 5 5 5 5 5 5 5 5 5 5 5 5 5 5 5 5 5 5 5 3 3 5 5 5 5 5 5 5 5 5 5 5 3 5 5 5 5 3 5 5 5 5 3 5 5 5 5 5 5 5 5 3 5 5 5 5 5 5 5 5 5 3 5 5 5 5 5 5 5 5 5 5 5 5 5 5 5 5 5 5 5 5 3 5 5 5 5 5 5 5 5 5 5 5 5 5 5 3 5 3 5 5 5 5 5 5 5 5 3 5 5 3 5 5 5 5 5 5 5 5 5 5 5 5 5 5 5 5 5 5 5 5 5 5 5 5 5 5 5 5 5 5 5 5 5 5 5 5 3 5 5 3 5 5 5 5 3 5 3 5 5 3 5 3 5 5 5 5 5 3 5 5 5 5 5 5 5 5 5 5 5 5 3 5 5 5 3 5 5 5 5 5 5 5 5 5 3 5 5 5 5 3 3 5 5 5 5 5 5 5 5 3 5 5 5 5 5 3 5 5 5 3 5 5 5 3 5 5 5 5 3 5 5 5 5 5 5 5 5 5 5 5 5 5 5 3 5 5 5 5 5 5 3 5 3 3 5 3 5 3 5 5 5 5 3 5 5 5 5 3 5 5 5 5 5 5 5 5 5 3 5 5 5 5 5 5 5 5 5 5 5 5 5 5 3 5 5 5 3 5 5 5 3 5 3 5 5 5 5 5 5 5 5 5 5 5 5 5 5 5 5 3 5 5 5 5 5 5 3 5 5 5 5 5 5 5 5 5 5 5 5 5 5 5 5 5 5 3 5 5 5 5 5 5 5 5 5 5 5 5 5 5 5 5 5 5 5 5 5 5 5 5 5 5 5 5 5 5 5 5 5 5 3 5 5 5 5 3 5 5 5 5 5 5 5 3 5 5 5 5 5 5 5 5 5 3 5 5 3 5 5 5 5 5 3 5 5 5 3 5 5 3 5 5 5 5 5 5 5 5 5 5 5 5 5 5 5 5 5 5 5 5 3 5 5 5 5 5 5 5 5 5 5 3 3 5 3 5 5 5 5 5 3 5 5 5 5 3 5 5 5 5 5 3 5 3 5 5 3 5 5 5 5 5 5 5 5 3 5 5 5 5 5 5 3 5 5 5 5 5 5 3 5 5 5 5 3 5 5 3 5 3 5 5 3 5 5 5 5 5 5 3 5 5 5 5 3 5 5 5 5 5 5 5 5 3 3 5 5 5 5 5 5 5 5 3 5 5 5 5 5 5 3 5 5 5 5 5 5 5 3 5 5 5 3 5 5 5 5 5 5 5 5 5 5 5 5 3 5 5 5 5 3 5 5 3 5 5 5 5 3 5 5 5 3 3 5 5 5 3 5 5 5 3 5 5 5 5 5 5 5 5 5 3 5 5 5 3 5 5 5 5 5 5 5 5 5 5 5 5 3 5 3 5 5 3 5 5 3 5 5 5 5 5 5 5 3 5 5 5 5 5 3 5 3 5 5 5 3 3 5 3 3 5 3 5 5 5 5 5 5 3 5 3 5 5 5 5 5 5 5 5 5 5 5 5 5 3 5 5 3 5 3 5 5 3 5 5 5 3 3 5 5 3 5 5 5 5 5 5 5 5 5 5 5 5 5 5 5 5 5 5 5 5 5 5 5 3 3 5 3 5 3 5 5 3 3 5 5 3 5 5 3 5 5 3 5 3 5 5 5 5 3 5 5 5 5 3 5 3 3 5 3 5 5 3 3 5 5 5 3 5 5 5 5 3 3 5 5 5 5 5 3 5 5 5 5 5 5 5 5 5 5 5 3 5 3 5 3 5 5 3 5 3 5 5 5 5 5 5 5 5 3 5 5 3 5 5 5 5 3 5 5 5 5 5 5 5 5 5 5 5 5 3 5 5 5 5 5 5 5 5 5 5 5 3 5 5 5 5 5 5 3 5 3 5 5 3 5 5 5 5 5 5 5 5 5 5 5 5 5 5 5 5 5 3 3 5 5 5 3 5 5 3 5 5 5 5 5 5 5 5 5 5 5 5 5 5 5 5 5 5 5 5 5 5 5 5 5 3 3 5 5 5 5 5 5 5 5 5 5 5 3 5 5 5 5 5 5 5 5 5 5 5 5 5 5 5 5 5 5 5 5 5 5 5 5 5 5 5 5 5 5 5 5 5 3 5 5 5 5 5 3 5 5 3 5 5 3 3 5 5 5 5 5 5 5 5 5 5 5 5 5 3 5 5 3 5 5 5 5 5 5 3 5 5 3 5 5 5 5 5 5 5 5 5 5 5 5 5 3 5 5 5 5 5 5 5 3 5 5 5 5 5 5 5 5 5 5 5 5 3 5 5 3 5 5 5 5 5 5 5 5 5 5 5 5 5 5 5 5 5 5 5 5 3 5 5 3 5 3 5 5 5 3 5 5 3 5 3 5 5 5 3 5 5 5 5 3 5 5 5 5 5 5 5 3 5 5 5 3 5 5 5 5 5 5 5 5 5 5 5 5 3 5 5 5 5 5 5 5 5 3 5 5 5 5 5 5 5 5 5 5 5 3 5 5 5 5 5 5 5 5 5 5 5 5 5 5 5 5 5 5 5 3 3 5 5 5 3 5 5 5 5 5 5 5 5 5 5 5 5 3 5 5 5 5 5 5 5 5 5 3 5 5 5 5 5 5 5 5 5 5 5 5 5 5 5 5 3 5 3 5 5 5 5 5 3 5 5 5 5 3 5 5 5 3 5 5 5 3 5 5 5 5 5 5 5 5 5 3 5 5 5 3 5 5 3 5 5 5 5 5 5 3 5 5 5 5 5 5 5 5 3 5 5 5 3 5 5 5 5 5 5 5 5 5 5 5 5 5 5 5 5 5 5 5 5 5 5 5 5 5 5 5 3 5 5 5 5 5 5 5 3 5 5 5 5 5 5 5 5 5 5 5 5 5 5 5 5 5 5 5 5 5 5 5 5 5 3 5 3 5 5 5 5 5 5 3 5 5 5 3 5 5 3 5 5 5 5 5 5 5 5 5 5 5 5 3 5 5 5 5 5 3 5 5 5 5 5 5 5 5 5 5 5 5 5 3 5 5 5 3 5 5 5 5 5 5 5 5 5 5 5 5 3 3 5 5 5 5 3 5 5 5 5 5 5 5 5 5 3 3 5 5 5 5 5 3 5 5 5 5 5 3 5 5 5 5 5 3 5 3 5 5 5 5 3 5 3 5 3 3 5 5 5 5 5 5 5 3 3 5 5 5 5 5 5 3 3 3 5 3 3 5 5 5 3 5 5 5 5 5 3 3 3 5 3 5 5 5 3 5 3 3 5 5 5 5 5 5 5 3 3 5 5 3 3 3 5 5 5 5 5 5 5 5 5 5 5 5 5 5 5 5 5 5 5 5 5 5 5 5 5 5 5 5 5 5 5 5 5 5 5 5 5 5 5 5 3 5 5 5 5 5 5 5 5 5 5 3 5 5 5 5 5 5 3 5 5 3 5 5 5 5 5 5 5 5 5 5 5 5 5 3 5 3 5 5 5 5 3 5 5 5 3 5 5 3 5 5 5 3 5 5 3 5 5 5 5 5 3 5 5 5 5 5 5 5 3 5 5 5 5 5 5 5 3 5 5 3 5 5 5 5 3 5 3 5 5 5 5 5 3 5 5 5 5 3 5 5 5 5 5 5 3 3 5 5 5 5 5 3 5 5 3 5 5 5 5 5 5 5 5 5 5 3 5 5 5 5 5 5 5 5 5 5 5 5 5 5 5 5 5 5 3 5 5 5 5 5 5 3 5 5 5 5 5 5 5 3 3 5 5 5 5 3 5 5 5 5 5 5 5 3 5 5 3 5 3 3 3 5 5 5 5 5 5 3 5 5 5 5 5 3 5 5 5 5 3 5 5 5 3 5 5 5 3 5 5 5 5 5 5 5 5 5 5 5 5 5 5 5 5 5 5 5 5 5 5 5 5 5 3 5 5 5 5 5 5 5 3 5 3 5 5 5 5 5 5 3 5 5 3 5 5 5 3 5 5 3 5 5 5 5 5 3 5 5 5 3 3 5 5 5 5 5 5 5 5 5 5 5 5 3 5 5 5 5 5 5 5 5 5 3 5 5 5 5 5 3 3 5 5 5 5 5 5 5 5 5 3 5 5 5 5 5 5 5 5 3 5 5 5 5 5 5 5 5 5 5 5 5 5 5 5 5 5 5 3 5 5 5 5 3 5 3 5 3 5 5 5 5 5 5 5 5 5 5 5 5 5 5 5 5 5 3 5 5 5 5 5 3 5 5 5 3 3 5 5 5 5 5 3 5 5 5 5 3 5 5 5 5 5 5 5 5 3 5 5 5 5 5 5 5 3 5 5 5 5 5 5 5 5 5 3 5 5 5 5 5 5 5 5 5 5 5 5 5 5 5 5 5 5 3 5 5 5 5 5 5 5 5 5 5 5 5 5 3 5 5 5 5 5 5 3 5 5 3 5 5 3 5 5 5 5 5 5 5 5 5 5 5 5 5 5 5 5 5 5 5 5 5 5 5 5 5 5 3 5 3 5 3 3 5 5 5 3 5 5 5 5 5 5 5 5 5 3 3 5 3 5 5 5 5 5 5 5 5 5 5 5 5 5 5 3 5 3 3 5 3 5 5 5 5 5 5 5 5 5 3 3 5 5 5 5 5 5 5 5 5 5 5 5 5 5 5 5 5 5 5 5 5 5 3 5 5 5 5 5 3 5 5 5 5 5 3 5 5 5 3 5 5 5 5 5 5 5 5 5 3 5 5 5 5 3 5 5 5 5 5 5 3 5 5 5 5 5 5 5 3 5 5 5 5 3 5 5 5 5 5 5 5 5 5 5 3 5 5 5 5 3 5 5 5 3 5 5 5 5 5 3 5 5 5 5 5 5 5 5 5 5 5 5 5 5 3 3 5 5 3 5 5 5 5 5 5 5 3 5 5 5 5 5 5 3 5 5 5 5 5 5 5 5 5 5 5 5 5 5 5 5 5 5 5 5 5 5 5 3 5 5 5 5 5 5 5 5 3 5 5 5 5 3 5 5 5 5 5 3 5 3 5 3 5 5 5 5 5 5 5 3 5 5 5 3 5 5 5 5 5 3 5 5 5 5 5 3 5 3 5 5 3 5 3 5 5 5 5 5 3 5 5 5 3 5 5 5 5 5 5 5 5 5 5 3 5 5 5 5 5 5 5 5 5 5 5 5 5 5 5 5 5 5 5 5 5 5 3 5 5 5 5 5 5 5 5 5 5 5 5 5 5 5 5 5 5 3 5 5 5 3 5 5 5 5 5 5 3 5 5 5 3 3 5 3 5 3 3 5 3 5 5 3 5 5 3 3 5 5 5 5 5 5 5 5 3 5 3 5 5 5 5 5 5 5 5 5 5 5 5 5 5 5 5 5 5 5 5 5 5 3 5 5 5 5 5 5 5 5 3 5 5 3 5 5 3 3 5 5 3 5 5 5 5 5 5 5 5 5 5 5 5 5 5 5 5 5 5 5 5 5 5 5 5 5 5 5 5 5 5 5 5 5 5 5 5 5 5 5 3 5 3 5 5 5 5 5 5 5 5 5 5 5 5 5 5 5 5 5 5 5 5 5 5 5 5 5 5 5 5 5 5 5 5 5 5 5 5 5 5 5 5 3 5 5 3 5 5 5 5 5 3 5 3 5 5 3 5 5 5 5 5 5 3 5 5 5 5 5 5 5 5 5 5 5 3 5 5 3 3 5 3 5 5 3 5 5 5 5 3 5 5 5 5 5 5 5 5 5 3 5 3 5 5 5 5 5 5 5 3 5 3 5 5 5 5 5 5 5 5 5 3 5 3 5 5 5 5 5 5 5 5 5 5 3 5 5 5 3 5 5 3 5 5 3 5 5 5 5 3 5 5 5 3 5 5 5 5 5 5 5 5 5 5 5 5 5 5 3 5 5 5 5 5 5 3 5 3 5 3 5 5 5 3 5 5 5 5 5 5 5 5 3 5 5 5 5 5 3 5 5 3 5 5 5 5 5 5 5 5 5 3 5 5 5 3 5 5 5 5 5 5 3 5 5 5 5 5 5 5 5 5 5 5 5 5 5 5 5 5 5 5 5 5 5 5 5 5 5 5 5 5 5 5 3 5 5 5 5 5 3 5 5 3 3 5 5 5 5 3 5 5 5 5 5 3 5 5 5 5 5 5 5 5 5 5 5 5 5 5 5 5 3 5 5 5 5 5 5 5 5 3 3 5 5 5 5 5 5 3 5 5 5 5 3 5 5 5 5 5 5 5 5 5 5 5 5 5 5 5 5 5 5 5 5 5 5 5 5 3 5 5 3 5 5 5 5 5 5 5 5 5 5 5 5 5 5 5 5 5 5 5 5 5 5 5 5 5 5 5 3 5 3 5 5 5 5 5 3 5 5 5 5 5 5 5 5 5 5 5 5 5 5 5 5 5 5 5 5 3 3 5 3 5 5 5 5 5 5 5 5 5 5 5 5 5 5 5 5 3 5 5 5 3 5 5 5 5 5 5 5 5 5 5 5 5 5 3 5 5 5 5 5 5 5 5 5 5 5 5 5 5 5 5 5 5 5 5 5 5 3 5 5 5 5 5 5 5 5 5 5 5 5 5 3 5 3 5 5 3 3 5 5 5 5 5 5 5 5 5 5 5 5 5 5 5 5 5 5 5 5 3 5 5 3 5 5 5 3 5 5 5 5 5 5 3 5 5 5 3 5 5 5 5 5 5 5 5 3 5 5 3 5 5 3 5 3 5 5 5 5 3 3 5 5 3 3 5 5 3 5 5 5 5 3 5 5 3 3 5 3 5 5 5 5 5 5 5 5 5 5 5 5 5 5 5 5 5 5 5 5 3 5 5 5 5 3 5 5 5 5 3 3 5 5 5 5 5 5 5 5 5 5 5 5 3 5 5 5 3 5 5 5 5 5 5 5 3 5 5 5 3 5 5 3 3 5 5 5 3 5 5 5 3 5 5 5 5 5 5 5 5 5 5 5 5 5 5 5 5 5 5 3 5 5 5 5 5 5 5 5 5 5 5 5 5 5 5 5 5 5 3 3 5 5 5 5 5 3 3 5 3 5 5 5 5 5 5 5 5 5 3 5 5 5 3 5 5 5 5 5 5 5 5 5 5 5 5 5 5 3 5 5 5 5 5 5 5 3 5 5 3 5 5 5 5 5 5 3 5 5 5 5 3 5 5 5 5 5 5 3 5 5 5 5 5 5 5 5 3 3 5 5 5 3 3 5 5 5 5 5 3 5 5 5 5 5 5 3 5 5 5 5 3 5 5 5 5 5 3 5 5 5 5 3 5 5 5 5 5 5 5 5 5 5 5 5 5 5 5 5 5 5 5 5 5 5 5 5 5 3 5 5 5 5 3 5 3 5 3 5 5 3 5 5 3 5 5 3 5 5 5 5 5 5 3 5 5 3 5 3 3 3 5 5 3 5 3 3 5 5 5 3 5 3 5 5 5 5 5 5 3 5 5 5 3 5 5 5 5 5 5 5 3 5 5 5 3 5 3 3 5 5 5 5 5 5 5 3 5 5 5 5 5 5 5 5 3 3 5 5 5 5 3 5 5 3 5 5 5 3 5 5 5 3 3 5 5 5 5 3 5 5 5 5 5 3 3 5 5 5 5 5 5 5 5 5 5 5 5 5 5 5 5 5 5 5 5 5 5 5 5 5 5 5 5 5 5 5 3 5 5 5 3 5 5 5 5 5 5 5 5 5 5 5 5 5 5 5 3 5 3 3 5 5 3 5 5 5 5 5 5 5 5 5 5 5 5 5 5 5 5 5 5 5 5 5 5 5 3 5 5 3 3 5 5 5 5 5 5 5 3 5 5 5 3 5 5 5 5 3 3 5 5 5 5 5 5 5 3 5 5 5 5 3 5 5 5 5 3 5 5 5 5 5 5 5 5 5 5 5 5 5 5 5 5 5 5 5 3 5 5 5 5 5 5 5 5 5 5 5 5 5 5 5 5 3 5 5 5 3 5 5 5 5 5 5 5 5 5 3 5 5 5 5 5 5 5 5 5 5 5 5 5 5 5 5 5 5 5 5 5 3 5 5 5 5 5 5 5 5 5 5 5 5 5 5 5 5 5 3 5 5 5 5 5 3 5 5 5 5 5 5 5 5 5 5 5 5 5 5 5 5 5 5 5 5 5 5 5 5 5 5 5 3 5 5 3 5 5 5 3 5 5 5 5 5 5 5 5 5 5 5 5 5 5 5 3 5 3 5 5 5 5 5 5 5 5 5 3 5 5 5 5 5 5 5 5 5 3 3 5 5 5 5 5 5 5 5 5 5 5 5 5 5 5 5 5 5 5 5 5 5 5 5 5 5 5 5 5 5 5 5 5 5 5 5 5 5 5 5 5 5 5 5 5 5 5 5 5 5 5 5 5 5 5 5 5 5 5 5 5 5 5 5 5 5 5 5 5 5 5 3 5 5 5 5 5 5 3 5 5 5 5 5 5 5 5 5 3 5 3 5 5 5 5 5 5 5 5 5 5 5 5 5 5 5 5 5 5 5 5 5 5 5 5 5 5 5 5 5 5 5 5 5 5 3 5 5 5 3 3 5 5 5 5 5 5 5 5 5 5 5 5 5 5 5 5 5 5 5 5 5 5 3 3 5 5 5 5 5 5 5 5 3 5 5 5 5 5 5 3 5 5 5 5 5 3 5 5 5 5 3 5 5 5 3 5 5 5 3 5 5 3 5 5 5 5 5 5 5 5 5 5 5 5 5 3 5 5 5 5 5 5 5 5 3 5 5 5 5 5 5 5 5 5 5 5 3 5 5 5 3 5 5 5 5 3 5 5 5 5 5 5 5 5 3 5 3 5 5 3 5 5 5 5 5 3 5 5 5 5 5 5 5 5 5 5 5 5 3 5 5 5 5 5 5 5 5 5 3 5 5 5 5 5 5 3 5 5 5 5 5 5 5 3 5 5 5 5 5 3 5 5 5 5 5 5 5 5 5 5 5 5 5 5 5 5 5 5 5 5 5 5 5 5 5 5 5 5 5 5 5 5 5 5 5 5 5 5 5 5 5 5 5 5 5 5 5 3 5 3 5 5 5 5 5 5 5 5 5 5 5 5 5 5 3 5 5 5 5 5 5 5 5 5 5 5 5 5 5 5 3 5 5 3 5 3 5 5 5 5 5 3 5 5 5 5 5 5 5 5 5 5 5 5 5 5 5 5 5 5 5 5 3 5 5 5 5 5 5 5 5 5 5 5 3 5 3 5 5 3 5 3 5 5 5 5 5 5 5 3 5 3 5 5 5 5 3 5 5 5 5 3 3 5 5 3 5 5 5 5 5 5 5 5 5 5 5 5 5 5 5 5 3 5 5 5 5 5 5 5 5 5 5 5 5 5 5 3 5 3 5 5 5 5 5 5 5 3 5 3 5 5 5 5 5 5 5 5 5 3 3 5 5 5 3 5 5 5 5 3 5 3 5 5 3 5 3 3 3 5 5 3 5 5 5 3 3 3 5 5 5 5 5 5 5 5 5 5 5 3 5 5 5 5 5 5 3 5 5 5 3 5 5 5 5 5 5 5 5 3 5 5 5 3 5 5 5 5 5 5 5 5 5 5 5 5 5 5 5 5 5 5 5 5 5 5 5 5 5 5 5 5 5 5 5 5 5 5 5 5 5 5 5 5 5 5 5 5 5 5 5 5 5 5 5 5 5 5 5 5 5 5 5 5 3 5 5 5 5 5 3 5 5 5 5 3 5 5 5 3 5 5 5 5 5 5 5 5 5 5 5 5 5 5 5 5 5 5 5 5 5 5 5 5 5 5 5 5 5 5 5 5 5 5 5 5 5 5 5 5 3 5 5 3 5 5 5 5 5 5 5 3 5 5 5 5 5 5 5 5 5 5 5 3 5 5 3 5 3 5 5 5 3 5 5 5 5 5 5 5 5 3 5 5 5 5 3 5 5 5 5 3 5 3 5 5 5 5 5 5 5 5 5 5 5 5 3 5 3 5 5 5 5 5 5 5 5 5 5 5 5 5 3 5 5 5 5 5 5 5 5 5 3 5 5 5 3 5 5 5 5 5 5 5 5 5 5 5 5 5 5 5 5 5 5 5 5 5 5 5 5 5 5 5 5 5 5 5 5 5 5 5 3 5 5 3 5 5 5 5 3 5 5 5 5 5 5 5 5 5 5 5 5 5 5 5 3 5 5 5 5 5 5 5 5 5 3 5 3 5 5 5 5 5 5 5 3 5 5 5 5 5 5 5 5 5 5 5 5 5 5 3 5 5 5 5 5 5 5 5 5 5 5 3 5 5 5 5 5 5 5 5 5 5 5 5 5 5 5 5 5 5 5 5 5 5 5 3 5 3 5 5 5 5 5 5 3 5 3 5 5 5 3 5 5 5 3 5 5 5 3 5 5 3 5 5 5 5 5 5 5 3 5 5 5 5 5 5 5 3 5 5 5 5 5 5 5 5 5 5 5 5 5 3 5 5 5 5 5 5 5 5 3 5 5 5 5 5 5 5 5 5 5 5 5 5 5 5 5 5 5 5 5 3 5 5 5 5 5 5 5 5 5 5 5 5 5 5 5 5 5 5 5 5 5 5 5 5 5 5 5 5 5 5 5 5 5 5 5 5 5 5 5 5 5 5 5 5 5 5 5 5 5 5 3 5 3 5 5 5 3 5 5 3 3 5 3 5 5 5 5 5 5 5 5 5 5 5 5 5 5 5 5 5 5 5 5 5 5 5 5 5 5 5 5 5 5 5 5 5 5 5 3 5 5 5 5 3 5 5 3 5 5 5 3 5 5 5 5 3 5 3 3 5 5 5 5 3 5 5 5 3 5 5 5 3 5 5 5 5 5 5 3 5 5 5 5 5 5 5 5 5 5 5 5 5 5 5 5 5 5 5 5 3 5 5 5 5 5 5 5 5 5 5 5 5 5 5 5 5 5 5 3 5 5 3 5 5 3 5 5 5 5 5 5 5 5 5 5 5 3 5 5 5 5 3 5 5 5 5 3 5 5 5 3 5 5 5 5 5 5 5 5 5 5 5 5 5 5 5 5 5 5 5 5 5 5 5 5 5 3 5 5 5 5 5 5 5 5 3 5 5 5 3 5 5 5 5 5 5 5 5 5 5 5 5 5 5 5 5 5 5 5 5 5 5 5 5 3 5 5 5 3 5 5 5 5 5 5 5 5 3 5 5 3 5 5 5 5 3 5 5 5 5 5 5 5 3 5 3 5 5 3 5 5 3 3 5 5 5 5 5 5 5 5 5 5 5 5 5 5 5 5 5 5 5 5 5 3 5 5 5 5 3 5 5 5 5 5 5 5 5 5 5 5 5 5 3 5 5 3 5 5 5 5 5 5 5 5 5 5 5 5 5 5 5 5 5 5 5 5 5 5 5 5 5 5 5 5 5 5 5 5 5 5 5 5 5 5 5 5 5 5 5 5 5 5 5 5 5 5 5 5 5 5 5 5 5 5 5 5 5 5 5 5 5 5 5 5 5 5 5 5 5 5 5 5 5 5 5 5 5 5 5 5 5 5 5 5 5 5 5 5 5 5 5 5 5 5 5 5 5 5 5 5 5 5 5 5 5 5 5 5 5 5 5 5 5 5 5 5 5 5 5 5 5 5 5 5 3 5 5 5 5 5 5 5 3 5 5 5 5 5 5 5 5 5 3 5 3 5 5 5 3 5 5 3 5 5 5 5 5 5 5 5 5 5 5 5 5 5 5 5 5 5 5 5 5 5 5 5 5 5 5 5 5 5 5 5 5 5 5 5 5 3 5 5 3 3 5 5 3 5 5 3 5 5 5 3 5 5 5 5 5 5 5 5 5 3 5 5 5 5 5 5 3 5 5 5 5 5 5 5 5 5 5 5 5 5 5 5 5 5 5 5 5 5 5 5 5 5 5 5 5 5 5 5 3 5 5 5 5 5 5 5 5 5 5 5 5 5 5 5 5 5 5 5 5 5 5 5 5 5 5 5 5 5 5 5 5 5 5 5 5 5 5 5 5 5 5 5 5 5 5 3 5 3 5 5 5 5 3 5 5 5 5 3 5 5 5 5 3 5 5 5 5 5 5 5 5 3 5 5 3 5 3 5 5 5 5 3 5 5 3 3 5 5 5 5 5 5 3 5 5 5 5 5 5 5 5 5 5 3 3 5 5 5 5 5 3 5 5 3 5 5 5 5 3 5 5 3 5 5 5 5 5 5 5 5 5 5 5 5 5 5 5 5 5 5 5 5 5 5 5 5 5 5 5 5 5 3 5 3 5 5 5 5 5 5 5 5 5 5 5 5 5 3 5 5 5 5 3 3 5 5 5 5 5 5 5 5 5 5 5 5 5 5 5 5 5 5 5 5 5 5 5 5 5 5 5 5 5 5 5 5 5 5 5 5 5 5 5 5 5 5 3 5 5 5 3 5 5 5 5 5 5 5 5 5 5 5 5 5 5 5 5 5 5 5 5 3 5 5 3 5 5 5 5 5 5 5 5 5 3 5 5 5 5 5 3 5 5 5 5 5 3 5 3 5 5 5 5 5 5 5 5 5 5 5 5 5 3 5 5 5 3 3 5 5 5 5 5 5 5 5 3 5 5 3 5 5 3 3 5 5 5 5 5 3 5 5 5 5 5 5 5 3 5 5 3 3 5 5 5 5 5 5 3 3 5 5 5 3 5 5 5 5 5 5 5 3 5 5 5 5 5 5 5 5 5 5 5 5 5 5 5 5 5 5 5 5 5 5 5 5 5 5 3 5 5 5 5 5 5 5 3 5 5 5 5 5 5 5 5 5 5 5 3 5 5 5 5 5 5 5 5 3 5 5 5 5 5 5 5 5 5 5 5 5 5 5 5 5 3 5 5 5 3 5 5 5 5 5 3 5 5 5 5 5 5 5 5 5 5 5 5 5 5 3 5 5 5 5 3 5 5 3 5 5 5 5 5 3 5 5 5 5 5 5 5 5 5 5 5 5 5 5 3 5 3 5 5 5 3 5 3 5 3 5 5 5 5 5 5 3 3 5 5 5 5 5 5 3 5 3 5 5 5 5 5 5 5 5 5 5 5 5 5 5 5 5 5 3 5 5 5 3 3 5 5 5 5 5 3 5 5 3 3 5 5 5 5 5 5 5 5 5 5 5 5 5 5 5 5 5 5 5 5 5 5 5 5 5 5 5 5 5 5 5 5 5 5 5 5 5 5 5 5 5 5 5 5 3 5 5 3 3 3 5 5 5 5 5 5 3 5 5 5 5 5 5 5 5 5 3 5 5 5 3 5 5 5 5 5 5 5 5 5 5 5 5 5 5 5 5 5 5 5 5 3 5 5 5 5 3 5 5 5 5 5 5 5 5 5 5 5 5 5 5 5 5 5 5 5 5 5 5 5 5 5 5 5 5 5 5 5 5 5 5 3 5 3 5 5 5 5 5 5 5 5 3 5 5 5 3 5 3 5 5 5 5 5 5 5 5 3 5 5 5 5 3 5 5 5 5 3 5 5 5 5 5 5 5 3 5 5 5 5 3 5 5 5 5 5 5 5 5 5 5 5 5 5 5 5 5 5 5 5 5 5 5 5 5 5 5 5 5 5 5 5 5 5 5 5 5 5 5 5 5 5 5 5 5 5 5 3 5 5 5 5 3 3 5 5 3 3 5 5 5 5 5 5 5 5 5 5 5 5 5 5 5 5 5 5 5 3 5 5 5 3 3 5 5 5 5 5 5 5 5 5 5 5 5 5 5 5 5 5 5 5 5 5 5 5 5 5 5 5 3 5 5 5 5 5 5 5 3 5 5 5 5 5 5 5 5 5 5 5 5 5 5 5 3 5 5 5 5 5 5 5 5 3 5 3 3 5 5 5 5 5 5 5 5 5 5 5 5 3 5 5 5 5 5 5 5 5 5 5 5 5 5 5 5 5 5 5 3 5 5 5 3 5 5 5 5 5 5 5 5 3 5 5 5 5 5 5 5 5 5 5 5 5 5 5 5 3 5 5 5 3 5 5 5 5 5 5 5 5 5 5 5 5 5 5 5 5 5 5 5 5 5 5 5 5 5 5 5 5 5 5 5 5 5 3 5 3 5 5 5 5 5 5 5 5 3 5 5 5 5 5 5 5 5 5 3 5 5 3 5 5 5 5 5 3 5 5 5 5 3 5 5 5 5 3 5 5 5 3 5 3 5 5 3 5 5 5 5 5 5 5 5 5 5 5 5 5 5 3 5 5 3 5 3 5 5 5 3 5 5 3 5 5 5 5 3 5 3 5 5 5 5 5 5 3 5 3 5 5 5 5 5 3 5 5 5 5 3 5 5 5 5 5 5 3 5 5 5 5 5 5 5 5 5 5 5 5 5 5 5 5 5 5 5 5 5 5 5 5 5 5 5 5 5 5 5 5 5 3 3 5 5 5 5 5 5 5 5 5 5 3 5 5 3 3 5 3 5 5 5 5 5 5 5 3 5 5 5 5 5 5 5 5 5 5 5 5 3 5 5 5 5 3 5 5 5 5 5 5 5 5 5 5 5 5 3 5 5 5 5 5 5 5 5 5 5 5 5 5 5 5 5 5 3 5 5 5 5 5 3 5 5 5 3 5 5 5 5 5 5 3 5 3 5 5 5 3 5 5 5 5 5 5 5 5 5 3 5 5 3 5 5 5 5 5 5 5 3 5 5 5 5 5 5 5 5 5 5 5 5 5 3 5 5 3 5 5 5 5 5 5 3 5 5 5 5 5 5 3 5 5 5 5 5 5 5 3 5 5 5 5 5 5 5 5 5 5 5 5 5 5 5 5 5 5 5 5 5 5 3 5 5 5 5 5 5 5 5 5 5 3 5 5 5 5 3 3 5 5 5 5 3 5 5 5 5 5 5 5 5 5 3 5 5 5 5 5 5 5 5 5 5 5 3 5 5 5 3 5 5 5 3 5 5 5 5 5 5 5 5 5 5 5 5 3 5 5 5 5 5 3 5 5 3 5 5 5 5 5 5 5 5 5 5 5 5 5 5 3 5 5 5 5 5 5 5 3 5 5 5 3 5 5 5 5 5 3 5 5 5 5 5 5 5 5 5 3 5 5 5 5 5 5 5 5 3 5 5 5 5 5 3 5 5 5 5 5 5 5 3 5 5 5 5 5 5 5 5 5 5 5 5 5 5 5 5 5 5 5 5 5 5 5 5 5 5 5 5 5 5 5 5 5 5 5 5 5 5 5 5 5 5 5 5 5 5 5 5 3 5 5 5 5 5 5 5 3 5 5 5 5 5 5 5 5 5 5 5 5 5 5 5 5 5 5 5 5 5 5 3 3 5 5 3 3 5 5 5 5 5 5 5 3 5 5 5 5 5 5 5 5 5 5 5 5 5 5 3 5 5 5 5 5 5 5 5 3 5 5 3 5 5 5 3 5 5 5 5 5 5 5 5 5 5 5 5 5 5 5 5 5 5 5 5 5 5 5 5 5 5 5 5 3 5 5 5 5 5 5 5 5 3 5 5 5 5 5 5 3 3 5 5 5 5 3 5 5 3 5 5 3 5 5 5 5 5 5 3 5 5 5 5 5 5 5 5 3 5 5 5 5 5 5 5 5 5 5 5 3 5 5 3 5 5 5 5 5 5 5 3 5 5 5 3 5 3 5 3 5 5 5 5 5 5 5 5 5 5 5 5 5 5 5 5 5 3 5 3 5 5 5 5 5 5 5 5 5 5 3 5 5 5 5 5 5 5 3 5 5 5 3 5 3 3 5 5 3 5 5 5 5 3 5 5 5 3 5 5 5 3 5 3 3 5 5 5 5 5 5 3 5 5 5 5 5 5 5 5 3 3 3 5 3 5 5 3 3 5 5 3 5 5 5 5 5 5 5 5 5 5 5 3 5 5 5 5 5 5 5 5 5 5 5 5 5 3 3 5 5 5 5 3 5 5 5 3 5 5 5 5 5 3 3 5 5 5 3 5 5 5 5 5 5 5 5 5 5 5 5 5 5 5 3 5 5 5 3 5 5 5 3 5 5 5 5 5 5 3 5 5 5 5 5 3 5 5 5 5 5 5 5 5 3 5 5 5 5 5 5 5 5 5 3 5 5 5 5 3 5 3 5 5 3 5 3 5 5 5 5 5 5 3 5 3 3 5 5 5 5 5 5 5 5 3 5 3 5 3 5 3 5 5 5 5 5 5 5 5 5 5 5 3 5 5 5 3 5 5 5 5 5 5 5 5 3 5 5 5 5 5 5 5 5 5 3 5 5 5 5 3 5 5 3 5 5 5 5 5 5 5 5 5 3 5 5 5 3 5 5 5 5 5 5 5 5 5 5 5 5 5 5 5 5 5 5 5 3 5 5 5 5 5 5 5 5 5 5 3 5 5 5 5 5 5 5 5 5 5 5 5 5 5 5 5 5 5 5 5 5 5 5 5 5 5 5 5 5 5 5 5 5 5 5 5 5 5 5 5 5 5 5 5 5 3 3 5 5 5 5 5 5 5 5 5 5 5 5 5 3 3 5 5 5 3 5 5 3 5 5 5 3 5 5 5 3 5 5 5 5 5 5 5 5 3 5 5 3 5 3 3 5 5 5 5 5 5 3 5 3 3 3 5 5 3 5 5 3 3 5 5 5 5 5 5 5 5 5 5 5 5 5 5 5 5 5 5 5 5 5 3 5 5 5 5 5 5 5 5 5 3 5 5 5 5 5 5 5 3 3 5 5 5 5 5 5 5 5 5 5 5 5 5 5 5 5 5 5 5 5 5 5 5 3 5 3 5 5 5 5 5 5 5 3 5 5 5 3 3 5 5 3 5 5 5 5 3 5 5 5 3 5 5 5 3 5 5 5 5 5 5 5 5 5 3 3 5 5 5 5 5 3 5 5 3 3 3 5 5 5 5 5 3 5 5 5 5 5 5 5 5 5 3 5 3 5 5 5 5 5 5 5 5 5 5 5 5 5 5 5 5 5 5 5 5 5 5 5 5 3 5 5 5 5 3 3 5 5 5 3 5 5 5 5 5 5 5 5 5 5 5 5 5 5 5 5 3 5 5 5 3 5 5 3 5 5 5 5 5 5 5 5 5 5 5 5 5 3 5 5 3 5 5 5 3 5 3 5 3 5 3 3 3 5 5 5 5 5 5 5 5 3 5 5 5 5 5 5 5 5 3 5 5 3 5 5 5 5 5 5 5 5 5 5 5 5 5 5 5 5 5 5 5 5 5 3 5 5 5 5 5 5 5 5 5 5 3 5 3 5 5 3 5 3 5 3 5 5 3 5 3 5 5 3 5 5 5 3 5 5 5 5 5 5 5 5 5 5 5 5 5 5 5 5 5 5 5 5 5 5 5 5 5 5 5 5 5 5 5 5 5 5 5 5 5 5 5 5 5 5 5 5 5 5 5 5 5 5 5 5 5 5 5 5 5 5 5 5 5 3 5 5 3 5 5 5 5 5 5 3 3 5 5 5 5 5 5 5 5 5 5 5 5 5 5 5 5 5 5 3 5 5 5 3 5 5 5 5 5 5 5 5 5 5 5 5 5 5 5 5 3 5 5 5 5 5 5 5 3 5 5 5 5 5 5 5 5 3 5 3 5 5 5 5 5 5 5 5 5 5 5 5 5 5 5 5 3 5 5 5 5 5 5 5 3 5 5 5 5 3 5 5 5 5 5 5 5 3 5 5 3 3 5 5 3 5 5 5 5 5 5 3 5 5 5 5 5 5 5 5 5 3 5 5 3 5 5 3 5 5 3 5 5 5 5 5 3 5 5 5 5 5 5 5 5 3 5 5 5 5 5 5 5 3 5 5 5 5 5 5 5 5 5 5 5 5 3 5 5 5 5 5 5 5 3 3 5 3 5 3 5 5 5 5 5 5 5 5 5 5 5 5 5 5 5 3 5 3 5 5 5 5 5 5 5 5 3 5 3 5 3 5 3 5 3 5 5 3 5 5 5 5 5 3 5 5 5 5 5 5 5 5 3 5 5 5 5 5 3 5 5 3 5 3 3 5 5 5 5 5 5 5 5 3 5 5 5 5 5 5 5 5 5 5 5 5 5 3 5 5 5 5 5 5 5 3 5 5 5 3 5 5 5 5 5 5 5 5 5 5 5 5 5 5 5 5 5 3 5 5 5 5 5 5 5 3 5 5 3 5 5 5 5 5 5 5 5 5 5 5 5 5 5 5 3 5 5 5 5 3 5 5 5 5 5 5 5 5 5 5 5 5 5 5 5 5 5 5 5 5 5 5 5 5 5 3 5 5 5 5 5 5 3 5 5 5 5 5 5 5 5 5 3 3 5 5 5 3 5 3 5 5 5 5 5 5 5 5 5 5 5 5 5 5 5 3 5 5 5 5 5 5 5 5 5 5 5 5 3 3 5 5 5 5 5 5 5 5 3 5 5 3 5 5 3 3 5 5 5 5 5 5 5 3 5 5 5 5 5 5 5 5 5 3 5 5 5 3 5 5 5 5 5 3 5 5 5 5 5 5 5 5 5 5 5 5 3 5 5 5 3 5 5 5 3 5 5 5 5 5 5 5 5 5 5 5 5 5 5 5 5 5 5 5 5 5 5 5 5 5 5 5 5 5 5 5 5 3 5 5 5 5 5 5 5 5 5 5 5 5 5 5 5 5 5 5 5 5 5 5 5 5 3 5 3 5 5 3 5 5 5 5 5 5 5 5 5 3 5 5 5 5 5 5 5 5 5 5 5 5 5 5 3 5 5 5 5 3 5 5 5 3 5 5 5 5 5 5 5 5 5 5 5 5 5 5 5 5 5 5 5 5 5 5 5 5 5 5 5 5 5 5 5 5 5 5 5 5 5 5 5 5 5 5 5 5 5 5 5 5 5 5 5 5 5 5 5 5 5 5 5 5 5 5 5 5 5 5 5 5 5 5 5 5 5 5 5 5 5 5 5 5 5 5 5 5 5 5 5 5 5 5 5 5 5 5 5 5 5 5 5 5 5 5 5 5 5 5 5 5 5 5 5 5 5 5 5 5 5 5 5 5 5 5 5 5 5 5 5 5 5 5 5 5 5 5 5 5 5 5 5 5 5 5 5 5 5 5 5 5 5 5 5 5 5 5 5 5 5 5 5 5 5 5 5 5 5 5 5 5 5 5 5 5 5 5 5 5 5 5 5 5 5 5 5 5 5 5 5 5 5 3 5 5 5 5 5 5 5 5 5 5 5 5 5 5 5 5 3 5 5 5 5 5 5 5 5 3 5 5 5 5 3 5 5 5 5 5 5 5 5 5 5 5 5 5 5 5 5 5 5 5 5 5 5 3 5 5 5 5 5 5 5 5 5 5 5 5 5 3 3 5 5 5 5 5 3 5 3 5 5 5 5 5 5 5 5 5 5 5 3 5 5 5 5 5 5 5 3 5 5 5 5 5 5 5 5 5 5 5 5 5 5 5 3 3 5 5 5 5 5 5 5 5 5 5 5 5 3 5 5 5 5 5 5 5 5 5 5 5 5 5 5 5 5 3 5 5 5 5 5 5 5 3 5 5 5 5 5 5 5 5 5 5 3 3 5 5 5 5 5 5 5 5 5 5 5 5 5 5 5 5 5 5 5 5 5 5 5 5 5 5 5 5 5 5 3 5 5 5 5 5 3 5 5 5 5 5 5 5 5 5 5 3 5 5 5 5 3 5 5 5 5 5 5 5 5 5 5 3 5 3 5 5 5 5 5 5 5 5 5 5 5 5 5 5 5 5 5 5 5 5 5 5 5 5 5 5 5 5 5 5 5 3 5 5 5 5 5 3 5 5 5 5 5 5 5 5 5 5 5 5 5 5 5 5 5 5 3 5 5 3 5 5 5 3 5 5 5 5 5 3 5 5 5 5 5 5 5 5 5 5 3 5 5 5 5 5 5 3 5 5 5 5 5 3 3 5 5 3 5 5 3 5 5 5 5 5 5 5 5 5 5 3 5 5 3 5 5 3 5 5 3 5 5 3 5 5 3 5 5 5 5 5 5 3 5 5 5 5 5 5 5 5 5 5 5 3 5 5 5 5 5 5 5 3 5 5 5 5 3 5 5 5 3 5 5 5 5 5 5 5 5 5 5 5 3 5 5 5 5 5 5 5 5 5 5 5 5 5 5 5 5 5 5 5 5 5 5 5 5 3 5 5 5 5 5 3 5 5 5 5 5 5 5 5 5 5 5 5 5 5 3 5 5 3 5 3 5 5 5 5 3 5 3 3 5 3 5 5 5 5 5 5 5 3 5 3 5 5 5 5 5 5 3 5 5 5 5 5 5 3 5 5 5 5 3 5 5 5 5 5 3 5 5 3 5 5 5 5 3 5 5 5 5 3 5 5 5 5 5 5 3 5 5 5 5 5 5 5 5 5 3 5 5 5 5 5 5 3 5 5 5 5 3 5 5 5 5 5 5 5 5 5 5 5 5 5 5 5 5 3 5 5 5 3 5 5 3 5 5 5 5 5 5 5 5 5 5 5 5 5 5 5 5 3 5 3 5 5 5 5 5 5 5 5 5 5 5 5 5 5 5 5 5 5 5 5 5 5 5 5 5 5 3 5 5 3 5 5 5 5 5 5 5 5 5 5 3 5 5 5 5 3 5 5 5 5 3 5 5 5 5 5 5 5 5 5 3 5 5 5 5 5 5 5 5 5 5 5 5 5 5 5 5 5 5 5 5 5 5 5 5 5 5 5 5 
</DataArray>
</Cells>
<PointData Scalars="" Vectors="displacement," Tensors="">
<DataArray type="Float64" Name="displacement" NumberOfComponents="3" format="ascii">
-1.7027412706620257e-06 -0.034996799279831063 0 -0.00017037797430945713 -0.032723512156076807 0 3.6078610734903566e-06 -0.029500840410764506 0 -1.7027412706620257e-06 -0.034996799279831063 0 -0.00015707301029741665 -0.034201621915387455 0 -0.00017037797430945713 -0.032723512156076807 0 -1.7027412706620257e-06 -0.034996799279831063 0 -0.00015707301029741665 -0.034201621915387455 0 5.8024041931157085e-09 -0.034999148937122304 0 -0.00015707301029741665 -0.034201621915387455 0 5.8024041931157085e-09 -0.034999148937122304 0 -8.6460612101272943e-05 -0.03420421445037581 0 5.8024041931157085e-09 -0.034999148937122304 0 -8.6460612101272943e-05 -0.03420421445037581 0 -6.8092760874848734e-05 -0.034768019185759239 0 -0.00034708067155728444 -0.030732785073766384 0 -3.4441099960120948e-05 -0.030002374000096234 0 -8.6460612101272943e-05 -0.03420421445037581 0 0.00039898872343448281 -0.034171675284730404 0 0.00043080602647945209 -0.034376151985838412 0 -8.6460612101272943e-05 -0.03420421445037581 0 0.00043080602647945209 -0.034376151985838412 0 0.00021209880033403272 -0.034595223495209826 0 -0.00015707301029741665 -0.034201621915387455 0 -8.6460612101272943e-05 -0.03420421445037581 0 -0.00017037797430945713 -0.032723512156076807 0 -8.6460612101272943e-05 -0.03420421445037581 0 -0.00017037797430945713 -0.032723512156076807 0 0.00062505003538551216 -0.033382872268580437 0 -0.00017037797430945713 -0.032723512156076807 0 0.0013276371642254451 -0.031627501937191799 0 0.00062505003538551216 -0.033382872268580437 0 -0.00017037797430945713 -0.032723512156076807 0 3.6078610734903566e-06 -0.029500840410764506 0 0.0013276371642254451 -0.031627501937191799 0 1.9806902795091226e-06 -0.029489652704081565 0 0.0003009254416514582 -0.027193263107783812 0 -8.3697627597655202e-07 -0.027572047081222302 0 1.70813089081247e-06 -0.029490746415974205 0 0.00045218813474373138 -0.02874599352227444 0 -8.3697627597655202e-07 -0.027572047081222302 0 -8.0025223978557117e-05 -0.026488539364457019 0 -0.00016810789724767549 -0.02578159144585522 0 -8.3697627597655202e-07 -0.027572047081222302 0 -2.5574441735913654e-07 -0.025651173741481986 0 -0.00016810789724767549 -0.02578159144585522 0 0.0003009254416514582 -0.027193263107783812 0 -8.3697627597655202e-07 -0.027572047081222302 0 -8.0025223978557117e-05 -0.026488539364457019 0 0.0003009254416514582 -0.027193263107783812 0 -8.0025223978557117e-05 -0.026488539364457019 0 0.00013131729325366407 -0.026229309688261832 0 0.00045218813474373138 -0.02874599352227444 0 0.00073293208704693937 -0.02765627031637044 0 -8.0025223978557117e-05 -0.026488539364457019 0 -0.00020713848710562406 -0.026003653018415028 0 0.00013131729325366407 -0.026229309688261832 0 -8.0025223978557117e-05 -0.026488539364457019 0 -0.00020713848710562406 -0.026003653018415028 0 -0.00016810789724767549 -0.02578159144585522 0 0.00060381750125902743 -0.025798507219109191 0 0.00073293208704693937 -0.02765627031637044 0 0.0010841306422337161 -0.020342376797513651 0 0.00091579896078415536 -0.020507646252805229 0 0.00070036048233942168 -0.020426341844711971 0 0.0010841306422337161 -0.020342376797513651 0 0.00091579896078415536 -0.020507646252805229 0 0.0010891458865352087 -0.020533565422849055 0 0.00091579896078415536 -0.020507646252805229 0 0.00070036048233942168 -0.020426341844711971 0 0.00086522253189057143 -0.020723425685780953 0 0.00059720681267196886 -0.034230624045599185 0 0.0005575720738212475 -0.034340864096640292 0 0.00055293983794131054 -0.034296472854217532 0 0.00073293208704693937 -0.02765627031637044 0 0.00083678931921534882 -0.027257127822498266 0 0.0005575720738212475 -0.034340864096640292 0 0.00055293983794131054 -0.034296472854217532 0 0.00057410504743270793 -0.034349182912073083 0 0.00086522253189057143 -0.020723425685780953 0 0.0010891458865352087 -0.020533565422849055 0 0.0011401072276326469 -0.020729460542539387 0 0.00091579896078415536 -0.020507646252805229 0 0.00086522253189057143 -0.020723425685780953 0 0.0010891458865352087 -0.020533565422849055 0 0.00059720681267196886 -0.034230624045599185 0 0.00039898872343448281 -0.034171675284730404 0 0.00055293983794131054 -0.034296472854217532 0 0.00073293208704693937 -0.02765627031637044 0 -3.4441099960120948e-05 -0.030002374000096234 0 0.0013276371642254451 -0.031627501937191799 0 0.0020500103362652302 -0.032803936734134093 0 0.00062505003538551216 -0.033382872268580437 0 0.00055293983794131054 -0.034296472854217532 0 0.00043080602647945209 -0.034376151985838412 0 0.00055042555437421299 -0.034366572770307947 0 0.00055293983794131054 -0.034296472854217532 0 0.00055042555437421299 -0.034366572770307947 0 0.00057410504743270793 -0.034349182912073083 0 0.00039898872343448281 -0.034171675284730404 0 0.00055293983794131054 -0.034296472854217532 0 0.00043080602647945209 -0.034376151985838412 0 0.00043080602647945209 -0.034376151985838412 0 0.00041355219243559814 -0.03453021792759902 0 0.00021209880033403272 -0.034595223495209826 0 0.00041355219243559814 -0.03453021792759902 0 0.00037318796592499231 -0.034698843065142815 0 0.00021209880033403272 -0.034595223495209826 0 0.00041355219243559814 -0.03453021792759902 0 0.00049121738585699193 -0.034512109331476547 0 0.00048077668796786571 -0.034601929344607887 0 0.00041355219243559814 -0.03453021792759902 0 0.00051001267498257494 -0.034434224893265072 0 0.00049121738585699193 -0.034512109331476547 0 0.00043080602647945209 -0.034376151985838412 0 0.00041355219243559814 -0.03453021792759902 0 0.00051001267498257494 -0.034434224893265072 0 0.00043080602647945209 -0.034376151985838412 0 0.00055042555437421299 -0.034366572770307947 0 0.00051001267498257494 -0.034434224893265072 0 0.00055042555437421299 -0.034366572770307947 0 0.00051001267498257494 -0.034434224893265072 0 0.00060270944220617564 -0.034399463747264797 0 0.00055042555437421299 -0.034366572770307947 0 0.00060270944220617564 -0.034399463747264797 0 0.00057410504743270793 -0.034349182912073083 0 0.00060270944220617564 -0.034399463747264797 0 0.00057410504743270793 -0.034349182912073083 0 0.00058137540651959768 -0.034305814979178208 0 0.0015309121905497072 -0.032822526789061481 0 0.0015360561954844722 -0.032721309983238273 0 0.00060270944220617564 -0.034399463747264797 0 0.00056216574967839466 -0.034484094228874912 0 0.00066650673312602601 -0.034652775973812076 0 0.00060270944220617564 -0.034399463747264797 0 0.00065421983028937951 -0.034265962428395601 0 0.00058137540651959768 -0.034305814979178208 0 0.0015426500318631777 -0.032770731851177598 0 0.0015360561954844722 -0.032721309983238273 0 0.00056216574967839466 -0.034484094228874912 0 0.00048077668796786571 -0.034601929344607887 0 0.00062103915286274697 -0.034611188897218065 0 0.00051001267498257494 -0.034434224893265072 0 0.00049121738585699193 -0.034512109331476547 0 0.00056216574967839466 -0.034484094228874912 0 0.00051001267498257494 -0.034434224893265072 0 0.00060270944220617564 -0.034399463747264797 0 0.00056216574967839466 -0.034484094228874912 0 0.00049121738585699193 -0.034512109331476547 0 0.00056216574967839466 -0.034484094228874912 0 0.00048077668796786571 -0.034601929344607887 0 0.00048077668796786571 -0.034601929344607887 0 0.00062103915286274697 -0.034611188897218065 0 0.0004990919351942544 -0.034757501587540408 0 0.0015360561954844722 -0.032721309983238273 0 0.0012280025505916933 -0.032461237614349596 0 0.00062103915286274697 -0.034611188897218065 0 0.0004990919351942544 -0.034757501587540408 0 0.00064412437309894219 -0.034915081281656844 0 0.0004990919351942544 -0.034757501587540408 0 0.00037318796592499231 -0.034698843065142815 0 0.00038734307939331832 -0.034938356232033473 0 0.00037318796592499231 -0.034698843065142815 0 0.00038734307939331832 -0.034938356232033473 0 0.0002074949505581651 -0.034769840510095275 0 0.00048077668796786571 -0.034601929344607887 0 0.0004990919351942544 -0.034757501587540408 0 0.00037318796592499231 -0.034698843065142815 0 0.00041355219243559814 -0.03453021792759902 0 0.00048077668796786571 -0.034601929344607887 0 0.00037318796592499231 -0.034698843065142815 0 0.0005575720738212475 -0.034340864096640292 0 0.00038464513922141383 -0.034256679551406384 0 0.00052455690551999462 -0.03428973289334368 0 0.00086522253189057143 -0.020723425685780953 0 0.0010204029088068996 -0.021032303025202016 0 0.0011401072276326469 -0.020729460542539387 0 0.00083678931921534882 -0.027257127822498266 0 0.00092901145831986512 -0.026731107408045011 0 0.00038464513922141383 -0.034256679551406384 0 0.00052455690551999462 -0.03428973289334368 0 0.00046264244040610973 -0.03419468477290722 0 0.0005575720738212475 -0.034340864096640292 0 0.00052455690551999462 -0.03428973289334368 0 0.00057410504743270793 -0.034349182912073083 0 0.00052455690551999462 -0.03428973289334368 0 0.00057410504743270793 -0.034349182912073083 0 0.00058137540651959768 -0.034305814979178208 0 0.00065421983028937951 -0.034265962428395601 0 0.00055518895466561086 -0.034172089368318143 0 0.00059234989198735295 -0.033976731656165368 0 0.0015360561954844722 -0.032721309983238273 0 0.0015625558343936652 -0.031543303930018377 0 0.00052455690551999462 -0.03428973289334368 0 0.00058137540651959768 -0.034305814979178208 0 0.00055518895466561086 -0.034172089368318143 0 0.00065421983028937951 -0.034265962428395601 0 0.00058137540651959768 -0.034305814979178208 0 0.00055518895466561086 -0.034172089368318143 0 0.00052455690551999462 -0.03428973289334368 0 0.00055518895466561086 -0.034172089368318143 0 0.00046264244040610973 -0.03419468477290722 0 0.00055518895466561086 -0.034172089368318143 0 0.00046264244040610973 -0.03419468477290722 0 0.00038192551515128109 -0.034051334673451797 0 0.00038464513922141383 -0.034256679551406384 0 0.00038192551515128109 -0.034051334673451797 0 0.0002371860455131383 -0.034038442591060238 0 0.00038464513922141383 -0.034256679551406384 0 0.00046264244040610973 -0.03419468477290722 0 0.00038192551515128109 -0.034051334673451797 0 0.00038192551515128109 -0.034051334673451797 0 0.00042436685936386319 -0.033879470915599376 0 0.00059234989198735295 -0.033976731656165368 0 0.00038192551515128109 -0.034051334673451797 0 0.00042436685936386319 -0.033879470915599376 0 0.00027335517237767277 -0.033848976498595688 0 0.00055518895466561086 -0.034172089368318143 0 0.00038192551515128109 -0.034051334673451797 0 0.00059234989198735295 -0.033976731656165368 0 0.0015625558343936652 -0.031543303930018377 0 0.0013622084497366892 -0.02940351623188267 0 0.0015598893279906874 -0.031401689676626758 0 0.0018004761049975077 -0.030526801121475544 0 0.0010686374412138425 -0.03053562263835688 0 0.0015598893279906874 -0.031401689676626758 0 0.0018004761049975077 -0.030526801121475544 0 0.0019265736193161561 -0.031397044997791619 0 0.00083313412343512206 -0.031536891081493525 0 0.0013622084497366892 -0.02940351623188267 0 0.00044461236549553704 -0.033632210405487049 0 0.00027335517237767277 -0.033848976498595688 0 0.00019017348431234852 -0.033621429009746281 0 0.00042436685936386319 -0.033879470915599376 0 0.00044461236549553704 -0.033632210405487049 0 0.00027335517237767277 -0.033848976498595688 0 0.0013622084497366892 -0.02940351623188267 0 0.0010418362374818996 -0.027486784099132969 0 0.00042436685936386319 -0.033879470915599376 0 0.00059234989198735295 -0.033976731656165368 0 0.00044461236549553704 -0.033632210405487049 0 0.0020520510071142862 -0.032269223280338495 0 0.0015598893279906874 -0.031401689676626758 0 0.0019265736193161561 -0.031397044997791619 0 0.0004990919351942544 -0.034757501587540408 0 0.00038734307939331832 -0.034938356232033473 0 0.00064412437309894219 -0.034915081281656844 0 0.00067929657400435991 -0.03518432905579294 0 0.00038734307939331832 -0.034938356232033473 0 0.00064412437309894219 -0.034915081281656844 0 0.00083313412343512206 -0.031536891081493525 0 0.0012280025505916933 -0.032461237614349596 0 0.00067929657400435991 -0.03518432905579294 0 0.00038734307939331832 -0.034938356232033473 0 0.00030925981968964335 -0.035188877673179499 0 0.00038734307939331832 -0.034938356232033473 0 0.00017824246038566354 -0.034974888563244169 0 0.00030925981968964335 -0.035188877673179499 0 0.00017824246038566354 -0.034974888563244169 0 -4.0633377588782509e-05 -0.035189963427175196 0 0.00030925981968964335 -0.035188877673179499 0 0.00038734307939331832 -0.034938356232033473 0 0.00017824246038566354 -0.034974888563244169 0 0.0002074949505581651 -0.034769840510095275 0 0.00017824246038566354 -0.034974888563244169 0 5.373192939032777e-05 -0.034852796134832796 0 0.0002074949505581651 -0.034769840510095275 0 4.8794876956457654e-05 -0.034875580516934124 0 -2.1158726603894778e-05 -0.034953961247741853 0 -2.1569842078691237e-05 -0.034843022538816812 0 8.7203579035795771e-06 -0.034990738930803143 0 7.1175597533737265e-06 -0.034995681670465538 0 1.7846112584786323e-06 -0.034995659921077255 0 7.2493521814165322e-05 -0.034798797107539643 0 1.229621392715254e-05 -0.034918030535091522 0 7.2493521814165322e-05 -0.034798797107539643 0 7.2411637222207951e-05 -0.03479909602145443 0 7.2493521814165322e-05 -0.034798797107539643 0 0.00010313471494441051 -0.034623704981434841 0 0.00017824246038566354 -0.034974888563244169 0 5.373192939032777e-05 -0.034852796134832796 0 6.4496128927771678e-06 -0.03501958708690469 0 0.00017824246038566354 -0.034974888563244169 0 6.4496128927771678e-06 -0.03501958708690469 0 -4.0633377588782509e-05 -0.035189963427175196 0 0.00010313471494441051 -0.034623704981434841 0 0.00017589525421868966 -0.034290597727054263 0 7.1175597533737265e-06 -0.034995681670465538 0 3.7308311333035644e-06 -0.034997206514852122 0 5.6220543151017459e-06 -0.034999460862724527 0 3.7308311333035644e-06 -0.034997206514852122 0 1.7846112584786323e-06 -0.034995659921077255 0 1.5246633696889061e-06 -0.034999285614753788 0 1.7846112584786323e-06 -0.034995659921077255 0 6.6849618790215443e-07 -0.034999579514909403 0 1.5246633696889061e-06 -0.034999285614753788 0 3.7308311333035644e-06 -0.034997206514852122 0 1.5246633696889061e-06 -0.034999285614753788 0 5.6220543151017459e-06 -0.034999460862724527 0 7.1175597533737265e-06 -0.034995681670465538 0 3.7308311333035644e-06 -0.034997206514852122 0 1.7846112584786323e-06 -0.034995659921077255 0 -4.5348882813953657e-08 -0.034999812186561778 0 1.229621392715254e-05 -0.034918030535091522 0 -1.9495768825826481e-09 -0.034999995692156373 0 1.7846112584786323e-06 -0.034995659921077255 0 6.6849618790215443e-07 -0.034999579514909403 0 5.6782580822108452e-08 -0.034999983889266555 0 -2.1158726603894778e-05 -0.034953961247741853 0 -1.4026092077544703e-07 -0.034999886437371092 0 -2.1158726603894778e-05 -0.034953961247741853 0 -2.1569842078691237e-05 -0.034843022538816812 0 -1.4026092077544703e-07 -0.034999886437371092 0 -2.1569842078691237e-05 -0.034843022538816812 0 -1.4026092077544703e-07 -0.034999886437371092 0 -6.8092760874848734e-05 -0.034768019185759239 0 5.8024041931157085e-09 -0.034999148937122304 0 -1.4026092077544703e-07 -0.034999886437371092 0 -6.8092760874848734e-05 -0.034768019185759239 0 -2.1569842078691237e-05 -0.034843022538816812 0 -6.8092760874848734e-05 -0.034768019185759239 0 2.8906463137042127e-06 -0.034659980283924342 0 -8.6460612101272943e-05 -0.03420421445037581 0 -6.8092760874848734e-05 -0.034768019185759239 0 2.8906463137042127e-06 -0.034659980283924342 0 -8.6460612101272943e-05 -0.03420421445037581 0 2.8906463137042127e-06 -0.034659980283924342 0 0.00021209880033403272 -0.034595223495209826 0 2.8906463137042127e-06 -0.034659980283924342 0 0.00021209880033403272 -0.034595223495209826 0 8.1897430348076042e-05 -0.034747751380306315 0 0.00021209880033403272 -0.034595223495209826 0 0.0002074949505581651 -0.034769840510095275 0 8.1897430348076042e-05 -0.034747751380306315 0 0.00037318796592499231 -0.034698843065142815 0 0.00021209880033403272 -0.034595223495209826 0 0.0002074949505581651 -0.034769840510095275 0 4.9286508134862395e-05 -0.034889281015602701 0 0.0002074949505581651 -0.034769840510095275 0 5.6490597864936882e-05 -0.034856247346153904 0 0.0002074949505581651 -0.034769840510095275 0 5.6490597864936882e-05 -0.034856247346153904 0 8.1897430348076042e-05 -0.034747751380306315 0 7.2493521814165322e-05 -0.034798797107539643 0 8.2380810626938398e-05 -0.034795970386369945 0 -2.1569842078691237e-05 -0.034843022538816812 0 5.6490597864936882e-05 -0.034856247346153904 0 8.1897430348076042e-05 -0.034747751380306315 0 4.8794876956457654e-05 -0.034875580516934124 0 -2.1569842078691237e-05 -0.034843022538816812 0 5.6490597864936882e-05 -0.034856247346153904 0 -2.1569842078691237e-05 -0.034843022538816812 0 2.8906463137042127e-06 -0.034659980283924342 0 8.1897430348076042e-05 -0.034747751380306315 0 0.0013424654137934261 -0.017860262697478316 0 0.0016438943631507516 -0.017313393443225432 0 0.00049101489271276928 -0.017588697017889798 0 0.00058766754663247198 -0.017037163799249209 0 0.00032590329209441278 -0.01741078004270773 0 -0.00012634367561419524 -0.019584333144744403 0 0.00013601930352395066 -0.019544082427348571 0 6.6731540492751164e-05 -0.019667340433948806 0 -0.00012634367561419524 -0.019584333144744403 0 -7.6995047296508077e-05 -0.01961209905353865 0 6.6731540492751164e-05 -0.019667340433948806 0 -0.00012634367561419524 -0.019584333144744403 0 -7.2510794796425298e-05 -0.019516864490705239 0 -7.6995047296508077e-05 -0.01961209905353865 0 -0.00012634367561419524 -0.019584333144744403 0 -0.00011783004761399607 -0.019315807398175008 0 -0.00018424735037029646 -0.01965676435468439 0 -0.00012634367561419524 -0.019584333144744403 0 -0.00011783004761399607 -0.019315807398175008 0 0.00013601930352395066 -0.019544082427348571 0 0.0013424654137934261 -0.017860262697478316 0 0.0012390810930462686 -0.017988047426708339 0 -0.00011783004761399607 -0.019315807398175008 0 0.00013601930352395066 -0.019544082427348571 0 0.00013445708505117472 -0.018511518127216003 0 0.00049101489271276928 -0.017588697017889798 0 0.00013445708505117472 -0.018511518127216003 0 4.8378998866288317e-05 -0.017837562850686217 0 0.00013445708505117472 -0.018511518127216003 0 -4.2564919018611228e-07 -0.017968598243405055 0 -0.00012635601926790581 -0.019267758444622547 0 0.00013445708505117472 -0.018511518127216003 0 -4.2564919018611228e-07 -0.017968598243405055 0 -2.4815545686619506e-05 -0.01757014261805372 0 -4.2564919018611228e-07 -0.017968598243405055 0 -0.00012635601926790581 -0.019267758444622547 0 -3.6610117261565038e-07 -0.019889470427021209 0 -0.00011783004761399607 -0.019315807398175008 0 0.00013445708505117472 -0.018511518127216003 0 -0.00012635601926790581 -0.019267758444622547 0 -0.00011783004761399607 -0.019315807398175008 0 -0.00012635601926790581 -0.019267758444622547 0 -0.00018424735037029646 -0.01965676435468439 0 -0.00018424735037029646 -0.01965676435468439 0 -7.7583490138594932e-05 -0.02026947126624774 0 -2.449238994864455e-05 -0.020143372975600836 0 -0.00012635601926790581 -0.019267758444622547 0 -0.00018424735037029646 -0.01965676435468439 0 -7.7583490138594932e-05 -0.02026947126624774 0 -3.6610117261565038e-07 -0.019889470427021209 0 -7.7583490138594932e-05 -0.02026947126624774 0 4.5833674595840323e-07 -0.021809980250426693 0 -0.00012635601926790581 -0.019267758444622547 0 -3.6610117261565038e-07 -0.019889470427021209 0 -7.7583490138594932e-05 -0.02026947126624774 0 -7.7583490138594932e-05 -0.02026947126624774 0 4.5833674595840323e-07 -0.021809980250426693 0 0.00014696350058753308 -0.021044159490667357 0 0.00014696350058753308 -0.021044159490667357 0 -2.449238994864455e-05 -0.020143372975600836 0 0.00054916578578557734 -0.020376372060347321 0 -7.7583490138594932e-05 -0.02026947126624774 0 0.00014696350058753308 -0.021044159490667357 0 -2.449238994864455e-05 -0.020143372975600836 0 -2.449238994864455e-05 -0.020143372975600836 0 0.00025736262981932014 -0.019907990436389182 0 0.00054916578578557734 -0.020376372060347321 0 0.00025736262981932014 -0.019907990436389182 0 0.00018305482657833268 -0.019583266215457196 0 0.00049196853820350158 -0.019707696688732793 0 0.00025736262981932014 -0.019907990436389182 0 -8.0839091381490892e-05 -0.019706501961128751 0 0.00018305482657833268 -0.019583266215457196 0 -2.449238994864455e-05 -0.020143372975600836 0 0.00025736262981932014 -0.019907990436389182 0 -8.0839091381490892e-05 -0.019706501961128751 0 -0.00012634367561419524 -0.019584333144744403 0 -0.00018424735037029646 -0.01965676435468439 0 -8.0839091381490892e-05 -0.019706501961128751 0 -0.00018424735037029646 -0.01965676435468439 0 -2.449238994864455e-05 -0.020143372975600836 0 -8.0839091381490892e-05 -0.019706501961128751 0 -0.00012634367561419524 -0.019584333144744403 0 -8.0839091381490892e-05 -0.019706501961128751 0 -7.2510794796425298e-05 -0.019516864490705239 0 -8.0839091381490892e-05 -0.019706501961128751 0 -7.2510794796425298e-05 -0.019516864490705239 0 0.00018305482657833268 -0.019583266215457196 0 -7.2510794796425298e-05 -0.019516864490705239 0 0.00018305482657833268 -0.019583266215457196 0 0.00022427617495723466 -0.019298495143828285 0 0.00018305482657833268 -0.019583266215457196 0 0.00060389322964203779 -0.019386317258412958 0 0.00022427617495723466 -0.019298495143828285 0 0.00018305482657833268 -0.019583266215457196 0 0.00049196853820350158 -0.019707696688732793 0 0.00060389322964203779 -0.019386317258412958 0 0.0014813589969300029 -0.019265661973288637 0 0.0014493485566640038 -0.01931119835301064 0 0.00062873701313817694 -0.019198410477905919 0 0.0012694353410053489 -0.019158752776887635 0 0.00092208225498738793 -0.019837174290643612 0 0.00049196853820350158 -0.019707696688732793 0 0.00060389322964203779 -0.019386317258412958 0 0.00092208225498738793 -0.019837174290643612 0 0.001149673882733022 -0.020160157761888436 0 0.0011564943997775137 -0.020222565430198458 0 0.0010366318047912184 -0.020318058855128145 0 0.0016609641368295726 -0.020077201239013194 0 0.0015879575010421152 -0.020115650641743511 0 0.001149673882733022 -0.020160157761888436 0 0.0011564943997775137 -0.020222565430198458 0 0.0012267173642154167 -0.020245382984886536 0 0.0011564943997775137 -0.020222565430198458 0 0.0010366318047912184 -0.020318058855128145 0 0.0011214176950341411 -0.020300651856303729 0 0.0016609641368295726 -0.020077201239013194 0 0.0015533290830939748 -0.020144117193751712 0 0.0012694353410053489 -0.019158752776887635 0 0.0010366318047912184 -0.020318058855128145 0 0.00092208225498738793 -0.019837174290643612 0 0.0011564943997775137 -0.020222565430198458 0 0.0011638821699865838 -0.020278952663345902 0 0.0012006533511566646 -0.020283260222641129 0 0.0011564943997775137 -0.020222565430198458 0 0.0011638821699865838 -0.020278952663345902 0 0.0011214176950341411 -0.020300651856303729 0 0.0011638821699865838 -0.020278952663345902 0 0.0011913357596770183 -0.020323792329447164 0 0.0012006533511566646 -0.020283260222641129 0 0.0011638821699865838 -0.020278952663345902 0 0.0011913357596770183 -0.020323792329447164 0 0.0011214176950341411 -0.020300651856303729 0 0.0010366318047912184 -0.020318058855128145 0 0.00064225645513679014 -0.020019042919424756 0 0.00054916578578557734 -0.020376372060347321 0 0.0010366318047912184 -0.020318058855128145 0 0.00092208225498738793 -0.019837174290643612 0 0.00064225645513679014 -0.020019042919424756 0 0.00025736262981932014 -0.019907990436389182 0 0.00049196853820350158 -0.019707696688732793 0 0.00064225645513679014 -0.020019042919424756 0 0.00049196853820350158 -0.019707696688732793 0 0.00092208225498738793 -0.019837174290643612 0 0.00064225645513679014 -0.020019042919424756 0 0.00025736262981932014 -0.019907990436389182 0 0.00064225645513679014 -0.020019042919424756 0 0.00054916578578557734 -0.020376372060347321 0 0.00014696350058753308 -0.021044159490667357 0 0.00054916578578557734 -0.020376372060347321 0 0.0010932191874139878 -0.020524449822039936 0 -1.5931525188246666e-06 -0.023690493467283791 0 0.00015151834758064364 -0.023934437081314989 0 0.00014696350058753308 -0.021044159490667357 0 0.00010682678681376991 -0.022348854386549873 0 8.1181186472045535e-05 -0.023471244270010728 0 0.0010366318047912184 -0.020318058855128145 0 0.00054916578578557734 -0.020376372060347321 0 0.0010932191874139878 -0.020524449822039936 0 4.5833674595840323e-07 -0.021809980250426693 0 -3.6058173054926417e-08 -0.023730883643110334 0 5.6901090199786323e-05 -0.023104667567302055 0 4.5833674595840323e-07 -0.021809980250426693 0 0.00010682678681376991 -0.022348854386549873 0 5.6901090199786323e-05 -0.023104667567302055 0 4.5833674595840323e-07 -0.021809980250426693 0 0.00014696350058753308 -0.021044159490667357 0 0.00010682678681376991 -0.022348854386549873 0 0.00010682678681376991 -0.022348854386549873 0 5.6901090199786323e-05 -0.023104667567302055 0 8.1181186472045535e-05 -0.023471244270010728 0 5.6901090199786323e-05 -0.023104667567302055 0 8.1181186472045535e-05 -0.023471244270010728 0 -6.7941149813610281e-05 -0.024422743789045805 0 -3.6058173054926417e-08 -0.023730883643110334 0 5.6901090199786323e-05 -0.023104667567302055 0 -6.7941149813610281e-05 -0.024422743789045805 0 0.00015151834758064364 -0.023934437081314989 0 0.00039210864150266409 -0.024625738660418828 0 8.1181186472045535e-05 -0.023471244270010728 0 -0.00011583016970649031 -0.025020717981562971 0 -6.7941149813610281e-05 -0.024422743789045805 0 0.0011913357596770183 -0.020323792329447164 0 0.0010932191874139878 -0.020524449822039936 0 0.0012751426228787726 -0.02036191918636706 0 0.0010366318047912184 -0.020318058855128145 0 0.0011214176950341411 -0.020300651856303729 0 0.0010932191874139878 -0.020524449822039936 0 0.0011913357596770183 -0.020323792329447164 0 0.0011214176950341411 -0.020300651856303729 0 0.0010932191874139878 -0.020524449822039936 0 -0.00011583016970649031 -0.025020717981562971 0 -6.7941149813610281e-05 -0.024422743789045805 0 -0.00016810789724767549 -0.02578159144585522 0 -3.6058173054926417e-08 -0.023730883643110334 0 -6.7941149813610281e-05 -0.024422743789045805 0 -2.5574441735913654e-07 -0.025651173741481986 0 -6.7941149813610281e-05 -0.024422743789045805 0 -2.5574441735913654e-07 -0.025651173741481986 0 -0.00016810789724767549 -0.02578159144585522 0 -0.00020713848710562406 -0.026003653018415028 0 -0.00011583016970649031 -0.025020717981562971 0 -0.00016810789724767549 -0.02578159144585522 0 0.00060381750125902743 -0.025798507219109191 0 0.00039210864150266409 -0.024625738660418828 0 0.0010841306422337161 -0.020342376797513651 0 0.0010891458865352087 -0.020533565422849055 0 0.0012363741778603826 -0.020388514218722866 0 0.0010841306422337161 -0.020342376797513651 0 0.0012751426228787726 -0.02036191918636706 0 0.0012363741778603826 -0.020388514218722866 0 0.0010891458865352087 -0.020533565422849055 0 0.0012363741778603826 -0.020388514218722866 0 0.0012446190790586439 -0.020565927174787012 0 0.0012751426228787726 -0.02036191918636706 0 0.0012363741778603826 -0.020388514218722866 0 0.0012339166533441349 -0.020327648233147835 0 0.0011913357596770183 -0.020323792329447164 0 0.0012751426228787726 -0.02036191918636706 0 0.0012339166533441349 -0.020327648233147835 0 0.0011913357596770183 -0.020323792329447164 0 0.0012339166533441349 -0.020327648233147835 0 0.0012006533511566646 -0.020283260222641129 0 0.0012339166533441349 -0.020327648233147835 0 0.0012006533511566646 -0.020283260222641129 0 0.0012267173642154167 -0.020245382984886536 0 0.0012363741778603826 -0.020388514218722866 0 0.0014846596026177783 -0.02058143489373913 0 0.0012446190790586439 -0.020565927174787012 0 0.0012363741778603826 -0.020388514218722866 0 0.0012339166533441349 -0.020327648233147835 0 0.0012267173642154167 -0.020245382984886536 0 0.0015544451037378248 -0.020120959391028613 0 0.0015879575010421152 -0.020115650641743511 0 0.0014846596026177783 -0.02058143489373913 0 0.0013421991680717521 -0.020675481748448507 0 0.0012446190790586439 -0.020565927174787012 0 0.0011564943997775137 -0.020222565430198458 0 0.0012006533511566646 -0.020283260222641129 0 0.0012267173642154167 -0.020245382984886536 0 0.0014846596026177783 -0.02058143489373913 0 0.0015114168528188292 -0.020688676488332402 0 0.0013421991680717521 -0.020675481748448507 0 0.0016960936779426043 -0.020762689003152434 0 0.0014846596026177783 -0.02058143489373913 0 0.0015114168528188292 -0.020688676488332402 0 0.0015114168528188292 -0.020688676488332402 0 0.0014067184497860228 -0.020783672241695347 0 0.001460779542048431 -0.02090205360160061 0 0.0015114168528188292 -0.020688676488332402 0 0.0014067184497860228 -0.020783672241695347 0 0.0013421991680717521 -0.020675481748448507 0 0.0014067184497860228 -0.020783672241695347 0 0.0013421991680717521 -0.020675481748448507 0 0.0012687954859683978 -0.020877612703026627 0 0.0013421991680717521 -0.020675481748448507 0 0.0011401072276326469 -0.020729460542539387 0 0.0012687954859683978 -0.020877612703026627 0 0.0010891458865352087 -0.020533565422849055 0 0.0011401072276326469 -0.020729460542539387 0 0.0012446190790586439 -0.020565927174787012 0 0.0013421991680717521 -0.020675481748448507 0 0.0011401072276326469 -0.020729460542539387 0 0.0012446190790586439 -0.020565927174787012 0 0.0010204029088068996 -0.021032303025202016 0 0.0011401072276326469 -0.020729460542539387 0 0.0012687954859683978 -0.020877612703026627 0 0.0010204029088068996 -0.021032303025202016 0 0.0012687954859683978 -0.020877612703026627 0 0.0012472010426201922 -0.021104308707527095 0 0.0012687954859683978 -0.020877612703026627 0 0.0013947410944024844 -0.021048325963295988 0 0.0012472010426201922 -0.021104308707527095 0 0.0015114168528188292 -0.020688676488332402 0 0.001460779542048431 -0.02090205360160061 0 0.0016505700543363612 -0.02101033272019092 0 0.0014067184497860228 -0.020783672241695347 0 0.0012687954859683978 -0.020877612703026627 0 0.001460779542048431 -0.02090205360160061 0 0.001460779542048431 -0.02090205360160061 0 0.0015277525573732986 -0.021039411841473881 0 0.0013947410944024844 -0.021048325963295988 0 0.001460779542048431 -0.02090205360160061 0 0.0015277525573732986 -0.021039411841473881 0 0.0016505700543363612 -0.02101033272019092 0 0.0012687954859683978 -0.020877612703026627 0 0.001460779542048431 -0.02090205360160061 0 0.0013947410944024844 -0.021048325963295988 0 0.0013947410944024844 -0.021048325963295988 0 0.0013716684078820729 -0.021205905604118881 0 0.0012472010426201922 -0.021104308707527095 0 0.0013716684078820729 -0.021205905604118881 0 0.0011910842403286951 -0.021350033609418229 0 0.0015676976131274933 -0.021357532308967038 0 0.0013947410944024844 -0.021048325963295988 0 0.0015058127604114021 -0.021129453285954197 0 0.0013716684078820729 -0.021205905604118881 0 0.0015277525573732986 -0.021039411841473881 0 0.0013947410944024844 -0.021048325963295988 0 0.0015058127604114021 -0.021129453285954197 0 0.0015277525573732986 -0.021039411841473881 0 0.0015058127604114021 -0.021129453285954197 0 0.0016280393415850048 -0.02110653803589033 0 0.0016824628625106278 -0.020800597326912189 0 0.001690952796218259 -0.02079550022219025 0 0.0015058127604114021 -0.021129453285954197 0 0.0013716684078820729 -0.021205905604118881 0 0.0015676976131274933 -0.021357532308967038 0 0.0015058127604114021 -0.021129453285954197 0 0.0015676976131274933 -0.021357532308967038 0 0.0016249199802285126 -0.021107055773197658 0 0.0010204029088068996 -0.021032303025202016 0 0.0012472010426201922 -0.021104308707527095 0 0.0011910842403286951 -0.021350033609418229 0 0.00092901145831986512 -0.026731107408045011 0 0.00083643418778868092 -0.025601495114321821 0 0.0013716684078820729 -0.021205905604118881 0 0.0012472010426201922 -0.021104308707527095 0 0.0011910842403286951 -0.021350033609418229 0 0.00078629307530415536 -0.025926387126077276 0 0.00083643418778868092 -0.025601495114321821 0 0.00038192551515128109 -0.034051334673451797 0 0.00016462709525299121 -0.034041064989588532 0 0.00027335517237767277 -0.033848976498595688 0 0.00083643418778868092 -0.025601495114321821 0 0.0010808582455518391 -0.025952158521879015 0 0.00016462709525299121 -0.034041064989588532 0 0.00027335517237767277 -0.033848976498595688 0 4.5799805264475997e-05 -0.033830971366066581 0 0.00027335517237767277 -0.033848976498595688 0 4.5799805264475997e-05 -0.033830971366066581 0 0.00019017348431234852 -0.033621429009746281 0 0.0010418362374818996 -0.027486784099132969 0 0.00098656452657198057 -0.025218227173914861 0 4.5799805264475997e-05 -0.033830971366066581 0 0.00019017348431234852 -0.033621429009746281 0 -7.2410522202823294e-05 -0.033613103760474078 0 0.00067186655760251659 -0.0246411403719092 0 0.00046224033437383693 -0.024333248269516557 0 0.00032316334045046839 -0.024933802666314973 0 0.0022860450870124025 -0.022100276446140339 0 0.0021291431826446728 -0.022775965336203484 0 0.0019677626731756151 -0.022410289596859211 0 0.0010433037180517587 -0.024932985572815473 0 0.001556303393099268 -0.02265040909687898 0 0.00087319407301793945 -0.023962038217385073 0 0.0008116532058058413 -0.023962284362854469 0 0.00087663420960549198 -0.023946695167786781 0 0.0010433037180517587 -0.024932985572815473 0 0.0014239889632225004 -0.023668326038441177 0 -0.00015517666432514191 -0.025695914609409901 0 0.00021541814450712896 -0.025690615595956985 0 -4.5520897421582926e-05 -0.025224400357055022 0 0.0010433037180517587 -0.024932985572815473 0 0.00098656452657198057 -0.025218227173914861 0 0.00067186655760251659 -0.0246411403719092 0 0.00046224033437383693 -0.024333248269516557 0 0.00049810609870665136 -0.024332831042697546 0 0.0010808582455518391 -0.025952158521879015 0 0.00098656452657198057 -0.025218227173914861 0 0.00083643418778868092 -0.025601495114321821 0 0.001556303393099268 -0.02265040909687898 0 0.00084553066433037147 -0.024950328578388761 0 0.00067186655760251659 -0.0246411403719092 0 0.00032316334045046839 -0.024933802666314973 0 0.001556303393099268 -0.02265040909687898 0 0.0019792414357851862 -0.021195174653170567 0 0.0017704368942076684 -0.022765210539880516 0 0.0019677626731756151 -0.022410289596859211 0 0.0015753410647787506 -0.022308397586035981 0 0.0021291431826446728 -0.022775965336203484 0 0.0017704368942076684 -0.022765210539880516 0 0.0019677626731756151 -0.022410289596859211 0 0.0014239889632225004 -0.023668326038441177 0 0.002088847920364009 -0.020279131555955111 0 0.0019677626731756151 -0.022410289596859211 0 0.0020775759600853796 -0.022102043482177553 0 0.0015753410647787506 -0.022308397586035981 0 0.0014239889632225004 -0.023668326038441177 0 0.002124281352929885 -0.020979632216432689 0 0.0022860450870124025 -0.022100276446140339 0 0.0019677626731756151 -0.022410289596859211 0 0.0020775759600853796 -0.022102043482177553 0 0.0016425720037634365 -0.022227730916633468 0 0.0026852565457489846 -0.02220771384035861 0 0.0025334472530049623 -0.02185347570902639 0 0.0020420251006846948 -0.01942265019714394 0 0.0019172325033786036 -0.019131505838379304 0 0.002666673849839706 -0.019137747515981907 0 0.002088847920364009 -0.020279131555955111 0 0.002124281352929885 -0.020979632216432689 0 0.0020417294402424397 -0.020067201845575561 0 0.0020202577787566431 -0.02001644716467893 0 0.001962788531794817 -0.020062593694186379 0 0.0019792414357851862 -0.021195174653170567 0 0.002124281352929885 -0.020979632216432689 0 0.0019792414357851862 -0.021195174653170567 0 0.0020092296968422696 -0.019110063131300148 0 0.0021391710824270331 -0.019879736800276042 0 0.002006588198587885 -0.019992027198512691 0 0.0018078331122761092 -0.019869108908657989 0 0.002006588198587885 -0.019992027198512691 0 0.0022208311135240521 -0.020071024371686126 0 0.0019842907872678361 -0.020114082385730023 0 0.0017708786936181894 -0.020632199503032023 0 0.0016924460552685356 -0.019561349979509111 0 0.002006588198587885 -0.019992027198512691 0 0.0019842907872678361 -0.020114082385730023 0 0.0018806917517956291 -0.020025999367582342 0 0.0028939748239173472 -0.021007715836417837 0 0.0022785329274967446 -0.022386007593694406 0 0.0025862866559619065 -0.02232896342650785 0 0.0028939748239173472 -0.021007715836417837 0 0.0016738653856161704 -0.020974116130887989 0 0.0022785329274967446 -0.022386007593694406 0 0.0019792414357851862 -0.021195174653170567 0 0.0017708786936181894 -0.020632199503032023 0 0.0021391710824270331 -0.019879736800276042 0 0.002006588198587885 -0.019992027198512691 0 0.0022208311135240521 -0.020071024371686126 0 0.001556303393099268 -0.02265040909687898 0 0.001690952796218259 -0.02079550022219025 0 0.001690952796218259 -0.02079550022219025 0 0.0017132526189832624 -0.020594957820320794 0 0.0017708786936181894 -0.020632199503032023 0 0.0017132526189832624 -0.020594957820320794 0 0.0016503951476368667 -0.020353287324630698 0 0.0021421292838049878 -0.020261872615794867 0 0.0019551160535647397 -0.021065335221921937 0 0.0017708786936181894 -0.020632199503032023 0 0.001690952796218259 -0.02079550022219025 0 0.0016960936779426043 -0.020762689003152434 0 0.0015114168528188292 -0.020688676488332402 0 0.0016420113307807971 -0.020992354490725534 0 0.0020227557138442986 -0.020193803648099307 0 0.0020778485587758114 -0.01995712305578403 0 0.0017157098420719015 -0.019933790805479374 0 0.0020421498347012964 -0.01987385893925913 0 0.0020778485587758114 -0.01995712305578403 0 0.0017157098420719015 -0.019933790805479374 0 0.0017094999674453042 -0.020635735469199827 0 0.0017132526189832624 -0.020594957820320794 0 0.0015277525573732986 -0.021039411841473881 0 0.0016280393415850048 -0.02110653803589033 0 0.0016505700543363612 -0.02101033272019092 0 0.0016609641368295726 -0.020077201239013194 0 0.0017132526189832624 -0.020594957820320794 0 0.0016609641368295726 -0.020077201239013194 0 0.0016924460552685356 -0.019561349979509111 0 0.0014813589969300029 -0.019265661973288637 0 0.0016830139316917048 -0.019332242665184962 0 0.00062873701313817694 -0.019198410477905919 0 0.0012694353410053489 -0.019158752776887635 0 0.00053188474958997239 -0.018542635392188547 0 0.00062873701313817694 -0.019198410477905919 0 0.00053188474958997239 -0.018542635392188547 0 0.00034175895762926793 -0.01857830998002525 0 0.0016924460552685356 -0.019561349979509111 0 0.0016830139316917048 -0.019332242665184962 0 0.0016830139316917048 -0.019332242665184962 0 0.0016893770605884465 -0.018797058780664375 0 0.00060389322964203779 -0.019386317258412958 0 0.00039861703697735053 -0.019001170544240328 0 0.00022427617495723466 -0.019298495143828285 0 0.0017330877905546583 -0.019123835462177698 0 0.0016988300795620641 -0.01912989140400977 0 0.0017250182675830365 -0.01910645186746179 0 0.00039861703697735053 -0.019001170544240328 0 0.00022427617495723466 -0.019298495143828285 0 -4.6910019333402117e-05 -0.019086674124605983 0 -7.2510794796425298e-05 -0.019516864490705239 0 0.00022427617495723466 -0.019298495143828285 0 -4.6910019333402117e-05 -0.019086674124605983 0 0.0016893770605884465 -0.018797058780664375 0 0.0015071058568248371 -0.018110972855348944 0 0.001981080968595607 -0.017424614708310703 0 0.0021205979605281233 -0.017557780090286593 0 0.0022403788966849176 -0.017374908536064309 0 0.0016090885464872847 -0.01891297584079189 0 0.0016893770605884465 -0.018797058780664375 0 -7.2510794796425298e-05 -0.019516864490705239 0 -8.4642007307242749e-05 -0.019564358957817499 0 -7.6995047296508077e-05 -0.01961209905353865 0 0.001981080968595607 -0.017424614708310703 0 0.0021205979605281233 -0.017557780090286593 0 0.0019553126233120563 -0.017698343463719651 0 0.0016893770605884465 -0.018797058780664375 0 0.0019094019468341673 -0.018906909591758461 0 0.0021205979605281233 -0.017557780090286593 0 0.0021058215903343933 -0.017687918171814351 0 0.0019553126233120563 -0.017698343463719651 0 0.0019970681721901882 -0.018917814676582566 0 0.0020734182765336285 -0.019081094887461705 0 0.0021288499283798434 -0.019028823090516029 0 0.0016988300795620641 -0.01912989140400977 0 0.0017250182675830365 -0.01910645186746179 0 0.0017028932926884744 -0.019087579700625811 0 0.0018175144157149222 -0.019275439786357405 0 0.0019094019468341673 -0.018906909591758461 0 0.002006588198587885 -0.019992027198512691 0 0.0018806917517956291 -0.020025999367582342 0 0.0018078331122761092 -0.019869108908657989 0 0.0018175144157149222 -0.019275439786357405 0 0.0020092296968422696 -0.019110063131300148 0 0.0016924460552685356 -0.019561349979509111 0 0.0018175144157149222 -0.019275439786357405 0 0.0016830139316917048 -0.019332242665184962 0 0.0018175144157149222 -0.019275439786357405 0 0.0017021502189902193 -0.01951184443305147 0 0.0016605604142981298 -0.019519523310250544 0 0.0016275585861313395 -0.019448560571798463 0 0.0020202577787566431 -0.02001644716467893 0 0.001962788531794817 -0.020062593694186379 0 0.0019532834490230038 -0.020042032381984237 0 0.0020734182765336285 -0.019081094887461705 0 0.0021237795317844413 -0.019082426214505656 0 0.0021288499283798434 -0.019028823090516029 0 0.0020092296968422696 -0.019110063131300148 0 0.0020228892678864629 -0.018789480338461048 0 0.0017393725691930127 -0.019093785883007881 0 0.0016550247256197916 -0.018914372867914923 0 0.00163781898309442 -0.019090985104890601 0 0.0020092296968422696 -0.019110063131300148 0 0.0020777108679610429 -0.018978641785029476 0 0.0020777108679610429 -0.018978641785029476 0 0.0020228892678864629 -0.018789480338461048 0 0.002088847920364009 -0.020279131555955111 0 0.0022993754310546835 -0.017352429821466526 0 0.002124281352929885 -0.020979632216432689 0 0.0020777108679610429 -0.018978641785029476 0 0.0019172325033786036 -0.019131505838379304 0 0.0028051403371207487 -0.018763693562833503 0 0.002666673849839706 -0.019137747515981907 0 0.0020420251006846948 -0.01942265019714394 0 0.002666673849839706 -0.019137747515981907 0 0.0027434964068318696 -0.019409867806026396 0 0.0028051403371207487 -0.018763693562833503 0 0.002666673849839706 -0.019137747515981907 0 0.0027531192746803887 -0.01931555342521565 0 0.0020777108679610429 -0.018978641785029476 0 0.0023143589774647978 -0.017383881212598932 0 0.0023305414786346343 -0.017423605868342743 0 0.0023143589774647978 -0.017383881212598932 0 0.002666673849839706 -0.019137747515981907 0 0.0027524828431004476 -0.019315690230673352 0 0.0027434964068318696 -0.019409867806026396 0 0.0029491699327101437 -0.016515534983208319 0 0.0028776413338096364 -0.017263515501650048 0 0.0033067681909706961 -0.017257249522420692 0 0.0023143589774647978 -0.017383881212598932 0 0.00229327279443852 -0.017130045757171204 0 0.0023143589774647978 -0.017383881212598932 0 0.0022993754310546835 -0.017352429821466526 0 0.0022993754310546835 -0.017352429821466526 0 0.00229327279443852 -0.017130045757171204 0 0.002291579191221145 -0.01647858948408578 0 0.0023470826699103229 -0.016426907496545011 0 0.0023815661497357259 -0.016432188554351163 0 0.00229327279443852 -0.017130045757171204 0 0.002542382617541267 -0.014257403708184596 0 0.002291579191221145 -0.01647858948408578 0 0.0023815661497357259 -0.016432188554351163 0 0.0024141576757182792 -0.01647423508082561 0 0.0022850283867637848 -0.016464653368813375 0 0.002291579191221145 -0.01647858948408578 0 0.0023175698184738818 -0.016435958516066947 0 0.002291579191221145 -0.01647858948408578 0 0.0023175698184738818 -0.016435958516066947 0 0.0023470826699103229 -0.016426907496545011 0 0.0022925011943124908 -0.016388134807307605 0 0.0022850283867637848 -0.016464653368813375 0 0.0023175698184738818 -0.016435958516066947 0 0.0020777108679610429 -0.018978641785029476 0 0.0020212738867056738 -0.018784959102255128 0 0.0022956260491268869 -0.016383666231121478 0 0.0023175698184738818 -0.016435958516066947 0 0.0023355658749273874 -0.016394492101092645 0 0.0023175698184738818 -0.016435958516066947 0 0.0023470826699103229 -0.016426907496545011 0 0.0023355658749273874 -0.016394492101092645 0 0.0023470826699103229 -0.016426907496545011 0 0.0023658297402580413 -0.016401750309269051 0 0.0023355658749273874 -0.016394492101092645 0 0.0023658297402580413 -0.016401750309269051 0 0.0023959000280022588 -0.016379119221163727 0 0.0023815661497357259 -0.016432188554351163 0 0.0023470826699103229 -0.016426907496545011 0 0.0023658297402580413 -0.016401750309269051 0 0.0023815661497357259 -0.016432188554351163 0 0.0023590679072261669 -0.016373880441843743 0 0.0023000879387992594 -0.01634605164720317 0 0.0023967625136854173 -0.016348436949785997 0 0.0023658297402580413 -0.016401750309269051 0 0.0023590679072261669 -0.016373880441843743 0 0.0023959000280022588 -0.016379119221163727 0 0.0020228892678864629 -0.018789480338461048 0 0.0022292404880544787 -0.017128035879051144 0 0.0019498157012328723 -0.017756961552478266 0 0.0020012351256404881 -0.017737085823405115 0 0.0021939148185205304 -0.017761115893902692 0 0.0023658297402580413 -0.016401750309269051 0 0.0023590679072261669 -0.016373880441843743 0 0.0023355658749273874 -0.016394492101092645 0 0.0023590679072261669 -0.016373880441843743 0 0.0023355658749273874 -0.016394492101092645 0 0.0023000879387992594 -0.01634605164720317 0 0.0022956260491268869 -0.016383666231121478 0 0.0023355658749273874 -0.016394492101092645 0 0.0023000879387992594 -0.01634605164720317 0 0.0021058215903343933 -0.017687918171814351 0 0.0020012351256404881 -0.017737085823405115 0 0.0019553126233120563 -0.017698343463719651 0 0.0019498157012328723 -0.017756961552478266 0 0.0020012351256404881 -0.017737085823405115 0 0.0019553900340996454 -0.017699238807559532 0 0.0020228892678864629 -0.018789480338461048 0 0.0019094019468341673 -0.018906909591758461 0 0.0019029059097285205 -0.018896072668909643 0 0.0019094019468341673 -0.018906909591758461 0 0.0021058215903343933 -0.017687918171814351 0 0.0020012351256404881 -0.017737085823405115 0 0.0021939148185205304 -0.017761115893902692 0 0.0023959000280022588 -0.016379119221163727 0 0.0024256765160822315 -0.016441108346757816 0 0.002472153935891102 -0.016351679849889181 0 0.0023967625136854173 -0.016348436949785997 0 0.0023959000280022588 -0.016379119221163727 0 0.002472153935891102 -0.016351679849889181 0 0.0022292404880544787 -0.017128035879051144 0 0.0023970683108452363 -0.01547642268873042 0 0.0021939148185205304 -0.017761115893902692 0 0.002438248570265875 -0.017765713805512794 0 0.0022910871187696411 -0.017601440342253132 0 0.0023590679072261669 -0.016373880441843743 0 0.0023967625136854173 -0.016348436949785997 0 0.0023959000280022588 -0.016379119221163727 0 0.0023959000280022588 -0.016379119221163727 0 0.0024256765160822315 -0.016441108346757816 0 0.0024097448682071686 -0.016440947432079557 0 0.0025921666632451623 -0.014700613353851682 0 0.002542382617541267 -0.014257403708184596 0 0.0023959000280022588 -0.016379119221163727 0 0.0023815661497357259 -0.016432188554351163 0 0.0024141576757182792 -0.01647423508082561 0 0.0024976582202839112 -0.013875914472446058 0 0.002542382617541267 -0.014257403708184596 0 0.005514879712474394 -0.0095417164249628952 0 0.0043445597318603089 -0.010295110266573333 0 0.0044672634080152257 -0.01168787455936098 0 0.0024976582202839112 -0.013875914472446058 0 0.0023662418195146947 -0.012572381142117594 0 0.0024976582202839112 -0.013875914472446058 0 0.0023970683108452363 -0.01547642268873042 0 0.005514879712474394 -0.0095417164249628952 0 0.0043445597318603089 -0.010295110266573333 0 0.0031464729862749159 -0.0095581380584637641 0 0.0043445597318603089 -0.010295110266573333 0 0.0036354039070186179 -0.011059567577564109 0 0.0031464729862749159 -0.0095581380584637641 0 0.0043445597318603089 -0.010295110266573333 0 0.0036354039070186179 -0.011059567577564109 0 0.0044672634080152257 -0.01168787455936098 0 0.005079921760618741 -0.011749607921765154 0 0.0042508381651776336 -0.011987640345348563 0 0.0029578636032996067 -0.011696264325368907 0 0.0023970683108452363 -0.01547642268873042 0 0.0024156698364616262 -0.01480455752240697 0 0.0036354039070186179 -0.011059567577564109 0 0.0044672634080152257 -0.01168787455936098 0 0.0027701508087793758 -0.011659791809102373 0 0.005079921760618741 -0.011749607921765154 0 0.0042508381651776336 -0.011987640345348563 0 0.0043495802093166782 -0.013250017336307872 0 0.0023970683108452363 -0.01547642268873042 0 0.0022189018602881681 -0.01583520348396035 0 0.002438248570265875 -0.017765713805512794 0 0.0025224326813145554 -0.017594203349463586 0 0.0022910871187696411 -0.017601440342253132 0 0.0025224326813145554 -0.017594203349463586 0 0.0022910871187696411 -0.017601440342253132 0 0.0023885735864259405 -0.017474044343365022 0 0.0043812629665942833 -0.013215440813234345 0 0.0042182381273229595 -0.013557452811881065 0 0.0046077539524679717 -0.01561833022625983 0 0.0042508381651776336 -0.011987640345348563 0 0.0043713128567221538 -0.013223398014414342 0 0.003755138941471729 -0.012637045885042041 0 0.0022518616000165139 -0.015528289428200864 0 0.0022189018602881681 -0.01583520348396035 0 0.0043713128567221538 -0.013223398014414342 0 0.0042182381273229595 -0.013557452811881065 0 0.0036109514867269472 -0.013495605444505459 0 0.0022189018602881681 -0.01583520348396035 0 0.0022320017387853462 -0.015812348914600351 0 0.0021205979605281233 -0.017557780090286593 0 0.0022910871187696411 -0.017601440342253132 0 0.0022403788966849176 -0.017374908536064309 0 0.0021058215903343933 -0.017687918171814351 0 0.0021939148185205304 -0.017761115893902692 0 0.0022910871187696411 -0.017601440342253132 0 0.0021205979605281233 -0.017557780090286593 0 0.0021058215903343933 -0.017687918171814351 0 0.0022910871187696411 -0.017601440342253132 0 0.0022910871187696411 -0.017601440342253132 0 0.0022403788966849176 -0.017374908536064309 0 0.0023885735864259405 -0.017474044343365022 0 0.0022403788966849176 -0.017374908536064309 0 0.0023885735864259405 -0.017474044343365022 0 0.0025002432729685172 -0.017325611375586272 0 0.0022189018602881681 -0.01583520348396035 0 0.0016438943631507516 -0.017313393443225432 0 0.0015071058568248371 -0.018110972855348944 0 0.0016438943631507516 -0.017313393443225432 0 0.0025224326813145554 -0.017594203349463586 0 0.0023885735864259405 -0.017474044343365022 0 0.0025002432729685172 -0.017325611375586272 0 0.0042182381273229595 -0.013557452811881065 0 0.0046077539524679717 -0.01561833022625983 0 0.0039125753268534173 -0.014320245881280844 0 0.0025999549132042043 -0.0072455317031062481 0 0.0029429425778095502 -0.0076858173279856987 0 0.0025207495864113146 -0.0068928653222406445 0 0.0025999549132042043 -0.0072455317031062481 0 0.0023693167677269716 -0.0074321663202491324 0 0.0021956815218204724 -0.0070343025209128373 0 0.0025999549132042043 -0.0072455317031062481 0 0.0024066559882690705 -0.0069758341147883856 0 0.0021956815218204724 -0.0070343025209128373 0 0.0024066559882690705 -0.0069758341147883856 0 0.00230074386114278 -0.0067436307170974322 0 0.0021956815218204724 -0.0070343025209128373 0 0.0025999549132042043 -0.0072455317031062481 0 0.0024066559882690705 -0.0069758341147883856 0 0.0025207495864113146 -0.0068928653222406445 0 0.0026698903579325858 -0.0071273540816861854 0 0.0028143988062359071 -0.0069118547226828088 0 0.0026783158681430081 -0.0067708176529515671 0 0.0022669843553152977 -0.0096374364768329196 0 0.002199007330420881 -0.0085622002971354784 0 0.0031624809711443048 -0.0078666666464748888 0 0.0025207495864113146 -0.0068928653222406445 0 0.0025007946302318795 -0.0066596956393108466 0 0.0026698903579325858 -0.0071273540816861854 0 0.0026783158681430081 -0.0067708176529515671 0 0.0025007946302318795 -0.0066596956393108466 0 0.0030655107313287541 -0.0078903351156864605 0 0.0031624809711443048 -0.0078666666464748888 0 0.0025207495864113146 -0.0068928653222406445 0 0.0016092839964564635 -0.013499483209150563 0 0.001025769128749573 -0.010959064514280806 0 0.0030655107313287541 -0.0078903351156864605 0 0.0027780853194843426 -0.0083440171681798108 0 0.0025207495864113146 -0.0068928653222406445 0 0.0031700242314949526 -0.0078698346879492957 0 0.0027780853194843426 -0.0083440171681798108 0 0.0036461034146000296 -0.0088019225162021507 0 0.0016092839964564635 -0.013499483209150563 0 0.001861639951874248 -0.013842561054986775 0 0.0030655107313287541 -0.0078903351156864605 0 0.0031700242314949526 -0.0078698346879492957 0 0.0027780853194843426 -0.0083440171681798108 0 0.0016163413434334348 -0.013493863058743699 0 0.0016092839964564635 -0.013499483209150563 0 0.0029429425778095502 -0.0076858173279856987 0 0.0026172012840183089 -0.0075366608906561709 0 0.0025438315294932039 -0.0078240423523090255 0 0.0025999549132042043 -0.0072455317031062481 0 0.0029429425778095502 -0.0076858173279856987 0 0.0026172012840183089 -0.0075366608906561709 0 0.0025999549132042043 -0.0072455317031062481 0 0.0026172012840183089 -0.0075366608906561709 0 0.0023693167677269716 -0.0074321663202491324 0 0.0026172012840183089 -0.0075366608906561709 0 0.0023693167677269716 -0.0074321663202491324 0 0.0025438315294932039 -0.0078240423523090255 0 0.0023693167677269716 -0.0074321663202491324 0 0.0025438315294932039 -0.0078240423523090255 0 0.0020571591460526997 -0.0077747894406151432 0 0.0029429425778095502 -0.0076858173279856987 0 0.0025438315294932039 -0.0078240423523090255 0 0.002779354402581812 -0.0083498218416760504 0 0.0025438315294932039 -0.0078240423523090255 0 0.0023246230098574678 -0.0084031713847050899 0 0.0020571591460526997 -0.0077747894406151432 0 0.0025438315294932039 -0.0078240423523090255 0 0.002779354402581812 -0.0083498218416760504 0 0.0023246230098574678 -0.0084031713847050899 0 0.0031441993816797693 -0.0091709234551390646 0 0.002728737300286747 -0.0088178881762255353 0 0.0021222601289414655 -0.0092525985587292164 0 0.0023246230098574678 -0.0084031713847050899 0 0.002728737300286747 -0.0088178881762255353 0 0.0021222601289414655 -0.0092525985587292164 0 0.002779354402581812 -0.0083498218416760504 0 0.0023246230098574678 -0.0084031713847050899 0 0.002728737300286747 -0.0088178881762255353 0 0.0024874647358662351 -0.013381546024187655 0 0.001861639951874248 -0.013842561054986775 0 0.0025542033201920566 -0.01335554748491889 0 0.001321717065964279 -0.013373369028179958 0 0.0016570957604694775 -0.015188045868612573 0 0.002542382617541267 -0.014257403708184596 0 0.0024874647358662351 -0.013381546024187655 0 0.0031441993816797693 -0.0091709234551390646 0 0.002728737300286747 -0.0088178881762255353 0 0.0032718543754476971 -0.0089146077174217398 0 0.0024976582202839112 -0.013875914472446058 0 0.0024874647358662351 -0.013381546024187655 0 0.002779354402581812 -0.0083498218416760504 0 0.002728737300286747 -0.0088178881762255353 0 0.0032718543754476971 -0.0089146077174217398 0 0.0029429425778095502 -0.0076858173279856987 0 0.002779354402581812 -0.0083498218416760504 0 0.0032718543754476971 -0.0089146077174217398 0 0.0027780853194843426 -0.0083440171681798108 0 0.0030712172909070907 -0.0099952381000893622 0 0.0036461034146000296 -0.0088019225162021507 0 0.0022669843553152977 -0.0096374364768329196 0 0.0024874647358662351 -0.013381546024187655 0 0.002194889089618336 -0.015350311550190142 0 0.0025496010243402003 -0.015539898553052888 0 0.0022939040577761895 -0.015146676080624845 0 0.001861639951874248 -0.013842561054986775 0 0.0018415092605558604 -0.013932000985680508 0 0.0015516369340212808 -0.015027569966979019 0 0.0016817318327945435 -0.015056986240662222 0 0.0016222283196576095 -0.015173233534435933 0 0.00229327279443852 -0.017130045757171204 0 0.001861639951874248 -0.013842561054986775 0 0.0015516369340212808 -0.015027569966979019 0 0.0016757920159888521 -0.015022703183323754 0 0.0016817318327945435 -0.015056986240662222 0 0.0024809087979875402 -0.015943292592673141 0 0.002194889089618336 -0.015350311550190142 0 0.0025496010243402003 -0.015539898553052888 0 0.0025131424356385056 -0.015942942024406319 0 0.0024809087979875402 -0.015943292592673141 0 0.0025496010243402003 -0.015539898553052888 0 0.0019134104096222612 -0.018821073989015835 0 0.0014331847371452698 -0.01882589684312248 0 0.0016004264127555999 -0.018609126843506088 0 0.0019134104096222612 -0.018821073989015835 0 0.0016004264127555999 -0.018609126843506088 0 0.0017167979366815704 -0.01836041998235757 0 0.0014331847371452698 -0.01882589684312248 0 0.0016004264127555999 -0.018609126843506088 0 0.0014760164499304162 -0.018363233778691982 0 0.0022993754310546835 -0.017352429821466526 0 0.0022629373468205801 -0.017138736192842053 0 0.0016004264127555999 -0.018609126843506088 0 0.0017167979366815704 -0.01836041998235757 0 0.0014760164499304162 -0.018363233778691982 0 0.0022109913219925106 -0.019009514901424326 0 0.0022553513800869038 -0.01702924545451456 0 0.0011624793325375061 -0.02235836526547615 0 0.00096632503204241438 -0.021911542704128397 0 0.0012164191098533164 -0.022049140086961815 0 0.0025496010243402003 -0.015539898553052888 0 0.0025840470225428863 -0.015139373519433254 0 0.0022939040577761895 -0.015146676080624845 0 0.0017167979366815704 -0.01836041998235757 0 0.0014760164499304162 -0.018363233778691982 0 0.0015187690563633321 -0.017897986036885145 0 0.0022629373468205801 -0.017138736192842053 0 0.0022553513800869038 -0.01702924545451456 0 0.0011820727240611356 -0.021841997551037346 0 0.00096632503204241438 -0.021911542704128397 0 0.0012164191098533164 -0.022049140086961815 0 0.0011820727240611356 -0.021841997551037346 0 0.00096632503204241438 -0.021911542704128397 0 0.00099570571597889829 -0.021596944772447543 0 0.0011820727240611356 -0.021841997551037346 0 0.0011413743459611223 -0.021570099207785725 0 0.00099570571597889829 -0.021596944772447543 0 0.0022553513800869038 -0.01702924545451456 0 0.0021960780689694584 -0.016579473861133332 0 0.0030107244751033609 -0.015951505808971023 0 0.0029684225941401386 -0.015852487371097426 0 0.0029569674974799696 -0.015961804856860565 0 0.0022402643894388272 -0.015480323450306917 0 0.0022553513800869038 -0.01702924545451456 0 0.0016092839964564635 -0.013499483209150563 0 0.0022402643894388272 -0.015480323450306917 0 0.0020202865026492075 -0.014979287635083421 0 0.0024770946846731689 -0.014894630254060208 0 0.0022939040577761895 -0.015146676080624845 0 0.0020202865026492075 -0.014979287635083421 0 0.0021970467876648385 -0.015343197745634229 0 0.0022939040577761895 -0.015146676080624845 0 0.0024770946846731689 -0.014894630254060208 0 0.0025840470225428863 -0.015139373519433254 0 0.0022939040577761895 -0.015146676080624845 0 0.0030420789177165613 -0.0070667299332976283 0 0.0028143988062359071 -0.0069118547226828088 0 0.0029317316432685269 -0.0068048786138562413 0 0.0022402643894388272 -0.015480323450306917 0 0.0015962553668328334 -0.013246845833019662 0 0.0026698903579325858 -0.0071273540816861854 0 0.0030420789177165613 -0.0070667299332976283 0 0.0028143988062359071 -0.0069118547226828088 0 0.0028143988062359071 -0.0069118547226828088 0 0.0029317316432685269 -0.0068048786138562413 0 0.0027942735741524074 -0.0067345140465212873 0 0.0028143988062359071 -0.0069118547226828088 0 0.0027942735741524074 -0.0067345140465212873 0 0.0026783158681430081 -0.0067708176529515671 0 0.00080815843449832774 -0.021697546658401141 0 0.00089460558706517548 -0.021799428972719113 0 0.0010424905636546278 -0.02158761152482638 0 0.00226450079918049 -0.016279589897937038 0 0.002383213949535965 -0.017455977231582879 0 0.002383213949535965 -0.017455977231582879 0 0.0021960780689694584 -0.016579473861133332 0 0.0020584701267898752 -0.018247893279062437 0 0.0010117784525722194 -0.017028255453379285 0 0.0021965666535023356 -0.016805590836678302 0 0.0018917488940289912 -0.015591144480728621 0 0.0014543142659515815 -0.014570857081066495 0 0.0023556306964449816 -0.015025459277853224 0 0.0022402643894388272 -0.015480323450306917 0 0.0021960780689694584 -0.016579473861133332 0 0.0018917488940289912 -0.015591144480728621 0 0.0023556306964449816 -0.015025459277853224 0 0.0023093256496691207 -0.015512991937257654 0 0.00226450079918049 -0.016279589897937038 0 0.0021960780689694584 -0.016579473861133332 0 0.00089460558706517548 -0.021799428972719113 0 0.0010424905636546278 -0.02158761152482638 0 0.001262594103354647 -0.021740794746284715 0 0.002383213949535965 -0.017455977231582879 0 0.001627141353950164 -0.021884836492449575 0 0.001627141353950164 -0.021884836492449575 0 0.00099064144176400776 -0.026348843690428406 0 0.0016549390504783134 -0.021542254944299895 0 0.0019757766083245733 -0.022063924483460846 0 0.0021485826451565601 -0.02145707654698225 0 0.0016549390504783134 -0.021542254944299895 0 0.0015519385302538075 -0.022083115369232756 0 0.0019757766083245733 -0.022063924483460846 0 0.0011820727240611356 -0.021841997551037346 0 0.0011413743459611223 -0.021570099207785725 0 0.0015519385302538075 -0.022083115369232756 0 0.002383213949535965 -0.017455977231582879 0 0.0027676570245712003 -0.018639466138644166 0 0.0011685607232376962 -0.021626646752205676 0 0.0016549390504783134 -0.021542254944299895 0 0.0015519385302538075 -0.022083115369232756 0 0.0011820727240611356 -0.021841997551037346 0 0.0012164191098533164 -0.022049140086961815 0 0.0015519385302538075 -0.022083115369232756 0 0.0011624793325375061 -0.02235836526547615 0 0.0012164191098533164 -0.022049140086961815 0 0.0015519385302538075 -0.022083115369232756 0 0.0011624793325375061 -0.02235836526547615 0 0.0015519385302538075 -0.022083115369232756 0 0.0016904146964464065 -0.022316374434824943 0 0.002088847920364009 -0.020279131555955111 0 0.0022109913219925106 -0.019009514901424326 0 0.001347673210842859 -0.022786309549187676 0 0.0011624793325375061 -0.02235836526547615 0 0.001616170203354093 -0.022575349326323383 0 0.0011624793325375061 -0.02235836526547615 0 0.001616170203354093 -0.022575349326323383 0 0.0016904146964464065 -0.022316374434824943 0 0.0018884834155163928 -0.022781852917251849 0 0.001347673210842859 -0.022786309549187676 0 0.001616170203354093 -0.022575349326323383 0 0.0018884834155163928 -0.022781852917251849 0 0.0019138221367680963 -0.02261681365557416 0 0.001616170203354093 -0.022575349326323383 0 0.001616170203354093 -0.022575349326323383 0 0.0019260550620678757 -0.022440928589186979 0 0.0016904146964464065 -0.022316374434824943 0 0.0019138221367680963 -0.02261681365557416 0 0.001616170203354093 -0.022575349326323383 0 0.0019260550620678757 -0.022440928589186979 0 0.0015519385302538075 -0.022083115369232756 0 0.0016904146964464065 -0.022316374434824943 0 0.0019757766083245733 -0.022063924483460846 0 0.0019260550620678757 -0.022440928589186979 0 0.0016904146964464065 -0.022316374434824943 0 0.0019757766083245733 -0.022063924483460846 0 0.0019260550620678757 -0.022440928589186979 0 0.0019757766083245733 -0.022063924483460846 0 0.0021001893246086934 -0.022399972680832485 0 0.0019757766083245733 -0.022063924483460846 0 0.0022793499686196506 -0.022300501981720792 0 0.0024303278872820251 -0.021949736068871614 0 0.0019757766083245733 -0.022063924483460846 0 0.0022793499686196506 -0.022300501981720792 0 0.0021001893246086934 -0.022399972680832485 0 0.0010090259371203347 -0.024687596926309521 0 0.0010538846882942596 -0.024886678556143141 0 0.0019260550620678757 -0.022440928589186979 0 0.0021001893246086934 -0.022399972680832485 0 0.0021078207447097546 -0.022645612286165712 0 0.00096554208783267105 -0.026970987962021759 0 0.0014077973629328146 -0.026961182487801931 0 0.0014269896662170674 -0.027055350256478095 0 0.0022793499686196506 -0.022300501981720792 0 0.0021001893246086934 -0.022399972680832485 0 0.0021078207447097546 -0.022645612286165712 0 0.0018884834155163928 -0.022781852917251849 0 0.0019138221367680963 -0.02261681365557416 0 0.0020978616898935732 -0.022695763707088697 0 0.0014239889632225004 -0.023668326038441177 0 0.0010538846882942596 -0.024886678556143141 0 0.0008116532058058413 -0.023962284362854469 0 0.00087663420960549198 -0.023946695167786781 0 0.00087939475793876994 -0.023934365818909821 0 0.0014077973629328146 -0.026961182487801931 0 0.0014369199363635241 -0.027012962465985311 0 0.0014269896662170674 -0.027055350256478095 0 0.0019138221367680963 -0.02261681365557416 0 0.0019260550620678757 -0.022440928589186979 0 0.0020978616898935732 -0.022695763707088697 0 0.00098656452657198057 -0.025218227173914861 0 0.0010067727748351372 -0.025029494736528497 0 0.0019260550620678757 -0.022440928589186979 0 0.0021078207447097546 -0.022645612286165712 0 0.0020942397309967127 -0.022701915484069014 0 0.0010433037180517587 -0.024932985572815473 0 0.0010067727748351372 -0.025029494736528497 0 0.0010067727748351372 -0.025029494736528497 0 0.0010538846882942596 -0.024886678556143141 0 0.001057197543588772 -0.024875274245946693 0 0.0010538846882942596 -0.024886678556143141 0 0.00096554208783267105 -0.026970987962021759 0 0.0014269896662170674 -0.027055350256478095 0 0.00073383874009765179 -0.027348514532280471 0 0.0022793499686196506 -0.022300501981720792 0 0.0021078207447097546 -0.022645612286165712 0 0.0027125451837690211 -0.022449311703576048 0 0.0021078207447097546 -0.022645612286165712 0 0.0020949319602929246 -0.022700580096480374 0 0.0027125451837690211 -0.022449311703576048 0 0.0010538846882942596 -0.024886678556143141 0 0.001243733212322549 -0.027988897983931258 0 0.0012856921864985457 -0.027560832356019478 0 0.001243733212322549 -0.027988897983931258 0 0.0022793499686196506 -0.022300501981720792 0 0.0024303278872820251 -0.021949736068871614 0 0.0027125451837690211 -0.022449311703576048 0 0.0012856921864985457 -0.027560832356019478 0 0.00099064144176400776 -0.026348843690428406 0 0.00020392108893276423 -0.034740523463938536 0 0.00023093016127392955 -0.034780342207302681 0 0.00018327950273149099 -0.034770654503058399 0 0.0019757766083245733 -0.022063924483460846 0 0.0024303278872820251 -0.021949736068871614 0 0.0021485826451565601 -0.02145707654698225 0 0.00099064144176400776 -0.026348843690428406 0 2.973623727433866e-05 -0.028941167235048509 0 0.00023093016127392955 -0.034780342207302681 0 0.00018293074578479312 -0.034802447965265805 0 0.00018327950273149099 -0.034770654503058399 0 -2.3604921700875844e-07 -0.034844947415354779 0 -2.3588020540817926e-05 -0.034821459374714224 0 1.381191987606349e-05 -0.034821643327764204 0 -3.4878177921882055e-05 -0.034842855918434917 0 -2.3604921700875844e-07 -0.034844947415354779 0 -2.3588020540817926e-05 -0.034821459374714224 0 -3.4878177921882055e-05 -0.034842855918434917 0 -2.3588020540817926e-05 -0.034821459374714224 0 -6.2597929534056765e-05 -0.034804109572171324 0 0.00099064144176400776 -0.026348843690428406 0 0.0014605095554874642 -0.026510200890294364 0 -2.3588020540817926e-05 -0.034821459374714224 0 -1.7503729604339064e-05 -0.034797075398166601 0 -6.2597929534056765e-05 -0.034804109572171324 0 -2.3588020540817926e-05 -0.034821459374714224 0 -1.7503729604339064e-05 -0.034797075398166601 0 1.381191987606349e-05 -0.034821643327764204 0 -1.7503729604339064e-05 -0.034797075398166601 0 -3.191226573202297e-05 -0.034768596812292774 0 -5.4563806852884479e-05 -0.034768186239233931 0 -1.7503729604339064e-05 -0.034797075398166601 0 -3.191226573202297e-05 -0.034768596812292774 0 -4.379506262737699e-06 -0.03478221608915049 0 -3.191226573202297e-05 -0.034768596812292774 0 -2.0554373970771159e-05 -0.034764434691297995 0 -4.6909780651447037e-05 -0.034749126013862083 0 -3.191226573202297e-05 -0.034768596812292774 0 -4.379506262737699e-06 -0.03478221608915049 0 -2.0554373970771159e-05 -0.034764434691297995 0 -3.191226573202297e-05 -0.034768596812292774 0 -5.4563806852884479e-05 -0.034768186239233931 0 -5.0800377491299987e-05 -0.03474028291759701 0 -5.4563806852884479e-05 -0.034768186239233931 0 -5.0800377491299987e-05 -0.03474028291759701 0 -7.5079052395030525e-05 -0.034735202458145729 0 -1.7503729604339064e-05 -0.034797075398166601 0 -5.4563806852884479e-05 -0.034768186239233931 0 -6.2597929534056765e-05 -0.034804109572171324 0 0.0011461092330720274 -0.02082260456230027 0 0.0010571197417793832 -0.020948355496152465 0 0.0013929584618114679 -0.02125041101209928 0 -5.4563806852884479e-05 -0.034768186239233931 0 -8.9347782160363099e-05 -0.03475843973844215 0 -6.2597929534056765e-05 -0.034804109572171324 0 0.0015855858426370687 -0.025031289727122721 0 0.0014605095554874642 -0.026510200890294364 0 0.0015855858426370687 -0.025031289727122721 0 0.00070497479145672235 -0.026817690184839271 0 -5.4563806852884479e-05 -0.034768186239233931 0 -8.9347782160363099e-05 -0.03475843973844215 0 -7.5079052395030525e-05 -0.034735202458145729 0 0.0016312872600922411 -0.022904532143667257 0 0.0019394688750176826 -0.022452175625671807 0 0.0015941134359573907 -0.022336610478551702 0 0.0015855858426370687 -0.025031289727122721 0 0.00075334729534781242 -0.017507675622511109 0 0.0011478388956766036 -0.020815253694392799 0 0.00086874359998281316 -0.020842241679211809 0 0.00089807571246627513 -0.020387958182121326 0 0.0016312872600922411 -0.022904532143667257 0 0.0015941134359573907 -0.022336610478551702 0 0.0013085104205788375 -0.022342697559779308 0 0.0011478388956766036 -0.020815253694392799 0 0.0010571197417793832 -0.020948355496152465 0 0.00086874359998281316 -0.020842241679211809 0 0.0015855858426370687 -0.025031289727122721 0 0.0016628757155867072 -0.02483771782360096 0 0.0010571197417793832 -0.020948355496152465 0 0.0010835386672497114 -0.021265641927175612 0 0.00084226371186623664 -0.021274925616984262 0 0.0010571197417793832 -0.020948355496152465 0 0.0010835386672497114 -0.021265641927175612 0 0.0013929584618114679 -0.02125041101209928 0 0.0010424905636546278 -0.02158761152482638 0 0.001262594103354647 -0.021740794746284715 0 0.0013929584618114679 -0.02125041101209928 0 0.001262594103354647 -0.021740794746284715 0 0.0016357816390105242 -0.021678909891018398 0 0.0013929584618114679 -0.02125041101209928 0 0.0010424905636546278 -0.02158761152482638 0 0.0010835386672497114 -0.021265641927175612 0 0.0013929584618114679 -0.02125041101209928 0 0.0010424905636546278 -0.02158761152482638 0 0.0010835386672497114 -0.021265641927175612 0 0.00084226371186623664 -0.021274925616984262 0 0.00226450079918049 -0.016279589897937038 0 0.001967304787248771 -0.015161096370101863 0 0.00080815843449832774 -0.021697546658401141 0 0.0010424905636546278 -0.02158761152482638 0 0.00084226371186623664 -0.021274925616984262 0 0.0034113240443885604 -0.0077399494573367495 0 0.0032332304318419946 -0.0073863704281527491 0 0.0034646309400798423 -0.0070666851513656861 0 0.0032332304318419946 -0.0073863704281527491 0 0.0031711742573358702 -0.0071520070164505954 0 0.0034646309400798423 -0.0070666851513656861 0 0.00226450079918049 -0.016279589897937038 0 0.0011795350484309775 -0.011974055971637278 0 0.0034113240443885604 -0.0077399494573367495 0 0.0032332304318419946 -0.0073863704281527491 0 0.0029126152458352232 -0.0071535385299998002 0 0.0014543142659515815 -0.014570857081066495 0 0.0023556306964449816 -0.015025459277853224 0 0.001016951078862364 -0.01354992692371052 0 0.0029317316432685269 -0.0068048786138562413 0 0.0027942735741524074 -0.0067345140465212873 0 0.0028189327619990512 -0.0065530034010236734 0 0.0015962553668328334 -0.013246845833019662 0 0.0011795350484309775 -0.011974055971637278 0 0.0027942735741524074 -0.0067345140465212873 0 0.0028189327619990512 -0.0065530034010236734 0 0.0027299649169378057 -0.0066350603445496604 0 0.0032332304318419946 -0.0073863704281527491 0 0.0030981196398909526 -0.0071867653236515998 0 0.0031711742573358702 -0.0071520070164505954 0 0.0032332304318419946 -0.0073863704281527491 0 0.0029126152458352232 -0.0071535385299998002 0 0.0030981196398909526 -0.0071867653236515998 0 0.0030981196398909526 -0.0071867653236515998 0 0.0031711742573358702 -0.0071520070164505954 0 0.0030569459590955527 -0.0070673667689027742 0 0.0029126152458352232 -0.0071535385299998002 0 0.0030981196398909526 -0.0071867653236515998 0 0.0030569459590955527 -0.0070673667689027742 0 0.0030569459590955527 -0.0070673667689027742 0 0.0031532629339919177 -0.0069795718502752646 0 0.0029420889114793432 -0.0068323038765941207 0 0.0031711742573358702 -0.0071520070164505954 0 0.0030569459590955527 -0.0070673667689027742 0 0.0031532629339919177 -0.0069795718502752646 0 0.0029126152458352232 -0.0071535385299998002 0 0.0030569459590955527 -0.0070673667689027742 0 0.0029420889114793432 -0.0068323038765941207 0 0.0031532629339919177 -0.0069795718502752646 0 0.0029420889114793432 -0.0068323038765941207 0 0.0031606754886686606 -0.0066902080382021719 0 0.0031532629339919177 -0.0069795718502752646 0 0.0034646309400798423 -0.0070666851513656861 0 0.0031606754886686606 -0.0066902080382021719 0 0.0034646309400798423 -0.0070666851513656861 0 0.0034821582369391705 -0.0064555270688345153 0 0.0031606754886686606 -0.0066902080382021719 0 0.001967304787248771 -0.015161096370101863 0 0.0015273108582434729 -0.015286740082489389 0 0.0031711742573358702 -0.0071520070164505954 0 0.0031532629339919177 -0.0069795718502752646 0 0.0034646309400798423 -0.0070666851513656861 0 0.0010571197417793832 -0.020948355496152465 0 0.00084226371186623664 -0.021274925616984262 0 0.00086874359998281316 -0.020842241679211809 0 0.0034821582369391705 -0.0064555270688345153 0 0.0031147263239862761 -0.0062407822920844637 0 0.0031606754886686606 -0.0066902080382021719 0 0.0015273108582434729 -0.015286740082489389 0 0.00075334729534781242 -0.017507675622511109 0 0.0034821582369391705 -0.0064555270688345153 0 0.0031147263239862761 -0.0062407822920844637 0 0.0034992005618179325 -0.0059097703775843309 0 0.0031147263239862761 -0.0062407822920844637 0 0.0028908336846555959 -0.006472563263269223 0 0.0027156116895753935 -0.0060467805852521097 0 0.0031147263239862761 -0.0062407822920844637 0 0.0027156116895753935 -0.0060467805852521097 0 0.0031335749520409219 -0.0058793326304074122 0 0.0031147263239862761 -0.0062407822920844637 0 0.0028908336846555959 -0.006472563263269223 0 0.0031606754886686606 -0.0066902080382021719 0 0.0029420889114793432 -0.0068323038765941207 0 0.0028908336846555959 -0.006472563263269223 0 0.0031606754886686606 -0.0066902080382021719 0 0.0028908336846555959 -0.006472563263269223 0 0.0025274970378532718 -0.0065704958884461977 0 0.0027156116895753935 -0.0060467805852521097 0 0.0029420889114793432 -0.0068323038765941207 0 0.0028908336846555959 -0.006472563263269223 0 0.0025274970378532718 -0.0065704958884461977 0 0.00084822400217666604 -0.0091455162421482886 0 0.00080626489773217343 -0.0083817593342243799 0 0.0025274970378532718 -0.0065704958884461977 0 0.0027156116895753935 -0.0060467805852521097 0 0.0021775136998106073 -0.0059910565716190722 0 0.0024684104347433788 -0.0062086134324142433 0 0.0020726087632381737 -0.0061858135829396402 0 0.0021775136998106073 -0.0059910565716190722 0 0.0024684104347433788 -0.0062086134324142433 0 0.0022274756912735319 -0.0064183965121598656 0 0.0020726087632381737 -0.0061858135829396402 0 0.0024684104347433788 -0.0062086134324142433 0 0.0022274756912735319 -0.0064183965121598656 0 0.0024441198722231243 -0.0064891270653877047 0 0.0029126152458352232 -0.0071535385299998002 0 0.0029420889114793432 -0.0068323038765941207 0 0.0025274970378532718 -0.0065704958884461977 0 0.0011795350484309775 -0.011974055971637278 0 0.00084822400217666604 -0.0091455162421482886 0 0.0024684104347433788 -0.0062086134324142433 0 0.0024441198722231243 -0.0064891270653877047 0 0.0026225690606840541 -0.0065679007810676019 0 0.0028189327619990512 -0.0065530034010236734 0 0.0024684104347433788 -0.0062086134324142433 0 0.0026225690606840541 -0.0065679007810676019 0 0.0024441198722231243 -0.0064891270653877047 0 0.0026225690606840541 -0.0065679007810676019 0 0.0025388517783565732 -0.0065965039039831211 0 0.0025388517783565732 -0.0065965039039831211 0 0.0026487393717279117 -0.0066412534640998598 0 0.0025924727714005261 -0.0066669956874798458 0 0.0026225690606840541 -0.0065679007810676019 0 0.0025388517783565732 -0.0065965039039831211 0 0.0026487393717279117 -0.0066412534640998598 0 0.0025388517783565732 -0.0065965039039831211 0 0.0025924727714005261 -0.0066669956874798458 0 0.0025007946302318795 -0.0066596956393108466 0 0.0028189327619990512 -0.0065530034010236734 0 0.0026225690606840541 -0.0065679007810676019 0 0.0027299649169378057 -0.0066350603445496604 0 0.0026225690606840541 -0.0065679007810676019 0 0.0026487393717279117 -0.0066412534640998598 0 0.0027299649169378057 -0.0066350603445496604 0 0.0027942735741524074 -0.0067345140465212873 0 0.0027299649169378057 -0.0066350603445496604 0 0.0026783158681430081 -0.0067708176529515671 0 0.0026487393717279117 -0.0066412534640998598 0 0.0027299649169378057 -0.0066350603445496604 0 0.0026783158681430081 -0.0067708176529515671 0 0.0026487393717279117 -0.0066412534640998598 0 0.0026783158681430081 -0.0067708176529515671 0 0.0025924727714005261 -0.0066669956874798458 0 0.0026783158681430081 -0.0067708176529515671 0 0.0025924727714005261 -0.0066669956874798458 0 0.0025007946302318795 -0.0066596956393108466 0 0.0024066559882690705 -0.0069758341147883856 0 0.0025207495864113146 -0.0068928653222406445 0 0.00230074386114278 -0.0067436307170974322 0 0.0022274756912735319 -0.0064183965121598656 0 0.0024441198722231243 -0.0064891270653877047 0 0.00230074386114278 -0.0067436307170974322 0 0.0025207495864113146 -0.0068928653222406445 0 0.0025007946302318795 -0.0066596956393108466 0 0.00230074386114278 -0.0067436307170974322 0 0.0024441198722231243 -0.0064891270653877047 0 0.0025388517783565732 -0.0065965039039831211 0 0.0025007946302318795 -0.0066596956393108466 0 0.0024441198722231243 -0.0064891270653877047 0 0.0025007946302318795 -0.0066596956393108466 0 0.00230074386114278 -0.0067436307170974322 0 0.00012223038560810437 -0.034889262477900612 0 0.00025759144446428644 -0.034948603940600523 0 0.00029419649782553718 -0.034715300968106155 0 0.00012223038560810437 -0.034889262477900612 0 0.00025759144446428644 -0.034948603940600523 0 1.7967091220954065e-05 -0.035022560756659597 0 -8.6152399335042123e-05 -0.033957896644453416 0 -7.3084266473452726e-05 -0.033032917009529109 0 0.00025759144446428644 -0.034948603940600523 0 0.00029419649782553718 -0.034715300968106155 0 0.00051814531486966552 -0.034836549413140946 0 4.4624697734075098e-05 -0.034843219602075051 0 5.229395380538022e-05 -0.034864580061257408 0 6.2364516816131369e-05 -0.03483828463697719 0 4.4624697734075098e-05 -0.034843219602075051 0 5.229395380538022e-05 -0.034864580061257408 0 3.3575474900800315e-05 -0.034896491411617436 0 5.229395380538022e-05 -0.034864580061257408 0 3.3575474900800315e-05 -0.034896491411617436 0 4.211041415630438e-05 -0.034911138931981257 0 -8.6152399335042123e-05 -0.033957896644453416 0 -5.2026484972173741e-05 -0.034549967215916862 0 4.4624697734075098e-05 -0.034843219602075051 0 3.3575474900800315e-05 -0.034896491411617436 0 7.7055563050485508e-06 -0.034918302589491426 0 1.7967091220954065e-05 -0.035022560756659597 0 8.7849911604704422e-07 -0.034994814696609207 0 8.4652726664863162e-06 -0.034976465009505103 0 -5.2026484972173741e-05 -0.034549967215916862 0 -2.6844845041850991e-07 -0.034998928928779371 0 8.7849911604704422e-07 -0.034994814696609207 0 5.7906903088975253e-09 -0.034999981024894204 0 -1.6535152987451552e-08 -0.035000017921007244 0 1.7967091220954065e-05 -0.035022560756659597 0 8.7849911604704422e-07 -0.034994814696609207 0 -1.6535152987451552e-08 -0.035000017921007244 0 8.7849911604704422e-07 -0.034994814696609207 0 4.0085550414030266e-06 -0.034993501614324185 0 5.7906903088975253e-09 -0.034999981024894204 0 0.00012223038560810437 -0.034889262477900612 0 8.4652726664863162e-06 -0.034976465009505103 0 4.7929941019171895e-05 -0.034733324097839788 0 4.0085550414030266e-06 -0.034993501614324185 0 8.4652726664863162e-06 -0.034976465009505103 0 -1.8134703378472529e-06 -0.034996702073327307 0 8.7849911604704422e-07 -0.034994814696609207 0 4.0085550414030266e-06 -0.034993501614324185 0 8.4652726664863162e-06 -0.034976465009505103 0 0.00012223038560810437 -0.034889262477900612 0 1.7967091220954065e-05 -0.035022560756659597 0 8.4652726664863162e-06 -0.034976465009505103 0 5.9136915745565272e-05 -0.03473245332046062 0 8.5751895461561319e-05 -0.034630039302210258 0 4.0085550414030266e-06 -0.034993501614324185 0 -1.8134703378472529e-06 -0.034996702073327307 0 1.2124252524648821e-06 -0.034998684044795052 0 4.0085550414030266e-06 -0.034993501614324185 0 3.7583269873725408e-09 -0.034999998139804471 0 1.2124252524648821e-06 -0.034998684044795052 0 4.0085550414030266e-06 -0.034993501614324185 0 5.7906903088975253e-09 -0.034999981024894204 0 3.7583269873725408e-09 -0.034999998139804471 0 -1.9495768825826481e-09 -0.034999995692156373 0 3.7583269873725408e-09 -0.034999998139804471 0 6.6849618790215443e-07 -0.034999579514909403 0 3.7583269873725408e-09 -0.034999998139804471 0 1.2124252524648821e-06 -0.034998684044795052 0 6.6849618790215443e-07 -0.034999579514909403 0 -1.8134703378472529e-06 -0.034996702073327307 0 1.2124252524648821e-06 -0.034998684044795052 0 1.5246633696889061e-06 -0.034999285614753788 0 -1.8134703378472529e-06 -0.034996702073327307 0 1.5246633696889061e-06 -0.034999285614753788 0 -3.6003680477043638e-07 -0.034998809140752887 0 1.2124252524648821e-06 -0.034998684044795052 0 6.6849618790215443e-07 -0.034999579514909403 0 1.5246633696889061e-06 -0.034999285614753788 0 0.00015688770700982401 -0.034310440891231794 0 0.00017589525421868966 -0.034290597727054263 0 4.7929941019171895e-05 -0.034733324097839788 0 0.00010958610488578061 -0.034493046529952713 0 0.00029419649782553718 -0.034715300968106155 0 8.5751895461561319e-05 -0.034630039302210258 0 0.00017589525421868966 -0.034290597727054263 0 0.00012223038560810437 -0.034889262477900612 0 4.7929941019171895e-05 -0.034733324097839788 0 0.00029419649782553718 -0.034715300968106155 0 0.00010958610488578061 -0.034493046529952713 0 0.00029419649782553718 -0.034715300968106155 0 0.00042428167754028423 -0.034483236808433508 0 0.00017589525421868966 -0.034290597727054263 0 0.00042907569000411033 -0.0332312227033379 0 0.00029419649782553718 -0.034715300968106155 0 0.00042428167754028423 -0.034483236808433508 0 0.00058388275911711897 -0.034626877967601229 0 0.00073968321551839413 -0.034472223502318704 0 0.00042428167754028423 -0.034483236808433508 0 0.00058388275911711897 -0.034626877967601229 0 0.00073968321551839413 -0.034472223502318704 0 0.00058388275911711897 -0.034626877967601229 0 0.00077570468367020779 -0.03472370911377775 0 0.00083313412343512206 -0.031536891081493525 0 0.00042907569000411033 -0.0332312227033379 0 0.00058388275911711897 -0.034626877967601229 0 0.00077570468367020779 -0.03472370911377775 0 0.00051814531486966552 -0.034836549413140946 0 0.00011619349025893104 -0.034736082886155387 0 0.00011508001459259147 -0.034728024728044211 0 6.6684634062034784e-05 -0.034785168259304555 0 0.00016994780800620043 -0.031427951013431127 0 -7.3084266473452726e-05 -0.033032917009529109 0 0.00029419649782553718 -0.034715300968106155 0 0.00058388275911711897 -0.034626877967601229 0 0.00051814531486966552 -0.034836549413140946 0 0.00084230517050548582 -0.02973375598734403 0 0.00080436510467545345 -0.029665764320431325 0 0.00091143672296574722 -0.029623502151339243 0 0.00052377067746969526 -0.026980822998451844 0 0.00096554208783267105 -0.026970987962021759 0 0.00073383874009765179 -0.027348514532280471 0 0.0013622084497366892 -0.02940351623188267 0 0.001243733212322549 -0.027988897983931258 0 0.00092835725521278178 -0.029734875416546621 0 0.00084230517050548582 -0.02973375598734403 0 0.00091143672296574722 -0.029623502151339243 0 0.00083313412343512206 -0.031536891081493525 0 0.00016994780800620043 -0.031427951013431127 0 0.00011564716689454439 -0.034725934208877519 0 0.00015782349992217511 -0.034731033760422601 0 0.0001360632930112366 -0.034745023499004324 0 0.00011619349025893104 -0.034736082886155387 0 0.00011564716689454439 -0.034725934208877519 0 0.0001360632930112366 -0.034745023499004324 0 0.00017246707972729574 -0.031452343640822757 0 0.00016994780800620043 -0.031427951013431127 0 0.00020392108893276423 -0.034740523463938536 0 0.00017730544502736196 -0.034687039784757998 0 0.00015782349992217511 -0.034731033760422601 0 0.001243733212322549 -0.027988897983931258 0 0.00016994780800620043 -0.031427951013431127 0 0.00017730544502736196 -0.034687039784757998 0 0.00011564716689454439 -0.034725934208877519 0 0.00015782349992217511 -0.034731033760422601 0 0.00020392108893276423 -0.034740523463938536 0 0.00018327950273149099 -0.034770654503058399 0 0.00015782349992217511 -0.034731033760422601 0 0.00018327950273149099 -0.034770654503058399 0 0.00015782349992217511 -0.034731033760422601 0 0.00014752583808219145 -0.034776440466807446 0 0.00015782349992217511 -0.034731033760422601 0 0.00014752583808219145 -0.034776440466807446 0 0.0001360632930112366 -0.034745023499004324 0 0.00011619349025893104 -0.034736082886155387 0 0.00012261862779239282 -0.034770599046967214 0 9.2217678047354701e-05 -0.034796757240385043 0 0.00014752583808219145 -0.034776440466807446 0 0.0001360632930112366 -0.034745023499004324 0 0.00012261862779239282 -0.034770599046967214 0 0.00014752583808219145 -0.034776440466807446 0 0.00012261862779239282 -0.034770599046967214 0 0.0001190574800825792 -0.03479704400329512 0 0.00011619349025893104 -0.034736082886155387 0 0.0001360632930112366 -0.034745023499004324 0 0.00012261862779239282 -0.034770599046967214 0 0.00012261862779239282 -0.034770599046967214 0 0.0001190574800825792 -0.03479704400329512 0 9.2217678047354701e-05 -0.034796757240385043 0 0.00014752583808219145 -0.034776440466807446 0 0.0001190574800825792 -0.03479704400329512 0 0.00012845254248146503 -0.034825957833847399 0 0.0001190574800825792 -0.03479704400329512 0 6.9390083714516301e-05 -0.034839570320129236 0 0.00012845254248146503 -0.034825957833847399 0 0.00018293074578479312 -0.034802447965265805 0 0.00014752583808219145 -0.034776440466807446 0 0.00012845254248146503 -0.034825957833847399 0 0.00018293074578479312 -0.034802447965265805 0 0.00018327950273149099 -0.034770654503058399 0 0.00014752583808219145 -0.034776440466807446 0 6.6684634062034784e-05 -0.034785168259304555 0 9.2217678047354701e-05 -0.034796757240385043 0 6.2364516816131369e-05 -0.03483828463697719 0 4.4624697734075098e-05 -0.034843219602075051 0 6.6684634062034784e-05 -0.034785168259304555 0 6.2364516816131369e-05 -0.03483828463697719 0 0.00011619349025893104 -0.034736082886155387 0 6.6684634062034784e-05 -0.034785168259304555 0 9.2217678047354701e-05 -0.034796757240385043 0 9.2217678047354701e-05 -0.034796757240385043 0 6.2364516816131369e-05 -0.03483828463697719 0 6.9390083714516301e-05 -0.034839570320129236 0 0.0001190574800825792 -0.03479704400329512 0 9.2217678047354701e-05 -0.034796757240385043 0 6.9390083714516301e-05 -0.034839570320129236 0 6.2364516816131369e-05 -0.03483828463697719 0 6.9390083714516301e-05 -0.034839570320129236 0 6.8221252094839669e-05 -0.034837650997169914 0 6.9390083714516301e-05 -0.034839570320129236 0 5.9408032592964729e-05 -0.034824314316441431 0 4.4272966208354833e-05 -0.034828317314391746 0 6.9390083714516301e-05 -0.034839570320129236 0 5.9408032592964729e-05 -0.034824314316441431 0 6.8221252094839669e-05 -0.034837650997169914 0 5.9408032592964729e-05 -0.034824314316441431 0 6.8221252094839669e-05 -0.034837650997169914 0 6.3786444957113827e-05 -0.034816048182618353 0 5.8023973101428968e-05 -0.0348668707218436 0 6.0739637195614424e-05 -0.034868213394391161 0 5.5194908745334517e-05 -0.03493487720281252 0 4.5535108372039834e-05 -0.034916073417577735 0 4.6485416398416554e-05 -0.034935876298071586 0 2.973623727433866e-05 -0.028941167235048509 0 -0.00028218735908031565 -0.030285192914511802 0 -2.3604921700875844e-07 -0.034844947415354779 0 3.441774968756728e-05 -0.034845217586458317 0 1.381191987606349e-05 -0.034821643327764204 0 -0.00035243184480425715 -0.030701359814759507 0 -0.00028218735908031565 -0.030285192914511802 0 6.9390083714516301e-05 -0.034839570320129236 0 3.441774968756728e-05 -0.034845217586458317 0 4.4272966208354833e-05 -0.034828317314391746 0 3.441774968756728e-05 -0.034845217586458317 0 4.4272966208354833e-05 -0.034828317314391746 0 1.381191987606349e-05 -0.034821643327764204 0 5.9408032592964729e-05 -0.034824314316441431 0 4.4272966208354833e-05 -0.034828317314391746 0 3.9466674897709812e-05 -0.034816632171563722 0 4.4272966208354833e-05 -0.034828317314391746 0 1.381191987606349e-05 -0.034821643327764204 0 3.9466674897709812e-05 -0.034816632171563722 0 -1.7503729604339064e-05 -0.034797075398166601 0 1.381191987606349e-05 -0.034821643327764204 0 1.4785389227040597e-05 -0.034800102026911618 0 1.381191987606349e-05 -0.034821643327764204 0 1.4785389227040597e-05 -0.034800102026911618 0 3.9466674897709812e-05 -0.034816632171563722 0 -1.7503729604339064e-05 -0.034797075398166601 0 1.4785389227040597e-05 -0.034800102026911618 0 -4.379506262737699e-06 -0.03478221608915049 0 5.9408032592964729e-05 -0.034824314316441431 0 3.9466674897709812e-05 -0.034816632171563722 0 5.5992149940960495e-05 -0.034809150564874859 0 1.4785389227040597e-05 -0.034800102026911618 0 3.9466674897709812e-05 -0.034816632171563722 0 5.5992149940960495e-05 -0.034809150564874859 0 5.5992149940960495e-05 -0.034809150564874859 0 2.0926248601175808e-05 -0.034784021296286896 0 6.3700901044839818e-05 -0.034794056123163601 0 5.5992149940960495e-05 -0.034809150564874859 0 6.9387656341363398e-05 -0.034828558275581782 0 6.3700901044839818e-05 -0.034794056123163601 0 1.4785389227040597e-05 -0.034800102026911618 0 5.5992149940960495e-05 -0.034809150564874859 0 2.0926248601175808e-05 -0.034784021296286896 0 1.4785389227040597e-05 -0.034800102026911618 0 2.0926248601175808e-05 -0.034784021296286896 0 -4.379506262737699e-06 -0.03478221608915049 0 2.0926248601175808e-05 -0.034784021296286896 0 -4.379506262737699e-06 -0.03478221608915049 0 -2.0554373970771159e-05 -0.034764434691297995 0 5.9408032592964729e-05 -0.034824314316441431 0 5.5992149940960495e-05 -0.034809150564874859 0 6.3786444957113827e-05 -0.034816048182618353 0 6.0739637195614424e-05 -0.034868213394391161 0 6.1765589635706501e-05 -0.034865710066996784 0 5.5992149940960495e-05 -0.034809150564874859 0 6.3786444957113827e-05 -0.034816048182618353 0 6.9387656341363398e-05 -0.034828558275581782 0 4.5535108372039834e-05 -0.034916073417577735 0 4.9780486929642137e-05 -0.034914073783274498 0 6.9387656341363398e-05 -0.034828558275581782 0 4.9780486929642137e-05 -0.034914073783274498 0 2.8333215990471319e-05 -0.034954224311698319 0 2.2444049736969386e-05 -0.034957243058644796 0 4.9780486929642137e-05 -0.034914073783274498 0 2.8333215990471319e-05 -0.034954224311698319 0 4.6485416398416554e-05 -0.034935876298071586 0 4.5535108372039834e-05 -0.034916073417577735 0 4.9780486929642137e-05 -0.034914073783274498 0 4.6485416398416554e-05 -0.034935876298071586 0 5.5194908745334517e-05 -0.03493487720281252 0 4.6485416398416554e-05 -0.034935876298071586 0 2.8824700603547982e-05 -0.034936711765640116 0 2.8333215990471319e-05 -0.034954224311698319 0 4.6485416398416554e-05 -0.034935876298071586 0 2.8824700603547982e-05 -0.034936711765640116 0 3.3575474900800315e-05 -0.034896491411617436 0 2.8824700603547982e-05 -0.034936711765640116 0 4.211041415630438e-05 -0.034911138931981257 0 3.3575474900800315e-05 -0.034896491411617436 0 7.7055563050485508e-06 -0.034918302589491426 0 2.8824700603547982e-05 -0.034936711765640116 0 5.5126514086275205e-05 -0.034861909837551434 0 5.8023973101428968e-05 -0.0348668707218436 0 5.229395380538022e-05 -0.034864580061257408 0 6.2364516816131369e-05 -0.03483828463697719 0 6.8221252094839669e-05 -0.034837650997169914 0 5.229395380538022e-05 -0.034864580061257408 0 5.5194908745334517e-05 -0.03493487720281252 0 4.211041415630438e-05 -0.034911138931981257 0 5.5194908745334517e-05 -0.03493487720281252 0 2.8824700603547982e-05 -0.034936711765640116 0 4.211041415630438e-05 -0.034911138931981257 0 7.7055563050485508e-06 -0.034918302589491426 0 -1.886209116144344e-08 -0.034999868804836312 0 8.6386976327643751e-06 -0.034969700859640705 0 7.7055563050485508e-06 -0.034918302589491426 0 2.8824700603547982e-05 -0.034936711765640116 0 8.6386976327643751e-06 -0.034969700859640705 0 2.8333215990471319e-05 -0.034954224311698319 0 2.8824700603547982e-05 -0.034936711765640116 0 8.6386976327643751e-06 -0.034969700859640705 0 8.6386976327643751e-06 -0.034969700859640705 0 1.3760954464952609e-08 -0.034999977370259082 0 1.1876207698171566e-05 -0.034977826014903658 0 -1.886209116144344e-08 -0.034999868804836312 0 8.6386976327643751e-06 -0.034969700859640705 0 1.3760954464952609e-08 -0.034999977370259082 0 1.3760954464952609e-08 -0.034999977370259082 0 1.1876207698171566e-05 -0.034977826014903658 0 1.0963977086211317e-08 -0.034999953060346041 0 2.8333215990471319e-05 -0.034954224311698319 0 8.6386976327643751e-06 -0.034969700859640705 0 1.1876207698171566e-05 -0.034977826014903658 0 2.8333215990471319e-05 -0.034954224311698319 0 1.1876207698171566e-05 -0.034977826014903658 0 2.2444049736969386e-05 -0.034957243058644796 0 1.1876207698171566e-05 -0.034977826014903658 0 2.2444049736969386e-05 -0.034957243058644796 0 1.0963977086211317e-08 -0.034999953060346041 0 1.0963977086211317e-08 -0.034999953060346041 0 1.3825702078964363e-05 -0.034968556842899019 0 6.1550855789105029e-09 -0.034999960132640479 0 2.2444049736969386e-05 -0.034957243058644796 0 1.0963977086211317e-08 -0.034999953060346041 0 1.3825702078964363e-05 -0.034968556842899019 0 2.2444049736969386e-05 -0.034957243058644796 0 1.3825702078964363e-05 -0.034968556842899019 0 3.3149051992286226e-05 -0.034932319055584596 0 1.3825702078964363e-05 -0.034968556842899019 0 3.3149051992286226e-05 -0.034932319055584596 0 1.2456932612872563e-05 -0.034973246441379092 0 1.3825702078964363e-05 -0.034968556842899019 0 6.1550855789105029e-09 -0.034999960132640479 0 1.2456932612872563e-05 -0.034973246441379092 0 4.9780486929642137e-05 -0.034914073783274498 0 3.3149051992286226e-05 -0.034932319055584596 0 6.0254579981112564e-05 -0.034872537713954974 0 4.9780486929642137e-05 -0.034914073783274498 0 2.2444049736969386e-05 -0.034957243058644796 0 3.3149051992286226e-05 -0.034932319055584596 0 3.3149051992286226e-05 -0.034932319055584596 0 4.0315756414511704e-05 -0.034930019224334932 0 1.2456932612872563e-05 -0.034973246441379092 0 3.3149051992286226e-05 -0.034932319055584596 0 4.0315756414511704e-05 -0.034930019224334932 0 6.0254579981112564e-05 -0.034872537713954974 0 4.0315756414511704e-05 -0.034930019224334932 0 4.2463783192403641e-05 -0.034970269290436701 0 8.0116678516805204e-05 -0.034907110501876719 0 4.0315756414511704e-05 -0.034930019224334932 0 4.2463783192403641e-05 -0.034970269290436701 0 1.2456932612872563e-05 -0.034973246441379092 0 4.2463783192403641e-05 -0.034970269290436701 0 1.2456932612872563e-05 -0.034973246441379092 0 1.7335218120146984e-05 -0.034996830920299135 0 6.1550855789105029e-09 -0.034999960132640479 0 1.2456932612872563e-05 -0.034973246441379092 0 1.0666909816324943e-09 -0.034999977243286497 0 1.2456932612872563e-05 -0.034973246441379092 0 4.7551229226938694e-06 -0.034997633492499056 0 1.7335218120146984e-05 -0.034996830920299135 0 1.2456932612872563e-05 -0.034973246441379092 0 1.0666909816324943e-09 -0.034999977243286497 0 4.7551229226938694e-06 -0.034997633492499056 0 1.0666909816324943e-09 -0.034999977243286497 0 4.7551229226938694e-06 -0.034997633492499056 0 2.5037533756540219e-09 -0.03500001526561989 0 4.7551229226938694e-06 -0.034997633492499056 0 2.5037533756540219e-09 -0.03500001526561989 0 2.7480017857563193e-06 -0.03500406747866245 0 4.5509610482177468e-07 -0.034999237510930425 0 6.2366287972070796e-05 -0.03487620112054033 0 7.5105044986731676e-11 -0.035000000003917238 0 -2.0539975854752666e-08 -0.034999866564462898 0 -1.2381136900129316e-10 -0.034999999665311032 0 5.169702856792772e-07 -0.035000201582770341 0 6.8050722363042873e-09 -0.03499998868941815 0 4.7357947829480081e-07 -0.03499971211551018 0 6.2366287972070796e-05 -0.03487620112054033 0 7.3090520777768133e-08 -0.034999416833714353 0 0.0010238928431312946 -0.03406436052528896 0 0.00084363886950052623 -0.034066575771761171 0 0.00082421584243483283 -0.034200633787056747 0 0.0010238928431312946 -0.03406436052528896 0 0.00084363886950052623 -0.034066575771761171 0 0.0008359231374343712 -0.033932100936615604 0 5.169702856792772e-07 -0.035000201582770341 0 4.7357947829480081e-07 -0.03499971211551018 0 -1.5260280445832846e-06 -0.034999652489453401 0 6.2366287972070796e-05 -0.03487620112054033 0 0.00017038670400448523 -0.034717002560911765 0 6.2366287972070796e-05 -0.03487620112054033 0 0.00027908402231238374 -0.034715136162811161 0 4.7551229226938694e-06 -0.034997633492499056 0 2.7480017857563193e-06 -0.03500406747866245 0 1.7335218120146984e-05 -0.034996830920299135 0 0.00028737450572239979 -0.034700349150376661 0 0.00027908402231238374 -0.034715136162811161 0 0.00063329933153778446 -0.034343402692536995 0 0.00082421584243483283 -0.034200633787056747 0 0.00068966637000193471 -0.034069341011766827 0 0.00063329933153778446 -0.034343402692536995 0 0.00068966637000193471 -0.034069341011766827 0 0.00050555136213196572 -0.034157606014749792 0 0.00068966637000193471 -0.034069341011766827 0 0.00050717895000803822 -0.033989386388633351 0 0.00050555136213196572 -0.034157606014749792 0 0.00084363886950052623 -0.034066575771761171 0 0.00068966637000193471 -0.034069341011766827 0 0.0008359231374343712 -0.033932100936615604 0 0.00084363886950052623 -0.034066575771761171 0 0.00082421584243483283 -0.034200633787056747 0 0.00068966637000193471 -0.034069341011766827 0 0.00016842402373595859 -0.034592038844610616 0 0.00017038670400448523 -0.034717002560911765 0 -8.2018914229806174e-06 -0.034995815238476821 0 -1.4214988862598272e-06 -0.034995945033364201 0 -1.5260280445832846e-06 -0.034999652489453401 0 0.00068966637000193471 -0.034069341011766827 0 0.00063809557474880821 -0.033799450166544495 0 0.0008359231374343712 -0.033932100936615604 0 0.00063809557474880821 -0.033799450166544495 0 0.00046779165233768626 -0.033814880107567183 0 0.00050717895000803822 -0.033989386388633351 0 0.00068966637000193471 -0.034069341011766827 0 0.00063809557474880821 -0.033799450166544495 0 0.00050717895000803822 -0.033989386388633351 0 0.00063809557474880821 -0.033799450166544495 0 0.00046779165233768626 -0.033814880107567183 0 0.00043814150455647019 -0.033683270406430037 0 0.00016842402373595859 -0.034592038844610616 0 0.00011656689318998077 -0.034509664357745183 0 -8.2018914229806174e-06 -0.034995815238476821 0 -1.4214988862598272e-06 -0.034995945033364201 0 -4.328564281719966e-06 -0.034989856069979709 0 -1.4214988862598272e-06 -0.034995945033364201 0 2.4490922674025787e-06 -0.034995481462007635 0 9.1170790019214038e-07 -0.034999070019929482 0 -1.4214988862598272e-06 -0.034995945033364201 0 2.4490922674025787e-06 -0.034995481462007635 0 -4.328564281719966e-06 -0.034989856069979709 0 -8.7000697257434993e-09 -0.03500001781589409 0 2.4490922674025787e-06 -0.034995481462007635 0 9.1170790019214038e-07 -0.034999070019929482 0 6.8050722363042873e-09 -0.03499998868941815 0 -8.7000697257434993e-09 -0.03500001781589409 0 9.1170790019214038e-07 -0.034999070019929482 0 6.8050722363042873e-09 -0.03499998868941815 0 9.1170790019214038e-07 -0.034999070019929482 0 4.7357947829480081e-07 -0.03499971211551018 0 9.1170790019214038e-07 -0.034999070019929482 0 4.7357947829480081e-07 -0.03499971211551018 0 -1.5260280445832846e-06 -0.034999652489453401 0 -1.4214988862598272e-06 -0.034995945033364201 0 9.1170790019214038e-07 -0.034999070019929482 0 -1.5260280445832846e-06 -0.034999652489453401 0 0.00022206216908575468 -0.033931794861884065 0 8.7121438836022542e-05 -0.033895493166774128 0 0.00016911345167375428 -0.033825120259745878 0 8.7121438836022542e-05 -0.033895493166774128 0 8.3051834176601087e-05 -0.033807406808752917 0 0.00016911345167375428 -0.033825120259745878 0 0.00022206216908575468 -0.033931794861884065 0 0.00016911345167375428 -0.033825120259745878 0 0.0002678322250727158 -0.033827315022873873 0 8.7121438836022542e-05 -0.033895493166774128 0 8.3051834176601087e-05 -0.033807406808752917 0 -1.3635401463225955e-05 -0.033823842789118042 0 8.7121438836022542e-05 -0.033895493166774128 0 -7.1196520722484089e-06 -0.033925526503808777 0 -1.3635401463225955e-05 -0.033823842789118042 0 8.3051834176601087e-05 -0.033807406808752917 0 4.4001249569351555e-05 -0.033747751570580888 0 -1.3635401463225955e-05 -0.033823842789118042 0 8.3051834176601087e-05 -0.033807406808752917 0 4.4001249569351555e-05 -0.033747751570580888 0 0.00014539492730284735 -0.033741224365732236 0 8.3051834176601087e-05 -0.033807406808752917 0 0.00014539492730284735 -0.033741224365732236 0 0.00016911345167375428 -0.033825120259745878 0 0.00016911345167375428 -0.033825120259745878 0 0.00021549678466721735 -0.033751860139014531 0 0.0002678322250727158 -0.033827315022873873 0 0.00014539492730284735 -0.033741224365732236 0 0.00016911345167375428 -0.033825120259745878 0 0.00021549678466721735 -0.033751860139014531 0 0.00014539492730284735 -0.033741224365732236 0 0.00021549678466721735 -0.033751860139014531 0 0.00021169422252631141 -0.033696732701707185 0 0.00021549678466721735 -0.033751860139014531 0 0.00029826783475718542 -0.03374842980368252 0 0.00026119531576322235 -0.033697003442981648 0 0.00029826783475718542 -0.03374842980368252 0 0.00032687944142723632 -0.03369677233335288 0 0.00026119531576322235 -0.033697003442981648 0 0.00029826783475718542 -0.03374842980368252 0 0.00035508371978922097 -0.033806619367340307 0 0.00037148519616344466 -0.033740851718241677 0 0.00029826783475718542 -0.03374842980368252 0 0.00037148519616344466 -0.033740851718241677 0 0.00032687944142723632 -0.03369677233335288 0 0.00029826783475718542 -0.03374842980368252 0 0.00035508371978922097 -0.033806619367340307 0 0.0002678322250727158 -0.033827315022873873 0 0.00021549678466721735 -0.033751860139014531 0 0.00029826783475718542 -0.03374842980368252 0 0.0002678322250727158 -0.033827315022873873 0 0.00037148519616344466 -0.033740851718241677 0 0.00046779165233768626 -0.033814880107567183 0 0.00043814150455647019 -0.033683270406430037 0 0.00035508371978922097 -0.033806619367340307 0 0.00037148519616344466 -0.033740851718241677 0 0.00046779165233768626 -0.033814880107567183 0 0.00046779165233768626 -0.033814880107567183 0 0.0003554013888164784 -0.033906925804082055 0 0.00050717895000803822 -0.033989386388633351 0 0.00035508371978922097 -0.033806619367340307 0 0.00046779165233768626 -0.033814880107567183 0 0.0003554013888164784 -0.033906925804082055 0 0.00022206216908575468 -0.033931794861884065 0 0.0002678322250727158 -0.033827315022873873 0 0.0003554013888164784 -0.033906925804082055 0 0.00035508371978922097 -0.033806619367340307 0 0.0002678322250727158 -0.033827315022873873 0 0.0003554013888164784 -0.033906925804082055 0 0.00022206216908575468 -0.033931794861884065 0 0.0003554013888164784 -0.033906925804082055 0 0.00032652715062177478 -0.03409300564156699 0 0.0003554013888164784 -0.033906925804082055 0 0.00032652715062177478 -0.03409300564156699 0 0.00050717895000803822 -0.033989386388633351 0 0.00032652715062177478 -0.03409300564156699 0 0.00050717895000803822 -0.033989386388633351 0 0.00050555136213196572 -0.034157606014749792 0 0.00063329933153778446 -0.034343402692536995 0 0.00050555136213196572 -0.034157606014749792 0 0.00039031062540123302 -0.034297510206067534 0 0.00032652715062177478 -0.03409300564156699 0 0.00050555136213196572 -0.034157606014749792 0 0.00039031062540123302 -0.034297510206067534 0 0.00032652715062177478 -0.03409300564156699 0 0.00018625693045417897 -0.034246635610987543 0 0.00039031062540123302 -0.034297510206067534 0 0.00018625693045417897 -0.034246635610987543 0 0.00011863416694274865 -0.034050567318155346 0 7.553743431139008e-05 -0.034196616430536522 0 0.00032652715062177478 -0.03409300564156699 0 0.00018625693045417897 -0.034246635610987543 0 0.00011863416694274865 -0.034050567318155346 0 0.00018625693045417897 -0.034246635610987543 0 7.553743431139008e-05 -0.034196616430536522 0 8.1239586917148805e-05 -0.034343272041385535 0 0.00022206216908575468 -0.033931794861884065 0 0.00032652715062177478 -0.03409300564156699 0 0.00011863416694274865 -0.034050567318155346 0 0.00022206216908575468 -0.033931794861884065 0 8.7121438836022542e-05 -0.033895493166774128 0 0.00011863416694274865 -0.034050567318155346 0 -7.1196520722484089e-06 -0.033925526503808777 0 9.9005692269650565e-06 -0.034106104291281206 0 -7.8879668576273162e-05 -0.033936827198155474 0 0.00011863416694274865 -0.034050567318155346 0 -7.1196520722484089e-06 -0.033925526503808777 0 9.9005692269650565e-06 -0.034106104291281206 0 8.7121438836022542e-05 -0.033895493166774128 0 0.00011863416694274865 -0.034050567318155346 0 -7.1196520722484089e-06 -0.033925526503808777 0 9.9005692269650565e-06 -0.034106104291281206 0 -7.8879668576273162e-05 -0.033936827198155474 0 -8.3310148034967626e-05 -0.034231463826248726 0 0.00011863416694274865 -0.034050567318155346 0 9.9005692269650565e-06 -0.034106104291281206 0 7.553743431139008e-05 -0.034196616430536522 0 9.9005692269650565e-06 -0.034106104291281206 0 7.553743431139008e-05 -0.034196616430536522 0 -3.3141709890417256e-05 -0.034264396645395129 0 9.9005692269650565e-06 -0.034106104291281206 0 -3.3141709890417256e-05 -0.034264396645395129 0 -8.3310148034967626e-05 -0.034231463826248726 0 -0.00077173335392003459 -0.030767374033445854 0 -0.00058095056818885675 -0.030260939473950452 0 -3.3141709890417256e-05 -0.034264396645395129 0 -9.7030747293545713e-05 -0.03431707863994668 0 -8.3310148034967626e-05 -0.034231463826248726 0 -3.3141709890417256e-05 -0.034264396645395129 0 -1.1363832385506568e-05 -0.034416929188063966 0 -0.00011819035451593499 -0.034460918077447715 0 -1.1363832385506568e-05 -0.034416929188063966 0 -2.043094013380734e-05 -0.034517741520375976 0 -0.00011819035451593499 -0.034460918077447715 0 -1.1363832385506568e-05 -0.034416929188063966 0 8.1239586917148805e-05 -0.034343272041385535 0 6.8592547968149273e-05 -0.034507022803110292 0 -3.3141709890417256e-05 -0.034264396645395129 0 -1.1363832385506568e-05 -0.034416929188063966 0 8.1239586917148805e-05 -0.034343272041385535 0 7.553743431139008e-05 -0.034196616430536522 0 -3.3141709890417256e-05 -0.034264396645395129 0 8.1239586917148805e-05 -0.034343272041385535 0 0.00018625693045417897 -0.034246635610987543 0 8.1239586917148805e-05 -0.034343272041385535 0 0.00022437201093493763 -0.03444583327905143 0 8.1239586917148805e-05 -0.034343272041385535 0 6.8592547968149273e-05 -0.034507022803110292 0 0.00022437201093493763 -0.03444583327905143 0 6.8592547968149273e-05 -0.034507022803110292 0 1.9027231762225448e-05 -0.034606906893923532 0 0.0001294091179215304 -0.034754304635748655 0 6.8592547968149273e-05 -0.034507022803110292 0 0.00022437201093493763 -0.03444583327905143 0 0.0001294091179215304 -0.034754304635748655 0 1.9027231762225448e-05 -0.034606906893923532 0 -2.043094013380734e-05 -0.034517741520375976 0 -6.4273639484660605e-05 -0.034585890781081714 0 1.9027231762225448e-05 -0.034606906893923532 0 -2.8643595553103766e-06 -0.034681328376008277 0 -6.4273639484660605e-05 -0.034585890781081714 0 -2.043094013380734e-05 -0.034517741520375976 0 -0.00011819035451593499 -0.034460918077447715 0 -6.4273639484660605e-05 -0.034585890781081714 0 6.8592547968149273e-05 -0.034507022803110292 0 1.9027231762225448e-05 -0.034606906893923532 0 -2.043094013380734e-05 -0.034517741520375976 0 -1.1363832385506568e-05 -0.034416929188063966 0 6.8592547968149273e-05 -0.034507022803110292 0 -2.043094013380734e-05 -0.034517741520375976 0 0.00028737450572239979 -0.034700349150376661 0 0.00023639012671531194 -0.034728185916014148 0 0.00063329933153778446 -0.034343402692536995 0 0.00039031062540123302 -0.034297510206067534 0 0.00043451099388930385 -0.034521224528028638 0 0.00039031062540123302 -0.034297510206067534 0 0.00022437201093493763 -0.03444583327905143 0 0.00043451099388930385 -0.034521224528028638 0 0.00018625693045417897 -0.034246635610987543 0 0.00039031062540123302 -0.034297510206067534 0 0.00022437201093493763 -0.03444583327905143 0 0.00022437201093493763 -0.03444583327905143 0 0.00043451099388930385 -0.034521224528028638 0 0.0001294091179215304 -0.034754304635748655 0 0.00023639012671531194 -0.034728185916014148 0 0.00019987233749543565 -0.034748741732684892 0 4.0315756414511704e-05 -0.034930019224334932 0 8.0116678516805204e-05 -0.034907110501876719 0 6.0254579981112564e-05 -0.034872537713954974 0 8.0116678516805204e-05 -0.034907110501876719 0 6.0254579981112564e-05 -0.034872537713954974 0 0.0001294091179215304 -0.034754304635748655 0 6.0254579981112564e-05 -0.034872537713954974 0 6.9387656341363398e-05 -0.034828558275581782 0 0.0001294091179215304 -0.034754304635748655 0 4.9780486929642137e-05 -0.034914073783274498 0 6.0254579981112564e-05 -0.034872537713954974 0 6.9387656341363398e-05 -0.034828558275581782 0 -2.8643595553103766e-06 -0.034681328376008277 0 2.7434818887330881e-05 -0.034750997460663527 0 -4.5083953573549158e-05 -0.034700340468288585 0 -2.8643595553103766e-06 -0.034681328376008277 0 -7.3749944138990121e-05 -0.034650328518294235 0 -6.4273639484660605e-05 -0.034585890781081714 0 -2.8643595553103766e-06 -0.034681328376008277 0 -4.5083953573549158e-05 -0.034700340468288585 0 -7.3749944138990121e-05 -0.034650328518294235 0 0.0001294091179215304 -0.034754304635748655 0 6.3700901044839818e-05 -0.034794056123163601 0 2.7434818887330881e-05 -0.034750997460663527 0 1.9027231762225448e-05 -0.034606906893923532 0 -2.8643595553103766e-06 -0.034681328376008277 0 0.0001294091179215304 -0.034754304635748655 0 -2.8643595553103766e-06 -0.034681328376008277 0 0.0001294091179215304 -0.034754304635748655 0 2.7434818887330881e-05 -0.034750997460663527 0 6.9387656341363398e-05 -0.034828558275581782 0 0.0001294091179215304 -0.034754304635748655 0 6.3700901044839818e-05 -0.034794056123163601 0 2.0926248601175808e-05 -0.034784021296286896 0 6.3700901044839818e-05 -0.034794056123163601 0 2.7434818887330881e-05 -0.034750997460663527 0 2.0926248601175808e-05 -0.034784021296286896 0 2.7434818887330881e-05 -0.034750997460663527 0 -1.0436839429401494e-05 -0.034752166551135735 0 2.7434818887330881e-05 -0.034750997460663527 0 -1.0436839429401494e-05 -0.034752166551135735 0 -4.5083953573549158e-05 -0.034700340468288585 0 2.0926248601175808e-05 -0.034784021296286896 0 -1.0436839429401494e-05 -0.034752166551135735 0 -2.0554373970771159e-05 -0.034764434691297995 0 -2.0554373970771159e-05 -0.034764434691297995 0 -4.6909780651447037e-05 -0.034749126013862083 0 -4.4612708938580528e-05 -0.034737260506252282 0 -1.0436839429401494e-05 -0.034752166551135735 0 -2.0554373970771159e-05 -0.034764434691297995 0 -4.4612708938580528e-05 -0.034737260506252282 0 -3.191226573202297e-05 -0.034768596812292774 0 -4.6909780651447037e-05 -0.034749126013862083 0 -5.0800377491299987e-05 -0.03474028291759701 0 -4.6909780651447037e-05 -0.034749126013862083 0 -5.9434442677104704e-05 -0.034740730986798772 0 -5.0800377491299987e-05 -0.03474028291759701 0 -4.6909780651447037e-05 -0.034749126013862083 0 -5.9434442677104704e-05 -0.034740730986798772 0 -5.943471671960823e-05 -0.034735994147135157 0 -5.9434442677104704e-05 -0.034740730986798772 0 -5.943471671960823e-05 -0.034735994147135157 0 -8.39228851237671e-05 -0.034731035394242084 0 -4.6909780651447037e-05 -0.034749126013862083 0 -5.943471671960823e-05 -0.034735994147135157 0 -4.4612708938580528e-05 -0.034737260506252282 0 -5.943471671960823e-05 -0.034735994147135157 0 -4.4612708938580528e-05 -0.034737260506252282 0 -7.3584433916861324e-05 -0.034713635307772495 0 -5.943471671960823e-05 -0.034735994147135157 0 -7.3584433916861324e-05 -0.034713635307772495 0 -8.39228851237671e-05 -0.034731035394242084 0 -1.0436839429401494e-05 -0.034752166551135735 0 -4.4612708938580528e-05 -0.034737260506252282 0 -4.5083953573549158e-05 -0.034700340468288585 0 -7.3584433916861324e-05 -0.034713635307772495 0 -7.3749944138990121e-05 -0.034650328518294235 0 -0.00014095938029660786 -0.034595602578539005 0 -4.5083953573549158e-05 -0.034700340468288585 0 -7.3584433916861324e-05 -0.034713635307772495 0 -7.3749944138990121e-05 -0.034650328518294235 0 0.0006567887228079249 -0.02898915054050949 0 -9.5444395836516739e-05 -0.029241971357446016 0 -4.4612708938580528e-05 -0.034737260506252282 0 -4.5083953573549158e-05 -0.034700340468288585 0 -7.3584433916861324e-05 -0.034713635307772495 0 -7.3584433916861324e-05 -0.034713635307772495 0 -8.39228851237671e-05 -0.034731035394242084 0 -0.00014095938029660786 -0.034595602578539005 0 0.00037375417069065211 -0.027322880190705352 0 0.00024439281818772435 -0.027028463068048899 0 0.00057611620605682069 -0.027748663923285895 0 0.00020052676228493352 -0.027297706853456703 0 -2.0922528419632789e-05 -0.028607559507580805 0 0.00037375417069065211 -0.027322880190705352 0 0.00059887651417627342 -0.025949613919573764 0 0.00037375417069065211 -0.027322880190705352 0 -9.5444395836516739e-05 -0.029241971357446016 0 0.00037375417069065211 -0.027322880190705352 0 0.0006567887228079249 -0.02898915054050949 0 0.00037375417069065211 -0.027322880190705352 0 0.00070497479145672235 -0.026817690184839271 0 -5.9966637716349564e-05 -0.034691819831181255 0 -4.4875621693115323e-05 -0.034712627845637598 0 -5.0800377491299987e-05 -0.03474028291759701 0 -5.9966637716349564e-05 -0.034691819831181255 0 -5.0800377491299987e-05 -0.03474028291759701 0 -7.5079052395030525e-05 -0.034735202458145729 0 0.0006567887228079249 -0.02898915054050949 0 0.000592969646742925 -0.029401443944490097 0 -5.9434442677104704e-05 -0.034740730986798772 0 -8.39228851237671e-05 -0.034731035394242084 0 -5.0800377491299987e-05 -0.03474028291759701 0 0.002259739572001498 -0.021989061206798777 0 0.0019394688750176826 -0.022452175625671807 0 0.00184757928691073 -0.022064636717641563 0 0.0019394688750176826 -0.022452175625671807 0 0.0015941134359573907 -0.022336610478551702 0 0.00184757928691073 -0.022064636717641563 0 0.001476389764293165 -0.02214504678268019 0 0.0013461906613475799 -0.021946883396058527 0 0.0013085104205788375 -0.022342697559779308 0 0.0015941134359573907 -0.022336610478551702 0 0.0016302691733881603 -0.022119577382130544 0 0.001476389764293165 -0.02214504678268019 0 0.0015941134359573907 -0.022336610478551702 0 0.0016302691733881603 -0.022119577382130544 0 0.00184757928691073 -0.022064636717641563 0 0.0015941134359573907 -0.022336610478551702 0 0.001476389764293165 -0.02214504678268019 0 0.0013085104205788375 -0.022342697559779308 0 0.0013461906613475799 -0.021946883396058527 0 0.0014955536490325631 -0.021743633671202023 0 0.0012748962564348109 -0.021547416325665512 0 0.001476389764293165 -0.02214504678268019 0 0.0013461906613475799 -0.021946883396058527 0 0.0015719048999038652 -0.021959159335940164 0 0.0016302691733881603 -0.022119577382130544 0 0.0015719048999038652 -0.021959159335940164 0 0.00184757928691073 -0.022064636717641563 0 0.0016302691733881603 -0.022119577382130544 0 0.001476389764293165 -0.02214504678268019 0 0.0015719048999038652 -0.021959159335940164 0 0.0015719048999038652 -0.021959159335940164 0 0.0014955536490325631 -0.021743633671202023 0 0.0017129723675065529 -0.021812980024295853 0 0.0013461906613475799 -0.021946883396058527 0 0.0015719048999038652 -0.021959159335940164 0 0.0014955536490325631 -0.021743633671202023 0 0.002259739572001498 -0.021989061206798777 0 0.00184757928691073 -0.022064636717641563 0 0.0019672099840876956 -0.021767085854988811 0 0.0013111670131842851 -0.026296546096026181 0 0.00078496648341031482 -0.025905883549904404 0 0.00062556680933857417 -0.025469906654907257 0 0.0015719048999038652 -0.021959159335940164 0 0.00184757928691073 -0.022064636717641563 0 0.0017129723675065529 -0.021812980024295853 0 0.00184757928691073 -0.022064636717641563 0 0.0017129723675065529 -0.021812980024295853 0 0.0019672099840876956 -0.021767085854988811 0 0.00059887651417627342 -0.025949613919573764 0 0.00085618798199067368 -0.024876252960528793 0 0.0017129723675065529 -0.021812980024295853 0 0.0019672099840876956 -0.021767085854988811 0 0.0016816678275338693 -0.021529783525354403 0 0.00078496648341031482 -0.025905883549904404 0 0.00062556680933857417 -0.025469906654907257 0 0.0002754813758573904 -0.025490925545253451 0 0.00024439281818772435 -0.027028463068048899 0 0.00085618798199067368 -0.024876252960528793 0 0.0028081835087460224 -0.020354691987290442 0 0.0022141028714655702 -0.020386048322846149 0 0.0020488379910801637 -0.019728308350126681 0 0.00085618798199067368 -0.024876252960528793 0 0.0013733410467587056 -0.020867100935385872 0 -0.0017801706864110751 -0.031740324498142805 0 -0.0014674646940694767 -0.031723960698844485 0 -0.0011872303299936414 -0.032410644817442907 0 0.0014955536490325631 -0.021743633671202023 0 0.0016816678275338693 -0.021529783525354403 0 0.0012748962564348109 -0.021547416325665512 0 0.0014955536490325631 -0.021743633671202023 0 0.0017129723675065529 -0.021812980024295853 0 0.0016816678275338693 -0.021529783525354403 0 -8.2855621196731117e-07 -0.029155435416559291 0 0.00013253940559110477 -0.029340951006139756 0 0.0001639909724088473 -0.029362874709846588 0 0.00085618798199067368 -0.024876252960528793 0 0.0019407707322611949 -0.023580541353574007 0 -0.0014674646940694767 -0.031723960698844485 0 -0.0011872303299936414 -0.032410644817442907 0 -0.00066376671132056494 -0.032416483518308885 0 0.00024439281818772435 -0.027028463068048899 0 0.00045102046763557247 -0.029337590388314416 0 0.00014518158174933645 -0.029392088051024536 0 8.7666633200020504e-05 -0.029447275041882191 0 0.00015309589880077942 -0.029466962225599119 0 0.00013253940559110477 -0.029340951006139756 0 0.0001639909724088473 -0.029362874709846588 0 0.0002601431015789956 -0.029514275433558935 0 5.096458966320611e-05 -0.029285762019202983 0 3.3825851651714912e-05 -0.029393900295813347 0 -5.8045312950843494e-05 -0.02938833968873647 0 5.096458966320611e-05 -0.029285762019202983 0 0.00014518158174933645 -0.029392088051024536 0 3.3825851651714912e-05 -0.029393900295813347 0 0.00024439281818772435 -0.027028463068048899 0 0.00057410007426875339 -0.027910477896381288 0 0.00014518158174933645 -0.029392088051024536 0 3.3825851651714912e-05 -0.029393900295813347 0 8.7666633200020504e-05 -0.029447275041882191 0 3.3825851651714912e-05 -0.029393900295813347 0 -2.3269192488919637e-05 -0.029488309745248461 0 8.7666633200020504e-05 -0.029447275041882191 0 3.3825851651714912e-05 -0.029393900295813347 0 -5.8045312950843494e-05 -0.02938833968873647 0 -2.3269192488919637e-05 -0.029488309745248461 0 -0.0001303929767074828 -0.029443134003342922 0 -0.00055206643149430983 -0.031360932433608789 0 -5.8045312950843494e-05 -0.02938833968873647 0 -0.00014259966085715292 -0.029301825496331039 0 -0.00016971351620496838 -0.029466734750920719 0 -9.7030747293545713e-05 -0.03431707863994668 0 -0.0001205652787551864 -0.034224587637476024 0 -8.3310148034967626e-05 -0.034231463826248726 0 -9.7030747293545713e-05 -0.03431707863994668 0 -0.00014007080231802919 -0.034349817282611272 0 -0.0001205652787551864 -0.034224587637476024 0 -9.7030747293545713e-05 -0.03431707863994668 0 -0.00014007080231802919 -0.034349817282611272 0 -0.00012232742360838799 -0.034350059117822171 0 -0.00011790084804335352 -0.029009890427702984 0 0.00036751598350266473 -0.029015116490673426 0 -0.00027158313825462432 -0.029938501926217543 0 -0.0001303929767074828 -0.029443134003342922 0 -0.00030155389708852118 -0.02955194957164731 0 -0.00011819035451593499 -0.034460918077447715 0 -0.00013145332855420648 -0.034535203299405924 0 -6.4273639484660605e-05 -0.034585890781081714 0 -0.00058095056818885675 -0.030260939473950452 0 -0.00030155389708852118 -0.02955194957164731 0 -0.00013145332855420648 -0.034535203299405924 0 -6.4273639484660605e-05 -0.034585890781081714 0 -0.00014095938029660786 -0.034595602578539005 0 -7.3749944138990121e-05 -0.034650328518294235 0 -6.4273639484660605e-05 -0.034585890781081714 0 -0.00014095938029660786 -0.034595602578539005 0 -0.0001303929767074828 -0.029443134003342922 0 -9.5444395836516739e-05 -0.029241971357446016 0 -0.00030155389708852118 -0.02955194957164731 0 -9.5444395836516739e-05 -0.029241971357446016 0 5.096458966320611e-05 -0.029285762019202983 0 -5.8045312950843494e-05 -0.02938833968873647 0 -0.00014259966085715292 -0.029301825496331039 0 0.00024439281818772435 -0.027028463068048899 0 -0.0001303929767074828 -0.029443134003342922 0 0.00014783393536595092 -0.027960492320954843 0 0.00096042774576050318 -0.02791177676448554 0 0.00093016289577806089 -0.028095934029442944 0 0.00062647708436942297 -0.028534138536600747 0 0.00014783393536595092 -0.027960492320954843 0 0.00093016289577806089 -0.028095934029442944 0 0.0024326857950396825 -0.0056570343283622541 0 0.0023734087652633943 -0.005333741880280166 0 0.0020577753343227747 -0.0055641272400939745 0 0.0024326857950396825 -0.0056570343283622541 0 0.0027211011990874155 -0.0052936123751596321 0 0.0023734087652633943 -0.005333741880280166 0 0.0027156116895753935 -0.0060467805852521097 0 0.0024326857950396825 -0.0056570343283622541 0 0.0021775136998106073 -0.0059910565716190722 0 0.0027156116895753935 -0.0060467805852521097 0 0.0024326857950396825 -0.0056570343283622541 0 0.002886559449819491 -0.0056221070909704598 0 0.0024326857950396825 -0.0056570343283622541 0 0.002886559449819491 -0.0056221070909704598 0 0.0027211011990874155 -0.0052936123751596321 0 0.002886559449819491 -0.0056221070909704598 0 0.0030901326130028453 -0.0052671994149469615 0 0.0027211011990874155 -0.0052936123751596321 0 0.002886559449819491 -0.0056221070909704598 0 0.0031335749520409219 -0.0058793326304074122 0 0.0032874890636941387 -0.0055801452757335036 0 0.002886559449819491 -0.0056221070909704598 0 0.0032874890636941387 -0.0055801452757335036 0 0.0030901326130028453 -0.0052671994149469615 0 0.0027156116895753935 -0.0060467805852521097 0 0.002886559449819491 -0.0056221070909704598 0 0.0031335749520409219 -0.0058793326304074122 0 0.00075334729534781242 -0.017507675622511109 0 0.0010857411984178391 -0.016592593148889754 0 0.0031335749520409219 -0.0058793326304074122 0 0.0034992005618179325 -0.0059097703775843309 0 0.0032874890636941387 -0.0055801452757335036 0 0.0031147263239862761 -0.0062407822920844637 0 0.0031335749520409219 -0.0058793326304074122 0 0.0034992005618179325 -0.0059097703775843309 0 0.0013461906613475799 -0.021946883396058527 0 0.0013085104205788375 -0.022342697559779308 0 0.0010851415143846379 -0.021956973149521195 0 0.0010857411984178391 -0.016592593148889754 0 0.0017031526658855738 -0.016854886475731256 0 0.0013461906613475799 -0.021946883396058527 0 0.0010851415143846379 -0.021956973149521195 0 0.0012748962564348109 -0.021547416325665512 0 0.0010851415143846379 -0.021956973149521195 0 0.0012748962564348109 -0.021547416325665512 0 0.00086405835728398865 -0.0215668257560989 0 0.0022141028714655702 -0.020386048322846149 0 0.0020488379910801637 -0.019728308350126681 0 0.0016176971501686622 -0.020418909196560708 0 0.0013733410467587056 -0.020867100935385872 0 0.0017031526658855738 -0.016854886475731256 0 0.0020488379910801637 -0.019728308350126681 0 0.001250099563707063 -0.019771955623062106 0 0.0016176971501686622 -0.020418909196560708 0 0.0027308035151402568 -0.0050584776069102343 0 0.0028839959809191756 -0.0053362454851852087 0 0.0026217986261272822 -0.0053363965922314828 0 0.0016065802978383237 -0.014850930897439843 0 0.0017031526658855738 -0.016854886475731256 0 0.0017031526658855738 -0.016854886475731256 0 0.0023270310490908219 -0.014881968452925918 0 0.0023270310490908219 -0.014881968452925918 0 0.0024631545477759712 -0.014257170492998157 0 0.0027308035151402568 -0.0050584776069102343 0 0.0026217986261272822 -0.0053363965922314828 0 0.002432164056781488 -0.0050774543805527927 0 0.0027308035151402568 -0.0050584776069102343 0 0.002432164056781488 -0.0050774543805527927 0 0.0025725080700102366 -0.0047940117332882408 0 0.002432164056781488 -0.0050774543805527927 0 0.0021650284681536576 -0.005192439067596962 0 0.0022228530351314489 -0.0049489843882087802 0 0.002432164056781488 -0.0050774543805527927 0 0.0023492719792743565 -0.0048885792460518825 0 0.0022228530351314489 -0.0049489843882087802 0 0.002432164056781488 -0.0050774543805527927 0 0.0023734087652633943 -0.005333741880280166 0 0.0021650284681536576 -0.005192439067596962 0 0.0026217986261272822 -0.0053363965922314828 0 0.002432164056781488 -0.0050774543805527927 0 0.0023734087652633943 -0.005333741880280166 0 0.0024217656085235434 -0.0045754928797332884 0 0.0023883725207540854 -0.0046392429129523752 0 0.0025725080700102366 -0.0047940117332882408 0 0.0022954150752373423 -0.0045800718512024694 0 0.0023883725207540854 -0.0046392429129523752 0 0.0023528482776621327 -0.0045058306031119395 0 0.0022954150752373423 -0.0045800718512024694 0 0.0023883725207540854 -0.0046392429129523752 0 0.0022852497431249366 -0.0046757881361984034 0 0.0022954150752373423 -0.0045800718512024694 0 0.0022852497431249366 -0.0046757881361984034 0 0.0021987409289274027 -0.0045853135412686442 0 0.0024217656085235434 -0.0045754928797332884 0 0.0023883725207540854 -0.0046392429129523752 0 0.0023727100533875536 -0.0045421592468007877 0 0.0032254171331722466 -0.013515887448683605 0 0.0033662333470306878 -0.014284336312888 0 0.0023883725207540854 -0.0046392429129523752 0 0.0023970161796879751 -0.0047648544850732851 0 0.0025725080700102366 -0.0047940117332882408 0 0.0023883725207540854 -0.0046392429129523752 0 0.0022852497431249366 -0.0046757881361984034 0 0.0023970161796879751 -0.0047648544850732851 0 0.0022852497431249366 -0.0046757881361984034 0 0.0022660453309734457 -0.0047956090464835637 0 0.0023970161796879751 -0.0047648544850732851 0 0.002432164056781488 -0.0050774543805527927 0 0.0023492719792743565 -0.0048885792460518825 0 0.0025725080700102366 -0.0047940117332882408 0 0.0022660453309734457 -0.0047956090464835637 0 0.0023492719792743565 -0.0048885792460518825 0 0.0023970161796879751 -0.0047648544850732851 0 0.0023492719792743565 -0.0048885792460518825 0 0.0023970161796879751 -0.0047648544850732851 0 0.0025725080700102366 -0.0047940117332882408 0 0.0022660453309734457 -0.0047956090464835637 0 0.0023492719792743565 -0.0048885792460518825 0 0.0022228530351314489 -0.0049489843882087802 0 0.001250099563707063 -0.019771955623062106 0 0.00087884153057079292 -0.019121968457451528 0 0.0012824697423881389 -0.019099146537502217 0 0.0016065802978383237 -0.014850930897439843 0 0.0020466756744811077 -0.01437000467668865 0 0.00325551200051595 -0.015583571358003919 0 0.0028948921733466227 -0.020993467285475322 0 0.00325551200051595 -0.015583571358003919 0 0.0020466756744811077 -0.01437000467668865 0 0.00050720917296774419 -0.01846679277769317 0 0.00087884153057079292 -0.019121968457451528 0 0.0012824697423881389 -0.019099146537502217 0 0.00026467432352041446 -0.033549765755183598 0 8.2601897622447065e-05 -0.03346801219533678 0 1.4797133713092155e-05 -0.033106593532185931 0 8.2601897622447065e-05 -0.03346801219533678 0 -0.00022571765541836518 -0.033414510379125954 0 8.1512089329712913e-05 -0.033671669592834005 0 6.5503869486223661e-05 -0.033735836876299725 0 4.0190510591158817e-05 -0.033750607230761613 0 7.9840331157972499e-05 -0.033717560600273797 0 -0.00022571765541836518 -0.033414510379125954 0 1.4797133713092155e-05 -0.033106593532185931 0 -0.0003102834320222054 -0.033110433046435461 0 8.2601897622447065e-05 -0.03346801219533678 0 -0.00022571765541836518 -0.033414510379125954 0 1.4797133713092155e-05 -0.033106593532185931 0 0.0020488379910801637 -0.019728308350126681 0 0.001250099563707063 -0.019771955623062106 0 0.0012824697423881389 -0.019099146537502217 0 -0.00066376671132056494 -0.032416483518308885 0 1.4797133713092155e-05 -0.033106593532185931 0 -0.0003102834320222054 -0.033110433046435461 0 0.0019407707322611949 -0.023580541353574007 0 0.0028948921733466227 -0.020993467285475322 0 0.00056447783654588082 -0.031029721248876246 0 0.00061808243196839199 -0.030997056533972691 0 -0.0011872303299936414 -0.032410644817442907 0 -0.00066376671132056494 -0.032416483518308885 0 -0.00062584240692612533 -0.033051193620346295 0 -0.00066376671132056494 -0.032416483518308885 0 -0.0003102834320222054 -0.033110433046435461 0 -0.00062584240692612533 -0.033051193620346295 0 0.0001639909724088473 -0.029362874709846588 0 0.00031608169702068456 -0.029554523536877587 0 0.0002601431015789956 -0.029514275433558935 0 0.00045102046763557247 -0.029337590388314416 0 0.00061808243196839199 -0.030997056533972691 0 3.3492373469761265e-05 -0.033739074965038029 0 4.0190510591158817e-05 -0.033750607230761613 0 6.5392001196984161e-06 -0.033767406929257338 0 6.5503869486223661e-05 -0.033735836876299725 0 3.3492373469761265e-05 -0.033739074965038029 0 4.0190510591158817e-05 -0.033750607230761613 0 0.00078196978553840806 -0.031701018884987976 0 0.00061808243196839199 -0.030997056533972691 0 -0.00022571765541836518 -0.033414510379125954 0 -0.0003102834320222054 -0.033110433046435461 0 -0.00056446062521828971 -0.033071876402818293 0 5.3263255806369619e-05 -0.033760411587487209 0 4.1547530062130936e-06 -0.033779094060987301 0 1.0226371951426681e-05 -0.033822021885229203 0 4.0190510591158817e-05 -0.033750607230761613 0 5.3263255806369619e-05 -0.033760411587487209 0 4.1547530062130936e-06 -0.033779094060987301 0 4.0190510591158817e-05 -0.033750607230761613 0 5.3263255806369619e-05 -0.033760411587487209 0 7.9840331157972499e-05 -0.033717560600273797 0 5.3263255806369619e-05 -0.033760411587487209 0 7.3923238249388104e-05 -0.03381940117916088 0 1.0226371951426681e-05 -0.033822021885229203 0 7.3923238249388104e-05 -0.03381940117916088 0 1.0226371951426681e-05 -0.033822021885229203 0 5.5023640648427081e-05 -0.033919094891977988 0 7.3923238249388104e-05 -0.03381940117916088 0 0.00014419324495122646 -0.033734447930234605 0 0.00013590460527527454 -0.033916333275000973 0 5.3263255806369619e-05 -0.033760411587487209 0 7.3923238249388104e-05 -0.03381940117916088 0 0.00014419324495122646 -0.033734447930234605 0 0.00014419324495122646 -0.033734447930234605 0 7.9840331157972499e-05 -0.033717560600273797 0 8.1512089329712913e-05 -0.033671669592834005 0 5.3263255806369619e-05 -0.033760411587487209 0 0.00014419324495122646 -0.033734447930234605 0 7.9840331157972499e-05 -0.033717560600273797 0 6.5503869486223661e-05 -0.033735836876299725 0 7.9840331157972499e-05 -0.033717560600273797 0 8.1512089329712913e-05 -0.033671669592834005 0 0.00078196978553840806 -0.031701018884987976 0 0.00083283138873712357 -0.031922543241840844 0 0.00026467432352041446 -0.033549765755183598 0 8.2601897622447065e-05 -0.03346801219533678 0 0.00015918369087094395 -0.033627843671803145 0 8.2601897622447065e-05 -0.03346801219533678 0 8.1512089329712913e-05 -0.033671669592834005 0 0.00015918369087094395 -0.033627843671803145 0 0.00026467432352041446 -0.033549765755183598 0 0.00015918369087094395 -0.033627843671803145 0 0.00018736535593242185 -0.033632513900796072 0 0.00015918369087094395 -0.033627843671803145 0 0.00015617166523600575 -0.033661524123904073 0 0.00018736535593242185 -0.033632513900796072 0 0.00015918369087094395 -0.033627843671803145 0 0.00013752923647985054 -0.033686845903225619 0 0.00015617166523600575 -0.033661524123904073 0 8.1512089329712913e-05 -0.033671669592834005 0 0.00015918369087094395 -0.033627843671803145 0 0.00013752923647985054 -0.033686845903225619 0 0.00014419324495122646 -0.033734447930234605 0 8.1512089329712913e-05 -0.033671669592834005 0 0.00013752923647985054 -0.033686845903225619 0 0.00014419324495122646 -0.033734447930234605 0 0.00013752923647985054 -0.033686845903225619 0 0.00015757302567649323 -0.03364487838869816 0 0.0017068488883167626 -0.031956567601428093 0 0.0017786270163789861 -0.031573448247322361 0 0.00014419324495122646 -0.033734447930234605 0 0.00015757302567649323 -0.03364487838869816 0 0.00021825417194043365 -0.033499293846543758 0 0.00015757302567649323 -0.03364487838869816 0 0.00013634418134518805 -0.033636889471631411 0 0.00012271449232567787 -0.033582673483678036 0 0.00015757302567649323 -0.03364487838869816 0 0.00012271449232567787 -0.033582673483678036 0 0.00021825417194043365 -0.033499293846543758 0 0.00015757302567649323 -0.03364487838869816 0 0.00015617166523600575 -0.033661524123904073 0 0.00013634418134518805 -0.033636889471631411 0 0.00013752923647985054 -0.033686845903225619 0 0.00015757302567649323 -0.03364487838869816 0 0.00015617166523600575 -0.033661524123904073 0 0.00015617166523600575 -0.033661524123904073 0 0.00014288595909076285 -0.033640067399745843 0 0.00013634418134518805 -0.033636889471631411 0 0.00014288595909076285 -0.033640067399745843 0 0.00013634418134518805 -0.033636889471631411 0 8.7143781445644768e-05 -0.033626212060908635 0 0.00012271449232567787 -0.033582673483678036 0 8.7143781445644768e-05 -0.033626212060908635 0 6.0669267634363569e-05 -0.033489245370359431 0 0.00013634418134518805 -0.033636889471631411 0 0.00012271449232567787 -0.033582673483678036 0 8.7143781445644768e-05 -0.033626212060908635 0 8.7143781445644768e-05 -0.033626212060908635 0 3.3331016824927834e-05 -0.033643215907476036 0 6.0669267634363569e-05 -0.033489245370359431 0 0.0030936174988261704 -0.015159842367557099 0 0.0031924815432099983 -0.015063689563915336 0 0.004225659080361579 -0.011332714738723193 0 0.0050732134374653435 -0.015313982258741577 0 0.0030626967678886638 -0.011785880673178144 0 0.0031924815432099983 -0.015063689563915336 0 0.0036691690827002953 -0.015086899801824285 0 0.0031924815432099983 -0.015063689563915336 0 0.0041988436644252707 -0.013316172074110863 0 0.0036691690827002953 -0.015086899801824285 0 0.0041988436644252707 -0.013316172074110863 0 0.00014288595909076285 -0.033640067399745843 0 9.8273617711688955e-05 -0.033624976786977477 0 0.00018013967664006774 -0.033632672069309276 0 0.00014288595909076285 -0.033640067399745843 0 8.7143781445644768e-05 -0.033626212060908635 0 9.8273617711688955e-05 -0.033624976786977477 0 0.0044152789120307998 -0.013295034771498371 0 0.0045020235603308026 -0.013702605895140258 0 0.0034684832472259095 -0.012860235270169053 0 0.00015617166523600575 -0.033661524123904073 0 0.00014288595909076285 -0.033640067399745843 0 0.00018736535593242185 -0.033632513900796072 0 0.00014288595909076285 -0.033640067399745843 0 0.00018013967664006774 -0.033632672069309276 0 0.00018736535593242185 -0.033632513900796072 0 0.0029260554873334708 -0.014985330525128104 0 0.0028924758317406493 -0.014934188441316817 0 0.002901667366318722 -0.014967585880636876 0 0.00026467432352041446 -0.033549765755183598 0 0.00018013967664006774 -0.033632672069309276 0 0.00018736535593242185 -0.033632513900796072 0 0.00325551200051595 -0.015583571358003919 0 0.0036691690827002953 -0.015086899801824285 0 0.00325551200051595 -0.015583571358003919 0 0.0033662333470306878 -0.014284336312888 0 0.0022954150752373423 -0.0045800718512024694 0 0.0023528482776621327 -0.0045058306031119395 0 0.0022167037754463937 -0.0044971209108639332 0 0.0036691690827002953 -0.015086899801824285 0 0.0033662333470306878 -0.014284336312888 0 -6.0597084391022121e-05 -0.033872004473079712 0 -5.7949074857194252e-05 -0.033841924073670461 0 -6.4703808855744204e-05 -0.033878212706152634 0 -6.0597084391022121e-05 -0.033872004473079712 0 -5.7949074857194252e-05 -0.033841924073670461 0 -4.2371930051467404e-05 -0.033823942329173691 0 -6.0597084391022121e-05 -0.033872004473079712 0 -7.8879668576273162e-05 -0.033936827198155474 0 -6.4703808855744204e-05 -0.033878212706152634 0 -7.1196520722484089e-06 -0.033925526503808777 0 -7.8879668576273162e-05 -0.033936827198155474 0 -6.4703808855744204e-05 -0.033878212706152634 0 -6.0597084391022121e-05 -0.033872004473079712 0 -7.8879668576273162e-05 -0.033936827198155474 0 -8.6998017347864379e-05 -0.033831598629211326 0 -0.0005914624545517611 -0.031963240175634421 0 -0.00055206643149430983 -0.031360932433608789 0 -7.8879668576273162e-05 -0.033936827198155474 0 -0.00017406930900598188 -0.034214732542866964 0 -8.3310148034967626e-05 -0.034231463826248726 0 -0.00055206643149430983 -0.031360932433608789 0 -0.0005251743513710142 -0.031390291550589429 0 -0.00055206643149430983 -0.031360932433608789 0 -0.00011222410758848749 -0.031317858997243625 0 -5.8045312950843494e-05 -0.02938833968873647 0 -0.00016971351620496838 -0.029466734750920719 0 -2.3269192488919637e-05 -0.029488309745248461 0 -6.0597084391022121e-05 -0.033872004473079712 0 -8.6998017347864379e-05 -0.033831598629211326 0 -4.2371930051467404e-05 -0.033823942329173691 0 -4.2371930051467404e-05 -0.033823942329173691 0 -1.5980312070889363e-05 -0.033772076955576248 0 -3.0001552223173859e-05 -0.033799084125624004 0 -0.00011222410758848749 -0.031317858997243625 0 0.00021871586590532514 -0.031197128500311668 0 -2.3269192488919637e-05 -0.029488309745248461 0 8.7666633200020504e-05 -0.029447275041882191 0 0.0001268301443171371 -0.02951584047160985 0 0.00061808243196839199 -0.030997056533972691 0 0.00021871586590532514 -0.031197128500311668 0 0.00031608169702068456 -0.029554523536877587 0 0.0002601431015789956 -0.029514275433558935 0 0.0001268301443171371 -0.02951584047160985 0 3.3492373469761265e-05 -0.033739074965038029 0 -1.5980312070889363e-05 -0.033772076955576248 0 6.5392001196984161e-06 -0.033767406929257338 0 0.00014518158174933645 -0.029392088051024536 0 0.0002601431015789956 -0.029514275433558935 0 0.00015309589880077942 -0.029466962225599119 0 0.0002601431015789956 -0.029514275433558935 0 0.00015309589880077942 -0.029466962225599119 0 0.0001268301443171371 -0.02951584047160985 0 0.00057410007426875339 -0.027910477896381288 0 0.00066680291985222768 -0.028175392185293462 0 8.7666633200020504e-05 -0.029447275041882191 0 0.00015309589880077942 -0.029466962225599119 0 0.0001268301443171371 -0.02951584047160985 0 -1.5980312070889363e-05 -0.033772076955576248 0 6.5392001196984161e-06 -0.033767406929257338 0 -3.0001552223173859e-05 -0.033799084125624004 0 6.5392001196984161e-06 -0.033767406929257338 0 -3.0001552223173859e-05 -0.033799084125624004 0 4.1547530062130936e-06 -0.033779094060987301 0 4.0190510591158817e-05 -0.033750607230761613 0 6.5392001196984161e-06 -0.033767406929257338 0 4.1547530062130936e-06 -0.033779094060987301 0 -5.7949074857194252e-05 -0.033841924073670461 0 -4.2371930051467404e-05 -0.033823942329173691 0 -3.0001552223173859e-05 -0.033799084125624004 0 -5.7949074857194252e-05 -0.033841924073670461 0 -3.0001552223173859e-05 -0.033799084125624004 0 -4.9306658022527524e-05 -0.03381428817060219 0 -4.9306658022527524e-05 -0.03381428817060219 0 4.1547530062130936e-06 -0.033779094060987301 0 1.0226371951426681e-05 -0.033822021885229203 0 -3.0001552223173859e-05 -0.033799084125624004 0 -4.9306658022527524e-05 -0.03381428817060219 0 4.1547530062130936e-06 -0.033779094060987301 0 -4.9306658022527524e-05 -0.03381428817060219 0 1.0226371951426681e-05 -0.033822021885229203 0 -7.9905686167652348e-05 -0.033841187865226004 0 -4.9306658022527524e-05 -0.03381428817060219 0 -7.9905686167652348e-05 -0.033841187865226004 0 -7.2508534944714384e-05 -0.03383200828181418 0 -7.9905686167652348e-05 -0.033841187865226004 0 -7.2508534944714384e-05 -0.03383200828181418 0 -6.0658092630541015e-05 -0.033762775699140053 0 -5.7949074857194252e-05 -0.033841924073670461 0 -7.2508534944714384e-05 -0.03383200828181418 0 -6.4703808855744204e-05 -0.033878212706152634 0 -5.7949074857194252e-05 -0.033841924073670461 0 -4.9306658022527524e-05 -0.03381428817060219 0 -7.2508534944714384e-05 -0.03383200828181418 0 -7.2508534944714384e-05 -0.03383200828181418 0 -6.4703808855744204e-05 -0.033878212706152634 0 -1.3635401463225955e-05 -0.033823842789118042 0 -7.1196520722484089e-06 -0.033925526503808777 0 -6.4703808855744204e-05 -0.033878212706152634 0 -1.3635401463225955e-05 -0.033823842789118042 0 4.4001249569351555e-05 -0.033747751570580888 0 -1.3635401463225955e-05 -0.033823842789118042 0 -6.0658092630541015e-05 -0.033762775699140053 0 -7.2508534944714384e-05 -0.03383200828181418 0 -1.3635401463225955e-05 -0.033823842789118042 0 -6.0658092630541015e-05 -0.033762775699140053 0 -2.2496888682257865e-05 -0.034127529929718105 0 -3.334649653679496e-06 -0.034234138764489976 0 -0.00023123455476061053 -0.03388908671427792 0 -0.00025899229027734057 -0.033961101698484583 0 -0.00036015037944149949 -0.033932434937892608 0 4.4001249569351555e-05 -0.033747751570580888 0 -6.0658092630541015e-05 -0.033762775699140053 0 4.7001031503639669e-05 -0.033668182836093317 0 -0.00025899229027734057 -0.033961101698484583 0 -0.00020605694396000124 -0.034035766823926963 0 -0.00034892852784507286 -0.033999525838189472 0 4.3216186329029274e-05 -0.034273924852391759 0 8.4461036124450382e-06 -0.03432826350103773 0 0.00030716339305124189 -0.034313750842973459 0 0.00029886400750660697 -0.034322294003413308 0 0.00030352745484057747 -0.034336502791688525 0 -0.00020605694396000124 -0.034035766823926963 0 -0.00014284772447038194 -0.033954185277229834 0 -6.5710105099808745e-05 -0.034079263351564339 0 -0.00025899229027734057 -0.033961101698484583 0 -0.00020605694396000124 -0.034035766823926963 0 -0.00014284772447038194 -0.033954185277229834 0 -0.00023123455476061053 -0.03388908671427792 0 -0.00025899229027734057 -0.033961101698484583 0 -0.00014284772447038194 -0.033954185277229834 0 -7.9905686167652348e-05 -0.033841187865226004 0 -0.00023123455476061053 -0.03388908671427792 0 -0.00014284772447038194 -0.033954185277229834 0 -2.0724457674934704e-05 -0.034093966361443732 0 -2.2496888682257865e-05 -0.034127529929718105 0 -7.9905686167652348e-05 -0.033841187865226004 0 -0.00014284772447038194 -0.033954185277229834 0 -2.9497439596439663e-05 -0.033940537026289679 0 1.0226371951426681e-05 -0.033822021885229203 0 -7.9905686167652348e-05 -0.033841187865226004 0 -2.9497439596439663e-05 -0.033940537026289679 0 1.0226371951426681e-05 -0.033822021885229203 0 -2.9497439596439663e-05 -0.033940537026289679 0 5.5023640648427081e-05 -0.033919094891977988 0 -2.9497439596439663e-05 -0.033940537026289679 0 4.4840720987397474e-05 -0.034011517332301212 0 5.5023640648427081e-05 -0.033919094891977988 0 -2.9497439596439663e-05 -0.033940537026289679 0 4.4840720987397474e-05 -0.034011517332301212 0 -6.5710105099808745e-05 -0.034079263351564339 0 -0.00014284772447038194 -0.033954185277229834 0 -2.9497439596439663e-05 -0.033940537026289679 0 -6.5710105099808745e-05 -0.034079263351564339 0 4.3216186329029274e-05 -0.034273924852391759 0 8.6294780139551346e-05 -0.034249351153819448 0 0.00030716339305124189 -0.034313750842973459 0 0.00024501917588180919 -0.034267923976362663 0 0.00026682180753724214 -0.034232066889236842 0 8.6294780139551346e-05 -0.034249351153819448 0 0.00010800404635687917 -0.03424208837165061 0 0.00024501917588180919 -0.034267923976362663 0 0.00026682180753724214 -0.034232066889236842 0 0.00013303011022329945 -0.034146143523805995 0 4.4840720987397474e-05 -0.034011517332301212 0 -6.5710105099808745e-05 -0.034079263351564339 0 0.00013303011022329945 -0.034146143523805995 0 0.00026682180753724214 -0.034232066889236842 0 0.00013303011022329945 -0.034146143523805995 0 0.00022605314708506108 -0.034179153786292625 0 0.00026682180753724214 -0.034232066889236842 0 0.00031063766238449984 -0.034289675061227279 0 0.00031350521739289145 -0.034250120455583899 0 0.00031063766238449984 -0.034289675061227279 0 0.00031350521739289145 -0.034250120455583899 0 0.00031616418451491026 -0.034314166477118706 0 0.00031063766238449984 -0.034289675061227279 0 0.00031616418451491026 -0.034314166477118706 0 0.00030352745484057747 -0.034336502791688525 0 0.00030716339305124189 -0.034313750842973459 0 0.00031063766238449984 -0.034289675061227279 0 0.00030352745484057747 -0.034336502791688525 0 0.00030716339305124189 -0.034313750842973459 0 0.00026682180753724214 -0.034232066889236842 0 0.00031063766238449984 -0.034289675061227279 0 0.0018604327918059574 -0.030133044295498953 0 0.0017786270163789861 -0.031573448247322361 0 6.7904315658830813e-05 -0.033148820781243753 0 6.0669267634363569e-05 -0.033489245370359431 0 -0.00010491742665441889 -0.033354905122188264 0 3.3331016824927834e-05 -0.033643215907476036 0 6.0669267634363569e-05 -0.033489245370359431 0 -0.00010491742665441889 -0.033354905122188264 0 6.7904315658830813e-05 -0.033148820781243753 0 6.0669267634363569e-05 -0.033489245370359431 0 0.00021825417194043365 -0.033499293846543758 0 0.0031924815432099983 -0.015063689563915336 0 0.0027303836807592535 -0.021712176085285053 0 0.00012271449232567787 -0.033582673483678036 0 6.0669267634363569e-05 -0.033489245370359431 0 0.00021825417194043365 -0.033499293846543758 0 0.0002473934293036298 -0.034036089765568787 0 0.00024428991775065327 -0.033929070458057535 0 0.0002124275324090576 -0.034063308115658331 0 0.00024428991775065327 -0.033929070458057535 0 0.00018014579455422083 -0.034044753776544492 0 0.0002124275324090576 -0.034063308115658331 0 0.00018014579455422083 -0.034044753776544492 0 0.00011934213803110607 -0.034005108624182455 0 0.00013303011022329945 -0.034146143523805995 0 0.00018014579455422083 -0.034044753776544492 0 0.00013590460527527454 -0.033916333275000973 0 0.00011934213803110607 -0.034005108624182455 0 0.00014419324495122646 -0.033734447930234605 0 0.00024428991775065327 -0.033929070458057535 0 0.00013590460527527454 -0.033916333275000973 0 0.00024428991775065327 -0.033929070458057535 0 0.00018014579455422083 -0.034044753776544492 0 0.00013590460527527454 -0.033916333275000973 0 0.00013590460527527454 -0.033916333275000973 0 5.5023640648427081e-05 -0.033919094891977988 0 0.00011934213803110607 -0.034005108624182455 0 7.3923238249388104e-05 -0.03381940117916088 0 0.00013590460527527454 -0.033916333275000973 0 5.5023640648427081e-05 -0.033919094891977988 0 4.4840720987397474e-05 -0.034011517332301212 0 0.00011934213803110607 -0.034005108624182455 0 0.00013303011022329945 -0.034146143523805995 0 4.4840720987397474e-05 -0.034011517332301212 0 5.5023640648427081e-05 -0.033919094891977988 0 0.00011934213803110607 -0.034005108624182455 0 0.00013303011022329945 -0.034146143523805995 0 0.00017007658235616201 -0.03414441004750484 0 0.00017250586442016692 -0.034117832902778401 0 0.00013303011022329945 -0.034146143523805995 0 0.00017007658235616201 -0.03414441004750484 0 0.00022605314708506108 -0.034179153786292625 0 0.00017007658235616201 -0.03414441004750484 0 0.00017250586442016692 -0.034117832902778401 0 0.00017622074823062499 -0.034120782283409069 0 0.00017250586442016692 -0.034117832902778401 0 0.00019080792524419198 -0.034103874265462034 0 0.00017622074823062499 -0.034120782283409069 0 0.00018014579455422083 -0.034044753776544492 0 0.00013303011022329945 -0.034146143523805995 0 0.00017250586442016692 -0.034117832902778401 0 0.00018014579455422083 -0.034044753776544492 0 0.00017250586442016692 -0.034117832902778401 0 0.0002124275324090576 -0.034063308115658331 0 0.00017250586442016692 -0.034117832902778401 0 0.0002124275324090576 -0.034063308115658331 0 0.00019080792524419198 -0.034103874265462034 0 0.0002124275324090576 -0.034063308115658331 0 0.00019080792524419198 -0.034103874265462034 0 0.00021496581578199706 -0.034078205620190836 0 0.00019080792524419198 -0.034103874265462034 0 0.00019501379501813063 -0.034095515211468745 0 0.00018024152597951934 -0.034101059251102239 0 0.00019080792524419198 -0.034103874265462034 0 0.00019501379501813063 -0.034095515211468745 0 0.00021496581578199706 -0.034078205620190836 0 0.00019501379501813063 -0.034095515211468745 0 0.00021496581578199706 -0.034078205620190836 0 0.0002251449388397727 -0.034077901289104373 0 0.00019501379501813063 -0.034095515211468745 0 0.00018313022598176823 -0.034098395943263797 0 0.0002251449388397727 -0.034077901289104373 0 0.0002473934293036298 -0.034036089765568787 0 0.00021496581578199706 -0.034078205620190836 0 0.0002251449388397727 -0.034077901289104373 0 0.0002473934293036298 -0.034036089765568787 0 0.0002124275324090576 -0.034063308115658331 0 0.00021496581578199706 -0.034078205620190836 0 0.0018604327918059574 -0.030133044295498953 0 0.001463315129723022 -0.026564155184597923 0 0.00045631935256374307 -0.026278055611895633 0 0.0011554324606605044 -0.025178477684701824 0 0.00023345580873084787 -0.030841546835030167 0 0.00082670147239484297 -0.028022664554347942 0 0.00086259955458810236 -0.03107826470618855 0 0.0011668830846422301 -0.030684170008506956 0 0.0013468393748735342 -0.029830821429582318 0 0.00083738841800524337 -0.026493729236144254 0 0.00080513596081152237 -0.026509025142253798 0 0.00085837571202983698 -0.026485093561924248 0 0.00012802455371162797 -0.034039242178703986 0 0.00016756413556411368 -0.034082772059714675 0 0.00018313022598176823 -0.034098395943263797 0 0.00086259955458810236 -0.03107826470618855 0 0.0011668830846422301 -0.030684170008506956 0 0.0009860511133822521 -0.031519890508148317 0 0.0006243719743579437 -0.027395047747850124 0 0.00045631935256374307 -0.026278055611895633 0 0.00012802455371162797 -0.034039242178703986 0 0.00015757633232322247 -0.034057794953093412 0 0.00019090300727162717 -0.033926535965546262 0 0.00015757633232322247 -0.034057794953093412 0 0.00016756413556411368 -0.034082772059714675 0 0.00017034443861400371 -0.034085652446969962 0 0.00012802455371162797 -0.034039242178703986 0 0.00015757633232322247 -0.034057794953093412 0 0.00016756413556411368 -0.034082772059714675 0 0.00018128420166697357 -0.034096199885022001 0 0.00016756413556411368 -0.034082772059714675 0 0.00018313022598176823 -0.034098395943263797 0 0.0006243719743579437 -0.027395047747850124 0 0.00082670147239484297 -0.028022664554347942 0 0.00019501379501813063 -0.034095515211468745 0 0.00018128420166697357 -0.034096199885022001 0 0.00018313022598176823 -0.034098395943263797 0 0.00019501379501813063 -0.034095515211468745 0 0.00018128420166697357 -0.034096199885022001 0 0.00018024152597951934 -0.034101059251102239 0 0.00018128420166697357 -0.034096199885022001 0 0.00016756413556411368 -0.034082772059714675 0 0.00018024152597951934 -0.034101059251102239 0 0.00016756413556411368 -0.034082772059714675 0 0.00018024152597951934 -0.034101059251102239 0 0.00017034443861400371 -0.034085652446969962 0 0.00018024152597951934 -0.034101059251102239 0 0.00017423121447469775 -0.034094846885177457 0 0.00017034443861400371 -0.034085652446969962 0 0.00018024152597951934 -0.034101059251102239 0 0.00017423121447469775 -0.034094846885177457 0 0.00017622074823062499 -0.034120782283409069 0 0.00019080792524419198 -0.034103874265462034 0 0.00018024152597951934 -0.034101059251102239 0 0.00017622074823062499 -0.034120782283409069 0 0.00023195679399221932 -0.034049709020647155 0 0.00027881396325687838 -0.034045070023626452 0 0.00015757633232322247 -0.034057794953093412 0 0.00040707927101480665 -0.033979117935319589 0 0.00019090300727162717 -0.033926535965546262 0 0.00015757633232322247 -0.034057794953093412 0 0.00017423121447469775 -0.034094846885177457 0 0.00017879524331965404 -0.03409940004089157 0 0.00015757633232322247 -0.034057794953093412 0 0.00017423121447469775 -0.034094846885177457 0 0.00017034443861400371 -0.034085652446969962 0 0.00017423121447469775 -0.034094846885177457 0 0.00017879524331965404 -0.03409940004089157 0 0.00017622074823062499 -0.034120782283409069 0 0.00017879524331965404 -0.03409940004089157 0 0.00017622074823062499 -0.034120782283409069 0 0.00018611060195154221 -0.034129013204955344 0 0.00017007658235616201 -0.03414441004750484 0 0.00018611060195154221 -0.034129013204955344 0 0.00022605314708506108 -0.034179153786292625 0 0.00017007658235616201 -0.03414441004750484 0 0.00017622074823062499 -0.034120782283409069 0 0.00018611060195154221 -0.034129013204955344 0 0.00017879524331965404 -0.03409940004089157 0 0.00018611060195154221 -0.034129013204955344 0 0.00021413804194970004 -0.034094504028614386 0 0.00027881396325687838 -0.034045070023626452 0 0.00034846678800751197 -0.034039890977490828 0 0.00040707927101480665 -0.033979117935319589 0 0.00045732584530201747 -0.033874932950139089 0 0.00051395796716294077 -0.033946629023248506 0 0.00045732584530201747 -0.033874932950139089 0 0.00050920595160436073 -0.033847715888330666 0 0.00051395796716294077 -0.033946629023248506 0 0.00045732584530201747 -0.033874932950139089 0 0.00050920595160436073 -0.033847715888330666 0 0.00043431172319432983 -0.033739378749733616 0 0.00050920595160436073 -0.033847715888330666 0 0.00043431172319432983 -0.033739378749733616 0 0.000479156738993756 -0.033680885600213581 0 0.00045732584530201747 -0.033874932950139089 0 0.00043431172319432983 -0.033739378749733616 0 0.00032202910479859557 -0.033834664270466344 0 0.00043431172319432983 -0.033739378749733616 0 0.0003268832514291488 -0.033605361707882787 0 0.00041800374884211979 -0.033497764054717744 0 0.00043431172319432983 -0.033739378749733616 0 0.00032202910479859557 -0.033834664270466344 0 0.0003268832514291488 -0.033605361707882787 0 0.00040707927101480665 -0.033979117935319589 0 0.00045732584530201747 -0.033874932950139089 0 0.00032202910479859557 -0.033834664270466344 0 0.00040707927101480665 -0.033979117935319589 0 0.00019090300727162717 -0.033926535965546262 0 0.00032202910479859557 -0.033834664270466344 0 0.00019090300727162717 -0.033926535965546262 0 0.0002261396838678934 -0.033820406897746909 0 0.00013025021169849334 -0.033770469111052068 0 0.00019090300727162717 -0.033926535965546262 0 0.0002261396838678934 -0.033820406897746909 0 0.00032202910479859557 -0.033834664270466344 0 0.00032202910479859557 -0.033834664270466344 0 0.00025370805668155068 -0.033759872044736308 0 0.0003268832514291488 -0.033605361707882787 0 3.2617374563062081e-05 -0.032018118121875848 0 -1.4410388236810914e-05 -0.032351659885767069 0 0.0003268832514291488 -0.033605361707882787 0 0.00013025021169849334 -0.033770469111052068 0 0.00031370360284060407 -0.03325248903671011 0 0.0002261396838678934 -0.033820406897746909 0 0.00032202910479859557 -0.033834664270466344 0 0.00025370805668155068 -0.033759872044736308 0 0.00025370805668155068 -0.033759872044736308 0 0.0003268832514291488 -0.033605361707882787 0 0.00013025021169849334 -0.033770469111052068 0 0.0002261396838678934 -0.033820406897746909 0 0.00025370805668155068 -0.033759872044736308 0 0.00013025021169849334 -0.033770469111052068 0 0.00058481569966951149 -0.032510454859528005 0 0.0006277232283378269 -0.032675657419915342 0 0.00056101859747596317 -0.03294740649612244 0 0.00044315304417470844 -0.032270727539795381 0 0.00079581656254106275 -0.032203038132874146 0 0.00056101859747596317 -0.03294740649612244 0 -0.00020668473177370779 -0.026173320202360073 0 -0.00042396898312536301 -0.02767477440029922 0 0.00066223229937098776 -0.032750041251717738 0 0.0006277232283378269 -0.032675657419915342 0 0.00056101859747596317 -0.03294740649612244 0 0.00068538460239579344 -0.032620587424225196 0 0.00074078378244961938 -0.032548264852164221 0 0.00074561731985536015 -0.032680365732068464 0 0.00066223229937098776 -0.032750041251717738 0 0.00068538460239579344 -0.032620587424225196 0 0.00074561731985536015 -0.032680365732068464 0 0.00066223229937098776 -0.032750041251717738 0 0.0006277232283378269 -0.032675657419915342 0 0.00068538460239579344 -0.032620587424225196 0 0.0006277232283378269 -0.032675657419915342 0 0.00068538460239579344 -0.032620587424225196 0 0.00065435545565333843 -0.032578610525022526 0 0.00068538460239579344 -0.032620587424225196 0 0.00065435545565333843 -0.032578610525022526 0 0.00074078378244961938 -0.032548264852164221 0 0.00058481569966951149 -0.032510454859528005 0 0.00065435545565333843 -0.032578610525022526 0 0.00074078378244961938 -0.032548264852164221 0 0.00058481569966951149 -0.032510454859528005 0 0.0006277232283378269 -0.032675657419915342 0 0.00065435545565333843 -0.032578610525022526 0 -0.00020668473177370779 -0.026173320202360073 0 0.00045631935256374307 -0.026278055611895633 0 0.00086259955458810236 -0.03107826470618855 0 0.00044315304417470844 -0.032270727539795381 0 0.0009860511133822521 -0.031519890508148317 0 0.0018351596619223332 -0.021542434412947054 0 0.0019659135210347949 -0.021053367049819732 0 0.002570410119748017 -0.02112525169747545 0 0.00012802455371162797 -0.034039242178703986 0 0.00019090300727162717 -0.033926535965546262 0 0.00013025021169849334 -0.033770469111052068 0 0.00023345580873084787 -0.030841546835030167 0 3.2617374563062081e-05 -0.032018118121875848 0 0.00044315304417470844 -0.032270727539795381 0 0.00079581656254106275 -0.032203038132874146 0 0.0009860511133822521 -0.031519890508148317 0 0.00034680258362862769 -0.034222985405772323 0 0.00030366569298070114 -0.034187000212668371 0 0.0003946655192931452 -0.034082488654722402 0 0.00034680258362862769 -0.034222985405772323 0 0.0003946655192931452 -0.034082488654722402 0 0.00036726617578177487 -0.034202655513756404 0 0.00034680258362862769 -0.034222985405772323 0 0.00036726617578177487 -0.034202655513756404 0 0.00032474199208822822 -0.034296970288181849 0 0.00031616418451491026 -0.034314166477118706 0 0.00034680258362862769 -0.034222985405772323 0 0.00032474199208822822 -0.034296970288181849 0 0.00031350521739289145 -0.034250120455583899 0 0.00031616418451491026 -0.034314166477118706 0 0.00034680258362862769 -0.034222985405772323 0 0.00031350521739289145 -0.034250120455583899 0 0.00034680258362862769 -0.034222985405772323 0 0.00030366569298070114 -0.034187000212668371 0 0.00026682180753724214 -0.034232066889236842 0 0.00031350521739289145 -0.034250120455583899 0 0.00030366569298070114 -0.034187000212668371 0 0.00026682180753724214 -0.034232066889236842 0 0.00030366569298070114 -0.034187000212668371 0 0.00022605314708506108 -0.034179153786292625 0 0.00030366569298070114 -0.034187000212668371 0 0.00022605314708506108 -0.034179153786292625 0 0.00021413804194970004 -0.034094504028614386 0 0.00018611060195154221 -0.034129013204955344 0 0.00022605314708506108 -0.034179153786292625 0 0.00021413804194970004 -0.034094504028614386 0 0.00030366569298070114 -0.034187000212668371 0 0.00021413804194970004 -0.034094504028614386 0 0.0003946655192931452 -0.034082488654722402 0 0.00034846678800751197 -0.034039890977490828 0 0.00037969407854247556 -0.034040303613008208 0 0.00051395796716294077 -0.033946629023248506 0 0.00051804796280003945 -0.033960104077398648 0 0.0003946655192931452 -0.034082488654722402 0 0.00050920595160436073 -0.033847715888330666 0 0.00051395796716294077 -0.033946629023248506 0 0.00051804796280003945 -0.033960104077398648 0 0.00050920595160436073 -0.033847715888330666 0 0.00051804796280003945 -0.033960104077398648 0 0.00051269428863369242 -0.033715113994334044 0 0.00051804796280003945 -0.033960104077398648 0 0.00044843376368278924 -0.034093518426086829 0 0.0003946655192931452 -0.034082488654722402 0 0.00044843376368278924 -0.034093518426086829 0 0.0003946655192931452 -0.034082488654722402 0 0.00036726617578177487 -0.034202655513756404 0 0.00044843376368278924 -0.034093518426086829 0 0.00036726617578177487 -0.034202655513756404 0 0.00034494986049312185 -0.03424362192423959 0 0.00034494986049312185 -0.03424362192423959 0 0.00025439627786440737 -0.034393923790258928 0 0.00029896762817136012 -0.034329638550972708 0 0.00034494986049312185 -0.03424362192423959 0 0.00025439627786440737 -0.034393923790258928 0 0.00029929906771393526 -0.034315036330641951 0 0.00025439627786440737 -0.034393923790258928 0 0.00029896762817136012 -0.034329638550972708 0 0.00022855181537056142 -0.034437583252715107 0 0.00036726617578177487 -0.034202655513756404 0 0.00034494986049312185 -0.03424362192423959 0 0.00029896762817136012 -0.034329638550972708 0 0.00029896762817136012 -0.034329638550972708 0 0.00027634885636072906 -0.034386305774184805 0 0.00032474199208822822 -0.034296970288181849 0 0.00036726617578177487 -0.034202655513756404 0 0.00029896762817136012 -0.034329638550972708 0 0.00032474199208822822 -0.034296970288181849 0 0.00029896762817136012 -0.034329638550972708 0 0.00027634885636072906 -0.034386305774184805 0 0.00022855181537056142 -0.034437583252715107 0 0.00027634885636072906 -0.034386305774184805 0 0.00028993321399063975 -0.034373616401414363 0 0.00025515653328036397 -0.034435158898800076 0 0.00027634885636072906 -0.034386305774184805 0 0.00032474199208822822 -0.034296970288181849 0 0.00028993321399063975 -0.034373616401414363 0 0.00031616418451491026 -0.034314166477118706 0 0.00032474199208822822 -0.034296970288181849 0 0.00028993321399063975 -0.034373616401414363 0 0.00017719148029270165 -0.034548634838464737 0 0.00015339808114447743 -0.034559806421201399 0 0.00012652327828934209 -0.034634389073069684 0 0.00017719148029270165 -0.034548634838464737 0 0.00021663653997454907 -0.034481618678182717 0 0.00021026895574653262 -0.034504464460686446 0 0.00017719148029270165 -0.034548634838464737 0 0.00012652327828934209 -0.034634389073069684 0 0.00016410802709089379 -0.034571868402003721 0 0.00021663653997454907 -0.034481618678182717 0 0.00025515653328036397 -0.034435158898800076 0 0.00021026895574653262 -0.034504464460686446 0 0.00027634885636072906 -0.034386305774184805 0 0.00021663653997454907 -0.034481618678182717 0 0.00025515653328036397 -0.034435158898800076 0 0.00027634885636072906 -0.034386305774184805 0 0.00021663653997454907 -0.034481618678182717 0 0.00022855181537056142 -0.034437583252715107 0 0.00021663653997454907 -0.034481618678182717 0 0.00015339808114447743 -0.034559806421201399 0 0.00022855181537056142 -0.034437583252715107 0 0.00017719148029270165 -0.034548634838464737 0 0.00021663653997454907 -0.034481618678182717 0 0.00015339808114447743 -0.034559806421201399 0 0.00015339808114447743 -0.034559806421201399 0 0.00017320499982903189 -0.03449669762051176 0 0.00012790121849335707 -0.034570883152986773 0 0.00015339808114447743 -0.034559806421201399 0 0.00017320499982903189 -0.03449669762051176 0 0.00022855181537056142 -0.034437583252715107 0 0.00025439627786440737 -0.034393923790258928 0 0.00017320499982903189 -0.03449669762051176 0 0.00022855181537056142 -0.034437583252715107 0 0.00025439627786440737 -0.034393923790258928 0 0.00017320499982903189 -0.03449669762051176 0 0.00018812683473947212 -0.034512095095575658 0 0.00017320499982903189 -0.03449669762051176 0 0.00010112584073206364 -0.034573701774142693 0 0.00018812683473947212 -0.034512095095575658 0 0.00010112584073206364 -0.034573701774142693 0 6.7520652345266527e-05 -0.034606944182042521 0 7.0568372909434837e-05 -0.034652661843793578 0 6.7520652345266527e-05 -0.034606944182042521 0 7.0568372909434837e-05 -0.034652661843793578 0 7.0891840093679974e-05 -0.034679469798786944 0 0.00010112584073206364 -0.034573701774142693 0 7.0568372909434837e-05 -0.034652661843793578 0 9.0312064163630923e-05 -0.034650716764707566 0 7.0568372909434837e-05 -0.034652661843793578 0 7.0572475611779792e-05 -0.034720515689187673 0 6.1574000264606402e-05 -0.034762637695084177 0 7.0568372909434837e-05 -0.034652661843793578 0 7.0572475611779792e-05 -0.034720515689187673 0 9.0312064163630923e-05 -0.034650716764707566 0 0.00015339808114447743 -0.034559806421201399 0 9.0312064163630923e-05 -0.034650716764707566 0 0.00012790121849335707 -0.034570883152986773 0 0.00017320499982903189 -0.03449669762051176 0 0.00010112584073206364 -0.034573701774142693 0 0.00012790121849335707 -0.034570883152986773 0 0.00010112584073206364 -0.034573701774142693 0 9.0312064163630923e-05 -0.034650716764707566 0 0.00012790121849335707 -0.034570883152986773 0 2.0243291561358377e-11 -0.035000037309073563 0 1.0588870472086582e-05 -0.034999042693339193 0 2.9508916942314354e-06 -0.035001176184552889 0 0.00014412610724308931 -0.034664993534146996 0 8.9552124522896971e-05 -0.034610302495264235 0 7.0891840093679974e-05 -0.034679469798786944 0 0.00014412610724308931 -0.034664993534146996 0 7.0891840093679974e-05 -0.034679469798786944 0 7.1077398578638814e-05 -0.034785861940970504 0 6.7520652345266527e-05 -0.034606944182042521 0 8.9552124522896971e-05 -0.034610302495264235 0 7.0891840093679974e-05 -0.034679469798786944 0 7.0568372909434837e-05 -0.034652661843793578 0 7.0891840093679974e-05 -0.034679469798786944 0 6.1574000264606402e-05 -0.034762637695084177 0 6.1574000264606402e-05 -0.034762637695084177 0 7.1077398578638814e-05 -0.034785861940970504 0 5.4382146871640062e-05 -0.034856062855393027 0 7.0891840093679974e-05 -0.034679469798786944 0 6.1574000264606402e-05 -0.034762637695084177 0 7.1077398578638814e-05 -0.034785861940970504 0 2.0243291561358377e-11 -0.035000037309073563 0 1.0588870472086582e-05 -0.034999042693339193 0 4.0165540762291573e-05 -0.034951903640866429 0 0.00014412610724308931 -0.034664993534146996 0 7.1077398578638814e-05 -0.034785861940970504 0 4.0165540762291573e-05 -0.034951903640866429 0 2.0243291561358377e-11 -0.035000037309073563 0 1.0220503271536388e-07 -0.034999699254600683 0 4.0165540762291573e-05 -0.034951903640866429 0 3.5874012653017654e-05 -0.034822067327056366 0 3.7034365269050282e-05 -0.034828373665367209 0 7.1077398578638814e-05 -0.034785861940970504 0 4.0165540762291573e-05 -0.034951903640866429 0 5.4382146871640062e-05 -0.034856062855393027 0 1.0220503271536388e-07 -0.034999699254600683 0 3.9270072360102687e-05 -0.034914455191142418 0 2.4390449833986173e-05 -0.034925536861676841 0 1.0220503271536388e-07 -0.034999699254600683 0 4.0165540762291573e-05 -0.034951903640866429 0 3.9270072360102687e-05 -0.034914455191142418 0 4.0165540762291573e-05 -0.034951903640866429 0 3.9270072360102687e-05 -0.034914455191142418 0 5.4382146871640062e-05 -0.034856062855393027 0 3.9270072360102687e-05 -0.034914455191142418 0 5.5892573108373346e-05 -0.034827452291908076 0 2.4390449833986173e-05 -0.034925536861676841 0 3.9270072360102687e-05 -0.034914455191142418 0 5.5892573108373346e-05 -0.034827452291908076 0 5.4382146871640062e-05 -0.034856062855393027 0 6.1574000264606402e-05 -0.034762637695084177 0 5.5892573108373346e-05 -0.034827452291908076 0 5.4382146871640062e-05 -0.034856062855393027 0 7.0572475611779792e-05 -0.034720515689187673 0 6.1574000264606402e-05 -0.034762637695084177 0 5.5892573108373346e-05 -0.034827452291908076 0 5.5892573108373346e-05 -0.034827452291908076 0 5.4628848613208546e-05 -0.034804108605912994 0 7.6448650148057323e-05 -0.034731130441697906 0 5.5892573108373346e-05 -0.034827452291908076 0 5.4628848613208546e-05 -0.034804108605912994 0 2.4390449833986173e-05 -0.034925536861676841 0 5.4628848613208546e-05 -0.034804108605912994 0 2.4390449833986173e-05 -0.034925536861676841 0 2.9275890916288175e-05 -0.034857363172582034 0 1.0220503271536388e-07 -0.034999699254600683 0 2.4390449833986173e-05 -0.034925536861676841 0 8.9999423904120496e-09 -0.034999798159043596 0 0.00015339808114447743 -0.034559806421201399 0 9.0312064163630923e-05 -0.034650716764707566 0 0.00010667972263590684 -0.034654231884232646 0 0.00015339808114447743 -0.034559806421201399 0 0.00010667972263590684 -0.034654231884232646 0 0.00012652327828934209 -0.034634389073069684 0 9.0312064163630923e-05 -0.034650716764707566 0 0.00010667972263590684 -0.034654231884232646 0 7.6448650148057323e-05 -0.034731130441697906 0 7.0572475611779792e-05 -0.034720515689187673 0 9.0312064163630923e-05 -0.034650716764707566 0 7.6448650148057323e-05 -0.034731130441697906 0 7.0572475611779792e-05 -0.034720515689187673 0 5.5892573108373346e-05 -0.034827452291908076 0 7.6448650148057323e-05 -0.034731130441697906 0 0.00010667972263590684 -0.034654231884232646 0 7.6448650148057323e-05 -0.034731130441697906 0 8.5825057605856716e-05 -0.034714721243532969 0 5.4628848613208546e-05 -0.034804108605912994 0 8.5825057605856716e-05 -0.034714721243532969 0 7.6768300341017919e-05 -0.034717085764330712 0 5.4628848613208546e-05 -0.034804108605912994 0 7.6448650148057323e-05 -0.034731130441697906 0 8.5825057605856716e-05 -0.034714721243532969 0 8.5825057605856716e-05 -0.034714721243532969 0 0.00012652327828934209 -0.034634389073069684 0 7.6768300341017919e-05 -0.034717085764330712 0 0.00010667972263590684 -0.034654231884232646 0 8.5825057605856716e-05 -0.034714721243532969 0 0.00012652327828934209 -0.034634389073069684 0 0.00012652327828934209 -0.034634389073069684 0 7.6768300341017919e-05 -0.034717085764330712 0 0.00016410802709089379 -0.034571868402003721 0 7.6768300341017919e-05 -0.034717085764330712 0 1.2152835724509529e-05 -0.034842559329235016 0 9.6909039650274183e-05 -0.034600300644208951 0 3.9391675052787753e-05 -0.034623908516589856 0 3.3204502661954611e-05 -0.034605491628290873 0 7.6768300341017919e-05 -0.034717085764330712 0 9.6909039650274183e-05 -0.034600300644208951 0 0.00016410802709089379 -0.034571868402003721 0 9.6909039650274183e-05 -0.034600300644208951 0 0.00018858784293384785 -0.034464188590039767 0 0.00016410802709089379 -0.034571868402003721 0 2.4390449833986173e-05 -0.034925536861676841 0 8.9999423904120496e-09 -0.034999798159043596 0 2.9275890916288175e-05 -0.034857363172582034 0 5.4628848613208546e-05 -0.034804108605912994 0 7.6768300341017919e-05 -0.034717085764330712 0 2.9275890916288175e-05 -0.034857363172582034 0 7.6768300341017919e-05 -0.034717085764330712 0 2.9275890916288175e-05 -0.034857363172582034 0 1.2152835724509529e-05 -0.034842559329235016 0 8.9999423904120496e-09 -0.034999798159043596 0 2.9275890916288175e-05 -0.034857363172582034 0 1.2152835724509529e-05 -0.034842559329235016 0 8.9999423904120496e-09 -0.034999798159043596 0 1.2152835724509529e-05 -0.034842559329235016 0 4.6275324415932425e-08 -0.034999890732625848 0 1.2152835724509529e-05 -0.034842559329235016 0 4.6275324415932425e-08 -0.034999890732625848 0 -5.4602206786929361e-06 -0.034961133184471631 0 1.2152835724509529e-05 -0.034842559329235016 0 -5.4602206786929361e-06 -0.034961133184471631 0 -5.0612160070806229e-05 -0.034931125506485243 0 2.4490922674025787e-06 -0.034995481462007635 0 -5.4602206786929361e-06 -0.034961133184471631 0 -5.5863844379867503e-05 -0.034992385064799271 0 1.1561863730374365e-05 -0.034798127567058475 0 4.7427603437688742e-06 -0.034766510632690484 0 2.4490922674025787e-06 -0.034995481462007635 0 4.6275324415932425e-08 -0.034999890732625848 0 -5.4602206786929361e-06 -0.034961133184471631 0 -8.7000697257434993e-09 -0.03500001781589409 0 2.4490922674025787e-06 -0.034995481462007635 0 4.6275324415932425e-08 -0.034999890732625848 0 3.3204502661954611e-05 -0.034605491628290873 0 2.7762426213227485e-05 -0.03455561557673608 0 -0.00011198927699378102 -0.034939315729514794 0 -0.00016246093314878078 -0.034969830468519557 0 -0.0001852243102946088 -0.034915590847725352 0 -0.00011198927699378102 -0.034939315729514794 0 -0.00010204902309289885 -0.034888187878379107 0 -0.0001852243102946088 -0.034915590847725352 0 1.2152835724509529e-05 -0.034842559329235016 0 -0.00010204902309289885 -0.034888187878379107 0 -5.0612160070806229e-05 -0.034931125506485243 0 -0.00011198927699378102 -0.034939315729514794 0 -0.00010204902309289885 -0.034888187878379107 0 -5.0612160070806229e-05 -0.034931125506485243 0 -5.4602206786929361e-06 -0.034961133184471631 0 -5.0612160070806229e-05 -0.034931125506485243 0 -5.5863844379867503e-05 -0.034992385064799271 0 -0.00011198927699378102 -0.034939315729514794 0 -5.0612160070806229e-05 -0.034931125506485243 0 -5.5863844379867503e-05 -0.034992385064799271 0 -8.2018914229806174e-06 -0.034995815238476821 0 -4.328564281719966e-06 -0.034989856069979709 0 -1.4953476531986523e-05 -0.034984417969087578 0 -0.00011198927699378102 -0.034939315729514794 0 -5.5863844379867503e-05 -0.034992385064799271 0 -0.00016246093314878078 -0.034969830468519557 0 -8.2018914229806174e-06 -0.034995815238476821 0 -1.7719634529142697e-05 -0.03498832837782722 0 -1.4953476531986523e-05 -0.034984417969087578 0 4.7427603437688742e-06 -0.034766510632690484 0 1.7459813165336865e-06 -0.034666184389563877 0 -1.7719634529142697e-05 -0.03498832837782722 0 -1.4953476531986523e-05 -0.034984417969087578 0 -2.8537156048746998e-05 -0.034978765468453507 0 1.7459813165336865e-06 -0.034666184389563877 0 4.7150873374601977e-05 -0.034477490832126673 0 0.00037148519616344466 -0.033740851718241677 0 0.00043814150455647019 -0.033683270406430037 0 0.00032687944142723632 -0.03369677233335288 0 -0.00016246093314878078 -0.034969830468519557 0 -0.0001852243102946088 -0.034915590847725352 0 -0.00025912400409830119 -0.034945381806244243 0 0.00018858784293384785 -0.034464188590039767 0 0.00023284625342041122 -0.034450678842120441 0 0.00025542952892327936 -0.034407043570724466 0 -0.0001852243102946088 -0.034915590847725352 0 -0.00026853143837526032 -0.034938725320480674 0 -0.00025912400409830119 -0.034945381806244243 0 2.7762426213227485e-05 -0.03455561557673608 0 5.2362435678469956e-05 -0.034466892822062098 0 0.00023284625342041122 -0.034450678842120441 0 0.00025542952892327936 -0.034407043570724466 0 0.00025994716270716763 -0.034424220788722919 0 0.00025657229681256172 -0.033588677707386265 0 0.00023332444243703016 -0.033607047222344553 0 0.00021614783352148138 -0.033581571745383496 0 4.7150873374601977e-05 -0.034477490832126673 0 4.8303428292675693e-05 -0.034443398760817007 0 5.1072303396208765e-05 -0.034439703704850527 0 5.4911139101025779e-05 -0.034442371278707931 0 4.7588590231397908e-05 -0.034440691404631192 0 5.2362435678469956e-05 -0.034466892822062098 0 4.7150873374601977e-05 -0.034477490832126673 0 0.00043814150455647019 -0.033683270406430037 0 0.00029149709989156392 -0.033646747401649704 0 0.00032687944142723632 -0.03369677233335288 0 0.00025657229681256172 -0.033588677707386265 0 0.00025180486056868999 -0.03362077486791927 0 0.00029149709989156392 -0.033646747401649704 0 0.00025180486056868999 -0.03362077486791927 0 0.00023332444243703016 -0.033607047222344553 0 0.00022579493214852124 -0.033640964665918975 0 0.00043814150455647019 -0.033683270406430037 0 0.00025657229681256172 -0.033588677707386265 0 0.00029149709989156392 -0.033646747401649704 0 0.00025657229681256172 -0.033588677707386265 0 0.00025180486056868999 -0.03362077486791927 0 0.00023332444243703016 -0.033607047222344553 0 0.00011656689318998077 -0.034509664357745183 0 4.7150873374601977e-05 -0.034477490832126673 0 0.00025180486056868999 -0.03362077486791927 0 0.00029149709989156392 -0.033646747401649704 0 0.00022579493214852124 -0.033640964665918975 0 0.00026119531576322235 -0.033697003442981648 0 0.00021169422252631141 -0.033696732701707185 0 0.00022579493214852124 -0.033640964665918975 0 0.00029149709989156392 -0.033646747401649704 0 0.00026119531576322235 -0.033697003442981648 0 0.00022579493214852124 -0.033640964665918975 0 0.00029149709989156392 -0.033646747401649704 0 0.00032687944142723632 -0.03369677233335288 0 0.00026119531576322235 -0.033697003442981648 0 0.00014539492730284735 -0.033741224365732236 0 0.00021169422252631141 -0.033696732701707185 0 0.00017471670205549189 -0.033679897795725854 0 0.00017135357390951213 -0.033634946100097936 0 4.7001031503639669e-05 -0.033668182836093317 0 0.00021614783352148138 -0.033581571745383496 0 0.00021549678466721735 -0.033751860139014531 0 0.00026119531576322235 -0.033697003442981648 0 0.00021169422252631141 -0.033696732701707185 0 0.00012128381505827995 -0.033682609940060962 0 0.00017135357390951213 -0.033634946100097936 0 4.7001031503639669e-05 -0.033668182836093317 0 -3.334649653679496e-06 -0.034234138764489976 0 4.8303428292675693e-05 -0.034443398760817007 0 0.00021169422252631141 -0.033696732701707185 0 0.00017471670205549189 -0.033679897795725854 0 0.00022579493214852124 -0.033640964665918975 0 0.00014539492730284735 -0.033741224365732236 0 0.00017471670205549189 -0.033679897795725854 0 0.00012128381505827995 -0.033682609940060962 0 0.00017471670205549189 -0.033679897795725854 0 0.00012128381505827995 -0.033682609940060962 0 0.00017135357390951213 -0.033634946100097936 0 0.00023332444243703016 -0.033607047222344553 0 0.00021163822543716424 -0.03361637588526209 0 0.00021614783352148138 -0.033581571745383496 0 0.00023332444243703016 -0.033607047222344553 0 0.00021163822543716424 -0.03361637588526209 0 0.00022579493214852124 -0.033640964665918975 0 0.00017135357390951213 -0.033634946100097936 0 0.00021163822543716424 -0.03361637588526209 0 0.00022579493214852124 -0.033640964665918975 0 0.00017135357390951213 -0.033634946100097936 0 0.00021163822543716424 -0.03361637588526209 0 0.00021614783352148138 -0.033581571745383496 0 0.00017471670205549189 -0.033679897795725854 0 0.00017135357390951213 -0.033634946100097936 0 0.00022579493214852124 -0.033640964665918975 0 4.4001249569351555e-05 -0.033747751570580888 0 0.00012128381505827995 -0.033682609940060962 0 4.7001031503639669e-05 -0.033668182836093317 0 4.4001249569351555e-05 -0.033747751570580888 0 0.00014539492730284735 -0.033741224365732236 0 0.00012128381505827995 -0.033682609940060962 0 -0.00036015037944149949 -0.033932434937892608 0 -0.00034892852784507286 -0.033999525838189472 0 -0.00048139225787924023 -0.033969321136818248 0 0.00029886400750660697 -0.034322294003413308 0 0.00028737220194648198 -0.034327811487433899 0 0.00030352745484057747 -0.034336502791688525 0 -0.00025899229027734057 -0.033961101698484583 0 -0.00036015037944149949 -0.033932434937892608 0 -0.00034892852784507286 -0.033999525838189472 0 0.00029886400750660697 -0.034322294003413308 0 0.00027353664056862267 -0.034316140346851466 0 0.00028737220194648198 -0.034327811487433899 0 8.4461036124450382e-06 -0.03432826350103773 0 4.8303428292675693e-05 -0.034443398760817007 0 0.00027111252286525755 -0.034316845802014974 0 0.00027353664056862267 -0.034316140346851466 0 0.00028737220194648198 -0.034327811487433899 0 5.2362435678469956e-05 -0.034466892822062098 0 4.8303428292675693e-05 -0.034443398760817007 0 5.2362435678469956e-05 -0.034466892822062098 0 0.00013373742192956085 -0.034474137528555528 0 0.00025542952892327936 -0.034407043570724466 0 0.00027951650160962195 -0.034399485772190146 0 0.00025994716270716763 -0.034424220788722919 0 0.00025994716270716763 -0.034424220788722919 0 0.00027762947890725201 -0.034399266129370845 0 0.00024224568760135431 -0.034455116043059592 0 0.00027951650160962195 -0.034399485772190146 0 0.00025994716270716763 -0.034424220788722919 0 0.00027762947890725201 -0.034399266129370845 0 0.00027951650160962195 -0.034399485772190146 0 0.00027762947890725201 -0.034399266129370845 0 0.00030352745484057747 -0.034336502791688525 0 0.00027762947890725201 -0.034399266129370845 0 0.00030352745484057747 -0.034336502791688525 0 0.00029694769752637622 -0.034355649688274807 0 0.00013373742192956085 -0.034474137528555528 0 0.00015954390088316033 -0.034475347237342066 0 0.00027762947890725201 -0.034399266129370845 0 0.00028993321399063975 -0.034373616401414363 0 0.00029694769752637622 -0.034355649688274807 0 0.00031616418451491026 -0.034314166477118706 0 0.00030352745484057747 -0.034336502791688525 0 0.00029694769752637622 -0.034355649688274807 0 0.00031616418451491026 -0.034314166477118706 0 0.00028993321399063975 -0.034373616401414363 0 0.00029694769752637622 -0.034355649688274807 0 0.00027762947890725201 -0.034399266129370845 0 0.00025515653328036397 -0.034435158898800076 0 0.00024224568760135431 -0.034455116043059592 0 0.00027762947890725201 -0.034399266129370845 0 0.00028993321399063975 -0.034373616401414363 0 0.00025515653328036397 -0.034435158898800076 0 0.00021026895574653262 -0.034504464460686446 0 0.00020945179731414058 -0.034498207644749646 0 0.00024224568760135431 -0.034455116043059592 0 0.00025515653328036397 -0.034435158898800076 0 0.00021026895574653262 -0.034504464460686446 0 0.00024224568760135431 -0.034455116043059592 0 0.00021026895574653262 -0.034504464460686446 0 0.00016410802709089379 -0.034571868402003721 0 0.00020945179731414058 -0.034498207644749646 0 0.00017719148029270165 -0.034548634838464737 0 0.00021026895574653262 -0.034504464460686446 0 0.00016410802709089379 -0.034571868402003721 0 0.00018858784293384785 -0.034464188590039767 0 0.00016410802709089379 -0.034571868402003721 0 0.00020945179731414058 -0.034498207644749646 0 0.00018858784293384785 -0.034464188590039767 0 0.00023284625342041122 -0.034450678842120441 0 0.00020945179731414058 -0.034498207644749646 0 0.00023284625342041122 -0.034450678842120441 0 0.00020945179731414058 -0.034498207644749646 0 0.00024224568760135431 -0.034455116043059592 0 0.00023284625342041122 -0.034450678842120441 0 0.00025994716270716763 -0.034424220788722919 0 0.00024224568760135431 -0.034455116043059592 0 0.0025436004959531995 0.0061356947753385708 0 0.0031178381558747107 0.004570478393503081 0 0.0013719408041774944 0.0045539801025393642 0 0.0025436004959531995 0.0061356947753385708 0 0.0045947520820342654 0.0046860912213175883 0 0.0031178381558747107 0.004570478393503081 0 0.00075659837409513295 0.0045430287748140195 0 -0.0001348584074484324 0.0052326160471644588 0 0.0025436004959531995 0.0061356947753385708 0 0.00082467898634884507 0.0064928013492757024 0 0.0013719408041774944 0.0045539801025393642 0 0.00082467898634884507 0.0064928013492757024 0 0.0013719408041774944 0.0045539801025393642 0 -0.00027354863423125029 0.0063364425936879281 0 0.0025436004959531995 0.0061356947753385708 0 0.0015724850796141213 0.0070490097386535283 0 0.00082467898634884507 0.0064928013492757024 0 0.0015724850796141213 0.0070490097386535283 0 0.00082467898634884507 0.0064928013492757024 0 0.00088223809966938866 0.0076863105265345079 0 0.00082467898634884507 0.0064928013492757024 0 0.00088223809966938866 0.0076863105265345079 0 -0.00033296963022632069 0.0073020583745386936 0 0.00082467898634884507 0.0064928013492757024 0 -0.00027354863423125029 0.0063364425936879281 0 -0.00033296963022632069 0.0073020583745386936 0 0.00088223809966938866 0.0076863105265345079 0 -0.00033296963022632069 0.0073020583745386936 0 0.00010678164710038179 0.0084278311867845897 0 0.0015724850796141213 0.0070490097386535283 0 0.00088223809966938866 0.0076863105265345079 0 0.002025784066930803 0.0080878336628144726 0 0.00088223809966938866 0.0076863105265345079 0 0.002025784066930803 0.0080878336628144726 0 0.0011221194217228495 0.0087632855853139197 0 0.0025436004959531995 0.0061356947753385708 0 0.002025784066930803 0.0080878336628144726 0 0.0041710487089766674 0.0078008382701744991 0 0.0025436004959531995 0.0061356947753385708 0 0.0015724850796141213 0.0070490097386535283 0 0.002025784066930803 0.0080878336628144726 0 0.0040640303119673102 0.0071399229793002884 0 0.0053959155381825656 0.0068670610275069956 0 0.0045947520820342654 0.0046860912213175883 0 0.0040640303119673102 0.0071399229793002884 0 0.0053959155381825656 0.0068670610275069956 0 0.0052757679950280476 0.008385812410055064 0 0.0062682514093986095 0.0061544841588189901 0 0.0053959155381825656 0.0068670610275069956 0 0.0068082271307081934 0.0077374957657638001 0 0.0062682514093986095 0.0061544841588189901 0 0.0061409962186974023 0.0047915222608999504 0 0.0045947520820342654 0.0046860912213175883 0 0.0062682514093986095 0.0061544841588189901 0 0.0053959155381825656 0.0068670610275069956 0 0.0045947520820342654 0.0046860912213175883 0 0.004028030408334154 0.0081993817864703718 0 0.0042413538913542012 0.0070247128563332715 0 0.0025436004959531995 0.0061356947753385708 0 0.0041710487089766674 0.0078008382701744991 0 0.0045947520820342654 0.0046860912213175883 0 0.0045947520820342654 0.0046860912213175883 0 0.0062446480314180984 0.0036013402165178316 0 0.0039146853091836581 0.0030130290233212451 0 0.0045947520820342654 0.0046860912213175883 0 0.0039146853091836581 0.0030130290233212451 0 0.0031178381558747107 0.004570478393503081 0 0.0061409962186974023 0.0047915222608999504 0 0.0045947520820342654 0.0046860912213175883 0 0.0062446480314180984 0.0036013402165178316 0 0.0062446480314180984 0.0036013402165178316 0 0.0039146853091836581 0.0030130290233212451 0 0.0059565853948449271 0.0016381689419145821 0 0.002428682088870272 0.0032176446798148485 0 0.0042279798226563629 0.0016773526295559829 0 0.00045389700611059145 0.0021196131270350368 0 0.0010377135540797406 0.0013024954656985423 0 0.0012171041062049865 0.003877033466287707 0 -0.00027547452583776227 0.0038930528250923106 0 0.0011039864001440261 0.0023230437321643239 0 0.0012171041062049865 0.003877033466287707 0 -0.00036822261685532596 0.0050776531307432753 0 -0.00027547452583776227 0.0038930528250923106 0 0.002428682088870272 0.0032176446798148485 0 0.00075659837409513295 0.0045430287748140195 0 0.0039146853091836581 0.0030130290233212451 0 0.0031178381558747107 0.004570478393503081 0 0.0013719408041774944 0.0045539801025393642 0 -0.00036822261685532596 0.0050776531307432753 0 -0.00096505513406342966 0.0045840030267248668 0 -0.00027547452583776227 0.0038930528250923106 0 -0.00036822261685532596 0.0050776531307432753 0 -0.00096505513406342966 0.0045840030267248668 0 -0.0012395938241923155 0.0054393972976104531 0 -0.00096505513406342966 0.0045840030267248668 0 -0.00027547452583776227 0.0038930528250923106 0 -0.001315898901082617 0.0036964403260426426 0 -0.00027547452583776227 0.0038930528250923106 0 -0.001315898901082617 0.0036964403260426426 0 -0.00028895874287005672 0.0022070347116991238 0 -0.001876627706410293 0.0040854077339802525 0 -0.0028625600800422776 0.0041477001093571881 0 -0.0030806520474281154 0.0046872052932654586 0 -0.001876627706410293 0.0040854077339802525 0 -0.0028625600800422776 0.0041477001093571881 0 -0.0028604215025990454 0.0030537062315522017 0 -0.0035048484147089331 0.0046095876134605029 0 -0.00345201425829403 0.0048483715338569497 0 -0.0037965300360799244 0.0048365772700757316 0 -0.0035267536350176653 0.0046980310322596716 0 -0.0028625600800422776 0.0041477001093571881 0 -0.0028604215025990454 0.0030537062315522017 0 -0.0035267536350176653 0.0046980310322596716 0 -0.0035048484147089331 0.0046095876134605029 0 -0.0037965300360799244 0.0048365772700757316 0 -0.0031338363787271339 0.0039368881368198405 0 -0.0029959001207596806 0.003755462842562248 0 -0.0035048484147089331 0.0046095876134605029 0 -0.0031451028876224234 0.0047781375665638705 0 -0.00345201425829403 0.0048483715338569497 0 -0.0035267536350176653 0.0046980310322596716 0 -0.0028625600800422776 0.0041477001093571881 0 -0.0030806520474281154 0.0046872052932654586 0 -0.0035267536350176653 0.0046980310322596716 0 -0.0035048484147089331 0.0046095876134605029 0 -0.003722863907244679 0.005080295263908065 0 -0.0035267536350176653 0.0046980310322596716 0 -0.0030806520474281154 0.0046872052932654586 0 -0.003722863907244679 0.005080295263908065 0 -0.0030806520474281154 0.0046872052932654586 0 -0.0030298849149760681 0.005206318114990947 0 -0.003722863907244679 0.005080295263908065 0 -0.001876627706410293 0.0040854077339802525 0 -0.0030806520474281154 0.0046872052932654586 0 -0.0030298849149760681 0.005206318114990947 0 -0.00096505513406342966 0.0045840030267248668 0 -0.001315898901082617 0.0036964403260426426 0 -0.0015732977822298512 0.0048122392036243937 0 -0.001315898901082617 0.0036964403260426426 0 -0.0023999812318722326 0.0049699161233123425 0 -0.0015732977822298512 0.0048122392036243937 0 -0.0023999812318722326 0.0049699161233123425 0 -0.0015732977822298512 0.0048122392036243937 0 -0.0019495526032367418 0.0054036202963966542 0 -0.0017510282301440442 0.0040119309529574598 0 -0.0025164242927744082 0.0048427407115061733 0 -0.00096505513406342966 0.0045840030267248668 0 -0.0015732977822298512 0.0048122392036243937 0 -0.0012395938241923155 0.0054393972976104531 0 -0.0017356279454269485 0.013483805681584448 0 -0.0017549418721001264 0.013297934779660636 0 -0.0026894212933713975 0.0048323268751519427 0 -0.0029578112035019534 0.0044011610148540084 0 -0.0025263098689093911 0.0041183133853944292 0 -0.0026894212933713975 0.0048323268751519427 0 -0.0025263098689093911 0.0041183133853944292 0 -0.0020307108063884424 0.0049650421490882437 0 -0.0026894212933713975 0.0048323268751519427 0 -0.0029578112035019534 0.0044011610148540084 0 -0.0031451028876224234 0.0047781375665638705 0 -0.0035048484147089331 0.0046095876134605029 0 -0.0031451028876224234 0.0047781375665638705 0 -0.0032030454212846403 0.0044329653197348745 0 -0.0029578112035019534 0.0044011610148540084 0 -0.0031451028876224234 0.0047781375665638705 0 -0.0032030454212846403 0.0044329653197348745 0 -0.00095769078749380885 0.0087442392986758714 0 -0.0010297355431861505 0.0099068049185134528 0 -0.0029578112035019534 0.0044011610148540084 0 -0.0031978394037856894 0.0039273467353215016 0 -0.0025263098689093911 0.0041183133853944292 0 -0.0035048484147089331 0.0046095876134605029 0 -0.0032030454212846403 0.0044329653197348745 0 -0.0031978394037856894 0.0039273467353215016 0 -0.0029578112035019534 0.0044011610148540084 0 -0.0032030454212846403 0.0044329653197348745 0 -0.0031978394037856894 0.0039273467353215016 0 -0.0010752102781302528 0.022052191382070051 0 -0.0011689220855997959 0.022544049795731401 0 -0.00074054542101118751 0.022754954672415513 0 -0.0017356279454269485 0.013483805681584448 0 -0.0014807548440333045 0.014218706283000754 0 -0.0010752102781302528 0.022052191382070051 0 -0.0011689220855997959 0.022544049795731401 0 -0.0015207812347748882 0.02239077061475301 0 -0.0011689220855997959 0.022544049795731401 0 -0.0011198491412829953 0.022894208579949799 0 -0.0013660436544821355 0.02275515278836461 0 -0.0011689220855997959 0.022544049795731401 0 -0.00074054542101118751 0.022754954672415513 0 -0.0011198491412829953 0.022894208579949799 0 -0.0010297355431861505 0.0099068049185134528 0 -0.0014807548440333045 0.014218706283000754 0 -0.003722863907244679 0.005080295263908065 0 -0.0040898066478908231 0.0062989284060652219 0 -0.0038698140236480645 0.0063654759311504395 0 -0.0031978394037856894 0.0039273467353215016 0 -0.0025263098689093911 0.0041183133853944292 0 -0.0029711307661998781 0.0033119385720561771 0 -0.0003689394360100791 0.021545338599419366 0 0.00031825825422671458 0.022906225220711705 0 -0.00078004499155597429 0.022739364041912718 0 -0.0014807548440333045 0.014218706283000754 0 -0.00074913883659636325 0.015236456198544791 0 -0.0038698140236480645 0.0063654759311504395 0 -0.0031702645491071052 0.0065699678335074995 0 -0.0031437721461747949 0.0082343783429160017 0 -0.0040898066478908231 0.0062989284060652219 0 -0.0038698140236480645 0.0063654759311504395 0 -0.0031437721461747949 0.0082343783429160017 0 -0.0014807548440333045 0.014218706283000754 0 -0.0022205687231858107 0.018669954228546257 0 -0.00074054542101118751 0.022754954672415513 0 -0.0011198491412829953 0.022894208579949799 0 -0.00094323016899174365 0.023334180783842202 0 -0.0011198491412829953 0.022894208579949799 0 -0.00094323016899174365 0.023334180783842202 0 -0.0014270074797070602 0.023054157668849412 0 -0.0011198491412829953 0.022894208579949799 0 -0.0013660436544821355 0.02275515278836461 0 -0.0014270074797070602 0.023054157668849412 0 -0.00036822261685532596 0.0050776531307432753 0 -0.0012395938241923155 0.0054393972976104531 0 -0.001639240604155074 0.0064269850871603749 0 0.0013719408041774944 0.0045539801025393642 0 -0.00027354863423125029 0.0063364425936879281 0 -0.001639240604155074 0.0064269850871603749 0 -0.0015800423772867173 0.005841888046404912 0 -0.0012395938241923155 0.0054393972976104531 0 -0.001639240604155074 0.0064269850871603749 0 -0.0015800423772867173 0.005841888046404912 0 -0.0018170888942204754 0.0061393569038313877 0 -0.0021403697238484972 0.005992386508946906 0 -0.0018170888942204754 0.0061393569038313877 0 -0.0019020626343465273 0.0063127307171655708 0 -0.0021403697238484972 0.005992386508946906 0 -0.0018170888942204754 0.0061393569038313877 0 -0.0019020626343465273 0.0063127307171655708 0 -0.001639240604155074 0.0064269850871603749 0 -0.0015800423772867173 0.005841888046404912 0 -0.0018170888942204754 0.0061393569038313877 0 -0.001639240604155074 0.0064269850871603749 0 -0.0015800423772867173 0.005841888046404912 0 -0.0019495526032367418 0.0054036202963966542 0 -0.0021403697238484972 0.005992386508946906 0 -0.0015800423772867173 0.005841888046404912 0 -0.0012395938241923155 0.0054393972976104531 0 -0.0019495526032367418 0.0054036202963966542 0 -0.0015732977822298512 0.0048122392036243937 0 -0.0012395938241923155 0.0054393972976104531 0 -0.0019495526032367418 0.0054036202963966542 0 -0.0023999812318722326 0.0049699161233123425 0 -0.00232711739855957 0.0055727384786080367 0 -0.0028304941492829617 0.0059424378866342591 0 -0.0030298849149760681 0.005206318114990947 0 -0.003722863907244679 0.005080295263908065 0 -0.0038698140236480645 0.0063654759311504395 0 -0.0023999812318722326 0.0049699161233123425 0 -0.0038698140236480645 0.0063654759311504395 0 -0.0028304941492829617 0.0059424378866342591 0 -0.0025164242927744082 0.0048427407115061733 0 -0.0029517273526741762 0.0053121685617876935 0 -0.0019495526032367418 0.0054036202963966542 0 -0.00232711739855957 0.0055727384786080367 0 -0.0021403697238484972 0.005992386508946906 0 -0.0023999812318722326 0.0049699161233123425 0 -0.0019495526032367418 0.0054036202963966542 0 -0.00232711739855957 0.0055727384786080367 0 -0.0038698140236480645 0.0063654759311504395 0 -0.0028304941492829617 0.0059424378866342591 0 -0.0031702645491071052 0.0065699678335074995 0 -0.0028304941492829617 0.0059424378866342591 0 -0.0021403697238484972 0.005992386508946906 0 -0.0025610755851092682 0.0066192126680796456 0 -0.00232711739855957 0.0055727384786080367 0 -0.0028304941492829617 0.0059424378866342591 0 -0.0021403697238484972 0.005992386508946906 0 -0.0021403697238484972 0.005992386508946906 0 -0.0021201214013436376 0.0063769813250956408 0 -0.0025610755851092682 0.0066192126680796456 0 -0.0019020626343465273 0.0063127307171655708 0 -0.0021403697238484972 0.005992386508946906 0 -0.0021201214013436376 0.0063769813250956408 0 -5.7525294945079931e-05 0.013071180434916538 0 -0.00074913883659636325 0.015236456198544791 0 -0.0021201214013436376 0.0063769813250956408 0 -0.0025610755851092682 0.0066192126680796456 0 -0.001865052869728214 0.0065956008221936882 0 -0.0025610755851092682 0.0066192126680796456 0 -0.0031702645491071052 0.0065699678335074995 0 -0.0031437721461747949 0.0082343783429160017 0 -0.001865052869728214 0.0065956008221936882 0 -0.0020786571470694055 0.0083450141630172642 0 -0.0036584189728425774 0.0091132204867347983 0 -0.0025610755851092682 0.0066192126680796456 0 -0.001865052869728214 0.0065956008221936882 0 -0.0031437721461747949 0.0082343783429160017 0 -0.0028304941492829617 0.0059424378866342591 0 -0.0025610755851092682 0.0066192126680796456 0 -0.0031702645491071052 0.0065699678335074995 0 -0.0013995119616605127 0.0078306923917845859 0 -0.001865052869728214 0.0065956008221936882 0 -0.0020786571470694055 0.0083450141630172642 0 -0.0013995119616605127 0.0078306923917845859 0 -0.0014147432897104305 0.0069777369657716181 0 -0.0010368171779156687 0.0073403376103871416 0 -0.0013995119616605127 0.0078306923917845859 0 -0.0014147432897104305 0.0069777369657716181 0 -0.001865052869728214 0.0065956008221936882 0 -0.0014147432897104305 0.0069777369657716181 0 -0.00095483655865940176 0.0068787256177043734 0 -0.0010368171779156687 0.0073403376103871416 0 -0.0014147432897104305 0.0069777369657716181 0 -0.001639240604155074 0.0064269850871603749 0 -0.00095483655865940176 0.0068787256177043734 0 -0.0019020626343465273 0.0063127307171655708 0 -0.001639240604155074 0.0064269850871603749 0 -0.001865052869728214 0.0065956008221936882 0 -0.0014147432897104305 0.0069777369657716181 0 -0.001639240604155074 0.0064269850871603749 0 -0.001865052869728214 0.0065956008221936882 0 -0.0019020626343465273 0.0063127307171655708 0 -0.0021201214013436376 0.0063769813250956408 0 -0.001865052869728214 0.0065956008221936882 0 -0.00027354863423125029 0.0063364425936879281 0 -0.00095483655865940176 0.0068787256177043734 0 -0.00033296963022632069 0.0073020583745386936 0 -0.00027354863423125029 0.0063364425936879281 0 -0.001639240604155074 0.0064269850871603749 0 -0.00095483655865940176 0.0068787256177043734 0 -0.00095483655865940176 0.0068787256177043734 0 -0.00033296963022632069 0.0073020583745386936 0 -0.0010368171779156687 0.0073403376103871416 0 -0.00033296963022632069 0.0073020583745386936 0 -0.00073394936558360637 0.0079980100841145953 0 0.00010678164710038179 0.0084278311867845897 0 -0.00033296963022632069 0.0073020583745386936 0 -0.0010368171779156687 0.0073403376103871416 0 -0.00073394936558360637 0.0079980100841145953 0 -0.0013995119616605127 0.0078306923917845859 0 -0.0010368171779156687 0.0073403376103871416 0 -0.00073394936558360637 0.0079980100841145953 0 -0.00073394936558360637 0.0079980100841145953 0 -0.00087586699976499919 0.0090008100287218978 0 0.00010678164710038179 0.0084278311867845897 0 -0.0013995119616605127 0.0078306923917845859 0 -0.00073394936558360637 0.0079980100841145953 0 -0.00087586699976499919 0.0090008100287218978 0 -0.00087586699976499919 0.0090008100287218978 0 -0.00065344266042618104 0.010749189558381661 0 0.00048211632903615465 0.0097696013004356253 0 -0.00087586699976499919 0.0090008100287218978 0 -0.001797048933098628 0.0097436901485088469 0 -0.00065344266042618104 0.010749189558381661 0 -0.00087586699976499919 0.0090008100287218978 0 -0.001797048933098628 0.0097436901485088469 0 -0.0020786571470694055 0.0083450141630172642 0 -0.0013995119616605127 0.0078306923917845859 0 -0.00087586699976499919 0.0090008100287218978 0 -0.0020786571470694055 0.0083450141630172642 0 -0.001797048933098628 0.0097436901485088469 0 -0.0020786571470694055 0.0083450141630172642 0 -0.0036584189728425774 0.0091132204867347983 0 -0.001797048933098628 0.0097436901485088469 0 -0.0036584189728425774 0.0091132204867347983 0 -0.0022265218907273135 0.011812805767229761 0 -0.00074913883659636325 0.015236456198544791 0 -0.00028610033594818286 0.014915217779184285 0 0.00093907769869832464 0.015283265813597671 0 0.0013993583703959733 0.016170558689414478 0 0.00086097138698226642 0.016214947777705185 0 -0.001797048933098628 0.0097436901485088469 0 -0.0022265218907273135 0.011812805767229761 0 -0.00065344266042618104 0.010749189558381661 0 -0.0022265218907273135 0.011812805767229761 0 -0.00065344266042618104 0.010749189558381661 0 -0.00035964733379754884 0.012461159637173693 0 -0.00094323016899174365 0.023334180783842202 0 -0.0015432637102658162 0.023356244318297841 0 -0.0015054826431221695 0.023739821828059011 0 -0.0022205687231858107 0.018669954228546257 0 -0.0024155512904036843 0.019963634559810855 0 -0.00094323016899174365 0.023334180783842202 0 -0.0014270074797070602 0.023054157668849412 0 -0.0015432637102658162 0.023356244318297841 0 0.00031825825422671458 0.022906225220711705 0 -0.00078004499155597429 0.022739364041912718 0 -0.00051712584382625139 0.02398599852325764 0 0.00093907769869832464 0.015283265813597671 0 0.00038052016942163088 0.016019590807663669 0 0.00086097138698226642 0.016214947777705185 0 -0.00074913883659636325 0.015236456198544791 0 -0.0013044638003140623 0.018072317697052077 0 -0.00078004499155597429 0.022739364041912718 0 -0.00051712584382625139 0.02398599852325764 0 -0.0011196985650341836 0.023909985613983217 0 -0.00094323016899174365 0.023334180783842202 0 -0.0011196985650341836 0.023909985613983217 0 -0.0015054826431221695 0.023739821828059011 0 -0.00051712584382625139 0.02398599852325764 0 -0.0011196985650341836 0.023909985613983217 0 -0.0010826787301955099 0.024267015808096735 0 -0.0011196985650341836 0.023909985613983217 0 -0.0013220178688814039 0.024251610554277964 0 -0.0010826787301955099 0.024267015808096735 0 -0.0011196985650341836 0.023909985613983217 0 -0.0013220178688814039 0.024251610554277964 0 -0.0013957764531509318 0.024005645167154192 0 -0.0011196985650341836 0.023909985613983217 0 -0.0013957764531509318 0.024005645167154192 0 -0.0015054826431221695 0.023739821828059011 0 0.00038052016942163088 0.016019590807663669 0 -0.00019208555166008053 0.016751714030194761 0 -0.00013038605281345366 0.016719061782637594 0 -0.00051712584382625139 0.02398599852325764 0 -0.0011769820844542706 0.024729586029844743 0 -0.0010826787301955099 0.024267015808096735 0 0.00038052016942163088 0.016019590807663669 0 -0.00013038605281345366 0.016719061782637594 0 0.00048066924094143572 0.016667620780369936 0 -0.0013044638003140623 0.018072317697052077 0 -0.0017785973683942505 0.019954668419173063 0 -0.00019491129441109002 0.016750026085743292 0 -0.00013038605281345366 0.016719061782637594 0 -0.00014782257307436209 0.016902467532825184 0 -0.0017785973683942505 0.019954668419173063 0 -0.001772612896327581 0.01994993241473976 0 -0.0011769820844542706 0.024729586029844743 0 -0.001241866197840622 0.024447694802141404 0 -0.0014502597191044168 0.024579726042027288 0 -0.001241866197840622 0.024447694802141404 0 -0.0013220178688814039 0.024251610554277964 0 -0.0014502597191044168 0.024579726042027288 0 -0.0011769820844542706 0.024729586029844743 0 -0.001241866197840622 0.024447694802141404 0 -0.0010826787301955099 0.024267015808096735 0 -0.001241866197840622 0.024447694802141404 0 -0.0013220178688814039 0.024251610554277964 0 -0.0010826787301955099 0.024267015808096735 0 -0.00013038605281345366 0.016719061782637594 0 0.00048066924094143572 0.016667620780369936 0 4.6682923941520139e-05 0.017005145518729298 0 0.00038052016942163088 0.016019590807663669 0 0.00048066924094143572 0.016667620780369936 0 0.00086097138698226642 0.016214947777705185 0 0.00048066924094143572 0.016667620780369936 0 0.00086097138698226642 0.016214947777705185 0 0.0010696806850018568 0.016810045128158365 0 0.0005388537006893034 0.017140655749045587 0 0.00016094410345213956 0.0174066143201396 0 0.00095610615310756913 0.017503735524546531 0 0.0005388537006893034 0.017140655749045587 0 0.0010696806850018568 0.016810045128158365 0 0.00095610615310756913 0.017503735524546531 0 0.00048066924094143572 0.016667620780369936 0 0.0005388537006893034 0.017140655749045587 0 0.0010696806850018568 0.016810045128158365 0 0.00048066924094143572 0.016667620780369936 0 0.0005388537006893034 0.017140655749045587 0 4.6682923941520139e-05 0.017005145518729298 0 4.6682923941520139e-05 0.017005145518729298 0 0.00016094410345213956 0.0174066143201396 0 -0.00024008190285730683 0.017153925014430419 0 0.0005388537006893034 0.017140655749045587 0 4.6682923941520139e-05 0.017005145518729298 0 0.00016094410345213956 0.0174066143201396 0 0.00016094410345213956 0.0174066143201396 0 -0.00024008190285730683 0.017153925014430419 0 -0.00036572466282854221 0.017506063669876604 0 -0.00024008190285730683 0.017153925014430419 0 -0.00014782257307436209 0.016902467532825184 0 -0.00031839499043875819 0.016892000241879507 0 4.6682923941520139e-05 0.017005145518729298 0 -0.00024008190285730683 0.017153925014430419 0 -0.00014782257307436209 0.016902467532825184 0 -0.00013038605281345366 0.016719061782637594 0 4.6682923941520139e-05 0.017005145518729298 0 -0.00014782257307436209 0.016902467532825184 0 -0.00019491129441109002 0.016750026085743292 0 -0.00014782257307436209 0.016902467532825184 0 -0.00031839499043875819 0.016892000241879507 0 -0.0017785973683942505 0.019954668419173063 0 -0.0017447395445889628 0.019904883497771933 0 -0.00028610033594818286 0.014915217779184285 0 0.00062825046421961458 0.015657573495252885 0 -0.0022265218907273135 0.011812805767229761 0 -0.00035964733379754884 0.012461159637173693 0 -0.00079851357257068232 0.014553359428898044 0 0.0013993583703959733 0.016170558689414478 0 0.00086097138698226642 0.016214947777705185 0 0.0010696806850018568 0.016810045128158365 0 0.0013993583703959733 0.016170558689414478 0 0.0010696806850018568 0.016810045128158365 0 0.0018603057243560658 0.017061233017984088 0 0.00062825046421961458 0.015657573495252885 0 0.0004778129748804338 0.016313868631722024 0 0.0010696806850018568 0.016810045128158365 0 0.0018603057243560658 0.017061233017984088 0 0.00095610615310756913 0.017503735524546531 0 0.0017233619565884413 0.017122702881021377 0 0.00097141668659204332 0.017483088303165854 0 0.0015709100075034592 0.017641882124970899 0 0.00062825046421961458 0.015657573495252885 0 0.00093812560602423919 0.016168151837005856 0 7.9050253148039949e-05 0.014258504639965973 0 0.0016353818595410737 0.014790138757366501 0 0.00090878012205677504 0.015833316943735756 0 0.0016353818595410737 0.014790138757366501 0 0.0031717957019063285 0.014241342850170906 0 0.0015181974765202523 0.013557486258210349 0 0.00062825046421961458 0.015657573495252885 0 0.0011581666111071354 0.015167406018475188 0 7.9050253148039949e-05 0.014258504639965973 0 0.0016353818595410737 0.014790138757366501 0 0.0015181974765202523 0.013557486258210349 0 0.0031717957019063285 0.014241342850170906 0 0.0045141179796524744 0.015104139981481506 0 0.0026661102040258554 0.015710603919276582 0 0.0016353818595410737 0.014790138757366501 0 0.0031717957019063285 0.014241342850170906 0 0.0026661102040258554 0.015710603919276582 0 0.0034301714595848742 0.011597608831100979 0 0.0036438241128297195 0.010353398817267809 0 0.0031717957019063285 0.014241342850170906 0 0.0027695203309694872 0.012798410861388177 0 0.0015181974765202523 0.013557486258210349 0 0.0031717957019063285 0.014241342850170906 0 0.0027695203309694872 0.012798410861388177 0 0.0036390550848529237 0.011206255548213103 0 0.0014472190834620652 0.014951157453193802 0 0.0011581666111071354 0.015167406018475188 0 0.0027695203309694872 0.012798410861388177 0 0.00095033467746457635 0.013715220274749069 0 0.00094149422163113984 0.011490092154104769 0 -0.00035964733379754884 0.012461159637173693 0 0.00095033467746457635 0.013715220274749069 0 0.00094149422163113984 0.011490092154104769 0 -0.00035964733379754884 0.012461159637173693 0 -0.00079851357257068232 0.014553359428898044 0 0.00095033467746457635 0.013715220274749069 0 -0.00065344266042618104 0.010749189558381661 0 -0.00035964733379754884 0.012461159637173693 0 0.00094149422163113984 0.011490092154104769 0 -0.00065344266042618104 0.010749189558381661 0 0.00094149422163113984 0.011490092154104769 0 0.00048211632903615465 0.0097696013004356253 0 0.00094149422163113984 0.011490092154104769 0 0.0021096883828819052 0.0098544207089262276 0 0.00048211632903615465 0.0097696013004356253 0 0.0027695203309694872 0.012798410861388177 0 0.00094149422163113984 0.011490092154104769 0 0.0023737394659032619 0.01134352859801116 0 0.0027695203309694872 0.012798410861388177 0 0.0023737394659032619 0.01134352859801116 0 0.0036390550848529237 0.011206255548213103 0 0.0023737394659032619 0.01134352859801116 0 0.0021096883828819052 0.0098544207089262276 0 0.0036390550848529237 0.011206255548213103 0 0.00094149422163113984 0.011490092154104769 0 0.0023737394659032619 0.01134352859801116 0 0.0021096883828819052 0.0098544207089262276 0 0.002025784066930803 0.0080878336628144726 0 0.0041710487089766674 0.0078008382701744991 0 0.0021096883828819052 0.0098544207089262276 0 0.0041710487089766674 0.0078008382701744991 0 0.0021096883828819052 0.0098544207089262276 0 0.0036390550848529237 0.011206255548213103 0 0.002025784066930803 0.0080878336628144726 0 0.0021096883828819052 0.0098544207089262276 0 0.0011221194217228495 0.0087632855853139197 0 -0.00087586699976499919 0.0090008100287218978 0 0.00010678164710038179 0.0084278311867845897 0 0.00048211632903615465 0.0097696013004356253 0 0.0011221194217228495 0.0087632855853139197 0 0.00010678164710038179 0.0084278311867845897 0 0.00048211632903615465 0.0097696013004356253 0 0.00088223809966938866 0.0076863105265345079 0 0.0011221194217228495 0.0087632855853139197 0 0.00010678164710038179 0.0084278311867845897 0 0.0021096883828819052 0.0098544207089262276 0 0.0011221194217228495 0.0087632855853139197 0 0.00048211632903615465 0.0097696013004356253 0 0.0053959155381825656 0.0068670610275069956 0 0.0052757679950280476 0.008385812410055064 0 0.0068082271307081934 0.0077374957657638001 0 0.0052757679950280476 0.008385812410055064 0 0.0068082271307081934 0.0077374957657638001 0 0.0067686253364796977 0.0096774721290105968 0 0.0040640303119673102 0.0071399229793002884 0 0.0052757679950280476 0.008385812410055064 0 0.0033745525035293249 0.010653432025734251 0 0.004028030408334154 0.0081993817864703718 0 0.0036438241128297195 0.010353398817267809 0 0.0052757679950280476 0.008385812410055064 0 0.0033745525035293249 0.010653432025734251 0 0.0054190776536861751 0.010923144962695508 0 0.0080851403157210129 0.0077144126994781077 0 0.0087333715305372584 0.0077757722959185616 0 0.0052757679950280476 0.008385812410055064 0 0.0054190776536861751 0.010923144962695508 0 0.0075506022582256362 0.011384361030963176 0 0.0054759965864917097 0.013164611815168292 0 0.0072542963705153566 0.01365943791656103 0 0.0075506022582256362 0.011384361030963176 0 0.0054190776536861751 0.010923144962695508 0 0.0054759965864917097 0.013164611815168292 0 0.0075506022582256362 0.011384361030963176 0 0.0031717957019063285 0.014241342850170906 0 0.0033745525035293249 0.010653432025734251 0 0.0054759965864917097 0.013164611815168292 0 0.0033745525035293249 0.010653432025734251 0 0.0054190776536861751 0.010923144962695508 0 0.0054759965864917097 0.013164611815168292 0 0.0054759965864917097 0.013164611815168292 0 0.0045141179796524744 0.015104139981481506 0 0.0059174437459554637 0.015600202230805585 0 0.0031717957019063285 0.014241342850170906 0 0.0054759965864917097 0.013164611815168292 0 0.0045141179796524744 0.015104139981481506 0 0.0054759965864917097 0.013164611815168292 0 0.0072542963705153566 0.01365943791656103 0 0.0059174437459554637 0.015600202230805585 0 0.0072542963705153566 0.01365943791656103 0 0.0075756795336813267 0.015276861911873441 0 0.0059174437459554637 0.015600202230805585 0 0.0082046042876199529 0.011198084172780157 0 0.0094039623388427977 0.0095370329147660832 0 0.0067686253364796977 0.0096774721290105968 0 0.0072542963705153566 0.01365943791656103 0 0.0092228156978337653 0.013840746443567545 0 0.0075756795336813267 0.015276861911873441 0 0.0092472949070028891 0.0060746294227144127 0 0.0087333715305372584 0.0077757722959185616 0 0.0072542963705153566 0.01365943791656103 0 0.0092228156978337653 0.013840746443567545 0 0.0075506022582256362 0.011384361030963176 0 0.0092472949070028891 0.0060746294227144127 0 0.0060832929705435775 -0.0022973691888791073 0 0.0082046042876199529 0.011198084172780157 0 0.010396380977575271 0.011385794421746444 0 0.0095983901437129669 0.012741893983176508 0 0.001403735183537338 -0.032506814687545744 0 0.0013249763557521711 -0.032539169392850634 0 0.0013762416598291844 -0.03231084180225105 0 0.001403735183537338 -0.032506814687545744 0 0.0013249763557521711 -0.032539169392850634 0 0.001339698985556794 -0.032629384076007489 0 0.0071600998708862282 -0.0066453092650076533 0 0.0076004701382839006 -0.0086975830695999873 0 0.010396380977575271 0.011385794421746444 0 0.0094039623388427977 0.0095370329147660832 0 0.011224748889195894 0.0099920864815284671 0 0.0082046042876199529 0.011198084172780157 0 0.010396380977575271 0.011385794421746444 0 0.0094039623388427977 0.0095370329147660832 0 0.0094039623388427977 0.0095370329147660832 0 0.010685895369664487 0.0088943552006659505 0 0.011224748889195894 0.0099920864815284671 0 0.0094039623388427977 0.0095370329147660832 0 0.010685895369664487 0.0088943552006659505 0 0.010064211475750784 0.0074740797992330823 0 0.010685895369664487 0.0088943552006659505 0 0.010064211475750784 0.0074740797992330823 0 0.012035474082373489 0.0085724953079623668 0 0.011456606318806139 -0.0048469518002406068 0 0.0078126678394167762 -0.0094384640129285061 0 0.0094039623388427977 0.0095370329147660832 0 0.010064211475750784 0.0074740797992330823 0 0.0082558491642566022 0.0082136697846747764 0 0.010064211475750784 0.0074740797992330823 0 0.0082558491642566022 0.0082136697846747764 0 0.008286898717068553 0.0065385303374063276 0 0.0082558491642566022 0.0082136697846747764 0 0.0068082271307081934 0.0077374957657638001 0 0.008286898717068553 0.0065385303374063276 0 0.0094039623388427977 0.0095370329147660832 0 0.0082558491642566022 0.0082136697846747764 0 0.0067686253364796977 0.0096774721290105968 0 0.0082558491642566022 0.0082136697846747764 0 0.0068082271307081934 0.0077374957657638001 0 0.0067686253364796977 0.0096774721290105968 0 0.0019659135210347949 -0.021053367049819732 0 0.002570410119748017 -0.02112525169747545 0 0.0023967178610091273 -0.020677607758133622 0 -0.00020668473177370779 -0.026173320202360073 0 0.00093053203100150093 -0.022704001239211461 0 0.00058481569966951149 -0.032510454859528005 0 0.00088465418909578495 -0.0323562354285881 0 0.00074078378244961938 -0.032548264852164221 0 0.00088465418909578495 -0.0323562354285881 0 0.00085725301584938386 -0.032588492897618455 0 0.00097586831509898116 -0.032530916586717952 0 0.00088465418909578495 -0.0323562354285881 0 0.00074078378244961938 -0.032548264852164221 0 0.00085725301584938386 -0.032588492897618455 0 0.00074078378244961938 -0.032548264852164221 0 0.00074561731985536015 -0.032680365732068464 0 0.00085725301584938386 -0.032588492897618455 0 0.00074561731985536015 -0.032680365732068464 0 0.00085725301584938386 -0.032588492897618455 0 0.00081085951394832057 -0.032734431434834441 0 0.00085725301584938386 -0.032588492897618455 0 0.00081085951394832057 -0.032734431434834441 0 0.00092463883599398766 -0.032672032255727207 0 0.00085725301584938386 -0.032588492897618455 0 0.00097586831509898116 -0.032530916586717952 0 0.00092463883599398766 -0.032672032255727207 0 0.00097586831509898116 -0.032530916586717952 0 0.001084520326714954 -0.032585124248441351 0 0.0010848788295975539 -0.032412942017577599 0 0.00097586831509898116 -0.032530916586717952 0 0.001084520326714954 -0.032585124248441351 0 0.00092463883599398766 -0.032672032255727207 0 0.00088465418909578495 -0.0323562354285881 0 0.00097586831509898116 -0.032530916586717952 0 0.0010848788295975539 -0.032412942017577599 0 0.00088465418909578495 -0.0323562354285881 0 0.0010848788295975539 -0.032412942017577599 0 0.0010946842952460579 -0.032231274705254123 0 0.00093053203100150093 -0.022704001239211461 0 0.0027467425415411821 -0.017876654226468044 0 0.0010848788295975539 -0.032412942017577599 0 0.0012257070956977366 -0.032312254884206054 0 0.0010946842952460579 -0.032231274705254123 0 0.0010848788295975539 -0.032412942017577599 0 0.0012257070956977366 -0.032312254884206054 0 0.001213516280974205 -0.032480341323082869 0 0.001084520326714954 -0.032585124248441351 0 0.0010848788295975539 -0.032412942017577599 0 0.001213516280974205 -0.032480341323082869 0 0.001084520326714954 -0.032585124248441351 0 0.001213516280974205 -0.032480341323082869 0 0.0011982239520662173 -0.032620057002804667 0 0.001213516280974205 -0.032480341323082869 0 0.0013249763557521711 -0.032539169392850634 0 0.0011982239520662173 -0.032620057002804667 0 0.001213516280974205 -0.032480341323082869 0 0.0013249763557521711 -0.032539169392850634 0 0.0013762416598291844 -0.03231084180225105 0 0.0012257070956977366 -0.032312254884206054 0 0.001213516280974205 -0.032480341323082869 0 0.0013762416598291844 -0.03231084180225105 0 0.010685895369664487 0.0088943552006659505 0 0.011224748889195894 0.0099920864815284671 0 0.012035474082373489 0.0085724953079623668 0 0.0076004701382839006 -0.0086975830695999873 0 0.0078126678394167762 -0.0094384640129285061 0 0.0012257070956977366 -0.032312254884206054 0 0.0013762416598291844 -0.03231084180225105 0 0.0012972943295545948 -0.032100812660467617 0 0.012205176328212868 0.0085970883402295313 0 0.013246248763818172 0.0068271435886435652 0 0.011877521048076911 0.0072345584722982199 0 0.010064211475750784 0.0074740797992330823 0 0.012205176328212868 0.0085970883402295313 0 0.011877521048076911 0.0072345584722982199 0 0.0078126678394167762 -0.0094384640129285061 0 0.0070824540905830586 -0.0084030209180023865 0 0.0039763257363989377 -0.020308649443840549 0 0.003223383095268709 -0.02001560479521293 0 0.0035388273041190277 -0.019556429535504172 0 0.0039763257363989377 -0.020308649443840549 0 0.0032801933514068271 -0.020711030913506043 0 0.003223383095268709 -0.02001560479521293 0 0.0078126678394167762 -0.0094384640129285061 0 0.0027467425415411821 -0.017876654226468044 0 0.0012257070956977366 -0.032312254884206054 0 0.0012972943295545948 -0.032100812660467617 0 0.0010946842952460579 -0.032231274705254123 0 0.0032801933514068271 -0.020711030913506043 0 0.002790532234134304 -0.020386322012996057 0 0.003223383095268709 -0.02001560479521293 0 0.002570410119748017 -0.02112525169747545 0 0.0032801933514068271 -0.020711030913506043 0 0.002790532234134304 -0.020386322012996057 0 0.002790532234134304 -0.020386322012996057 0 0.003223383095268709 -0.02001560479521293 0 0.0027810415880020712 -0.019790142689337119 0 0.0027810415880020712 -0.019790142689337119 0 0.0022183698776645825 -0.02017892510936474 0 0.0024274213181705957 -0.019440116532262929 0 0.0011554324606605044 -0.025178477684701824 0 0.001303654282489682 -0.02604579055048022 0 0.00086876852306461236 -0.026478094898566652 0 0.00085837571202983698 -0.026485093561924248 0 0.0009030463102570488 -0.026462990476959679 0 0.002790532234134304 -0.020386322012996057 0 0.0027810415880020712 -0.019790142689337119 0 0.0022183698776645825 -0.02017892510936474 0 0.00083738841800524337 -0.026493729236144254 0 0.00086876852306461236 -0.026478094898566652 0 0.00085837571202983698 -0.026485093561924248 0 0.002790532234134304 -0.020386322012996057 0 0.0022183698776645825 -0.02017892510936474 0 0.0023967178610091273 -0.020677607758133622 0 0.002570410119748017 -0.02112525169747545 0 0.002790532234134304 -0.020386322012996057 0 0.0023967178610091273 -0.020677607758133622 0 0.0019659135210347949 -0.021053367049819732 0 0.0022183698776645825 -0.02017892510936474 0 0.0023967178610091273 -0.020677607758133622 0 6.7904315658830813e-05 -0.033148820781243753 0 -0.00023027900962666631 -0.032939123536475802 0 -0.00019188142130535763 -0.032746145047010553 0 0.0024211557680872118 -0.018902545250372632 0 0.002592682865056243 -0.018878345863679674 0 0.0025492117009796576 -0.018406784712277708 0 0.002592682865056243 -0.018878345863679674 0 0.0024692360499062199 -0.019336957483490964 0 0.0029739432805781073 -0.019354146179873185 0 0.0015863223204274602 -0.024984816033945534 0 0.0013569037223983525 -0.025942805796461819 0 0.002592682865056243 -0.018878345863679674 0 0.0023263880482443712 -0.019358679564673218 0 0.00244160335345062 -0.019523954401308431 0 0.0024211557680872118 -0.018902545250372632 0 0.002592682865056243 -0.018878345863679674 0 0.0023263880482443712 -0.019358679564673218 0 0.0021396734946319326 -0.024955720122064321 0 0.001463315129723022 -0.026564155184597923 0 0.00085466939061648714 -0.02761991270866343 0 0.001233267210877347 -0.025774612067898484 0 0.0013736209905946893 -0.026333278186085295 0 0.00082670147239484297 -0.028022664554347942 0 0.001463315129723022 -0.026564155184597923 0 0.001233267210877347 -0.025774612067898484 0 0.0013736209905946893 -0.026333278186085295 0 0.0014428375280744941 -0.026074716353454819 0 0.001463315129723022 -0.026564155184597923 0 0.0013569037223983525 -0.025942805796461819 0 0.001303654282489682 -0.02604579055048022 0 0.0013569037223983525 -0.025942805796461819 0 0.00082670147239484297 -0.028022664554347942 0 0.001303654282489682 -0.02604579055048022 0 0.0027810415880020712 -0.019790142689337119 0 0.0024274213181705957 -0.019440116532262929 0 0.0024534964391040794 -0.019340436099415447 0 0.0010828360380389351 -0.02512943454067601 0 0.0013569037223983525 -0.025942805796461819 0 0.0029739432805781073 -0.019354146179873185 0 0.0031226129029487321 -0.018803796003040666 0 0.0035388273041190277 -0.019556429535504172 0 0.003223383095268709 -0.02001560479521293 0 0.0027810415880020712 -0.019790142689337119 0 0.0029739432805781073 -0.019354146179873185 0 0.003223383095268709 -0.02001560479521293 0 0.0029739432805781073 -0.019354146179873185 0 0.0035388273041190277 -0.019556429535504172 0 0.0027810415880020712 -0.019790142689337119 0 0.0024692360499062199 -0.019336957483490964 0 0.0029739432805781073 -0.019354146179873185 0 0.002592682865056243 -0.018878345863679674 0 0.0029739432805781073 -0.019354146179873185 0 0.0031226129029487321 -0.018803796003040666 0 0.002592682865056243 -0.018878345863679674 0 0.0031226129029487321 -0.018803796003040666 0 0.0025492117009796576 -0.018406784712277708 0 0.0065298439605036675 -0.0088711135818711102 0 0.0070824540905830586 -0.0084030209180023865 0 0.014374650070272494 0.0049699725641827695 0 0.012942899909525241 0.0054628250223945577 0 0.012370238202711463 0.0041781913425436249 0 0.014374650070272494 0.0049699725641827695 0 0.012942899909525241 0.0054628250223945577 0 0.013246248763818172 0.0068271435886435652 0 0.012942899909525241 0.0054628250223945577 0 0.013246248763818172 0.0068271435886435652 0 0.011807486167771017 0.0058474256323289694 0 0.013246248763818172 0.0068271435886435652 0 0.011877521048076911 0.0072345584722982199 0 0.011807486167771017 0.0058474256323289694 0 0.011807486167771017 0.0058474256323289694 0 0.012370238202711463 0.0041781913425436249 0 0.010190438510686017 0.0050680228913649993 0 0.012942899909525241 0.0054628250223945577 0 0.011807486167771017 0.0058474256323289694 0 0.012370238202711463 0.0041781913425436249 0 0.010498566807713322 0.0030250128637022556 0 0.009805850058952242 0.0024831018841762007 0 0.012721428117635226 0.0020664377492454781 0 0.010494779465637431 0.0025910639173430533 0 0.011138705865807648 0.00072792106905366413 0 0.012370238202711463 0.0041781913425436249 0 0.012721428117635226 0.0020664377492454781 0 0.010494779465637431 0.0025910639173430533 0 0.012721428117635226 0.0020664377492454781 0 0.01388047787379122 0.0033467563024456473 0 0.01420755842032026 0.0021696467431211851 0 0.012721428117635226 0.0020664377492454781 0 0.01420755842032026 0.0021696467431211851 0 0.013832906653480531 0.0011304645615101624 0 0.014374650070272494 0.0049699725641827695 0 0.012370238202711463 0.0041781913425436249 0 0.01388047787379122 0.0033467563024456473 0 0.012370238202711463 0.0041781913425436249 0 0.012721428117635226 0.0020664377492454781 0 0.01388047787379122 0.0033467563024456473 0 0.0031226129029487321 -0.018803796003040666 0 0.0026980900413135162 -0.017984400738570931 0 0.0025492117009796576 -0.018406784712277708 0 0.0065298439605036675 -0.0088711135818711102 0 0.0056531719633401657 -0.010373942317932249 0 0.014374650070272494 0.0049699725641827695 0 0.01388047787379122 0.0033467563024456473 0 0.015571993230155524 0.0029300216637499535 0 0.01420755842032026 0.0021696467431211851 0 0.015571993230155524 0.0029300216637499535 0 0.014987857357135523 0.0014124658987839022 0 0.01388047787379122 0.0033467563024456473 0 0.01420755842032026 0.0021696467431211851 0 0.015571993230155524 0.0029300216637499535 0 0.0020896354107651661 -0.017199564547431111 0 0.0023207750566278072 -0.01759422066739217 0 0.002254178619507264 -0.018052050839650727 0 0.0056531719633401657 -0.010373942317932249 0 0.0041988436644252707 -0.013316172074110863 0 0.0026980900413135162 -0.017984400738570931 0 0.0023207750566278072 -0.01759422066739217 0 0.0022414267644108128 -0.017139362216370621 0 0.015571993230155524 0.0029300216637499535 0 0.016739262031898409 0.00083740609046822488 0 0.014987857357135523 0.0014124658987839022 0 0.0026980900413135162 -0.017984400738570931 0 0.0023207750566278072 -0.01759422066739217 0 0.002254178619507264 -0.018052050839650727 0 6.7904315658830813e-05 -0.033148820781243753 0 -0.00023027900962666631 -0.032939123536475802 0 -0.00010491742665441889 -0.033354905122188264 0 0.0024451445926115356 -0.018912630218614852 0 0.002254178619507264 -0.018052050839650727 0 0.0025492117009796576 -0.018406784712277708 0 0.0021396734946319326 -0.024955720122064321 0 0.0027303836807592535 -0.021712176085285053 0 0.0026980900413135162 -0.017984400738570931 0 0.002254178619507264 -0.018052050839650727 0 0.0025492117009796576 -0.018406784712277708 0 0.0021396734946319326 -0.024955720122064321 0 0.0022741796657460415 -0.024128163622701301 0 0.008286898717068553 0.0065385303374063276 0 0.010190438510686017 0.0050680228913649993 0 0.0077474270891413014 0.0045547186080800717 0 0.0062682514093986095 0.0061544841588189901 0 0.0061409962186974023 0.0047915222608999504 0 0.0077474270891413014 0.0045547186080800717 0 0.0062682514093986095 0.0061544841588189901 0 0.008286898717068553 0.0065385303374063276 0 0.0077474270891413014 0.0045547186080800717 0 0.0062682514093986095 0.0061544841588189901 0 0.0068082271307081934 0.0077374957657638001 0 0.008286898717068553 0.0065385303374063276 0 0.010064211475750784 0.0074740797992330823 0 0.008286898717068553 0.0065385303374063276 0 0.010190438510686017 0.0050680228913649993 0 0.010064211475750784 0.0074740797992330823 0 0.011807486167771017 0.0058474256323289694 0 0.010190438510686017 0.0050680228913649993 0 0.010064211475750784 0.0074740797992330823 0 0.011877521048076911 0.0072345584722982199 0 0.011807486167771017 0.0058474256323289694 0 0.010190438510686017 0.0050680228913649993 0 0.009214042491284857 0.0033270291336254467 0 0.0077474270891413014 0.0045547186080800717 0 0.012370238202711463 0.0041781913425436249 0 0.010190438510686017 0.0050680228913649993 0 0.010915269343342748 0.0029293647365101622 0 0.010190438510686017 0.0050680228913649993 0 0.010915269343342748 0.0029293647365101622 0 0.009214042491284857 0.0033270291336254467 0 0.009805850058952242 0.0024831018841762007 0 0.0082630730800299697 0.0013370319769134412 0 0.010915269343342748 0.0029293647365101622 0 0.009214042491284857 0.0033270291336254467 0 0.0094160378263419414 0.0015798116776080612 0 0.009214042491284857 0.0033270291336254467 0 0.007771055188334923 0.0024918691240819121 0 0.0094160378263419414 0.0015798116776080612 0 0.009214042491284857 0.0033270291336254467 0 0.007771055188334923 0.0024918691240819121 0 0.0077474270891413014 0.0045547186080800717 0 0.0062446480314180984 0.0036013402165178316 0 0.007771055188334923 0.0024918691240819121 0 0.0077474270891413014 0.0045547186080800717 0 0.0061409962186974023 0.0047915222608999504 0 0.0062446480314180984 0.0036013402165178316 0 0.0077474270891413014 0.0045547186080800717 0 0.0062446480314180984 0.0036013402165178316 0 0.007771055188334923 0.0024918691240819121 0 0.0059565853948449271 0.0016381689419145821 0 0.007771055188334923 0.0024918691240819121 0 0.007882567813601294 0.00021564695800178793 0 0.0059565853948449271 0.0016381689419145821 0 0.0061125784903850369 -0.00014659504629263001 0 0.0042279798226563629 0.0016773526295559829 0 0.0044567312105943642 0.0011438556077506459 0 0.0046159402255400968 0.0012821394960444144 0 0.0029171151209937147 0.002586386199216778 0 0.0035119999576073472 0.00087948800093232105 0 0.0044567312105943642 0.0011438556077506459 0 0.0029171151209937147 0.002586386199216778 0 0.0035119999576073472 0.00087948800093232105 0 0.0044567312105943642 0.0011438556077506459 0 0.0042582562744839262 0.00070483832230533515 0 0.0046684050025460342 0.00085704800258670322 0 0.0046141238726811577 0.0012799397320867071 0 0.0051321206857978061 0.00052316001267354684 0 0.0045029810734305512 0.00079501738357397431 0 0.0044567312105943642 0.0011438556077506459 0 0.0042582562744839262 0.00070483832230533515 0 0.0046684050025460342 0.00085704800258670322 0 0.0045029810734305512 0.00079501738357397431 0 0.0044567312105943642 0.0011438556077506459 0 0.0046684050025460342 0.00085704800258670322 0 0.0044567312105943642 0.0011438556077506459 0 0.0046141238726811577 0.0012799397320867071 0 0.0061085346761721527 -0.00014541675131666537 0 0.0061125784903850369 -0.00014659504629263001 0 0.007771055188334923 0.0024918691240819121 0 0.007882567813601294 0.00021564695800178793 0 0.0094160378263419414 0.0015798116776080612 0 0.0061125784903850369 -0.00014659504629263001 0 0.0082630730800299697 0.0013370319769134412 0 0.0086820754485995404 0.0010158705009084652 0 0.0099210779377912131 -0.00047155392035318504 0 0.011138705865807648 0.00072792106905366413 0 0.010494779465637431 0.0025910639173430533 0 0.0086820754485995404 0.0010158705009084652 0 0.011138705865807648 0.00072792106905366413 0 0.0099210779377912131 -0.00047155392035318504 0 0.0090254621186646039 -0.0021941316571467569 0 0.011632335177891971 -0.0011754389370975636 0 0.0099210779377912131 -0.00047155392035318504 0 0.011138705865807648 0.00072792106905366413 0 0.011632335177891971 -0.0011754389370975636 0 0.0099210779377912131 -0.00047155392035318504 0 0.0086818405938207492 -0.00057121644878910596 0 0.0090254621186646039 -0.0021941316571467569 0 0.0068778586263306355 -0.00055551888490228628 0 0.0086820754485995404 0.0010158705009084652 0 0.0086818405938207492 -0.00057121644878910596 0 0.0068778586263306355 -0.00055551888490228628 0 0.0086818405938207492 -0.00057121644878910596 0 0.0090254621186646039 -0.0021941316571467569 0 0.0086820754485995404 0.0010158705009084652 0 0.0099210779377912131 -0.00047155392035318504 0 0.0086818405938207492 -0.00057121644878910596 0 0.0055218803219048204 -0.0023933171741125719 0 0.0040301731474788171 -0.0025399225812894294 0 0.0062281271185540468 4.2775418180325494e-05 0 0.0051321206857978061 0.00052316001267354684 0 0.0051043063298694298 -0.00039386848774574149 0 0.0013995693179464231 -0.0045975222817310054 0 0.0014989493031740233 -0.004673417244334092 0 0.001603750689619089 -0.004638790661855202 0 0.0013995693179464231 -0.0045975222817310054 0 0.0016198569692549931 -0.0045158822985724477 0 0.001603750689619089 -0.004638790661855202 0 0.0055218803219048204 -0.0023933171741125719 0 0.0065322529595460534 -0.0047031526756100197 0 0.0055218803219048204 -0.0023933171741125719 0 0.0050940074728268699 -0.0023538240063634454 0 0.0014989493031740233 -0.004673417244334092 0 0.0013332715488320378 -0.0047038823029243526 0 0.0015407678600789509 -0.0048215729557776563 0 0.0013628191825095063 -0.0045456956974967173 0 0.0014989493031740233 -0.004673417244334092 0 0.0013332715488320378 -0.0047038823029243526 0 0.0013628191825095063 -0.0045456956974967173 0 0.0013332715488320378 -0.0047038823029243526 0 0.0012074985915572574 -0.0045945868992121625 0 0.0013332715488320378 -0.0047038823029243526 0 0.0012074985915572574 -0.0045945868992121625 0 0.0011546708301478797 -0.0047121744402557515 0 0.001093847885153109 -0.0046332648625699606 0 0.0012074985915572574 -0.0045945868992121625 0 0.0011546708301478797 -0.0047121744402557515 0 0.002923768192716131 -0.0025814464056721251 0 0.0040301731474788171 -0.0025399225812894294 0 0.002923768192716131 -0.0025814464056721251 0 0.0028607633551724337 -0.0027128958848528137 0 0.0010445765159046788 -0.004518406003287791 0 0.00099549983261596094 -0.0047577514864211674 0 0.00086398603123765793 -0.0044945832895969323 0 0.002923768192716131 -0.0025814464056721251 0 0.0022332846323563911 -0.0030537772654481246 0 0.0035119999576073472 0.00087948800093232105 0 0.0041823142155820343 0.00016322139790509319 0 0.0025416198688470609 0.00073600647847811063 0 0.0039776928190570996 -0.00083534510455430264 0 0.0041823142155820343 0.00016322139790509319 0 0.0025416198688470609 0.00073600647847811063 0 0.002923768192716131 -0.0025814464056721251 0 0.0021126447208539333 -0.00046576398870237155 0 0.0035119999576073472 0.00087948800093232105 0 0.0041823142155820343 0.00016322139790509319 0 0.0042582562744839262 0.00070483832230533515 0 0.0041823142155820343 0.00016322139790509319 0 0.0042582562744839262 0.00070483832230533515 0 0.0046286296125849034 0.0004744860367587281 0 0.0061125784903850369 -0.00014659504629263001 0 0.0055218803219048204 -0.0023933171741125719 0 0.0046141238726811577 0.0012799397320867071 0 0.0062281271185540468 4.2775418180325494e-05 0 0.0051321206857978061 0.00052316001267354684 0 0.0045029810734305512 0.00079501738357397431 0 0.0042582562744839262 0.00070483832230533515 0 0.0046286296125849034 0.0004744860367587281 0 0.0046684050025460342 0.00085704800258670322 0 0.0045029810734305512 0.00079501738357397431 0 0.0046286296125849034 0.0004744860367587281 0 0.0046684050025460342 0.00085704800258670322 0 0.0046286296125849034 0.0004744860367587281 0 0.0051321206857978061 0.00052316001267354684 0 0.0046286296125849034 0.0004744860367587281 0 0.0051321206857978061 0.00052316001267354684 0 0.0051043063298694298 -0.00039386848774574149 0 0.0039776928190570996 -0.00083534510455430264 0 0.0041823142155820343 0.00016322139790509319 0 0.0051043063298694298 -0.00039386848774574149 0 0.0041823142155820343 0.00016322139790509319 0 0.0046286296125849034 0.0004744860367587281 0 0.0051043063298694298 -0.00039386848774574149 0 0.0023528482776621327 -0.0045058306031119395 0 0.0022167037754463937 -0.0044971209108639332 0 0.0021038173544378615 -0.0043144446092028936 0 0.0033662333470306878 -0.014284336312888 0 0.004491003650326896 -0.011770426774336826 0 0.0021165826444887424 -0.0045020875051976824 0 0.0021038173544378615 -0.0043144446092028936 0 0.001975898970489482 -0.0045094113979757978 0 0.0022167037754463937 -0.0044971209108639332 0 0.0021165826444887424 -0.0045020875051976824 0 0.0021987409289274027 -0.0045853135412686442 0 0.0022167037754463937 -0.0044971209108639332 0 0.0021165826444887424 -0.0045020875051976824 0 0.0021038173544378615 -0.0043144446092028936 0 0.0044152789120307998 -0.013295034771498371 0 0.0040410453079727489 -0.012638003618972939 0 0.0034684832472259095 -0.012860235270169053 0 0.016739262031898409 0.00083740609046822488 0 0.015750682477139556 0.00045729637438002253 0 0.014987857357135523 0.0014124658987839022 0 0.0041988436644252707 -0.013316172074110863 0 0.004491003650326896 -0.011770426774336826 0 0.0020896354107651661 -0.017199564547431111 0 0.0023207750566278072 -0.01759422066739217 0 0.0022414267644108128 -0.017139362216370621 0 0.014987857357135523 0.0014124658987839022 0 0.014208629978751842 -0.00015088705063051369 0 0.013832906653480531 0.0011304645615101624 0 0.015750682477139556 0.00045729637438002253 0 0.014987857357135523 0.0014124658987839022 0 0.014208629978751842 -0.00015088705063051369 0 0.01420755842032026 0.0021696467431211851 0 0.014987857357135523 0.0014124658987839022 0 0.013832906653480531 0.0011304645615101624 0 0.004491003650326896 -0.011770426774336826 0 0.0064809438501718065 -0.0081007780870858588 0 0.0019015243580952914 -0.0043963567458088831 0 0.001975898970489482 -0.0045094113979757978 0 0.0018223212289421812 -0.0046135299422366159 0 0.0021038173544378615 -0.0043144446092028936 0 0.0019015243580952914 -0.0043963567458088831 0 0.001975898970489482 -0.0045094113979757978 0 0.0064809438501718065 -0.0081007780870858588 0 0.0065322529595460534 -0.0047031526756100197 0 0.014208629978751842 -0.00015088705063051369 0 0.012716629327949997 0.000511125814304925 0 0.011632335177891971 -0.0011754389370975636 0 0.0019015243580952914 -0.0043963567458088831 0 0.0016198569692549931 -0.0045158822985724477 0 0.0018223212289421812 -0.0046135299422366159 0 0.014208629978751842 -0.00015088705063051369 0 0.012716629327949997 0.000511125814304925 0 0.013832906653480531 0.0011304645615101624 0 0.012721428117635226 0.0020664377492454781 0 0.012716629327949997 0.000511125814304925 0 0.013832906653480531 0.0011304645615101624 0 0.012721428117635226 0.0020664377492454781 0 0.012716629327949997 0.000511125814304925 0 0.011138705865807648 0.00072792106905366413 0 0.012716629327949997 0.000511125814304925 0 0.011138705865807648 0.00072792106905366413 0 0.011632335177891971 -0.0011754389370975636 0 0.001603750689619089 -0.004638790661855202 0 0.0016849210293271434 -0.0047593821942855429 0 0.0018223212289421812 -0.0046135299422366159 0 0.0016198569692549931 -0.0045158822985724477 0 0.001603750689619089 -0.004638790661855202 0 0.0018223212289421812 -0.0046135299422366159 0 0.0014989493031740233 -0.004673417244334092 0 0.001603750689619089 -0.004638790661855202 0 0.0016849210293271434 -0.0047593821942855429 0 0.0014989493031740233 -0.004673417244334092 0 0.0016849210293271434 -0.0047593821942855429 0 0.0015407678600789509 -0.0048215729557776563 0 0.0016849210293271434 -0.0047593821942855429 0 0.0018295560580030789 -0.0047701121954052024 0 0.0018223212289421812 -0.0046135299422366159 0 0.0016849210293271434 -0.0047593821942855429 0 0.0017470399840823572 -0.0048656925272775684 0 0.0016722466012823161 -0.0048684450827808012 0 0.0016849210293271434 -0.0047593821942855429 0 0.0018295560580030789 -0.0047701121954052024 0 0.0017470399840823572 -0.0048656925272775684 0 0.0018295560580030789 -0.0047701121954052024 0 0.0018302763462336434 -0.0049314570536040806 0 0.0017470399840823572 -0.0048656925272775684 0 0.001975898970489482 -0.0045094113979757978 0 0.0018223212289421812 -0.0046135299422366159 0 0.001940418179375551 -0.0046722957781562026 0 0.001975898970489482 -0.0045094113979757978 0 0.001940418179375551 -0.0046722957781562026 0 0.0020703458250818491 -0.0046158713302145108 0 0.0021165826444887424 -0.0045020875051976824 0 0.001975898970489482 -0.0045094113979757978 0 0.0020703458250818491 -0.0046158713302145108 0 0.001940418179375551 -0.0046722957781562026 0 0.0020004392239583056 -0.0047826439291720176 0 0.0020703458250818491 -0.0046158713302145108 0 0.0018295560580030789 -0.0047701121954052024 0 0.0018223212289421812 -0.0046135299422366159 0 0.001940418179375551 -0.0046722957781562026 0 0.0018295560580030789 -0.0047701121954052024 0 0.001940418179375551 -0.0046722957781562026 0 0.0020004392239583056 -0.0047826439291720176 0 0.0018295560580030789 -0.0047701121954052024 0 0.0020004392239583056 -0.0047826439291720176 0 0.0018302763462336434 -0.0049314570536040806 0 0.0020004392239583056 -0.0047826439291720176 0 0.0021388988113246361 -0.0048328573599544901 0 0.0020226028379157937 -0.0050027095642062799 0 0.0020004392239583056 -0.0047826439291720176 0 0.0021388988113246361 -0.0048328573599544901 0 0.0021652128899101969 -0.0046977318386095361 0 0.0022660453309734457 -0.0047956090464835637 0 0.0021388988113246361 -0.0048328573599544901 0 0.0022228530351314489 -0.0049489843882087802 0 0.0022660453309734457 -0.0047956090464835637 0 0.0021388988113246361 -0.0048328573599544901 0 0.0021652128899101969 -0.0046977318386095361 0 0.0022852497431249366 -0.0046757881361984034 0 0.0022660453309734457 -0.0047956090464835637 0 0.0021652128899101969 -0.0046977318386095361 0 0.0022852497431249366 -0.0046757881361984034 0 0.0021652128899101969 -0.0046977318386095361 0 0.0021987409289274027 -0.0045853135412686442 0 0.0020004392239583056 -0.0047826439291720176 0 0.0021652128899101969 -0.0046977318386095361 0 0.0020703458250818491 -0.0046158713302145108 0 0.0021652128899101969 -0.0046977318386095361 0 0.0020703458250818491 -0.0046158713302145108 0 0.0021987409289274027 -0.0045853135412686442 0 0.0021165826444887424 -0.0045020875051976824 0 0.0020703458250818491 -0.0046158713302145108 0 0.0021987409289274027 -0.0045853135412686442 0 0.0022954150752373423 -0.0045800718512024694 0 0.0022167037754463937 -0.0044971209108639332 0 0.0021987409289274027 -0.0045853135412686442 0 0.0021650284681536576 -0.005192439067596962 0 0.0020226028379157937 -0.0050027095642062799 0 0.0019422630658919378 -0.0052929085538681777 0 0.0023734087652633943 -0.005333741880280166 0 0.0021650284681536576 -0.005192439067596962 0 0.0020577753343227747 -0.0055641272400939745 0 0.0021650284681536576 -0.005192439067596962 0 0.0019422630658919378 -0.0052929085538681777 0 0.0020577753343227747 -0.0055641272400939745 0 0.0021650284681536576 -0.005192439067596962 0 0.0022228530351314489 -0.0049489843882087802 0 0.0020226028379157937 -0.0050027095642062799 0 0.0021388988113246361 -0.0048328573599544901 0 0.0022228530351314489 -0.0049489843882087802 0 0.0020226028379157937 -0.0050027095642062799 0 0.0020004392239583056 -0.0047826439291720176 0 0.0020226028379157937 -0.0050027095642062799 0 0.0018302763462336434 -0.0049314570536040806 0 0.0020226028379157937 -0.0050027095642062799 0 0.0018302763462336434 -0.0049314570536040806 0 0.0018087867021221477 -0.0051635334679158741 0 0.0019422630658919378 -0.0052929085538681777 0 0.0018087867021221477 -0.0051635334679158741 0 0.0016715705663601095 -0.0055287887586677881 0 0.0020226028379157937 -0.0050027095642062799 0 0.0019422630658919378 -0.0052929085538681777 0 0.0018087867021221477 -0.0051635334679158741 0 0.0014416841637792824 -0.0052149157238157032 0 0.0012756107012760409 -0.0053516472449012826 0 0.0014901160414555583 -0.0054487945492918584 0 0.0015690399363865902 -0.0052545150753030272 0 0.0016050584353823223 -0.0055135276772253963 0 0.0018087867021221477 -0.0051635334679158741 0 0.0015971924619767107 -0.0051133936626692987 0 0.0016715705663601095 -0.0055287887586677881 0 0.0018302763462336434 -0.0049314570536040806 0 0.0018087867021221477 -0.0051635334679158741 0 0.0015971924619767107 -0.0051133936626692987 0 0.0016156860827197998 -0.0052106557533790534 0 0.0015690399363865902 -0.0052545150753030272 0 0.0018302763462336434 -0.0049314570536040806 0 0.0017470399840823572 -0.0048656925272775684 0 0.0017395628003782665 -0.0049445227514972366 0 0.0017470399840823572 -0.0048656925272775684 0 0.0017395628003782665 -0.0049445227514972366 0 0.0016722466012823161 -0.0048684450827808012 0 0.0016849210293271434 -0.0047593821942855429 0 0.0016722466012823161 -0.0048684450827808012 0 0.0015407678600789509 -0.0048215729557776563 0 0.0017395628003782665 -0.0049445227514972366 0 0.0016722466012823161 -0.0048684450827808012 0 0.0016399971272766873 -0.0049392518951735312 0 0.0016722466012823161 -0.0048684450827808012 0 0.0016399971272766873 -0.0049392518951735312 0 0.0015407678600789509 -0.0048215729557776563 0 0.0015690399363865902 -0.0052545150753030272 0 0.0014664318673577666 -0.0052985199507816138 0 0.0016399971272766873 -0.0049392518951735312 0 0.0016106270224357474 -0.005062378617084677 0 0.0015183182706731389 -0.0049406217293684078 0 0.0017395628003782665 -0.0049445227514972366 0 0.0016399971272766873 -0.0049392518951735312 0 0.0016106270224357474 -0.005062378617084677 0 0.0012756107012760409 -0.0053516472449012826 0 0.0013256876205477326 -0.0055372592266156109 0 0.0014901160414555583 -0.0054487945492918584 0 0.0013256876205477326 -0.0055372592266156109 0 0.0015582343885437379 -0.0056992766160547286 0 0.0012251205911867433 -0.0057236262135935898 0 0.0016050584353823223 -0.0055135276772253963 0 0.0016514855869675818 -0.0058006351971150267 0 0.0013256876205477326 -0.0055372592266156109 0 0.0014901160414555583 -0.0054487945492918584 0 0.0015582343885437379 -0.0056992766160547286 0 0.0019422630658919378 -0.0052929085538681777 0 0.0016715705663601095 -0.0055287887586677881 0 0.0020577753343227747 -0.0055641272400939745 0 0.0016715705663601095 -0.0055287887586677881 0 0.0020577753343227747 -0.0055641272400939745 0 0.0017383595840970325 -0.0059130523500965917 0 0.0020577753343227747 -0.0055641272400939745 0 0.0021775136998106073 -0.0059910565716190722 0 0.0017383595840970325 -0.0059130523500965917 0 0.0024326857950396825 -0.0056570343283622541 0 0.0020577753343227747 -0.0055641272400939745 0 0.0021775136998106073 -0.0059910565716190722 0 0.0011723434130634436 -0.0049320829631879998 0 0.0011228734772259256 -0.0052186271765828473 0 0.00095943963826538876 -0.0050804521500601206 0 0.0011723434130634436 -0.0049320829631879998 0 0.00099549983261596094 -0.0047577514864211674 0 0.00095943963826538876 -0.0050804521500601206 0 0.00099549983261596094 -0.0047577514864211674 0 0.00095943963826538876 -0.0050804521500601206 0 0.00075659558867893154 -0.0048476750945108029 0 0.0010445765159046788 -0.004518406003287791 0 0.00099549983261596094 -0.0047577514864211674 0 0.0011546708301478797 -0.0047121744402557515 0 0.0011723434130634436 -0.0049320829631879998 0 0.0011546708301478797 -0.0047121744402557515 0 0.0012695863187132624 -0.0047907051465071685 0 0.0011723434130634436 -0.0049320829631879998 0 0.00099549983261596094 -0.0047577514864211674 0 0.0011546708301478797 -0.0047121744402557515 0 0.0011723434130634436 -0.0049320829631879998 0 0.0012695863187132624 -0.0047907051465071685 0 0.0013919845162228182 -0.0048703467822829123 0 0.0013332715488320378 -0.0047038823029243526 0 0.0011546708301478797 -0.0047121744402557515 0 0.0012695863187132624 -0.0047907051465071685 0 0.0013332715488320378 -0.0047038823029243526 0 0.0012695863187132624 -0.0047907051465071685 0 0.0013919845162228182 -0.0048703467822829123 0 0.0013332715488320378 -0.0047038823029243526 0 0.0013919845162228182 -0.0048703467822829123 0 0.0015407678600789509 -0.0048215729557776563 0 0.0013919845162228182 -0.0048703467822829123 0 0.0015407678600789509 -0.0048215729557776563 0 0.0015183182706731389 -0.0049406217293684078 0 0.0016399971272766873 -0.0049392518951735312 0 0.0015407678600789509 -0.0048215729557776563 0 0.0015183182706731389 -0.0049406217293684078 0 0.0016106270224357474 -0.005062378617084677 0 0.0015183182706731389 -0.0049406217293684078 0 0.0013871997206174309 -0.0050378480193464916 0 0.0013919845162228182 -0.0048703467822829123 0 0.0015183182706731389 -0.0049406217293684078 0 0.0013871997206174309 -0.0050378480193464916 0 0.0011723434130634436 -0.0049320829631879998 0 0.0013871997206174309 -0.0050378480193464916 0 0.0011228734772259256 -0.0052186271765828473 0 0.0011723434130634436 -0.0049320829631879998 0 0.0013919845162228182 -0.0048703467822829123 0 0.0013871997206174309 -0.0050378480193464916 0 0.0014309398385214975 -0.0052586826917284902 0 0.0010919576783814974 -0.0055408671270371426 0 0.0011228734772259256 -0.0052186271765828473 0 0.0013871997206174309 -0.0050378480193464916 0 0.0014309398385214975 -0.0052586826917284902 0 0.0011228734772259256 -0.0052186271765828473 0 0.0016106270224357474 -0.005062378617084677 0 0.0013871997206174309 -0.0050378480193464916 0 0.0014309398385214975 -0.0052586826917284902 0 0.0014664318673577666 -0.0052985199507816138 0 0.0013556718686279453 -0.0053711503844808689 0 0.0012756107012760409 -0.0053516472449012826 0 0.0013256876205477326 -0.0055372592266156109 0 0.0011263576524158025 -0.0054889528329185597 0 0.0013256876205477326 -0.0055372592266156109 0 0.0011263576524158025 -0.0054889528329185597 0 0.0012251205911867433 -0.0057236262135935898 0 0.0011263576524158025 -0.0054889528329185597 0 0.0012251205911867433 -0.0057236262135935898 0 0.0010825380381429539 -0.0057123941285291552 0 0.0013556718686279453 -0.0053711503844808689 0 0.0012989416620736004 -0.0054127373157833898 0 0.0011263576524158025 -0.0054889528329185597 0 0.0010919576783814974 -0.0055408671270371426 0 0.0010825380381429539 -0.0057123941285291552 0 0.0010919576783814974 -0.0055408671270371426 0 0.0011228734772259256 -0.0052186271765828473 0 0.00089390394549374117 -0.0054681830989055822 0 0.0011228734772259256 -0.0052186271765828473 0 0.00095943963826538876 -0.0050804521500601206 0 0.00089390394549374117 -0.0054681830989055822 0 0.00095943963826538876 -0.0050804521500601206 0 0.00089390394549374117 -0.0054681830989055822 0 0.00076572497982697549 -0.0052475174082407712 0 0.00089390394549374117 -0.0054681830989055822 0 0.00060308297788908417 -0.0055240006721365472 0 0.00076572497982697549 -0.0052475174082407712 0 0.00060308297788908417 -0.0055240006721365472 0 0.00053457261549863598 -0.0052545083020614052 0 0.00076572497982697549 -0.0052475174082407712 0 0.00035950919017190762 -0.0054533746205539862 0 0.00027964756500939143 -0.0055553189016925263 0 0.00060308297788908417 -0.0055240006721365472 0 0.00053457261549863598 -0.0052545083020614052 0 0.00029522802086631603 -0.0055588176682650472 0 0.00053457261549863598 -0.0052545083020614052 0 0.00075659558867893154 -0.0048476750945108029 0 0.00051528308290144239 -0.0049848324685461114 0 0.00053457261549863598 -0.0052545083020614052 0 0.00029416225470655077 -0.0051043642522040564 0 0.00051528308290144239 -0.0049848324685461114 0 0.00053457261549863598 -0.0052545083020614052 0 0.00076572497982697549 -0.0052475174082407712 0 0.00075659558867893154 -0.0048476750945108029 0 0.00095943963826538876 -0.0050804521500601206 0 0.00076572497982697549 -0.0052475174082407712 0 0.00075659558867893154 -0.0048476750945108029 0 0.00018805023779248323 -0.0052653202811138279 0 -1.9621813421971216e-05 -0.0053849665500137886 0 0.00010480047642406716 -0.0055400946229604937 0 0.00018805023779248323 -0.0052653202811138279 0 0.00010480047642406716 -0.0055400946229604937 0 0.00027626429902539952 -0.0054955369943812966 0 0.00053457261549863598 -0.0052545083020614052 0 0.00018805023779248323 -0.0052653202811138279 0 0.00027626429902539952 -0.0054955369943812966 0 0.00053457261549863598 -0.0052545083020614052 0 0.00029416225470655077 -0.0051043642522040564 0 0.00018805023779248323 -0.0052653202811138279 0 0.00029416225470655077 -0.0051043642522040564 0 0.00018805023779248323 -0.0052653202811138279 0 0.00014353974038788865 -0.0050990067151628219 0 0.00018805023779248323 -0.0052653202811138279 0 3.087761029646714e-05 -0.0050583239490192243 0 -1.9621813421971216e-05 -0.0053849665500137886 0 -0.0023972503784590012 0.0040404680209042837 0 -0.0018237065304980951 0.0024949925477010422 0 0.00018805023779248323 -0.0052653202811138279 0 0.00014353974038788865 -0.0050990067151628219 0 3.087761029646714e-05 -0.0050583239490192243 0 -0.0021539122892322059 0.0038351424675842215 0 -0.0017803395536939513 0.0038706461857580836 0 -0.0023972503784590012 0.0040404680209042837 0 -0.0017803395536939513 0.0038706461857580836 0 -0.0022483879207754495 0.0040724713251161252 0 -0.0022637654109504005 0.0040023744527380662 0 -0.0021339431321413223 0.0040322913554364168 0 0.00014353974038788865 -0.0050990067151628219 0 3.087761029646714e-05 -0.0050583239490192243 0 0.00018960548275881206 -0.0050095877202985042 0 -0.0021539122892322059 0.0038351424675842215 0 -0.0023972503784590012 0.0040404680209042837 0 -0.0044693664283089584 0.0079157104969021647 0 -0.0043787536280564168 0.0083450700593125111 0 -0.0040619056993916446 0.0080195755862946857 0 -0.0012758459875651675 -0.0047799243677175175 0 0.00018960548275881206 -0.0050095877202985042 0 2.5712595325417712e-06 -0.0043943754355267785 0 0.00029416225470655077 -0.0051043642522040564 0 0.00014353974038788865 -0.0050990067151628219 0 0.00018960548275881206 -0.0050095877202985042 0 0.00029416225470655077 -0.0051043642522040564 0 0.00018960548275881206 -0.0050095877202985042 0 0.00051528308290144239 -0.0049848324685461114 0 0.00018960548275881206 -0.0050095877202985042 0 2.5712595325417712e-06 -0.0043943754355267785 0 0.00054372328286374704 -0.0047304686013616383 0 0.00018960548275881206 -0.0050095877202985042 0 0.00051528308290144239 -0.0049848324685461114 0 0.00054372328286374704 -0.0047304686013616383 0 2.5712595325417712e-06 -0.0043943754355267785 0 0.00020251644467509568 -0.0029068758488377672 0 -0.0011459124053006561 -0.0031519652086149479 0 2.5712595325417712e-06 -0.0043943754355267785 0 0.00081475944404986271 -0.0042312867972970868 0 0.00020251644467509568 -0.0029068758488377672 0 2.5712595325417712e-06 -0.0043943754355267785 0 0.00054372328286374704 -0.0047304686013616383 0 0.00081475944404986271 -0.0042312867972970868 0 -0.0012758459875651675 -0.0047799243677175175 0 2.5712595325417712e-06 -0.0043943754355267785 0 -0.0011459124053006561 -0.0031519652086149479 0 -0.0046263943072346074 0.0077513380196374531 0 -0.0047948708897597378 0.0070035889635674939 0 -0.0042456146838042719 0.0071406503853656449 0 -0.0021539122892322059 0.0038351424675842215 0 -0.0022923399576932325 0.0029718796038204522 0 0.00075659558867893154 -0.0048476750945108029 0 0.00051528308290144239 -0.0049848324685461114 0 0.00054372328286374704 -0.0047304686013616383 0 0.00075659558867893154 -0.0048476750945108029 0 0.00054372328286374704 -0.0047304686013616383 0 0.00081475944404986271 -0.0042312867972970868 0 0.0018793314578902328 -0.0032496786055759845 0 0.0022332846323563911 -0.0030537772654481246 0 0.00075659558867893154 -0.0048476750945108029 0 0.00081475944404986271 -0.0042312867972970868 0 0.00086398603123765793 -0.0044945832895969323 0 0.00099549983261596094 -0.0047577514864211674 0 0.00075659558867893154 -0.0048476750945108029 0 0.00086398603123765793 -0.0044945832895969323 0 0.0033148204556309921 -0.0033504613735158306 0 0.0016652752852049208 -0.0020729495376297599 0 0.0032868168757632459 -1.5733865408963519e-05 0 0.0055283778745585177 -0.0024855363232444004 0 0.0033148204556309921 -0.0033504613735158306 0 0.0032868168757632459 -1.5733865408963519e-05 0 0.0016514363503404381 -0.00053323895179645915 0 0.0016652752852049208 -0.0020729495376297599 0 0.0032868168757632459 -1.5733865408963519e-05 0 0.0016514363503404381 -0.00053323895179645915 0 0.00064482512805069886 -0.0013352195554846842 0 0.00059753271241965659 -0.00012245473676094747 0 0.0016514363503404381 -0.00053323895179645915 0 0.0016652752852049208 -0.0020729495376297599 0 0.00064482512805069886 -0.0013352195554846842 0 0.0016652752852049208 -0.0020729495376297599 0 0.00020251644467509568 -0.0029068758488377672 0 0.00064482512805069886 -0.0013352195554846842 0 0.00081475944404986271 -0.0042312867972970868 0 0.0033148204556309921 -0.0033504613735158306 0 0.0016652752852049208 -0.0020729495376297599 0 0.00081475944404986271 -0.0042312867972970868 0 0.0016652752852049208 -0.0020729495376297599 0 0.00020251644467509568 -0.0029068758488377672 0 0.00020251644467509568 -0.0029068758488377672 0 -0.0011459124053006561 -0.0031519652086149479 0 -0.00041837484628097027 -0.0015882005856252628 0 0.00020251644467509568 -0.0029068758488377672 0 0.00064482512805069886 -0.0013352195554846842 0 -0.00041837484628097027 -0.0015882005856252628 0 -0.0047948708897597378 0.0070035889635674939 0 -0.0046177973169807115 0.0064852179825188256 0 -0.0049661613730394051 0.0062430272658040679 0 -0.0011459124053006561 -0.0031519652086149479 0 -0.0008721750738311854 -0.0010433001089240083 0 -0.00041837484628097027 -0.0015882005856252628 0 -0.0047948708897597378 0.0070035889635674939 0 -0.0042511205328216659 0.0065509539723541815 0 -0.0042456146838042719 0.0071406503853656449 0 -0.0022923399576932325 0.0029718796038204522 0 -0.0021769063557084004 0.0029055159946499861 0 -0.0047948708897597378 0.0070035889635674939 0 -0.0046177973169807115 0.0064852179825188256 0 -0.0042511205328216659 0.0065509539723541815 0 -0.0049661613730394051 0.0062430272658040679 0 -0.0044582716772984827 0.0061403527068866542 0 -0.0044226305012045972 0.0055630345580494119 0 -0.0046177973169807115 0.0064852179825188256 0 -0.0044582716772984827 0.0061403527068866542 0 -0.0042511205328216659 0.0065509539723541815 0 -0.0046177973169807115 0.0064852179825188256 0 -0.0049661613730394051 0.0062430272658040679 0 -0.0044582716772984827 0.0061403527068866542 0 -0.00092028419225953419 -0.00091268667945706896 0 -6.8232601527855284e-05 -0.00058743096455267439 0 -0.00024050188797732232 0.00096079780499351889 0 0.00064482512805069886 -0.0013352195554846842 0 -0.00041837484628097027 -0.0015882005856252628 0 -6.8232601527855284e-05 -0.00058743096455267439 0 -0.00092028419225953419 -0.00091268667945706896 0 -0.00041837484628097027 -0.0015882005856252628 0 -6.8232601527855284e-05 -0.00058743096455267439 0 -0.0021769063557084004 0.0029055159946499861 0 -0.0020827096499507489 0.0027675315160704452 0 0.00064482512805069886 -0.0013352195554846842 0 -6.8232601527855284e-05 -0.00058743096455267439 0 0.00059753271241965659 -0.00012245473676094747 0 -0.0021769063557084004 0.0029055159946499861 0 -0.0021493747814258783 0.0024803293265629653 0 -0.00024050188797732232 0.00096079780499351889 0 -0.00028895874287005672 0.0022070347116991238 0 0.00099035524650765961 0.00081755304919836971 0 0.00059753271241965659 -0.00012245473676094747 0 -0.00024050188797732232 0.00096079780499351889 0 0.00099035524650765961 0.00081755304919836971 0 -6.8232601527855284e-05 -0.00058743096455267439 0 0.00059753271241965659 -0.00012245473676094747 0 -0.00024050188797732232 0.00096079780499351889 0 -0.00052618783557520094 -0.00033777511824532825 0 -0.00024050188797732232 0.00096079780499351889 0 -0.0017269995451648418 0.0012296577236854118 0 -0.0021769063557084004 0.0029055159946499861 0 -0.0026760313322572063 0.0033898269234342976 0 -0.00024050188797732232 0.00096079780499351889 0 -0.00028895874287005672 0.0022070347116991238 0 -0.0017269995451648418 0.0012296577236854118 0 -0.0017510282301440442 0.0040119309529574598 0 -0.0012945331223482572 0.003509081050460783 0 -0.001876627706410293 0.0040854077339802525 0 -0.00028895874287005672 0.0022070347116991238 0 -0.0017001005726920127 0.0026508188158013181 0 -0.00028895874287005672 0.0022070347116991238 0 -0.0017001005726920127 0.0026508188158013181 0 -0.0017269995451648418 0.0012296577236854118 0 -0.00027547452583776227 0.0038930528250923106 0 -0.00028895874287005672 0.0022070347116991238 0 0.0011946058322916976 0.0022248667149019647 0 -0.00028895874287005672 0.0022070347116991238 0 0.0011946058322916976 0.0022248667149019647 0 0.00099035524650765961 0.00081755304919836971 0 0.0012171041062049865 0.003877033466287707 0 0.0011039864001440261 0.0023230437321643239 0 0.0029171151209937147 0.002586386199216778 0 0.0011039864001440261 0.0023230437321643239 0 0.0029171151209937147 0.002586386199216778 0 0.0025416198688470609 0.00073600647847811063 0 0.0035119999576073472 0.00087948800093232105 0 0.0029171151209937147 0.002586386199216778 0 0.0025416198688470609 0.00073600647847811063 0 0.0011946058322916976 0.0022248667149019647 0 0.0032868168757632459 -1.5733865408963519e-05 0 0.00099035524650765961 0.00081755304919836971 0 0.0016514363503404381 -0.00053323895179645915 0 0.0032868168757632459 -1.5733865408963519e-05 0 0.00099035524650765961 0.00081755304919836971 0 0.0010377135540797406 0.0013024954656985423 0 0.0021126447208539333 -0.00046576398870237155 0 0.0016514363503404381 -0.00053323895179645915 0 0.00059753271241965659 -0.00012245473676094747 0 0.00099035524650765961 0.00081755304919836971 0 -0.0029189000381554227 0.0055727785005672695 0 -0.0032742702169552803 0.0057891987435554834 0 -0.0030070784367834495 0.0061636084371203383 0 -0.0029189000381554227 0.0055727785005672695 0 -0.003297998920675897 0.0051678945089342768 0 -0.0032742702169552803 0.0057891987435554834 0 -0.0029189000381554227 0.0055727785005672695 0 -0.0026428953423171028 0.0058809622826650173 0 -0.0030070784367834495 0.0061636084371203383 0 -0.0024539043263713868 0.0054531483286842687 0 -0.0022666929551933396 0.0060550675736636868 0 -0.0020374120997990789 0.0057058135160901226 0 -0.0026428953423171028 0.0058809622826650173 0 -0.0024539043263713868 0.0054531483286842687 0 -0.0022666929551933396 0.0060550675736636868 0 -0.0029189000381554227 0.0055727785005672695 0 -0.0026428953423171028 0.0058809622826650173 0 -0.0024539043263713868 0.0054531483286842687 0 -0.0026894212933713975 0.0048323268751519427 0 -0.0024539043263713868 0.0054531483286842687 0 -0.0020307108063884424 0.0049650421490882437 0 -0.0024539043263713868 0.0054531483286842687 0 -0.0020307108063884424 0.0049650421490882437 0 -0.0020374120997990789 0.0057058135160901226 0 -0.0026894212933713975 0.0048323268751519427 0 -0.0024539043263713868 0.0054531483286842687 0 -0.0029152353812158262 0.0051876235047229723 0 -0.0026894212933713975 0.0048323268751519427 0 -0.0031451028876224234 0.0047781375665638705 0 -0.0029152353812158262 0.0051876235047229723 0 -0.0029189000381554227 0.0055727785005672695 0 -0.0024539043263713868 0.0054531483286842687 0 -0.0029152353812158262 0.0051876235047229723 0 -0.0029189000381554227 0.0055727785005672695 0 -0.0029152353812158262 0.0051876235047229723 0 -0.003297998920675897 0.0051678945089342768 0 -0.0031451028876224234 0.0047781375665638705 0 -0.00345201425829403 0.0048483715338569497 0 -0.003297998920675897 0.0051678945089342768 0 -0.0031451028876224234 0.0047781375665638705 0 -0.0029152353812158262 0.0051876235047229723 0 -0.003297998920675897 0.0051678945089342768 0 -0.00345201425829403 0.0048483715338569497 0 -0.003297998920675897 0.0051678945089342768 0 -0.0037965300360799244 0.0048365772700757316 0 -0.003297998920675897 0.0051678945089342768 0 -0.0037965300360799244 0.0048365772700757316 0 -0.0036661811230838835 0.0055785318909707705 0 -0.0029959001207596806 0.003755462842562248 0 -0.0026760313322572063 0.0033898269234342976 0 -0.0037965300360799244 0.0048365772700757316 0 -0.0044226305012045972 0.0055630345580494119 0 -0.0036661811230838835 0.0055785318909707705 0 -0.0017001005726920127 0.0026508188158013181 0 -0.0028604215025990454 0.0030537062315522017 0 -0.0017269995451648418 0.0012296577236854118 0 -0.001876627706410293 0.0040854077339802525 0 -0.0017001005726920127 0.0026508188158013181 0 -0.0028604215025990454 0.0030537062315522017 0 -0.0044226305012045972 0.0055630345580494119 0 -0.0036661811230838835 0.0055785318909707705 0 -0.0040480638543155976 0.0059880355692031265 0 -0.0044582716772984827 0.0061403527068866542 0 -0.0044226305012045972 0.0055630345580494119 0 -0.0040480638543155976 0.0059880355692031265 0 -0.0032742702169552803 0.0057891987435554834 0 -0.0036661811230838835 0.0055785318909707705 0 -0.0036218843003733986 0.0062586917127828009 0 -0.003297998920675897 0.0051678945089342768 0 -0.0032742702169552803 0.0057891987435554834 0 -0.0036661811230838835 0.0055785318909707705 0 -0.0036661811230838835 0.0055785318909707705 0 -0.0036218843003733986 0.0062586917127828009 0 -0.0040480638543155976 0.0059880355692031265 0 -0.0032742702169552803 0.0057891987435554834 0 -0.0036218843003733986 0.0062586917127828009 0 -0.0030070784367834495 0.0061636084371203383 0 -0.0036218843003733986 0.0062586917127828009 0 -0.0032307767931342162 0.0066448757812126221 0 -0.0030070784367834495 0.0061636084371203383 0 -0.0036218843003733986 0.0062586917127828009 0 -0.0040480638543155976 0.0059880355692031265 0 -0.0042511205328216659 0.0065509539723541815 0 -0.0044582716772984827 0.0061403527068866542 0 -0.0040480638543155976 0.0059880355692031265 0 -0.0042511205328216659 0.0065509539723541815 0 -0.0036218843003733986 0.0062586917127828009 0 -0.0042511205328216659 0.0065509539723541815 0 -0.0037220095039306729 0.006912204348846678 0 -0.0042511205328216659 0.0065509539723541815 0 -0.0037220095039306729 0.006912204348846678 0 -0.0042456146838042719 0.0071406503853656449 0 -0.0037220095039306729 0.006912204348846678 0 -0.0032307767931342162 0.0066448757812126221 0 -0.0030424679482345131 0.0072278044229361089 0 -0.0036218843003733986 0.0062586917127828009 0 -0.0037220095039306729 0.006912204348846678 0 -0.0032307767931342162 0.0066448757812126221 0 -0.0032307767931342162 0.0066448757812126221 0 -0.0026322962798461017 0.006704808456146104 0 -0.0030424679482345131 0.0072278044229361089 0 -0.0030070784367834495 0.0061636084371203383 0 -0.0025823634351987289 0.0062596025246173768 0 -0.0026322962798461017 0.006704808456146104 0 -0.0032307767931342162 0.0066448757812126221 0 -0.0030070784367834495 0.0061636084371203383 0 -0.0026322962798461017 0.006704808456146104 0 -0.0026428953423171028 0.0058809622826650173 0 -0.0030070784367834495 0.0061636084371203383 0 -0.0025823634351987289 0.0062596025246173768 0 -0.0022666929551933396 0.0060550675736636868 0 -0.0022416154579843741 0.0064017281964325583 0 -0.0018986667148039103 0.0062145102977770638 0 -0.0022666929551933396 0.0060550675736636868 0 -0.0025823634351987289 0.0062596025246173768 0 -0.0022416154579843741 0.0064017281964325583 0 -0.0026428953423171028 0.0058809622826650173 0 -0.0022666929551933396 0.0060550675736636868 0 -0.0025823634351987289 0.0062596025246173768 0 -0.0025823634351987289 0.0062596025246173768 0 -0.0022416154579843741 0.0064017281964325583 0 -0.0026322962798461017 0.006704808456146104 0 -0.0026322962798461017 0.006704808456146104 0 -0.0021222012869248847 0.0070044135823936317 0 -0.0030424679482345131 0.0072278044229361089 0 -0.0030242247804218407 0.0058349786609591661 0 -0.0031819207771562681 0.0057268183795990361 0 -0.0019921636163241149 0.011570770425071509 0 -0.0017933244099083362 0.012071221414176221 0 -0.0026322962798461017 0.006704808456146104 0 -0.0021222012869248847 0.0070044135823936317 0 -0.0016576825797785667 0.0067762047997415916 0 -0.0022416154579843741 0.0064017281964325583 0 -0.0026322962798461017 0.006704808456146104 0 -0.0018802641667489527 0.0067148006641512539 0 -0.0021222012869248847 0.0070044135823936317 0 -0.0021207153645854573 0.0073797407340264664 0 -0.0028914775777199278 0.0073490114498816943 0 -0.0021222012869248847 0.0070044135823936317 0 -0.0021207153645854573 0.0073797407340264664 0 -0.0017015816574633257 0.0072395809982868315 0 -0.0021207153645854573 0.0073797407340264664 0 -0.002258211204711401 0.007707552947713199 0 -0.0028914775777199278 0.0073490114498816943 0 -0.0021207153645854573 0.0073797407340264664 0 -0.002258211204711401 0.007707552947713199 0 -0.001557789909896156 0.0076127071025794786 0 -0.002258211204711401 0.007707552947713199 0 -0.0026656866539485754 0.0077865236883340027 0 -0.0023984925089778177 0.0080150150688392697 0 -0.0028914775777199278 0.0073490114498816943 0 -0.0026656866539485754 0.0077865236883340027 0 -0.0029917556088421464 0.0081432090094078775 0 -0.002258211204711401 0.007707552947713199 0 -0.0028914775777199278 0.0073490114498816943 0 -0.0026656866539485754 0.0077865236883340027 0 -0.0026656866539485754 0.0077865236883340027 0 -0.0029917556088421464 0.0081432090094078775 0 -0.0023984925089778177 0.0080150150688392697 0 -0.0029917556088421464 0.0081432090094078775 0 -0.0022119089095160075 0.008512257440748067 0 -0.0026295966949479352 0.0084967122114097977 0 -0.0024298574273945695 0.0091207159635459858 0 -0.0021286226858479203 0.0093119409422527492 0 -0.0029917556088421464 0.0081432090094078775 0 -0.0033171295617174146 0.0086120620744285 0 -0.0026295966949479352 0.0084967122114097977 0 -0.0029917556088421464 0.0081432090094078775 0 -0.0021160269427772248 0.0084055417603897814 0 -0.0023984925089778177 0.0080150150688392697 0 -0.002258211204711401 0.007707552947713199 0 -0.0023984925089778177 0.0080150150688392697 0 -0.0019416647458927372 0.0080273678937977395 0 -0.0021160269427772248 0.0084055417603897814 0 -0.0023984925089778177 0.0080150150688392697 0 -0.0019416647458927372 0.0080273678937977395 0 -0.0021539122892322059 0.0038351424675842215 0 -0.0032012694204353815 0.0052076662809805571 0 -0.0046263943072346074 0.0077513380196374531 0 -0.0042456146838042719 0.0071406503853656449 0 -0.003834952009208002 0.007478445799188143 0 -0.0044693664283089584 0.0079157104969021647 0 -0.0036748754565795248 0.0076377147791061696 0 -0.0040619056993916446 0.0080195755862946857 0 -0.0037220095039306729 0.006912204348846678 0 -0.0042456146838042719 0.0071406503853656449 0 -0.003834952009208002 0.007478445799188143 0 -0.0037220095039306729 0.006912204348846678 0 -0.0030424679482345131 0.0072278044229361089 0 -0.003834952009208002 0.007478445799188143 0 -0.0031819207771562681 0.0057268183795990361 0 -0.0032012694204353815 0.0052076662809805571 0 -0.0028914775777199278 0.0073490114498816943 0 -0.0029917556088421464 0.0081432090094078775 0 -0.0036748754565795248 0.0076377147791061696 0 -0.0029917556088421464 0.0081432090094078775 0 -0.0037243055372084568 0.0081803220486848169 0 -0.0033171295617174146 0.0086120620744285 0 -0.0029917556088421464 0.0081432090094078775 0 -0.0036748754565795248 0.0076377147791061696 0 -0.0037243055372084568 0.0081803220486848169 0 -0.0043787536280564168 0.0083450700593125111 0 -0.0037243055372084568 0.0081803220486848169 0 -0.0033171295617174146 0.0086120620744285 0 -0.0043787536280564168 0.0083450700593125111 0 -0.0037243055372084568 0.0081803220486848169 0 -0.0040619056993916446 0.0080195755862946857 0 -0.0036748754565795248 0.0076377147791061696 0 -0.0037243055372084568 0.0081803220486848169 0 -0.0040619056993916446 0.0080195755862946857 0 -0.0024577126820320349 0.0087420761428968936 0 -0.0024071780131767425 0.0087993397928334549 0 -0.002429382866134846 0.0088637976620652044 0 -0.0024577126820320349 0.0087420761428968936 0 -0.0024071780131767425 0.0087993397928334549 0 -0.0023421427091698667 0.0087862990362197 0 -0.0023972503784590012 0.0040404680209042837 0 -0.0022817458709575938 0.0057096002886438055 0 -0.0024071780131767425 0.0087993397928334549 0 -0.0023421427091698667 0.0087862990362197 0 -0.0023644376740083635 0.0088451646388425509 0 -0.0023421427091698667 0.0087862990362197 0 -0.0023644376740083635 0.0088451646388425509 0 -0.002308705652070274 0.0088581863801259035 0 -0.0023644376740083635 0.0088451646388425509 0 -0.002308705652070274 0.0088581863801259035 0 -0.0023424247240040569 0.0089221886471331745 0 -0.0023644376740083635 0.0088451646388425509 0 -0.002429382866134846 0.0088637976620652044 0 -0.0023424247240040569 0.0089221886471331745 0 -0.0024071780131767425 0.0087993397928334549 0 -0.0023644376740083635 0.0088451646388425509 0 -0.002429382866134846 0.0088637976620652044 0 -0.002286433584458679 0.0088092256453322186 0 -0.0021192721035976402 0.0087753819030740639 0 -0.0021588697530968183 0.0088866888619295037 0 -0.0022119089095160075 0.008512257440748067 0 -0.002286433584458679 0.0088092256453322186 0 -0.0021192721035976402 0.0087753819030740639 0 -0.0022119089095160075 0.008512257440748067 0 -0.002286433584458679 0.0088092256453322186 0 -0.0026295966949479352 0.0084967122114097977 0 -0.0033171295617174146 0.0086120620744285 0 -0.002286433584458679 0.0088092256453322186 0 -0.0026295966949479352 0.0084967122114097977 0 -0.0022817458709575938 0.0057096002886438055 0 -0.0021543955385927615 0.0062260840260312412 0 -0.0023421427091698667 0.0087862990362197 0 -0.002286433584458679 0.0088092256453322186 0 -0.002308705652070274 0.0088581863801259035 0 -0.002286433584458679 0.0088092256453322186 0 -0.002308705652070274 0.0088581863801259035 0 -0.0022520569274021756 0.0088816688890652924 0 -0.002308705652070274 0.0088581863801259035 0 -0.0022520569274021756 0.0088816688890652924 0 -0.0022618398723904492 0.0089427775264343465 0 -0.002286433584458679 0.0088092256453322186 0 -0.0022520569274021756 0.0088816688890652924 0 -0.0021588697530968183 0.0088866888619295037 0 -0.0022520569274021756 0.0088816688890652924 0 -0.0021867913420949609 0.0089283685449928329 0 -0.0021588697530968183 0.0088866888619295037 0 -0.0021867913420949609 0.0089283685449928329 0 -0.0022618398723904492 0.0089427775264343465 0 -0.0021770472192990807 0.0089877251930926983 0 -0.0022520569274021756 0.0088816688890652924 0 -0.0021867913420949609 0.0089283685449928329 0 -0.0022618398723904492 0.0089427775264343465 0 -0.0022618398723904492 0.0089427775264343465 0 -0.0022872801951465621 0.008988529420719326 0 -0.0023424247240040569 0.0089221886471331745 0 -0.002308705652070274 0.0088581863801259035 0 -0.0022618398723904492 0.0089427775264343465 0 -0.0023424247240040569 0.0089221886471331745 0 -0.0022618398723904492 0.0089427775264343465 0 -0.0022872801951465621 0.008988529420719326 0 -0.0022417853793358033 0.0090151048527723574 0 -0.0022872801951465621 0.008988529420719326 0 -0.0022417853793358033 0.0090151048527723574 0 -0.0022994333043894182 0.0090281779556268121 0 -0.0022417853793358033 0.0090151048527723574 0 -0.0021770472192990807 0.0089877251930926983 0 -0.0021836627473502839 0.0090716928266227626 0 -0.0022618398723904492 0.0089427775264343465 0 -0.0022417853793358033 0.0090151048527723574 0 -0.0021770472192990807 0.0089877251930926983 0 -0.0022417853793358033 0.0090151048527723574 0 -0.0021836627473502839 0.0090716928266227626 0 -0.002256726420924646 0.0090646551095343881 0 -0.0022417853793358033 0.0090151048527723574 0 -0.002256726420924646 0.0090646551095343881 0 -0.0022994333043894182 0.0090281779556268121 0 -0.002256726420924646 0.0090646551095343881 0 -0.0022966065001685581 0.0090808378960809018 0 -0.0022994333043894182 0.0090281779556268121 0 -0.002256726420924646 0.0090646551095343881 0 -0.0022603819287406041 0.0091199959326253854 0 -0.0022966065001685581 0.0090808378960809018 0 -0.0022603819287406041 0.0091199959326253854 0 -0.0023021183513931591 0.0091130676174802118 0 -0.0022966065001685581 0.0090808378960809018 0 0.0025307323169351864 0.019642847265453043 0 0.0032282515652383294 0.018960421815638381 0 0.002335500721835861 0.018979160278088741 0 -0.0021836627473502839 0.0090716928266227626 0 -0.002256726420924646 0.0090646551095343881 0 -0.0022603819287406041 0.0091199959326253854 0 -0.00075783215607976983 0.012508493134536579 0 -0.0007413481904616603 0.010157457516866432 0 -5.620659693804592e-06 -0.0060311228918928502 0 -5.3089052322584924e-05 -0.006028549114499882 0 -1.5885360826406281e-05 -0.0059777530921069416 0 6.0945700996340761e-05 -0.0060052235515013304 0 2.9513455032514168e-05 -0.0060575953787904164 0 8.689081974627252e-05 -0.0060710942193756626 0 -5.620659693804592e-06 -0.0060311228918928502 0 6.0945700996340761e-05 -0.0060052235515013304 0 2.9513455032514168e-05 -0.0060575953787904164 0 -5.620659693804592e-06 -0.0060311228918928502 0 -1.5885360826406281e-05 -0.0059777530921069416 0 6.0945700996340761e-05 -0.0060052235515013304 0 2.9513455032514168e-05 -0.0060575953787904164 0 8.689081974627252e-05 -0.0060710942193756626 0 3.327330631038601e-05 -0.0061036456988257329 0 -5.620659693804592e-06 -0.0060311228918928502 0 -5.3089052322584924e-05 -0.006028549114499882 0 -1.9169395925340804e-05 -0.0060754742758012776 0 2.9513455032514168e-05 -0.0060575953787904164 0 -1.9169395925340804e-05 -0.0060754742758012776 0 3.327330631038601e-05 -0.0061036456988257329 0 -5.620659693804592e-06 -0.0060311228918928502 0 2.9513455032514168e-05 -0.0060575953787904164 0 -1.9169395925340804e-05 -0.0060754742758012776 0 -0.0023430440224330956 0.0090860196184278357 0 -0.0023021183513931591 0.0091130676174802118 0 -0.0022966065001685581 0.0090808378960809018 0 -0.0023430440224330956 0.0090860196184278357 0 -0.0022966065001685581 0.0090808378960809018 0 -0.0023230131124135672 0.0090521785741529536 0 -0.0022966065001685581 0.0090808378960809018 0 -0.0023230131124135672 0.0090521785741529536 0 -0.0022994333043894182 0.0090281779556268121 0 -0.0023430440224330956 0.0090860196184278357 0 -0.0023230131124135672 0.0090521785741529536 0 -0.0023426960006787236 0.0090228756532751593 0 -0.0023230131124135672 0.0090521785741529536 0 -0.0022994333043894182 0.0090281779556268121 0 -0.0023426960006787236 0.0090228756532751593 0 -0.0023430440224330956 0.0090860196184278357 0 -0.0023426960006787236 0.0090228756532751593 0 -0.0023915603765431027 0.0089808063509973259 0 -0.00064274379480048897 0.0025176293551667857 0 -0.0012877167888389913 0.0021065594207802852 0 -1.5885360826406281e-05 -0.0059777530921069416 0 -5.3269056540314031e-05 -0.0057000281655219627 0 0.00010769260469166775 -0.0057176050698786321 0 8.7985473573841822e-05 -0.0058091586945079607 0 0.00015342552621533937 -0.0057209793307810338 0 -5.3089052322584924e-05 -0.006028549114499882 0 -1.5885360826406281e-05 -0.0059777530921069416 0 -5.3269056540314031e-05 -0.0057000281655219627 0 -1.5885360826406281e-05 -0.0059777530921069416 0 6.0945700996340761e-05 -0.0060052235515013304 0 0.0001157686669396029 -0.0058109086533157462 0 -0.0022872801951465621 0.008988529420719326 0 -0.0023344904661773873 0.0089868650572550585 0 -0.0023424247240040569 0.0089221886471331745 0 -0.0023915603765431027 0.0089808063509973259 0 -0.0023344904661773873 0.0089868650572550585 0 -0.0023424247240040569 0.0089221886471331745 0 -0.0022994333043894182 0.0090281779556268121 0 -0.0023426960006787236 0.0090228756532751593 0 -0.0023344904661773873 0.0089868650572550585 0 -0.0022872801951465621 0.008988529420719326 0 -0.0022994333043894182 0.0090281779556268121 0 -0.0023344904661773873 0.0089868650572550585 0 -0.0023426960006787236 0.0090228756532751593 0 -0.0023915603765431027 0.0089808063509973259 0 -0.0023344904661773873 0.0089868650572550585 0 -1.9621813421971216e-05 -0.0053849665500137886 0 -5.3269056540314031e-05 -0.0057000281655219627 0 0.00010480047642406716 -0.0055400946229604937 0 -0.0018237065304980951 0.0024949925477010422 0 -0.0012877167888389913 0.0021065594207802852 0 -0.002429382866134846 0.0088637976620652044 0 -0.0023915603765431027 0.0089808063509973259 0 -0.0023424247240040569 0.0089221886471331745 0 0.00010480047642406716 -0.0055400946229604937 0 0.00027626429902539952 -0.0054955369943812966 0 0.00010769260469166775 -0.0057176050698786321 0 0.00027964756500939143 -0.0055553189016925263 0 0.00015342552621533937 -0.0057209793307810338 0 0.00029522802086631603 -0.0055588176682650472 0 0.00028353687144316072 -0.0057881550410242904 0 0.00047077510816384246 -0.0057441255073021336 0 0.00028353687144316072 -0.0057881550410242904 0 0.00047077510816384246 -0.0057441255073021336 0 0.00033692318271937157 -0.0059025933867332125 0 0.00029522802086631603 -0.0055588176682650472 0 0.00028353687144316072 -0.0057881550410242904 0 0.0001157686669396029 -0.0058109086533157462 0 -5.3269056540314031e-05 -0.0057000281655219627 0 0.00010480047642406716 -0.0055400946229604937 0 0.00010769260469166775 -0.0057176050698786321 0 0.00028353687144316072 -0.0057881550410242904 0 0.0001157686669396029 -0.0058109086533157462 0 0.00021111669150220412 -0.0059056272977212132 0 0.00089390394549374117 -0.0054681830989055822 0 0.00060308297788908417 -0.0055240006721365472 0 0.00074081094924385155 -0.0057186318497737323 0 0.00060308297788908417 -0.0055240006721365472 0 0.00074081094924385155 -0.0057186318497737323 0 0.00047077510816384246 -0.0057441255073021336 0 0.00060308297788908417 -0.0055240006721365472 0 0.00029522802086631603 -0.0055588176682650472 0 0.00047077510816384246 -0.0057441255073021336 0 0.00047077510816384246 -0.0057441255073021336 0 0.00058347741653251009 -0.0059415401552949439 0 0.00033692318271937157 -0.0059025933867332125 0 0.00074081094924385155 -0.0057186318497737323 0 0.00058347741653251009 -0.0059415401552949439 0 0.00081725061559648779 -0.0059169205484664042 0 0.00074081094924385155 -0.0057186318497737323 0 0.00047077510816384246 -0.0057441255073021336 0 0.00058347741653251009 -0.0059415401552949439 0 0.00058347741653251009 -0.0059415401552949439 0 0.00081725061559648779 -0.0059169205484664042 0 0.00078989413075254884 -0.0061665410223646971 0 0.00058347741653251009 -0.0059415401552949439 0 0.00036713850474270101 -0.0060303394346477388 0 0.00033692318271937157 -0.0059025933867332125 0 0.00049055303993158659 -0.00615611284636133 0 0.00036713850474270101 -0.0060303394346477388 0 0.00023760105366391364 -0.006132579583240449 0 0.00049055303993158659 -0.00615611284636133 0 0.00023760105366391364 -0.006132579583240449 0 0.00028040203741226861 -0.0063363222469738616 0 0.00058347741653251009 -0.0059415401552949439 0 0.00049055303993158659 -0.00615611284636133 0 0.00036713850474270101 -0.0060303394346477388 0 0.00058347741653251009 -0.0059415401552949439 0 0.00049055303993158659 -0.00615611284636133 0 0.00078989413075254884 -0.0061665410223646971 0 6.0945700996340761e-05 -0.0060052235515013304 0 0.0001157686669396029 -0.0058109086533157462 0 0.00013811249459800938 -0.0059882046721251407 0 0.0001157686669396029 -0.0058109086533157462 0 0.00013811249459800938 -0.0059882046721251407 0 0.00021111669150220412 -0.0059056272977212132 0 0.00013811249459800938 -0.0059882046721251407 0 0.00021111669150220412 -0.0059056272977212132 0 0.00021980485914123145 -0.006028306876458874 0 0.00028353687144316072 -0.0057881550410242904 0 0.00021111669150220412 -0.0059056272977212132 0 0.00033692318271937157 -0.0059025933867332125 0 0.00036713850474270101 -0.0060303394346477388 0 0.00033692318271937157 -0.0059025933867332125 0 0.00021980485914123145 -0.006028306876458874 0 0.00021111669150220412 -0.0059056272977212132 0 0.00033692318271937157 -0.0059025933867332125 0 0.00021980485914123145 -0.006028306876458874 0 0.00021980485914123145 -0.006028306876458874 0 0.00023760105366391364 -0.006132579583240449 0 0.00015691207883841647 -0.0060831914810053475 0 0.00036713850474270101 -0.0060303394346477388 0 0.00021980485914123145 -0.006028306876458874 0 0.00023760105366391364 -0.006132579583240449 0 0.00023760105366391364 -0.006132579583240449 0 0.00015691207883841647 -0.0060831914810053475 0 0.00016752116077453345 -0.0061403100703745781 0 0.00015691207883841647 -0.0060831914810053475 0 0.00011920334720550255 -0.0061181263247143715 0 0.00016752116077453345 -0.0061403100703745781 0 0.00013811249459800938 -0.0059882046721251407 0 0.00021980485914123145 -0.006028306876458874 0 0.00015691207883841647 -0.0060831914810053475 0 0.00013811249459800938 -0.0059882046721251407 0 0.00015691207883841647 -0.0060831914810053475 0 8.689081974627252e-05 -0.0060710942193756626 0 6.0945700996340761e-05 -0.0060052235515013304 0 0.00013811249459800938 -0.0059882046721251407 0 8.689081974627252e-05 -0.0060710942193756626 0 0.00015691207883841647 -0.0060831914810053475 0 8.689081974627252e-05 -0.0060710942193756626 0 0.00011920334720550255 -0.0061181263247143715 0 8.689081974627252e-05 -0.0060710942193756626 0 7.6244824476128222e-05 -0.0061224791259592501 0 0.00011920334720550255 -0.0061181263247143715 0 7.6244824476128222e-05 -0.0061224791259592501 0 0.00011920334720550255 -0.0061181263247143715 0 0.00010762011342684954 -0.0061635759176721606 0 7.6244824476128222e-05 -0.0061224791259592501 0 0.00010762011342684954 -0.0061635759176721606 0 4.8518685782641556e-05 -0.006160761033620097 0 0.00010762011342684954 -0.0061635759176721606 0 0.00014976418569355736 -0.0061760283914018286 0 0.00016752116077453345 -0.0061403100703745781 0 0.00011920334720550255 -0.0061181263247143715 0 0.00010762011342684954 -0.0061635759176721606 0 0.00016752116077453345 -0.0061403100703745781 0 -0.00033759716375296076 -0.0043282395263835342 0 -0.00031794641449045899 -0.0038164319528219705 0 0.00023760105366391364 -0.006132579583240449 0 0.00028040203741226861 -0.0063363222469738616 0 0.00015046322032936891 -0.0064442308812371471 0 0.00023760105366391364 -0.006132579583240449 0 0.00016752116077453345 -0.0061403100703745781 0 0.00019557119325527128 -0.0061776592407925121 0 -0.00035917943286192729 -0.0039103887590459701 0 -0.00031794641449045899 -0.0038164319528219705 0 0.00014976418569355736 -0.0061760283914018286 0 0.00016752116077453345 -0.0061403100703745781 0 0.00019557119325527128 -0.0061776592407925121 0 0.00028040203741226861 -0.0063363222469738616 0 0.00011480774355135276 -0.0064840171763644178 0 0.00016500704898189965 -0.00677171607818354 0 0.00011480774355135276 -0.0064840171763644178 0 0.00016500704898189965 -0.00677171607818354 0 8.5340661832445774e-05 -0.0068779114129972757 0 4.4599870062870239e-05 -0.002400880637729366 0 0.00024873652331478782 -0.0022203483214200182 0 9.7322935839248964e-05 -0.0020669795540538697 0 -0.00031794641449045899 -0.0038164319528219705 0 0.00011152143081897654 -0.0038753260744676379 0 0.00012648530284726982 -0.0062259165265101885 0 5.6181536605409707e-05 -0.0062754336226566246 0 5.5029498810171029e-05 -0.0062155953548326355 0 8.4857373219425421e-05 -0.0022404453770854334 0 0.00085004258005079555 -8.6528689052371512e-05 0 0.00010762011342684954 -0.0061635759176721606 0 0.00012648530284726982 -0.0062259165265101885 0 5.5029498810171029e-05 -0.0062155953548326355 0 0.00014976418569355736 -0.0061760283914018286 0 0.00019557119325527128 -0.0061776592407925121 0 0.00012648530284726982 -0.0062259165265101885 0 -0.00031794641449045899 -0.0038164319528219705 0 8.4857373219425421e-05 -0.0022404453770854334 0 0.00010762011342684954 -0.0061635759176721606 0 0.00014976418569355736 -0.0061760283914018286 0 0.00012648530284726982 -0.0062259165265101885 0 0.0004155972017238365 -0.0065206647949640822 0 0.00058080479529529325 -0.0063776648250316323 0 0.00049055303993158659 -0.00615611284636133 0 0.00055768300038314166 -0.0064084913201660062 0 0.00078989413075254884 -0.0061665410223646971 0 0.00023843522646848527 -0.0067588302706100252 0 0.00029970129764240441 -0.0068388294516835337 0 0.00035088413454935423 -0.0066018502021624051 0 0.00049055303993158659 -0.00615611284636133 0 0.00028040203741226861 -0.0063363222469738616 0 0.00055768300038314166 -0.0064084913201660062 0 0.00016500704898189965 -0.00677171607818354 0 0.00023843522646848527 -0.0067588302706100252 0 0.00024224583455160516 -0.0068428782543851659 0 0.00028040203741226861 -0.0063363222469738616 0 0.00016500704898189965 -0.00677171607818354 0 0.00055768300038314166 -0.0064084913201660062 0 0.0003265433722529175 -0.0065947996357457713 0 0.0004155972017238365 -0.0065206647949640822 0 0.00023843522646848527 -0.0067588302706100252 0 0.00024224583455160516 -0.0068428782543851659 0 0.00029970129764240441 -0.0068388294516835337 0 0.00029970129764240441 -0.0068388294516835337 0 0.00033055760688555124 -0.0069268494407764255 0 0.00039642985974348702 -0.0068797358238975453 0 0.00024224583455160516 -0.0068428782543851659 0 0.00033055760688555124 -0.0069268494407764255 0 0.00024266203105436775 -0.0069422472781428268 0 0.00024224583455160516 -0.0068428782543851659 0 0.00029970129764240441 -0.0068388294516835337 0 0.00033055760688555124 -0.0069268494407764255 0 0.00024224583455160516 -0.0068428782543851659 0 0.00024266203105436775 -0.0069422472781428268 0 0.00018773690311775845 -0.0068840540273167605 0 0.00016500704898189965 -0.00677171607818354 0 0.00024224583455160516 -0.0068428782543851659 0 0.00018773690311775845 -0.0068840540273167605 0 0.00024266203105436775 -0.0069422472781428268 0 0.00018773690311775845 -0.0068840540273167605 0 0.00016656057397960558 -0.0069529749193447616 0 0.00024266203105436775 -0.0069422472781428268 0 0.00022286965416896709 -0.0070191972103750781 0 0.00030952065429258011 -0.0070127340777939784 0 0.00024266203105436775 -0.0069422472781428268 0 0.00022286965416896709 -0.0070191972103750781 0 0.00016656057397960558 -0.0069529749193447616 0 0.00033055760688555124 -0.0069268494407764255 0 0.00030952065429258011 -0.0070127340777939784 0 0.00037045837511402334 -0.0070053971765958803 0 0.00033055760688555124 -0.0069268494407764255 0 0.00024266203105436775 -0.0069422472781428268 0 0.00030952065429258011 -0.0070127340777939784 0 0.00023607260507262871 -0.0020162863409802631 0 9.7322935839248964e-05 -0.0020669795540538697 0 0.00014895286631081773 -0.0017391038023548697 0 0.00059942621418843654 -0.0034473369101706607 0 0.00085004258005079555 -8.6528689052371512e-05 0 0.00023607260507262871 -0.0020162863409802631 0 0.00014895286631081773 -0.0017391038023548697 0 0.00044946575961154849 -0.0020407253836350514 0 0.00024873652331478782 -0.0022203483214200182 0 0.00023607260507262871 -0.0020162863409802631 0 0.00044946575961154849 -0.0020407253836350514 0 0.00024873652331478782 -0.0022203483214200182 0 0.00023607260507262871 -0.0020162863409802631 0 9.7322935839248964e-05 -0.0020669795540538697 0 0.00011152143081897654 -0.0038753260744676379 0 0.00059942621418843654 -0.0034473369101706607 0 8.5340661832445774e-05 -0.0068779114129972757 0 0.00016656057397960558 -0.0069529749193447616 0 9.1172089441325888e-05 -0.0069921674193277692 0 0.00016500704898189965 -0.00677171607818354 0 8.5340661832445774e-05 -0.0068779114129972757 0 0.00018773690311775845 -0.0068840540273167605 0 8.5340661832445774e-05 -0.0068779114129972757 0 0.00018773690311775845 -0.0068840540273167605 0 0.00016656057397960558 -0.0069529749193447616 0 0.00022286965416896709 -0.0070191972103750781 0 0.00016656057397960558 -0.0069529749193447616 0 9.1172089441325888e-05 -0.0069921674193277692 0 0.00081827144494707894 -0.0015233291088863072 0 0.00111702375910569 -0.0015237878737771292 0 0.001102683079213935 -0.0018083402933866985 0 0.00081827144494707894 -0.0015233291088863072 0 0.00111702375910569 -0.0015237878737771292 0 0.00097457121261374175 -0.0013684548523860843 0 0.00111702375910569 -0.0015237878737771292 0 0.001102683079213935 -0.0018083402933866985 0 0.0012972157277763843 -0.0016378894417793221 0 0.00111702375910569 -0.0015237878737771292 0 0.0012962458126436688 -0.0014503317060032864 0 0.0011911612271932311 -0.0013347676543642984 0 0.00111702375910569 -0.0015237878737771292 0 0.0012972157277763843 -0.0016378894417793221 0 0.0012962458126436688 -0.0014503317060032864 0 0.00085004258005079555 -8.6528689052371512e-05 0 0.0009015618228137215 0.00059469694099998109 0 0.00093894704387292253 0.0013421613758771468 0 0.0011020910264674894 0.0012930895548334627 0 0.0011170250139296021 0.0014986565924404878 0 0.0018069998362380169 0.0042227233279361273 0 0.0011576956844618115 0.0041044658059376021 0 0.0020216178605238313 0.0052323778217929461 0 0.0011020910264674894 0.0012930895548334627 0 0.0012378042070875759 0.0013983290176267451 0 0.0011798730186410244 0.0011442989030952932 0 0.0011020910264674894 0.0012930895548334627 0 0.0012378042070875759 0.0013983290176267451 0 0.0011170250139296021 0.0014986565924404878 0 0.0009015618228137215 0.00059469694099998109 0 0.00098075702471338636 0.0014222125451747631 0 0.00091995556231039939 0.0030797857186150531 0 0.00098075702471338636 0.0014222125451747631 0 0.0012378042070875759 0.0013983290176267451 0 0.0011170250139296021 0.0014986565924404878 0 0.0012953717260565053 0.0016530050448332954 0 0.0012972157277763843 -0.0016378894417793221 0 0.0012962458126436688 -0.0014503317060032864 0 0.0014932244313562669 -0.0014660006571465178 0 0.0015932990724035765 0.0032071663432195609 0 0.0011895476898872053 0.0031249074417681378 0 0.00099155771897162107 0.0034534436900774809 0 0.0015932990724035765 0.0032071663432195609 0 0.00099155771897162107 0.0034534436900774809 0 0.0011576956844618115 0.0041044658059376021 0 0.00099155771897162107 0.0034534436900774809 0 0.00048626810439736021 0.0039427164137839643 0 0.00083398562139864552 0.0026434072342429553 0 0.0018069998362380169 0.0042227233279361273 0 0.0015932990724035765 0.0032071663432195609 0 0.0011576956844618115 0.0041044658059376021 0 0.0011895476898872053 0.0031249074417681378 0 0.00099155771897162107 0.0034534436900774809 0 0.00083398562139864552 0.0026434072342429553 0 0.00099155771897162107 0.0034534436900774809 0 0.00048626810439736021 0.0039427164137839643 0 0.0011576956844618115 0.0041044658059376021 0 0.00068706495054067247 0.002664259886240453 0 0.00081141445016923999 0.0021408608220971617 0 0.00034672196297782631 0.0032031258650776005 0 0.00048626810439736021 0.0039427164137839643 0 0.00083397945648684669 0.0026734197733999511 0 5.4085502755154024e-05 0.0031032974934734523 0 0.00034672196297782631 0.0032031258650776005 0 -2.6283697491649868e-05 0.0037066667702155584 0 0.00034672196297782631 0.0032031258650776005 0 -2.6283697491649868e-05 0.0037066667702155584 0 0.00048626810439736021 0.0039427164137839643 0 -2.6283697491649868e-05 0.0037066667702155584 0 0.00065173469590713861 0.0045287868694012185 0 -0.00070701022852047641 0.0038354506476969918 0 -2.6283697491649868e-05 0.0037066667702155584 0 0.00048626810439736021 0.0039427164137839643 0 0.00065173469590713861 0.0045287868694012185 0 0.0018996079623939883 0.0079314536352538042 0 0.0012066915733612168 0.0088472432096310064 0 0.00065173469590713861 0.0045287868694012185 0 0.0011576956844618115 0.0041044658059376021 0 0.0020216178605238313 0.0052323778217929461 0 0.00048626810439736021 0.0039427164137839643 0 0.00065173469590713861 0.0045287868694012185 0 0.0011576956844618115 0.0041044658059376021 0 0.0029837852685130413 0.017727662205243366 0 0.0033331118697181371 0.018301537454454654 0 0.0038782840376447554 0.018172127454370472 0 0.0018996079623939883 0.0079314536352538042 0 0.00077637855323216818 0.004855544743785827 0 0.0029837852685130413 0.017727662205243366 0 0.0026796355698757023 0.018389449424853762 0 0.002311090582859273 0.017964473495289294 0 0.0029837852685130413 0.017727662205243366 0 0.0033331118697181371 0.018301537454454654 0 0.0026796355698757023 0.018389449424853762 0 0.0032282515652383294 0.018960421815638381 0 0.0026796355698757023 0.018389449424853762 0 0.002335500721835861 0.018979160278088741 0 -0.0007413481904616603 0.010157457516866432 0 0.00054312625766873076 0.0048277383980414876 0 0.0032282515652383294 0.018960421815638381 0 0.0033331118697181371 0.018301537454454654 0 0.0026796355698757023 0.018389449424853762 0 0.0032282515652383294 0.018960421815638381 0 0.0033331118697181371 0.018301537454454654 0 0.0038976646774703753 0.018258633863288055 0 -0.0023430440224330956 0.0090860196184278357 0 -0.0023021183513931591 0.0091130676174802118 0 -0.0023082826074364475 0.0091626840575948013 0 -5.3089052322584924e-05 -0.006028549114499882 0 -1.9169395925340804e-05 -0.0060754742758012776 0 -3.8214066829584723e-05 -0.0061824582876558653 0 -0.00064274379480048897 0.0025176293551667857 0 0.00054312625766873076 0.0048277383980414876 0 -0.0022603819287406041 0.0091199959326253854 0 -0.0023021183513931591 0.0091130676174802118 0 -0.0023082826074364475 0.0091626840575948013 0 -1.9169395925340804e-05 -0.0060754742758012776 0 -6.3349332086313092e-06 -0.0061169811883642232 0 -3.8214066829584723e-05 -0.0061824582876558653 0 -1.9169395925340804e-05 -0.0060754742758012776 0 -6.3349332086313092e-06 -0.0061169811883642232 0 3.327330631038601e-05 -0.0061036456988257329 0 -6.3349332086313092e-06 -0.0061169811883642232 0 3.327330631038601e-05 -0.0061036456988257329 0 2.4183922162588504e-05 -0.0061303111232966136 0 7.6244824476128222e-05 -0.0061224791259592501 0 2.4183922162588504e-05 -0.0061303111232966136 0 4.8518685782641556e-05 -0.006160761033620097 0 8.689081974627252e-05 -0.0060710942193756626 0 7.6244824476128222e-05 -0.0061224791259592501 0 3.327330631038601e-05 -0.0061036456988257329 0 7.6244824476128222e-05 -0.0061224791259592501 0 3.327330631038601e-05 -0.0061036456988257329 0 2.4183922162588504e-05 -0.0061303111232966136 0 -6.3349332086313092e-06 -0.0061169811883642232 0 4.4071605087629381e-06 -0.0061532561346478764 0 -3.8214066829584723e-05 -0.0061824582876558653 0 2.4183922162588504e-05 -0.0061303111232966136 0 4.8518685782641556e-05 -0.006160761033620097 0 4.4071605087629381e-06 -0.0061532561346478764 0 -6.3349332086313092e-06 -0.0061169811883642232 0 2.4183922162588504e-05 -0.0061303111232966136 0 4.4071605087629381e-06 -0.0061532561346478764 0 4.8518685782641556e-05 -0.006160761033620097 0 2.1781872494036204e-05 -0.006171186053653281 0 4.4071605087629381e-06 -0.0061532561346478764 0 2.1781872494036204e-05 -0.006171186053653281 0 4.4071605087629381e-06 -0.0061532561346478764 0 -4.2408981964428781e-06 -0.0061769126179910278 0 0.00093894704387292253 0.0013421613758771468 0 0.0011020910264674894 0.0012930895548334627 0 0.0011525475432073724 0.0011303516712345826 0 -4.2408981964428781e-06 -0.0061769126179910278 0 5.5029498810171029e-05 -0.0062155953548326355 0 -3.290736111287457e-05 -0.006187625881894465 0 0.00085004258005079555 -8.6528689052371512e-05 0 0.00059693830875598148 0.0045272076457743161 0 2.1781872494036204e-05 -0.006171186053653281 0 -4.2408981964428781e-06 -0.0061769126179910278 0 5.5029498810171029e-05 -0.0062155953548326355 0 5.6181536605409707e-05 -0.0062754336226566246 0 5.5029498810171029e-05 -0.0062155953548326355 0 -3.290736111287457e-05 -0.006187625881894465 0 0.00010762011342684954 -0.0061635759176721606 0 4.8518685782641556e-05 -0.006160761033620097 0 5.5029498810171029e-05 -0.0062155953548326355 0 4.8518685782641556e-05 -0.006160761033620097 0 2.1781872494036204e-05 -0.006171186053653281 0 5.5029498810171029e-05 -0.0062155953548326355 0 0.0011020910264674894 0.0012930895548334627 0 0.0011798730186410244 0.0011442989030952932 0 0.0011525475432073724 0.0011303516712345826 0 0.0033331118697181371 0.018301537454454654 0 0.0038976646774703753 0.018258633863288055 0 0.0038782840376447554 0.018172127454370472 0 0.00091995556231039939 0.0030797857186150531 0 0.00077637855323216818 0.004855544743785827 0 4.4071605087629381e-06 -0.0061532561346478764 0 -4.2408981964428781e-06 -0.0061769126179910278 0 -3.8214066829584723e-05 -0.0061824582876558653 0 0.00054312625766873076 0.0048277383980414876 0 0.00059693830875598148 0.0045272076457743161 0 0.00047109847853355071 0.0043742993416584844 0 0.00059693830875598148 0.0045272076457743161 0 -4.2408981964428781e-06 -0.0061769126179910278 0 -3.8214066829584723e-05 -0.0061824582876558653 0 -3.1178855040609345e-05 -0.0061880792622313503 0 0.00054312625766873076 0.0048277383980414876 0 0.00077637855323216818 0.004855544743785827 0 0.00026845701080121951 0.0036324618002060724 0 0.00017398639949573421 0.0031949104933037833 0 0.00052441242010285618 0.0033737123883353553 0 0.00077637855323216818 0.004855544743785827 0 0.00059693830875598148 0.0045272076457743161 0 0.0022274756912735319 -0.0064183965121598656 0 0.00230074386114278 -0.0067436307170974322 0 0.0020443437364828913 -0.0067062383882868851 0 0.0020443437364828913 -0.0067062383882868851 0 0.0017221169224298954 -0.0065334086303914336 0 0.0017719978945043228 -0.0069848421937461908 0 0.0022274756912735319 -0.0064183965121598656 0 0.0020443437364828913 -0.0067062383882868851 0 0.0017221169224298954 -0.0065334086303914336 0 0.00230074386114278 -0.0067436307170974322 0 0.0020443437364828913 -0.0067062383882868851 0 0.0021956815218204724 -0.0070343025209128373 0 0.001717814315691157 -0.0062076215441723183 0 0.0016955604048473532 -0.0060674209652702262 0 0.0017221169224298954 -0.0065334086303914336 0 0.0020726087632381737 -0.0061858135829396402 0 0.0017793683018645355 -0.0062244092862736144 0 0.0017221169224298954 -0.0065334086303914336 0 0.0016360621041491476 -0.0060466064166765443 0 0.0013944600214255056 -0.0063933425709373128 0 0.0022274756912735319 -0.0064183965121598656 0 0.0017221169224298954 -0.0065334086303914336 0 0.0020726087632381737 -0.0061858135829396402 0 0.0020726087632381737 -0.0061858135829396402 0 0.0021775136998106073 -0.0059910565716190722 0 0.0017383595840970325 -0.0059130523500965917 0 0.0016955604048473532 -0.0060674209652702262 0 0.0016514855869675818 -0.0058006351971150267 0 0.0020726087632381737 -0.0061858135829396402 0 0.0017793683018645355 -0.0062244092862736144 0 0.0017383595840970325 -0.0059130523500965917 0 0.0016360621041491476 -0.0060466064166765443 0 0.0015582343885437379 -0.0056992766160547286 0 0.0012939837885098686 -0.0060516138172365761 0 0.0015582343885437379 -0.0056992766160547286 0 0.0012251205911867433 -0.0057236262135935898 0 0.0012939837885098686 -0.0060516138172365761 0 0.0012939837885098686 -0.0060516138172365761 0 0.0013944600214255056 -0.0063933425709373128 0 0.0011400717704489523 -0.0064982928157985807 0 0.0013944600214255056 -0.0063933425709373128 0 0.0011400717704489523 -0.0064982928157985807 0 0.0012083222454542652 -0.0070124227784285065 0 0.0017221169224298954 -0.0065334086303914336 0 0.0013944600214255056 -0.0063933425709373128 0 0.0012083222454542652 -0.0070124227784285065 0 0.0016360621041491476 -0.0060466064166765443 0 0.0012939837885098686 -0.0060516138172365761 0 0.0013944600214255056 -0.0063933425709373128 0 0.0011400717704489523 -0.0064982928157985807 0 0.0008434380134202577 -0.0065623113251535043 0 0.0010488383524514557 -0.0068059027575000635 0 0.0008434380134202577 -0.0065623113251535043 0 0.0005782279486699648 -0.0063412329941968165 0 0.00060054140893360194 -0.006735525348358965 0 0.00083419627928385943 -0.0061617172661510644 0 0.00074658238330878703 -0.0062344914249066524 0 0.0008434380134202577 -0.0065623113251535043 0 0.0010061999006210839 -0.0059802022195535572 0 0.0005782279486699648 -0.0063412329941968165 0 0.0012939837885098686 -0.0060516138172365761 0 0.0011400717704489523 -0.0064982928157985807 0 0.0010061999006210839 -0.0059802022195535572 0 0.0011400717704489523 -0.0064982928157985807 0 0.0008434380134202577 -0.0065623113251535043 0 0.0010061999006210839 -0.0059802022195535572 0 0.0012251205911867433 -0.0057236262135935898 0 0.0012939837885098686 -0.0060516138172365761 0 0.0010061999006210839 -0.0059802022195535572 0 0.0012251205911867433 -0.0057236262135935898 0 0.0010825380381429539 -0.0057123941285291552 0 0.0010061999006210839 -0.0059802022195535572 0 0.0010919576783814974 -0.0055408671270371426 0 0.0010825380381429539 -0.0057123941285291552 0 0.00095929552552907835 -0.0057935540944861206 0 0.0010061999006210839 -0.0059802022195535572 0 0.00095929552552907835 -0.0057935540944861206 0 0.00096037702176613978 -0.0059932948844645256 0 0.0010825380381429539 -0.0057123941285291552 0 0.0010061999006210839 -0.0059802022195535572 0 0.00095929552552907835 -0.0057935540944861206 0 0.0010919576783814974 -0.0055408671270371426 0 0.00089390394549374117 -0.0054681830989055822 0 0.00095929552552907835 -0.0057935540944861206 0 0.00089390394549374117 -0.0054681830989055822 0 0.00074081094924385155 -0.0057186318497737323 0 0.00095929552552907835 -0.0057935540944861206 0 0.00074081094924385155 -0.0057186318497737323 0 0.00095929552552907835 -0.0057935540944861206 0 0.00081725061559648779 -0.0059169205484664042 0 0.00081725061559648779 -0.0059169205484664042 0 0.00096037702176613978 -0.0059932948844645256 0 0.00078989413075254884 -0.0061665410223646971 0 0.00095929552552907835 -0.0057935540944861206 0 0.00081725061559648779 -0.0059169205484664042 0 0.00096037702176613978 -0.0059932948844645256 0 0.0005782279486699648 -0.0063412329941968165 0 0.00035088413454935423 -0.0066018502021624051 0 0.00060054140893360194 -0.006735525348358965 0 0.00074658238330878703 -0.0062344914249066524 0 0.00058080479529529325 -0.0063776648250316323 0 0.00029970129764240441 -0.0068388294516835337 0 0.00035088413454935423 -0.0066018502021624051 0 0.00039642985974348702 -0.0068797358238975453 0 0.00035088413454935423 -0.0066018502021624051 0 0.00060054140893360194 -0.006735525348358965 0 0.00039642985974348702 -0.0068797358238975453 0 0.00060054140893360194 -0.006735525348358965 0 0.00039642985974348702 -0.0068797358238975453 0 0.00064729190563667821 -0.007016265536188053 0 -0.00026114065261772422 -0.0077180463216003957 0 -0.00028379809963130997 -0.0080326320507948298 0 0.00033055760688555124 -0.0069268494407764255 0 0.00039642985974348702 -0.0068797358238975453 0 0.00040522107325974651 -0.006953767925537653 0 0.00033055760688555124 -0.0069268494407764255 0 0.00040522107325974651 -0.006953767925537653 0 0.00037045837511402334 -0.0070053971765958803 0 0.00040522107325974651 -0.006953767925537653 0 0.00037045837511402334 -0.0070053971765958803 0 0.0004387082415121878 -0.007057233005937873 0 -0.00028379809963130997 -0.0080326320507948298 0 -0.00030813274788278649 -0.0090256226461378139 0 0.0004501885356080409 -0.0072075382211705076 0 0.00067883042990596256 -0.0072882825093088591 0 0.00052548152182376004 -0.0074804060593797383 0 -2.8135140236580236e-05 -0.0086419456223417075 0 -0.00030813274788278649 -0.0090256226461378139 0 0.00067883042990596256 -0.0072882825093088591 0 0.00071234895993563566 -0.0074347402021498346 0 0.00054019510685650112 -0.0074593798439730758 0 0.00039642985974348702 -0.0068797358238975453 0 0.0004501885356080409 -0.0072075382211705076 0 0.00064729190563667821 -0.007016265536188053 0 0.0004501885356080409 -0.0072075382211705076 0 0.00064729190563667821 -0.007016265536188053 0 0.00067883042990596256 -0.0072882825093088591 0 0.00064729190563667821 -0.007016265536188053 0 0.00080301065562838486 -0.0071429151922421472 0 0.00067883042990596256 -0.0072882825093088591 0 0.00067883042990596256 -0.0072882825093088591 0 0.00087171131724652826 -0.0073809333384705104 0 0.00071234895993563566 -0.0074347402021498346 0 0.00080301065562838486 -0.0071429151922421472 0 0.00067883042990596256 -0.0072882825093088591 0 0.00087171131724652826 -0.0073809333384705104 0 0.00087171131724652826 -0.0073809333384705104 0 0.0010000004347217851 -0.0071440022881641783 0 0.0010744665739016593 -0.0073232328049049177 0 0.00080301065562838486 -0.0071429151922421472 0 0.00087171131724652826 -0.0073809333384705104 0 0.0010000004347217851 -0.0071440022881641783 0 0.00080301065562838486 -0.0071429151922421472 0 0.0010000004347217851 -0.0071440022881641783 0 0.00086479270290496879 -0.0069309312020317745 0 0.0010000004347217851 -0.0071440022881641783 0 0.00086479270290496879 -0.0069309312020317745 0 0.0010933294290023765 -0.0069981672112388801 0 0.00086479270290496879 -0.0069309312020317745 0 0.0010488383524514557 -0.0068059027575000635 0 0.0010933294290023765 -0.0069981672112388801 0 0.00060054140893360194 -0.006735525348358965 0 0.00064729190563667821 -0.007016265536188053 0 0.00086479270290496879 -0.0069309312020317745 0 0.00064729190563667821 -0.007016265536188053 0 0.00080301065562838486 -0.0071429151922421472 0 0.00086479270290496879 -0.0069309312020317745 0 0.0008434380134202577 -0.0065623113251535043 0 0.00060054140893360194 -0.006735525348358965 0 0.00086479270290496879 -0.0069309312020317745 0 0.0008434380134202577 -0.0065623113251535043 0 0.00086479270290496879 -0.0069309312020317745 0 0.0010488383524514557 -0.0068059027575000635 0 0.0011400717704489523 -0.0064982928157985807 0 0.0010488383524514557 -0.0068059027575000635 0 0.0012083222454542652 -0.0070124227784285065 0 0.00094396349615012741 -0.0079055586724992872 0 0.00090643362548615506 -0.0081875042532572745 0 0.0012083222454542652 -0.0070124227784285065 0 0.0010933294290023765 -0.0069981672112388801 0 0.001231891165775386 -0.0071212680570043223 0 0.0012083222454542652 -0.0070124227784285065 0 0.00061803643549606898 -0.0079520814198173265 0 0.00154266325131351 -0.0074725108037088893 0 0.0010488383524514557 -0.0068059027575000635 0 0.0012083222454542652 -0.0070124227784285065 0 0.0010933294290023765 -0.0069981672112388801 0 0.0010000004347217851 -0.0071440022881641783 0 0.0010744665739016593 -0.0073232328049049177 0 0.001231891165775386 -0.0071212680570043223 0 0.0010000004347217851 -0.0071440022881641783 0 0.0010933294290023765 -0.0069981672112388801 0 0.001231891165775386 -0.0071212680570043223 0 0.0010744665739016593 -0.0073232328049049177 0 0.0012366841892595488 -0.0073774348378636365 0 0.001231891165775386 -0.0071212680570043223 0 0.00083994333068263308 -0.008906563522751855 0 0.00090643362548615506 -0.0081875042532572745 0 -2.1460371570291708e-05 -0.0091973421899098611 0 0.00061803643549606898 -0.0079520814198173265 0 0.00085346987687326024 -0.0087602871995082852 0 -2.1460371570291708e-05 -0.0091973421899098611 0 0.00085346987687326024 -0.0087602871995082852 0 0.00079400154721127154 -0.0095261461476479643 0 0.00061803643549606898 -0.0079520814198173265 0 0.0015347540313786854 -0.0083603334768723777 0 0.00154266325131351 -0.0074725108037088893 0 0.00061803643549606898 -0.0079520814198173265 0 0.0015347540313786854 -0.0083603334768723777 0 0.00085346987687326024 -0.0087602871995082852 0 0.0015347540313786854 -0.0083603334768723777 0 0.00085346987687326024 -0.0087602871995082852 0 0.0013394160774955245 -0.0089700222019648591 0 0.00085346987687326024 -0.0087602871995082852 0 0.0013394160774955245 -0.0089700222019648591 0 0.00079400154721127154 -0.0095261461476479643 0 0.0015347540313786854 -0.0083603334768723777 0 0.0013394160774955245 -0.0089700222019648591 0 0.0021222601289414655 -0.0092525985587292164 0 0.0023246230098574678 -0.0084031713847050899 0 0.0015347540313786854 -0.0083603334768723777 0 0.0021222601289414655 -0.0092525985587292164 0 0.0015347540313786854 -0.0083603334768723777 0 0.0020571591460526997 -0.0077747894406151432 0 0.00154266325131351 -0.0074725108037088893 0 0.0023246230098574678 -0.0084031713847050899 0 0.0015347540313786854 -0.0083603334768723777 0 0.0020571591460526997 -0.0077747894406151432 0 0.0023693167677269716 -0.0074321663202491324 0 0.0020571591460526997 -0.0077747894406151432 0 0.0019730709573534781 -0.0073250881674188093 0 0.0023693167677269716 -0.0074321663202491324 0 0.0019730709573534781 -0.0073250881674188093 0 0.0021956815218204724 -0.0070343025209128373 0 0.0020571591460526997 -0.0077747894406151432 0 0.0019730709573534781 -0.0073250881674188093 0 0.00154266325131351 -0.0074725108037088893 0 0.0012083222454542652 -0.0070124227784285065 0 0.00154266325131351 -0.0074725108037088893 0 0.0017719978945043228 -0.0069848421937461908 0 0.0019730709573534781 -0.0073250881674188093 0 0.00154266325131351 -0.0074725108037088893 0 0.0017719978945043228 -0.0069848421937461908 0 0.0017221169224298954 -0.0065334086303914336 0 0.0012083222454542652 -0.0070124227784285065 0 0.0017719978945043228 -0.0069848421937461908 0 0.0020443437364828913 -0.0067062383882868851 0 0.0017719978945043228 -0.0069848421937461908 0 0.0021956815218204724 -0.0070343025209128373 0 0.0019730709573534781 -0.0073250881674188093 0 0.0017719978945043228 -0.0069848421937461908 0 0.0021956815218204724 -0.0070343025209128373 0 0.0016438943631507516 -0.017313393443225432 0 0.00127602459371434 -0.017206415010158831 0 0.0046077539524679717 -0.01561833022625983 0 0.0032148541104195069 -0.014611346871664878 0 0.0023666822800106307 -0.016091529216723022 0 0.0032148541104195069 -0.014611346871664878 0 0.0020938670323516814 -0.014531124920669951 0 0.0027297925450873446 -0.013566461029828799 0 0.0046077539524679717 -0.01561833022625983 0 0.0032148541104195069 -0.014611346871664878 0 0.0039125753268534173 -0.014320245881280844 0 0.0032148541104195069 -0.014611346871664878 0 0.0020938670323516814 -0.014531124920669951 0 0.0023666822800106307 -0.016091529216723022 0 0.0012838476557343079 -0.015181035678950391 0 0.0020938670323516814 -0.014531124920669951 0 0.0023666822800106307 -0.016091529216723022 0 0.0012838476557343079 -0.015181035678950391 0 -0.00035067566569162276 -0.016608541281656952 0 0.0023666822800106307 -0.016091529216723022 0 0.0012838476557343079 -0.015181035678950391 0 0.00027460300396725838 -0.015234190067083901 0 -0.00035067566569162276 -0.016608541281656952 0 0.00027460300396725838 -0.015234190067083901 0 0.0010739266385084774 -0.014265298843541049 0 0.00036684681503392245 -0.014267201427716888 0 0.0012838476557343079 -0.015181035678950391 0 0.00027460300396725838 -0.015234190067083901 0 0.0010739266385084774 -0.014265298843541049 0 0.0012838476557343079 -0.015181035678950391 0 0.0010739266385084774 -0.014265298843541049 0 0.0020938670323516814 -0.014531124920669951 0 0.0010739266385084774 -0.014265298843541049 0 0.0020938670323516814 -0.014531124920669951 0 0.0018474635176197369 -0.013594670554590292 0 0.0010739266385084774 -0.014265298843541049 0 0.0018474635176197369 -0.013594670554590292 0 0.0011566564369604609 -0.013014589306064573 0 0.0018474635176197369 -0.013594670554590292 0 0.0020613054728492669 -0.012555619727531341 0 0.0027297925450873446 -0.013566461029828799 0 0.0010739266385084774 -0.014265298843541049 0 0.0011566564369604609 -0.013014589306064573 0 0.00031207445785536714 -0.013537674729372362 0 0.0010739266385084774 -0.014265298843541049 0 0.00031207445785536714 -0.013537674729372362 0 0.00036684681503392245 -0.014267201427716888 0 0.0011566564369604609 -0.013014589306064573 0 0.0020613054728492669 -0.012555619727531341 0 0.00095180710628175861 -0.011650340220358777 0 0.0011566564369604609 -0.013014589306064573 0 0.00023733437242929507 -0.01256170993273931 0 0.00031207445785536714 -0.013537674729372362 0 0.0011566564369604609 -0.013014589306064573 0 0.00095180710628175861 -0.011650340220358777 0 0.00023733437242929507 -0.01256170993273931 0 0.0018474635176197369 -0.013594670554590292 0 0.0011566564369604609 -0.013014589306064573 0 0.0020613054728492669 -0.012555619727531341 0 0.0020613054728492669 -0.012555619727531341 0 0.0030064144234053115 -0.012762977446686022 0 0.0027297925450873446 -0.013566461029828799 0 0.0020938670323516814 -0.014531124920669951 0 0.0018474635176197369 -0.013594670554590292 0 0.0027297925450873446 -0.013566461029828799 0 0.0030064144234053115 -0.012762977446686022 0 0.0027297925450873446 -0.013566461029828799 0 0.0036109514867269472 -0.013495605444505459 0 0.0032148541104195069 -0.014611346871664878 0 0.0039125753268534173 -0.014320245881280844 0 0.0036109514867269472 -0.013495605444505459 0 0.0032148541104195069 -0.014611346871664878 0 0.0027297925450873446 -0.013566461029828799 0 0.0036109514867269472 -0.013495605444505459 0 0.0042182381273229595 -0.013557452811881065 0 0.0039125753268534173 -0.014320245881280844 0 0.0036109514867269472 -0.013495605444505459 0 0.0043713128567221538 -0.013223398014414342 0 0.0036109514867269472 -0.013495605444505459 0 0.003755138941471729 -0.012637045885042041 0 0.0030064144234053115 -0.012762977446686022 0 0.0036109514867269472 -0.013495605444505459 0 0.003755138941471729 -0.012637045885042041 0 0.0042508381651776336 -0.011987640345348563 0 0.003755138941471729 -0.012637045885042041 0 0.0029578636032996067 -0.011696264325368907 0 0.0030064144234053115 -0.012762977446686022 0 0.003755138941471729 -0.012637045885042041 0 0.0029578636032996067 -0.011696264325368907 0 0.0020613054728492669 -0.012555619727531341 0 0.0030064144234053115 -0.012762977446686022 0 0.0029578636032996067 -0.011696264325368907 0 0.0027701508087793758 -0.011659791809102373 0 0.0027921607080892493 -0.010735427465043738 0 0.0019013976317990655 -0.010471545679864957 0 0.0036354039070186179 -0.011059567577564109 0 0.0027701508087793758 -0.011659791809102373 0 0.0027921607080892493 -0.010735427465043738 0 0.0036354039070186179 -0.011059567577564109 0 0.0027921607080892493 -0.010735427465043738 0 0.0031464729862749159 -0.0095581380584637641 0 0.0027921607080892493 -0.010735427465043738 0 0.0031464729862749159 -0.0095581380584637641 0 0.0019013976317990655 -0.010471545679864957 0 0.0023662418195146947 -0.012572381142117594 0 0.001947908424667226 -0.012186122838070846 0 0.0031464729862749159 -0.0095581380584637641 0 0.00079400154721127154 -0.0095261461476479643 0 0.0019013976317990655 -0.010471545679864957 0 0.0013394160774955245 -0.0089700222019648591 0 0.0021222601289414655 -0.0092525985587292164 0 0.00079400154721127154 -0.0095261461476479643 0 0.00079400154721127154 -0.0095261461476479643 0 0.0019013976317990655 -0.010471545679864957 0 0.00050198760582836021 -0.010475335169755276 0 0.0020613054728492669 -0.012555619727531341 0 0.0029578636032996067 -0.011696264325368907 0 0.00095180710628175861 -0.011650340220358777 0 0.0024156698364616262 -0.01480455752240697 0 0.0021991281123380606 -0.014585639269682866 0 0.0019013976317990655 -0.010471545679864957 0 0.00095180710628175861 -0.011650340220358777 0 0.00050198760582836021 -0.010475335169755276 0 0.0027701508087793758 -0.011659791809102373 0 0.0019013976317990655 -0.010471545679864957 0 0.00095180710628175861 -0.011650340220358777 0 0.00095180710628175861 -0.011650340220358777 0 -0.00069948812392329291 -0.011390016947863039 0 0.00023733437242929507 -0.01256170993273931 0 0.00095180710628175861 -0.011650340220358777 0 -0.00069948812392329291 -0.011390016947863039 0 0.00050198760582836021 -0.010475335169755276 0 -0.00069948812392329291 -0.011390016947863039 0 -0.00033564123097135583 -0.013108556974562868 0 0.00023733437242929507 -0.01256170993273931 0 0.0012366841892595488 -0.0073774348378636365 0 0.0012259966147697579 -0.0076502336441594916 0 0.0011239326912412017 -0.0074921147358339478 0 -2.1460371570291708e-05 -0.0091973421899098611 0 -0.00069948812392329291 -0.011390016947863039 0 0.00050198760582836021 -0.010475335169755276 0 0.00083994333068263308 -0.008906563522751855 0 0.00080974497084077902 -0.0099739065711834784 0 -2.1460371570291708e-05 -0.0091973421899098611 0 0.00079400154721127154 -0.0095261461476479643 0 0.00050198760582836021 -0.010475335169755276 0 0.0010744665739016593 -0.0073232328049049177 0 0.0011239326912412017 -0.0074921147358339478 0 0.0010168471030861481 -0.007486659928768887 0 0.0010744665739016593 -0.0073232328049049177 0 0.0012366841892595488 -0.0073774348378636365 0 0.0011239326912412017 -0.0074921147358339478 0 0.0011239326912412017 -0.0074921147358339478 0 0.0010673534939241607 -0.0076285957526105522 0 0.0010168471030861481 -0.007486659928768887 0 0.0012259966147697579 -0.0076502336441594916 0 0.0011239326912412017 -0.0074921147358339478 0 0.0010673534939241607 -0.0076285957526105522 0 0.0012259966147697579 -0.0076502336441594916 0 0.0010673534939241607 -0.0076285957526105522 0 0.0011180648135680198 -0.0077453928879666562 0 0.0010673534939241607 -0.0076285957526105522 0 0.0011180648135680198 -0.0077453928879666562 0 0.00097756769402477183 -0.0077662733289913894 0 0.0012259966147697579 -0.0076502336441594916 0 0.0011180648135680198 -0.0077453928879666562 0 0.0012033979387298685 -0.0079294988220956607 0 -0.0022625599270322352 -0.013914440097200076 0 -0.0018497067371919631 -0.013997424858123282 0 -0.0021128000703608749 -0.014139311680201945 0 0.00088943301602668933 -0.011309689320738604 0 0.00031229562344877137 -0.010673161433235528 0 0.0011180648135680198 -0.0077453928879666562 0 0.0012033979387298685 -0.0079294988220956607 0 0.00097756769402477183 -0.0077662733289913894 0 -0.00069948812392329291 -0.011390016947863039 0 -0.00033564123097135583 -0.013108556974562868 0 -0.0011542779033992198 -0.013937702675580406 0 0.00080974497084077902 -0.0099739065711834784 0 0.00088943301602668933 -0.011309689320738604 0 -0.00033564123097135583 -0.013108556974562868 0 0.00023733437242929507 -0.01256170993273931 0 0.00031207445785536714 -0.013537674729372362 0 -0.00033564123097135583 -0.013108556974562868 0 0.00031207445785536714 -0.013537674729372362 0 -0.00018467996214318716 -0.014050319816124123 0 0.00031207445785536714 -0.013537674729372362 0 -0.00018467996214318716 -0.014050319816124123 0 0.00036684681503392245 -0.014267201427716888 0 -0.00033564123097135583 -0.013108556974562868 0 -0.00018467996214318716 -0.014050319816124123 0 -0.0011542779033992198 -0.013937702675580406 0 -0.0016369373030965127 -0.014482339689205896 0 -0.00098497461281350914 -0.015560716769252287 0 -0.0016384631865817862 -0.016444793027496966 0 0.00088943301602668933 -0.011309689320738604 0 0.00087525945025688438 -0.011367250102631638 0 0.00027460300396725838 -0.015234190067083901 0 -0.0015893998159102649 -0.0139519627306055 0 -0.0016369373030965127 -0.014482339689205896 0 0.00027460300396725838 -0.015234190067083901 0 -0.0016369373030965127 -0.014482339689205896 0 -0.00098497461281350914 -0.015560716769252287 0 0.00027460300396725838 -0.015234190067083901 0 -0.00018467996214318716 -0.014050319816124123 0 0.00036684681503392245 -0.014267201427716888 0 0.00097795642219321299 -0.011665297122452217 0 0.00088943301602668933 -0.011309689320738604 0 0.00027460300396725838 -0.015234190067083901 0 -0.00018467996214318716 -0.014050319816124123 0 -0.0011542779033992198 -0.013937702675580406 0 0.00027460300396725838 -0.015234190067083901 0 -0.00098497461281350914 -0.015560716769252287 0 -0.00035067566569162276 -0.016608541281656952 0 -0.0012732474557874277 -0.013920612919612364 0 -0.001118336978739083 -0.013972541653052041 0 -0.0022625599270322352 -0.013914440097200076 0 -0.0018844307433556063 -0.013008278074022493 0 -0.0023966186185443001 -0.012489131593311682 0 -0.0022625599270322352 -0.013914440097200076 0 -0.0016369373030965127 -0.014482339689205896 0 -0.0016384631865817862 -0.016444793027496966 0 -0.0022625599270322352 -0.013914440097200076 0 -0.0023966186185443001 -0.012489131593311682 0 -0.0032426764670375908 -0.012230747705826146 0 -0.0022625599270322352 -0.013914440097200076 0 -0.0018497067371919631 -0.013997424858123282 0 -0.0016369373030965127 -0.014482339689205896 0 -0.001350771468304758 -0.013270770440609519 0 -0.0018844307433556063 -0.013008278074022493 0 -0.001866920127352522 -0.013751905259291569 0 -0.0022625599270322352 -0.013914440097200076 0 -0.0018844307433556063 -0.013008278074022493 0 -0.001866920127352522 -0.013751905259291569 0 -0.0018844307433556063 -0.013008278074022493 0 -0.0014212671692817736 -0.012663852962137729 0 -0.0019155280744935343 -0.012011197183029053 0 -0.001350771468304758 -0.013270770440609519 0 -0.0018844307433556063 -0.013008278074022493 0 -0.0014212671692817736 -0.012663852962137729 0 -0.001350771468304758 -0.013270770440609519 0 -0.0014212671692817736 -0.012663852962137729 0 -0.00095233730701664273 -0.012859544692552188 0 -0.0014212671692817736 -0.012663852962137729 0 -0.00095233730701664273 -0.012859544692552188 0 -0.0010064979974386027 -0.012093456300143716 0 -0.00095233730701664273 -0.012859544692552188 0 -0.00019884377054908537 -0.01285147659793417 0 -0.0010064979974386027 -0.012093456300143716 0 -0.00095233730701664273 -0.012859544692552188 0 -0.00068822562159446556 -0.013466046758218903 0 -0.00019884377054908537 -0.01285147659793417 0 -0.001350771468304758 -0.013270770440609519 0 -0.00095233730701664273 -0.012859544692552188 0 -0.00068822562159446556 -0.013466046758218903 0 -0.001350771468304758 -0.013270770440609519 0 -0.00068822562159446556 -0.013466046758218903 0 -0.0010271055062438558 -0.014044431785159768 0 -0.00068822562159446556 -0.013466046758218903 0 -0.0010271055062438558 -0.014044431785159768 0 2.6693542132482962e-05 -0.014318826139554949 0 -0.0010271055062438558 -0.014044431785159768 0 -0.001866920127352522 -0.013751905259291569 0 -0.0021128000703608749 -0.014139311680201945 0 -0.001350771468304758 -0.013270770440609519 0 -0.0010271055062438558 -0.014044431785159768 0 -0.001866920127352522 -0.013751905259291569 0 -0.0022625599270322352 -0.013914440097200076 0 -0.001866920127352522 -0.013751905259291569 0 -0.0021128000703608749 -0.014139311680201945 0 0.0010673534939241607 -0.0076285957526105522 0 0.00097756769402477183 -0.0077662733289913894 0 0.00092637466764269947 -0.0075966459332399861 0 0.00097756769402477183 -0.0077662733289913894 0 0.00092637466764269947 -0.0075966459332399861 0 0.00076139790992707957 -0.007610780558283842 0 0.00031229562344877137 -0.010673161433235528 0 0.00015779704408990026 -0.01011897164731021 0 0.00087171131724652826 -0.0073809333384705104 0 0.0010744665739016593 -0.0073232328049049177 0 0.0010168471030861481 -0.007486659928768887 0 0.00087171131724652826 -0.0073809333384705104 0 0.00092637466764269947 -0.0075966459332399861 0 0.0010168471030861481 -0.007486659928768887 0 0.00087171131724652826 -0.0073809333384705104 0 0.00092637466764269947 -0.0075966459332399861 0 0.00076139790992707957 -0.007610780558283842 0 0.0010673534939241607 -0.0076285957526105522 0 0.00092637466764269947 -0.0075966459332399861 0 0.0010168471030861481 -0.007486659928768887 0 0.00087171131724652826 -0.0073809333384705104 0 0.00071234895993563566 -0.0074347402021498346 0 0.00076139790992707957 -0.007610780558283842 0 0.00071234895993563566 -0.0074347402021498346 0 0.00076139790992707957 -0.007610780558283842 0 0.00054019510685650112 -0.0074593798439730758 0 -0.0010271055062438558 -0.014044431785159768 0 -0.00086389621351926104 -0.015074406673803357 0 2.6693542132482962e-05 -0.014318826139554949 0 -0.0010271055062438558 -0.014044431785159768 0 -0.0021128000703608749 -0.014139311680201945 0 -0.00086389621351926104 -0.015074406673803357 0 -0.00086389621351926104 -0.015074406673803357 0 0.00029118045316187617 -0.015846366394641723 0 2.6693542132482962e-05 -0.014318826139554949 0 -0.0005600532189024293 -0.0098903930159944583 0 -0.00077275203407836993 -0.010158109813751927 0 -0.00048312373142601943 -0.010332153057002622 0 -0.00030813274788278649 -0.0090256226461378139 0 -0.00013253079262565988 -0.011076847533452136 0 0.00015779704408990026 -0.01011897164731021 0 -0.00030813274788278649 -0.0090256226461378139 0 0.0004387082415121878 -0.007057233005937873 0 0.00036425670296049871 -0.0070676955549268117 0 0.00037732986293334282 -0.0071370053317459121 0 -0.00030813274788278649 -0.0090256226461378139 0 -4.6202360702159292e-05 -0.0081101951904355395 0 0.00030952065429258011 -0.0070127340777939784 0 0.00037045837511402334 -0.0070053971765958803 0 0.00036425670296049871 -0.0070676955549268117 0 0.00037045837511402334 -0.0070053971765958803 0 0.0004387082415121878 -0.007057233005937873 0 0.00036425670296049871 -0.0070676955549268117 0 0.00036425670296049871 -0.0070676955549268117 0 0.00037732986293334282 -0.0071370053317459121 0 0.00030575551088358175 -0.0071060597158900188 0 -0.00077275203407836993 -0.010158109813751927 0 -0.00078500494743602618 -0.010352050802197792 0 -0.00048312373142601943 -0.010332153057002622 0 -0.00077275203407836993 -0.010158109813751927 0 -0.00078500494743602618 -0.010352050802197792 0 -0.00096443705745208059 -0.010397903023462338 0 -4.6202360702159292e-05 -0.0081101951904355395 0 0.00037578952310035743 -0.0069905732061507032 0 -0.00078500494743602618 -0.010352050802197792 0 -0.00083403075099089743 -0.010531381479525185 0 -0.00096443705745208059 -0.010397903023462338 0 -0.00083403075099089743 -0.010531381479525185 0 -0.00064780775897639044 -0.010469298788299296 0 -0.0005693429721250954 -0.010665287899698079 0 -0.00078500494743602618 -0.010352050802197792 0 -0.00064780775897639044 -0.010469298788299296 0 -0.00048312373142601943 -0.010332153057002622 0 -0.00078500494743602618 -0.010352050802197792 0 -0.00083403075099089743 -0.010531381479525185 0 -0.00064780775897639044 -0.010469298788299296 0 -0.00013253079262565988 -0.011076847533452136 0 -0.00017829986223258539 -0.011350052856989121 0 -0.00068822562159446556 -0.013466046758218903 0 2.6693542132482962e-05 -0.014318826139554949 0 -0.00019884377054908537 -0.01285147659793417 0 -0.00064780775897639044 -0.010469298788299296 0 -0.00048312373142601943 -0.010332153057002622 0 -0.0005693429721250954 -0.010665287899698079 0 -0.00048312373142601943 -0.010332153057002622 0 -0.0005693429721250954 -0.010665287899698079 0 -0.00042221306468210272 -0.010739397920611163 0 -0.00042221306468210272 -0.010739397920611163 0 -0.00056599889021915432 -0.010769718828238978 0 -0.00049650935805128763 -0.010842292152196465 0 -0.0005693429721250954 -0.010665287899698079 0 -0.00042221306468210272 -0.010739397920611163 0 -0.00056599889021915432 -0.010769718828238978 0 0.00048472474453012572 -0.0072937056807629809 0 0.00063826999430407203 -0.007884871038244385 0 -0.00078728252136156594 -0.010548444745145467 0 -0.0005693429721250954 -0.010665287899698079 0 -0.00056599889021915432 -0.010769718828238978 0 0.00048472474453012572 -0.0072937056807629809 0 0.00048063271920865752 -0.0075404449336624645 0 -0.00069847497493271695 -0.010609546039203268 0 -0.00056599889021915432 -0.010769718828238978 0 -0.0006457839100819211 -0.010755793897414972 0 -0.00069847497493271695 -0.010609546039203268 0 -0.0006457839100819211 -0.010755793897414972 0 -0.00079877773669160895 -0.010561309362917054 0 0.00079494007670000047 -0.0086263646110489537 0 0.00037760084033649881 -0.0067003528298815946 0 5.3975235411356781e-05 -0.011361910114706017 0 0.00050494969886543761 -0.011424998554095718 0 0.00035691233524685212 -0.011159242673639118 0 5.3975235411356781e-05 -0.011361910114706017 0 7.9148871126250123e-05 -0.010941490702040145 0 -0.00047696278340061911 -0.010879591658871412 0 7.9148871126250123e-05 -0.010941490702040145 0 0.00029829039491104331 -0.010622538766055317 0 0.00048659086039875622 -0.010887107066410068 0 7.9148871126250123e-05 -0.010941490702040145 0 0.00048659086039875622 -0.010887107066410068 0 0.00035691233524685212 -0.011159242673639118 0 5.3975235411356781e-05 -0.011361910114706017 0 7.9148871126250123e-05 -0.010941490702040145 0 0.00035691233524685212 -0.011159242673639118 0 -0.00056599889021915432 -0.010769718828238978 0 -0.0006457839100819211 -0.010755793897414972 0 -0.00047696278340061911 -0.010879591658871412 0 -0.00056599889021915432 -0.010769718828238978 0 -0.00049650935805128763 -0.010842292152196465 0 -0.00047696278340061911 -0.010879591658871412 0 7.9148871126250123e-05 -0.010941490702040145 0 -0.00047696278340061911 -0.010879591658871412 0 -0.00015346298174551506 -0.01071641700171466 0 0.00079494007670000047 -0.0086263646110489537 0 0.00079986490302188899 -0.0090801037754947352 0 -0.00049650935805128763 -0.010842292152196465 0 -0.00047696278340061911 -0.010879591658871412 0 -0.00059670239775326723 -0.0109489027706669 0 -0.00047696278340061911 -0.010879591658871412 0 -0.00015346298174551506 -0.01071641700171466 0 -0.00039704761860283045 -0.010383660447471734 0 -0.00047696278340061911 -0.010879591658871412 0 -0.00039704761860283045 -0.010383660447471734 0 -0.00059670239775326723 -0.0109489027706669 0 -0.00015346298174551506 -0.01071641700171466 0 -0.00039704761860283045 -0.010383660447471734 0 -0.00014452097831636252 -0.010138460418359679 0 -0.00015346298174551506 -0.01071641700171466 0 -0.00014452097831636252 -0.010138460418359679 0 0.00017745988195644595 -0.0096802334412635707 0 -0.00015346298174551506 -0.01071641700171466 0 0.00029829039491104331 -0.010622538766055317 0 0.00041910004338659894 -0.010046322101167605 0 -0.00070838704143921967 -0.0091539810906048815 0 -0.00054213517643378242 -0.0086092772634532716 0 7.9148871126250123e-05 -0.010941490702040145 0 -0.00015346298174551506 -0.01071641700171466 0 0.00029829039491104331 -0.010622538766055317 0 -0.00014452097831636252 -0.010138460418359679 0 -0.00018305332250736955 -0.0098908604100507117 0 0.00017745988195644595 -0.0096802334412635707 0 -3.1278595493219636e-07 -0.0088535980525879087 0 -0.00018305332250736955 -0.0098908604100507117 0 -8.1451377941022716e-07 -0.010531368263853208 0 -3.1278595493219636e-07 -0.0088535980525879087 0 -0.00018305332250736955 -0.0098908604100507117 0 0.00017745988195644595 -0.0096802334412635707 0 -0.00018305332250736955 -0.0098908604100507117 0 -8.1451377941022716e-07 -0.010531368263853208 0 -0.0002080709833169754 -0.01073690854595595 0 -0.00039704761860283045 -0.010383660447471734 0 -0.00014452097831636252 -0.010138460418359679 0 -0.00018305332250736955 -0.0098908604100507117 0 -0.00039532968289361067 -0.011704134371688133 0 -0.00044156568033791187 -0.011849811990836779 0 -0.00039704761860283045 -0.010383660447471734 0 -0.00018305332250736955 -0.0098908604100507117 0 -0.00066804995623957904 -0.0099813554229575829 0 -0.00066804995623957904 -0.0099813554229575829 0 -0.0011094824851297911 -0.010550014222642328 0 -0.00068267055523723327 -0.010445798378529315 0 -0.00039704761860283045 -0.010383660447471734 0 -0.00066804995623957904 -0.0099813554229575829 0 -0.00068267055523723327 -0.010445798378529315 0 -0.00066804995623957904 -0.0099813554229575829 0 -0.001529428415949506 -0.010133337836810266 0 -0.0011094824851297911 -0.010550014222642328 0 -0.00044156568033791187 -0.011849811990836779 0 -0.0006130460965581739 -0.012288501721262208 0 -8.1451377941022716e-07 -0.010531368263853208 0 -0.0002080709833169754 -0.01073690854595595 0 1.2411752722716826e-06 -0.012203814662847284 0 -0.0002080709833169754 -0.01073690854595595 0 1.2411752722716826e-06 -0.012203814662847284 0 0.00063201224198526065 -0.010527753312824271 0 -1.4930789835317754e-06 -0.012206937945247531 0 -0.0006130460965581739 -0.012288501721262208 0 1.5241238138845656e-06 -0.012209486265055589 0 0.00032977645879550804 -0.014056095558493515 0 -0.00013700594593727832 -0.013710794466479107 0 -0.0006130460965581739 -0.012288501721262208 0 -0.00071462924674903325 -0.013168623506469558 0 -0.0015972051357297787 -0.010021091735987364 0 -0.0017541908470940989 -0.011019473123734389 0 -0.0027286996985025395 -0.010387512851265882 0 -0.0017617158147314081 -0.01090935606471366 0 -0.0011094824851297911 -0.010550014222642328 0 -0.0012385540019287287 -0.011325041949061901 0 -0.0006130460965581739 -0.012288501721262208 0 -0.00072499074018699255 -0.011943998759464051 0 -0.001529428415949506 -0.010133337836810266 0 -0.0017617158147314081 -0.01090935606471366 0 -0.0011094824851297911 -0.010550014222642328 0 -0.0011094824851297911 -0.010550014222642328 0 -0.00068267055523723327 -0.010445798378529315 0 -0.00059670239775326723 -0.0109489027706669 0 -0.00039704761860283045 -0.010383660447471734 0 -0.00068267055523723327 -0.010445798378529315 0 -0.00059670239775326723 -0.0109489027706669 0 -0.0011094824851297911 -0.010550014222642328 0 -0.00059670239775326723 -0.0109489027706669 0 -0.0012385540019287287 -0.011325041949061901 0 -0.00059670239775326723 -0.0109489027706669 0 -0.0012385540019287287 -0.011325041949061901 0 -0.0010064979974386027 -0.012093456300143716 0 -0.00019884377054908537 -0.01285147659793417 0 -0.00059670239775326723 -0.0109489027706669 0 -0.0010064979974386027 -0.012093456300143716 0 -0.00017829986223258539 -0.011350052856989121 0 -0.00023692949421046257 -0.011252523174381879 0 -0.00042221306468210272 -0.010739397920611163 0 -0.00049650935805128763 -0.010842292152196465 0 -0.00059670239775326723 -0.0109489027706669 0 -0.0014212671692817736 -0.012663852962137729 0 -0.0010064979974386027 -0.012093456300143716 0 -0.0019155280744935343 -0.012011197183029053 0 -0.0018844307433556063 -0.013008278074022493 0 -0.0019155280744935343 -0.012011197183029053 0 -0.0023966186185443001 -0.012489131593311682 0 -0.0017541908470940989 -0.011019473123734389 0 -0.0019155280744935343 -0.012011197183029053 0 -0.002656986301431445 -0.011390466721520514 0 -0.00072499074018699255 -0.011943998759464051 0 -0.0007743998629607023 -0.0119164939503697 0 -0.0017617158147314081 -0.01090935606471366 0 -0.0012385540019287287 -0.011325041949061901 0 -0.0019155280744935343 -0.012011197183029053 0 -0.0012385540019287287 -0.011325041949061901 0 -0.0010064979974386027 -0.012093456300143716 0 -0.0019155280744935343 -0.012011197183029053 0 -0.0019155280744935343 -0.012011197183029053 0 -0.0023966186185443001 -0.012489131593311682 0 -0.002656986301431445 -0.011390466721520514 0 -0.0023966186185443001 -0.012489131593311682 0 -0.0032426764670375908 -0.012230747705826146 0 -0.002656986301431445 -0.011390466721520514 0 -0.0032426764670375908 -0.012230747705826146 0 -0.0038804836478907464 -0.0107573479020171 0 -0.002656986301431445 -0.011390466721520514 0 -0.0016384631865817862 -0.016444793027496966 0 -0.00069024276936711514 -0.018025332350481295 0 -0.00026159192463595958 -0.017378418778287531 0 -0.00098497461281350914 -0.015560716769252287 0 -0.0016384631865817862 -0.016444793027496966 0 -0.00035067566569162276 -0.016608541281656952 0 -0.0016384631865817862 -0.016444793027496966 0 -0.00035067566569162276 -0.016608541281656952 0 -0.00026159192463595958 -0.017378418778287531 0 -0.001118336978739083 -0.013972541653052041 0 -0.00058605166216142853 -0.014123544315421436 0 -0.00058605166216142853 -0.014123544315421436 0 -0.00071462924674903325 -0.013168623506469558 0 -0.0038804836478907464 -0.0107573479020171 0 -0.002656986301431445 -0.011390466721520514 0 -0.0027286996985025395 -0.010387512851265882 0 -0.0017541908470940989 -0.011019473123734389 0 -0.002656986301431445 -0.011390466721520514 0 -0.0027286996985025395 -0.010387512851265882 0 0.00032977645879550804 -0.014056095558493515 0 -0.00013096946353448322 -0.014141473147203966 0 -0.00013700594593727832 -0.013710794466479107 0 -0.00013096946353448322 -0.014141473147203966 0 -0.00013700594593727832 -0.013710794466479107 0 -0.00012575221768184222 -0.014104576267252075 0 -1.4876310258739855e-06 -0.01412767921098123 0 -0.00013700594593727832 -0.013710794466479107 0 -0.00012575221768184222 -0.014104576267252075 0 1.5241238138845656e-06 -0.012209486265055589 0 -1.4876310258739855e-06 -0.01412767921098123 0 -0.00013700594593727832 -0.013710794466479107 0 -1.4876310258739855e-06 -0.01412767921098123 0 -3.1877953658859848e-05 -0.014451447446956235 0 1.4453573355354158e-06 -0.015980769216517639 0 -1.4876310258739855e-06 -0.01412767921098123 0 -0.00012575221768184222 -0.014104576267252075 0 -3.1877953658859848e-05 -0.014451447446956235 0 -0.00058605166216142853 -0.014123544315421436 0 -0.00025355880098457915 -0.014900150281449781 0 -0.00010409188782079354 -0.014125321405339043 0 -0.00012575221768184222 -0.014104576267252075 0 -3.1877953658859848e-05 -0.014451447446956235 0 -0.00010409188782079354 -0.014125321405339043 0 -0.00013096946353448322 -0.014141473147203966 0 -0.00012575221768184222 -0.014104576267252075 0 0.00038986849293639762 -0.017764442900870446 0 0.00051541832144885366 -0.017511850560221177 0 0.00027732172811838494 -0.017715606172061565 0 0.00051541832144885366 -0.017511850560221177 0 6.1370053634887144e-05 -0.017121091565352974 0 4.8378998866288317e-05 -0.017837562850686217 0 0.00051541832144885366 -0.017511850560221177 0 4.8378998866288317e-05 -0.017837562850686217 0 0.00027732172811838494 -0.017715606172061565 0 0.00051541832144885366 -0.017511850560221177 0 6.1370053634887144e-05 -0.017121091565352974 0 1.3123410029292991e-06 -0.015987060136822627 0 -0.00025355880098457915 -0.014900150281449781 0 -0.00018001904705998919 -0.015087912799211765 0 6.1370053634887144e-05 -0.017121091565352974 0 1.3123410029292991e-06 -0.015987060136822627 0 -2.4815545686619506e-05 -0.01757014261805372 0 -4.2564919018611228e-07 -0.017968598243405055 0 1.3123410029292991e-06 -0.015987060136822627 0 -2.4815545686619506e-05 -0.01757014261805372 0 6.1370053634887144e-05 -0.017121091565352974 0 -2.4815545686619506e-05 -0.01757014261805372 0 4.8378998866288317e-05 -0.017837562850686217 0 0.00013445708505117472 -0.018511518127216003 0 -2.4815545686619506e-05 -0.01757014261805372 0 4.8378998866288317e-05 -0.017837562850686217 0 0.00049101489271276928 -0.017588697017889798 0 4.8378998866288317e-05 -0.017837562850686217 0 0.00032590329209441278 -0.01741078004270773 0 4.8378998866288317e-05 -0.017837562850686217 0 0.00015648971176950653 -0.017611871159436181 0 0.00032590329209441278 -0.01741078004270773 0 0.00038986849293639762 -0.017764442900870446 0 0.00027732172811838494 -0.017715606172061565 0 0.00015648971176950653 -0.017611871159436181 0 -0.00058605166216142853 -0.014123544315421436 0 -0.00061735919024257695 -0.014407028658106624 0 4.8378998866288317e-05 -0.017837562850686217 0 0.00027732172811838494 -0.017715606172061565 0 0.00015648971176950653 -0.017611871159436181 0 -0.00069024276936711514 -0.018025332350481295 0 -0.00026159192463595958 -0.017378418778287531 0 0.00015648971176950653 -0.017611871159436181 0 -0.00026159192463595958 -0.017378418778287531 0 0.00015648971176950653 -0.017611871159436181 0 0.00023393860419141055 -0.016984538791860477 0 0.00096625953097160481 -0.017202220054265936 0 0.00127602459371434 -0.017206415010158831 0 -0.00035067566569162276 -0.016608541281656952 0 -0.00026159192463595958 -0.017378418778287531 0 0.00023393860419141055 -0.016984538791860477 0 0.00015648971176950653 -0.017611871159436181 0 0.00032590329209441278 -0.01741078004270773 0 0.00023393860419141055 -0.016984538791860477 0 0.00058766754663247198 -0.017037163799249209 0 0.00032590329209441278 -0.01741078004270773 0 0.00023393860419141055 -0.016984538791860477 0 0.0013989325917916067 -0.0008635038157779562 0 0.0011466687817874687 -0.00091641829335752253 0 0.0013049512172147669 -0.00069637384463005754 0 0.0013989325917916067 -0.0008635038157779562 0 0.0011466687817874687 -0.00091641829335752253 0 0.0012795541202946638 -0.0010767321815480977 0 0.0013989325917916067 -0.0008635038157779562 0 0.0016118121416417088 -0.00094878873004762034 0 0.0014607584712071282 -0.0010539830147467605 0 0.0011466687817874687 -0.00091641829335752253 0 0.0010921951928893558 -0.00070332334107337251 0 0.00096458373697306111 -0.00086275987910498493 0 0.0011466687817874687 -0.00091641829335752253 0 0.0010921951928893558 -0.00070332334107337251 0 0.0013049512172147669 -0.00069637384463005754 0 0.0010921951928893558 -0.00070332334107337251 0 0.0013049512172147669 -0.00069637384463005754 0 0.0012913608609065607 -0.00044814071574701626 0 0.0010921951928893558 -0.00070332334107337251 0 0.0012913608609065607 -0.00044814071574701626 0 0.001153559676360406 -0.00037835480611765512 0 0.0013989325917916067 -0.0008635038157779562 0 0.0013049512172147669 -0.00069637384463005754 0 0.0015216095759701712 -0.00060610375583544781 0 0.0013049512172147669 -0.00069637384463005754 0 0.0015216095759701712 -0.00060610375583544781 0 0.0012913608609065607 -0.00044814071574701626 0 0.0022879304198898187 0.0045901117258263782 0 0.0027007547691873589 0.0032961556973032397 0 0.003489402759574651 0.0060610379659166418 0 0.0036619043579792158 0.0071227137599257778 0 0.0046209702068036422 0.0050729097087991197 0 0.0013392446553740455 0.00045164405763779966 0 0.0010159465773392038 0.00099703997635414328 0 0.0011372979090517152 0.00011554551296647285 0 0.00058107896797098609 0.0011534315047635616 0 0.0010159465773392038 0.00099703997635414328 0 0.0011372979090517152 0.00011554551296647285 0 0.0037046063886932664 0.0052147911934906123 0 0.003489402759574651 0.0060610379659166418 0 0.0046209702068036422 0.0050729097087991197 0 0.00099531975602469916 0.0024427207629737803 0 0.0011213502051465075 0.0046160714662186837 0 0.00090089100762110038 0.00043894749970594115 0 0.00083146390432337395 0.00027321795566861279 0 0.00050077393368339247 0.00074140312735550447 0 0.0037046063886932664 0.0052147911934906123 0 0.003489402759574651 0.0060610379659166418 0 0.0024505022061491301 0.0061248444530295106 0 0.002098595793151645 0.0036442934916253705 0 0.0011213502051465075 0.0046160714662186837 0 0.003489402759574651 0.0060610379659166418 0 0.0030050373333475999 0.0067709731022697209 0 0.0024505022061491301 0.0061248444530295106 0 0.003489402759574651 0.0060610379659166418 0 0.0030050373333475999 0.0067709731022697209 0 0.0036619043579792158 0.0071227137599257778 0 0.0030050373333475999 0.0067709731022697209 0 0.0036619043579792158 0.0071227137599257778 0 0.0029779216091066502 0.0075440658811930768 0 0.0030050373333475999 0.0067709731022697209 0 0.0029779216091066502 0.0075440658811930768 0 0.0024337096618045947 0.0072824840089125605 0 0.0012437373315394248 0.00037998647126585996 0 0.0010643827193484124 0.00098997871704106506 0 0.0013989325917916067 -0.0008635038157779562 0 0.0015216095759701712 -0.00060610375583544781 0 0.0016118121416417088 -0.00094878873004762034 0 0.0013392446553740455 0.00045164405763779966 0 0.0010159465773392038 0.00099703997635414328 0 0.0011034959795531163 0.0013800648071678513 0 0.00058107896797098609 0.0011534315047635616 0 0.0010159465773392038 0.00099703997635414328 0 0.0011448255477245948 0.0014274204973829931 0 0.0010660716225021356 0.0010013851965125361 0 0.0010643827193484124 0.00098997871704106506 0 0.0010643827193484124 0.00098997871704106506 0 0.0010318968032584212 0.0010750940924542456 0 0.0011957940311822512 0.0013375812502754894 0 0.0013973511148724692 0.0022731630121366028 0 0.00083398562139864552 0.0026434072342429553 0 0.0016118121416417088 -0.00094878873004762034 0 0.0015513902397862988 -0.0012087619796675457 0 0.0014607584712071282 -0.0010539830147467605 0 0.0011448255477245948 0.0014274204973829931 0 0.00058490718922383242 0.0020273726730374157 0 0.00083397945648684669 0.0026734197733999511 0 0.0010643827193484124 0.00098997871704106506 0 0.00081141445016923999 0.0021408608220971617 0 0.00058107896797098609 0.0011534315047635616 0 0.0011448255477245948 0.0014274204973829931 0 0.00058490718922383242 0.0020273726730374157 0 0.0036619043579792158 0.0071227137599257778 0 0.0029779216091066502 0.0075440658811930768 0 0.0026952948188489565 0.0091929039935434859 0 0.00058107896797098609 0.0011534315047635616 0 0.00058490718922383242 0.0020273726730374157 0 -6.6586155800395631e-05 0.0024796297758906132 0 0.0022879304198898187 0.0045901117258263782 0 0.0017621555791909051 0.0064114470348566269 0 0.0029779216091066502 0.0075440658811930768 0 0.0026952948188489565 0.0091929039935434859 0 0.0025870211145054478 0.0079747714196991056 0 0.00058490718922383242 0.0020273726730374157 0 0.00037217571301038352 0.0025715738989210125 0 -6.6586155800395631e-05 0.0024796297758906132 0 0.00058490718922383242 0.0020273726730374157 0 0.00037217571301038352 0.0025715738989210125 0 0.00083397945648684669 0.0026734197733999511 0 0.00037217571301038352 0.0025715738989210125 0 0.00040278298670835095 0.0028250607615002824 0 0.00083397945648684669 0.0026734197733999511 0 0.00034672196297782631 0.0032031258650776005 0 0.00040278298670835095 0.0028250607615002824 0 0.00083397945648684669 0.0026734197733999511 0 5.4085502755154024e-05 0.0031032974934734523 0 0.00037217571301038352 0.0025715738989210125 0 -6.6586155800395631e-05 0.0024796297758906132 0 5.4085502755154024e-05 0.0031032974934734523 0 0.00037217571301038352 0.0025715738989210125 0 0.00040278298670835095 0.0028250607615002824 0 5.4085502755154024e-05 0.0031032974934734523 0 0.00034672196297782631 0.0032031258650776005 0 0.00040278298670835095 0.0028250607615002824 0 0.0015958702833942559 0.0032030114029738314 0 0.0013973511148724692 0.0022731630121366028 0 0.0011447281578899553 0.0028053680836385864 0 0.00098075702471338636 0.0014222125451747631 0 0.0010318968032584212 0.0010750940924542456 0 0.0013973511148724692 0.0022731630121366028 0 0.00083398562139864552 0.0026434072342429553 0 0.0011447281578899553 0.0028053680836385864 0 0.0011895476898872053 0.0031249074417681378 0 0.00083398562139864552 0.0026434072342429553 0 0.0011447281578899553 0.0028053680836385864 0 0.0015932990724035765 0.0032071663432195609 0 0.0011895476898872053 0.0031249074417681378 0 0.0011447281578899553 0.0028053680836385864 0 0.00098075702471338636 0.0014222125451747631 0 0.0010564951636673056 0.0015213239930616396 0 0.0013833062134329132 -0.001288423224814247 0 0.0012795541202946638 -0.0010767321815480977 0 0.0011911612271932311 -0.0013347676543642984 0 0.0012962458126436688 -0.0014503317060032864 0 0.0014932244313562669 -0.0014660006571465178 0 0.0013833062134329132 -0.001288423224814247 0 0.0014932244313562669 -0.0014660006571465178 0 0.0015513902397862988 -0.0012087619796675457 0 0.0013833062134329132 -0.001288423224814247 0 0.0012962458126436688 -0.0014503317060032864 0 0.0013833062134329132 -0.001288423224814247 0 0.0011911612271932311 -0.0013347676543642984 0 0.0013833062134329132 -0.001288423224814247 0 0.0012795541202946638 -0.0010767321815480977 0 0.0014607584712071282 -0.0010539830147467605 0 0.0015513902397862988 -0.0012087619796675457 0 0.0013833062134329132 -0.001288423224814247 0 0.0014607584712071282 -0.0010539830147467605 0 0.0013989325917916067 -0.0008635038157779562 0 0.0012795541202946638 -0.0010767321815480977 0 0.0014607584712071282 -0.0010539830147467605 0 0.0012795541202946638 -0.0010767321815480977 0 0.0010683372943696002 -0.00111795217829716 0 0.0011911612271932311 -0.0013347676543642984 0 0.0011466687817874687 -0.00091641829335752253 0 0.0010683372943696002 -0.00111795217829716 0 0.00098703925115968408 -0.00098959037572715711 0 0.0011466687817874687 -0.00091641829335752253 0 0.0012795541202946638 -0.0010767321815480977 0 0.0010683372943696002 -0.00111795217829716 0 0.00111702375910569 -0.0015237878737771292 0 0.0011911612271932311 -0.0013347676543642984 0 0.00097457121261374175 -0.0013684548523860843 0 0.0011911612271932311 -0.0013347676543642984 0 0.00097457121261374175 -0.0013684548523860843 0 0.0008693433556818238 -0.0011814186347148448 0 0.00059942621418843654 -0.0034473369101706607 0 0.00067022215125467344 -0.0037361815038083634 0 0.0010683372943696002 -0.00111795217829716 0 0.0011911612271932311 -0.0013347676543642984 0 0.00087227185278672089 -0.0011711699474115506 0 0.00055062292560328549 -0.0033698081319928591 0 0.00067022215125467344 -0.0037361815038083634 0 0.00081827144494707894 -0.0015233291088863072 0 0.00097457121261374175 -0.0013684548523860843 0 0.0008693433556818238 -0.0011814186347148448 0 -0.00016746218803336688 -0.004630179980104206 0 -0.00026223985651646219 -0.0052745591503288395 0 0.00039899081488354454 -0.0052069845773837784 0 0.00059942621418843654 -0.0034473369101706607 0 0.00058106364338520789 -0.0054950932433310059 0 0.00022286965416896709 -0.0070191972103750781 0 9.1172089441325888e-05 -0.0069921674193277692 0 0.00021055493085090762 -0.0071036411417471634 0 -0.00026223985651646219 -0.0052745591503288395 0 0.00039899081488354454 -0.0052069845773837784 0 0.00039763313869113913 -0.005346891886323691 0 0.00067022215125467344 -0.0037361815038083634 0 0.00030932073852062115 -0.0047886256208318238 0 -0.00026223985651646219 -0.0052745591503288395 0 0.00039763313869113913 -0.005346891886323691 0 0.00028664016497144542 -0.0055515016833592645 0 0.00075768462376662516 -0.0010098283526528229 0 0.00087342815651955859 -0.001165353404538135 0 0.00060731628116041125 -0.0010117810118449779 0 0.00075768462376662516 -0.0010098283526528229 0 0.00088645525397796048 -0.0010816721511714717 0 0.00087585115623707186 -0.00096576061933805097 0 0.00088645525397796048 -0.0010816721511714717 0 0.00098703925115968408 -0.00098959037572715711 0 0.00087585115623707186 -0.00096576061933805097 0 0.0010683372943696002 -0.00111795217829716 0 0.00088645525397796048 -0.0010816721511714717 0 0.00098703925115968408 -0.00098959037572715711 0 0.0010683372943696002 -0.00111795217829716 0 0.00088645525397796048 -0.0010816721511714717 0 0.00087227185278672089 -0.0011711699474115506 0 0.00075768462376662516 -0.0010098283526528229 0 0.00088645525397796048 -0.0010816721511714717 0 0.00087342815651955859 -0.001165353404538135 0 0.00068044776387727549 -0.0036576106513503742 0 0.00067022215125467344 -0.0037361815038083634 0 0.00030952065429258011 -0.0070127340777939784 0 0.00036425670296049871 -0.0070676955549268117 0 0.00030575551088358175 -0.0071060597158900188 0 0.00022286965416896709 -0.0070191972103750781 0 0.00030952065429258011 -0.0070127340777939784 0 0.00030575551088358175 -0.0071060597158900188 0 0.00022286965416896709 -0.0070191972103750781 0 0.00030575551088358175 -0.0071060597158900188 0 0.00021055493085090762 -0.0071036411417471634 0 0.00039763313869113913 -0.005346891886323691 0 0.00028664016497144542 -0.0055515016833592645 0 0.00082871389559368127 -0.0058229410528838413 0 0.00039899081488354454 -0.0052069845773837784 0 0.00039763313869113913 -0.005346891886323691 0 0.00097834681081330186 -0.0057989434181401345 0 0.00022755224836424362 -0.006174172545868481 0 0.00027033732793588141 -0.0063455610936005644 0 0.00037732986293334282 -0.0071370053317459121 0 0.00030575551088358175 -0.0071060597158900188 0 0.00031868432436180929 -0.0072109611756792768 0 0.00058106364338520789 -0.0054950932433310059 0 0.00037578952310035743 -0.0069905732061507032 0 0.00030575551088358175 -0.0071060597158900188 0 0.00021055493085090762 -0.0071036411417471634 0 0.00031868432436180929 -0.0072109611756792768 0 0.00039763313869113913 -0.005346891886323691 0 0.00097834681081330186 -0.0057989434181401345 0 0.00084395987112598789 -0.0058447128195469088 0 0.00047635972128620544 -0.0069847326922419526 0 0.00016470874855695566 -0.0066696231275316948 0 4.8198466959018648e-05 -0.0068138828656662542 0 0.00048472474453012572 -0.0072937056807629809 0 0.00037578952310035743 -0.0069905732061507032 0 0.00048472474453012572 -0.0072937056807629809 0 0.00037760084033649881 -0.0067003528298815946 0 0.00097834681081330186 -0.0057989434181401345 0 0.00084395987112598789 -0.0058447128195469088 0 0.00089563560337718024 -0.0059016373269496856 0 0.00037578952310035743 -0.0069905732061507032 0 0.00037760084033649881 -0.0067003528298815946 0 0.00027033732793588141 -0.0063455610936005644 0 0.00037760084033649881 -0.0067003528298815946 0 0.00050796312682595247 -0.00092069885765995267 0 0.00051440505501908023 -0.00091949801972503707 0 0.00053466630620663128 -0.00091685144738860749 0 0.00030932073852062115 -0.0047886256208318238 0 0.00027033732793588141 -0.0063455610936005644 0 0.00051440505501908023 -0.00091949801972503707 0 0.00053466630620663128 -0.00091685144738860749 0 0.00053527451921929947 -0.00099470548312741137 0 0.00060731628116041125 -0.0010117810118449779 0 0.00050796312682595247 -0.00092069885765995267 0 0.00053466630620663128 -0.00091685144738860749 0 0.00053466630620663128 -0.00091685144738860749 0 0.00066642268722792448 -0.00089482150801268809 0 0.0007063470381308796 -0.00066272024200030976 0 0.00060731628116041125 -0.0010117810118449779 0 0.00053466630620663128 -0.00091685144738860749 0 0.00066642268722792448 -0.00089482150801268809 0 0.00053527451921929947 -0.00099470548312741137 0 0.00042719772011829739 -0.0010001384060587745 0 0.00045994376289288969 -0.0011288011320638484 0 0.00053466630620663128 -0.00091685144738860749 0 0.00053527451921929947 -0.00099470548312741137 0 0.00042719772011829739 -0.0010001384060587745 0 0.00073763860679088695 -0.0015299228141153745 0 0.00066574554960525294 -0.0016887993883495298 0 0.00055747630601017228 -0.011904246564211502 0 0.00093216048431475932 -0.011452947115480798 0 0.00050494969886543761 -0.011424998554095718 0 0.00037760084033649881 -0.0067003528298815946 0 0.00047439230678175513 -0.0061245495650441156 0 5.3975235411356781e-05 -0.011361910114706017 0 0.00055747630601017228 -0.011904246564211502 0 0.00050494969886543761 -0.011424998554095718 0 0.00093216048431475932 -0.011452947115480798 0 0.00050494969886543761 -0.011424998554095718 0 0.00066739838583999465 -0.011177684220432912 0 0.00050494969886543761 -0.011424998554095718 0 0.00035691233524685212 -0.011159242673639118 0 0.00066739838583999465 -0.011177684220432912 0 0.00096458373697306111 -0.00086275987910498493 0 0.00080317301664638893 -0.00085777502672929843 0 0.00089271614761798532 -0.00070613316572467157 0 0.0010921951928893558 -0.00070332334107337251 0 0.00096458373697306111 -0.00086275987910498493 0 0.00089271614761798532 -0.00070613316572467157 0 0.0011466687817874687 -0.00091641829335752253 0 0.00098703925115968408 -0.00098959037572715711 0 0.00096458373697306111 -0.00086275987910498493 0 0.00098703925115968408 -0.00098959037572715711 0 0.00096458373697306111 -0.00086275987910498493 0 0.00087585115623707186 -0.00096576061933805097 0 0.00096458373697306111 -0.00086275987910498493 0 0.00087585115623707186 -0.00096576061933805097 0 0.00080317301664638893 -0.00085777502672929843 0 0.00066642268722792448 -0.00089482150801268809 0 0.00080317301664638893 -0.00085777502672929843 0 0.0007063470381308796 -0.00066272024200030976 0 0.00075768462376662516 -0.0010098283526528229 0 0.00066642268722792448 -0.00089482150801268809 0 0.00080317301664638893 -0.00085777502672929843 0 0.00075768462376662516 -0.0010098283526528229 0 0.00087585115623707186 -0.00096576061933805097 0 0.00080317301664638893 -0.00085777502672929843 0 0.00075768462376662516 -0.0010098283526528229 0 0.00060731628116041125 -0.0010117810118449779 0 0.00066642268722792448 -0.00089482150801268809 0 0.00080317301664638893 -0.00085777502672929843 0 0.0007063470381308796 -0.00066272024200030976 0 0.00089271614761798532 -0.00070613316572467157 0 0.00025717851636361983 -0.0018779144098008103 0 0.00031273019394661809 -0.0023199383483355563 0 0.0007063470381308796 -0.00066272024200030976 0 0.00089271614761798532 -0.00070613316572467157 0 0.0009323923442647778 -0.00044259123976605834 0 0.0010921951928893558 -0.00070332334107337251 0 0.00089271614761798532 -0.00070613316572467157 0 0.0009323923442647778 -0.00044259123976605834 0 0.00031273019394661809 -0.0023199383483355563 0 0.00051077125028432748 -0.0021170346901661003 0 0.00028998282301470038 -0.0011295387039613799 0 0.00045994376289288969 -0.0011288011320638484 0 0.0003602707542325513 -0.0012641814957896455 0 0.00066574554960525294 -0.0016887993883495298 0 0.00031273019394661809 -0.0023199383483355563 0 0.00042719772011829739 -0.0010001384060587745 0 0.00028998282301470038 -0.0011295387039613799 0 0.00045994376289288969 -0.0011288011320638484 0 0.0013186970099468231 -0.010985652784437191 0 0.0013297819699093461 -0.010378512923415597 0 0.0017042363239146384 -0.01050719103584654 0 0.00050750210297837285 -0.005556982173272434 0 0.00053277807728988546 -0.004834169170224588 0 0.0013297819699093461 -0.010378512923415597 0 0.0017042363239146384 -0.01050719103584654 0 0.0014600198037628368 -0.010051021366661063 0 -0.00014825086640719409 -0.0038842034242083483 0 -0.00044687078943688271 -0.0033282399019075688 0 0.00034182301408701177 -0.0034303018557560114 0 -0.00044687078943688271 -0.0033282399019075688 0 -8.046383171226772e-05 -0.0028747504619598165 0 0.00034182301408701177 -0.0034303018557560114 0 0.00053277807728988546 -0.004834169170224588 0 0.00061002167997427879 -0.0043340317386116184 0 0.00031273019394661809 -0.0023199383483355563 0 0.00053277807728988546 -0.004834169170224588 0 0.00048659086039875622 -0.010887107066410068 0 0.00035691233524685212 -0.011159242673639118 0 0.00066739838583999465 -0.011177684220432912 0 0.00048659086039875622 -0.010887107066410068 0 0.00066739838583999465 -0.011177684220432912 0 0.00092496360913843761 -0.0109002047792532 0 0.00047439230678175513 -0.0061245495650441156 0 0.00050750210297837285 -0.005556982173272434 0 0.00093216048431475932 -0.011452947115480798 0 0.0013186970099468231 -0.010985652784437191 0 0.00092496360913843761 -0.0109002047792532 0 0.00093216048431475932 -0.011452947115480798 0 0.00066739838583999465 -0.011177684220432912 0 0.00092496360913843761 -0.0109002047792532 0 0.0013186970099468231 -0.010985652784437191 0 0.00092496360913843761 -0.0109002047792532 0 0.0010119096621977195 -0.010528407365125048 0 0.0013186970099468231 -0.010985652784437191 0 0.0013297819699093461 -0.010378512923415597 0 0.0010119096621977195 -0.010528407365125048 0 0.0013297819699093461 -0.010378512923415597 0 0.0010119096621977195 -0.010528407365125048 0 0.0011184121515827098 -0.010236302081858498 0 0.0010119096621977195 -0.010528407365125048 0 0.0006598473305231416 -0.01051464852319074 0 0.00088234290517204121 -0.010140029548402945 0 0.00092496360913843761 -0.0109002047792532 0 0.0010119096621977195 -0.010528407365125048 0 0.0006598473305231416 -0.01051464852319074 0 0.00029829039491104331 -0.010622538766055317 0 0.0006598473305231416 -0.01051464852319074 0 0.00041910004338659894 -0.010046322101167605 0 0.00048659086039875622 -0.010887107066410068 0 0.00092496360913843761 -0.0109002047792532 0 0.0006598473305231416 -0.01051464852319074 0 0.00029829039491104331 -0.010622538766055317 0 0.00048659086039875622 -0.010887107066410068 0 0.0006598473305231416 -0.01051464852319074 0 0.00041910004338659894 -0.010046322101167605 0 0.00088234290517204121 -0.010140029548402945 0 0.0010410248453085981 -0.009756759852270331 0 0.0006598473305231416 -0.01051464852319074 0 0.00041910004338659894 -0.010046322101167605 0 0.00088234290517204121 -0.010140029548402945 0 0.00088234290517204121 -0.010140029548402945 0 0.0010798544024862922 -0.010041317100957303 0 0.0010410248453085981 -0.009756759852270331 0 0.0010119096621977195 -0.010528407365125048 0 0.00088234290517204121 -0.010140029548402945 0 0.0011184121515827098 -0.010236302081858498 0 0.0013297819699093461 -0.010378512923415597 0 0.0011184121515827098 -0.010236302081858498 0 0.001277620032519543 -0.010031451995272863 0 0.00088234290517204121 -0.010140029548402945 0 0.0011184121515827098 -0.010236302081858498 0 0.0010798544024862922 -0.010041317100957303 0 0.0011184121515827098 -0.010236302081858498 0 0.0010798544024862922 -0.010041317100957303 0 0.001277620032519543 -0.010031451995272863 0 0.0010798544024862922 -0.010041317100957303 0 0.0010410248453085981 -0.009756759852270331 0 0.001277620032519543 -0.010031451995272863 0 0.0010410248453085981 -0.009756759852270331 0 0.001277620032519543 -0.010031451995272863 0 0.0014623269765212448 -0.010050818381414446 0 0.00041910004338659894 -0.010046322101167605 0 0.0010410248453085981 -0.009756759852270331 0 0.0010083062716372286 -0.0093914205375116924 0 0.0010410248453085981 -0.009756759852270331 0 0.0011140005033163671 -0.0093973329737459931 0 0.0014623269765212448 -0.010050818381414446 0 0.0010410248453085981 -0.009756759852270331 0 0.0011140005033163671 -0.0093973329737459931 0 0.0010083062716372286 -0.0093914205375116924 0 1.374503905116045e-07 -0.0069640056044806189 0 2.4622082420296566e-05 -0.0070094385852460606 0 -1.372228990273613e-07 -0.0071451206295714649 0 6.0587695260065341e-05 -0.0067881148089570954 0 1.4692024193375592e-05 -0.0069282533128022959 0 3.376861439633298e-06 -0.0069591815122819313 0 6.0587695260065341e-05 -0.0067881148089570954 0 -3.1278595493219636e-07 -0.0088535980525879087 0 0.00017745988195644595 -0.0096802334412635707 0 1.1120017721460052e-06 -0.0071483266701459621 0 -0.00054213517643378242 -0.0086092772634532716 0 1.4692024193375592e-05 -0.0069282533128022959 0 0.00036600558558879282 -0.0044468158060927011 0 0.00036213900620623538 -0.004448899182779859 0 0.0003642975400118521 -0.004446087202994665 0 0.00061002167997427879 -0.0043340317386116184 0 0.00049375360170196331 -0.0053987587567930389 0 0.00036696351531461958 -0.0044446740710438063 0 0.0003642975400118521 -0.004446087202994665 0 0.00036670028665675825 -0.0044437415330177699 0 0.00036696351531461958 -0.0044446740710438063 0 0.00036600558558879282 -0.0044468158060927011 0 0.0003642975400118521 -0.004446087202994665 0 0.0006047925297800093 -0.0043390611048465394 0 0.00061002167997427879 -0.0043340317386116184 0 0.00053277807728988546 -0.004834169170224588 0 0.00049375360170196331 -0.0053987587567930389 0 0.0002701884870575373 -0.0048402210452085344 0 0.00026979969104604584 -0.0048406726361072388 0 0.0002709324417284554 -0.0048417394842429845 0 0.0013297819699093461 -0.010378512923415597 0 0.001277620032519543 -0.010031451995272863 0 0.0014600198037628368 -0.010051021366661063 0 0.00053021481091473747 -0.0054372298951095898 0 0.00049375360170196331 -0.0053987587567930389 0 0.00035960034219779144 -0.0044481123579618196 0 0.00036415898559888913 -0.004444474843976089 0 0.0003642975400118521 -0.004446087202994665 0 8.9158987359193033e-08 -0.0069634684894747259 0 1.2990968968008408e-06 -0.0068765868077521105 0 -8.9446101194575725e-08 -0.0054618141377735076 0 6.0587695260065341e-05 -0.0067881148089570954 0 -6.2725850073141714e-05 -0.0053416873646900797 0 1.2990968968008408e-06 -0.0068765868077521105 0 -8.9446101194575725e-08 -0.0054618141377735076 0 -3.9544831714367844e-06 -0.0052748514590258604 0 0.00035960034219779144 -0.0044481123579618196 0 0.00036213900620623538 -0.004448899182779859 0 0.0003642975400118521 -0.004446087202994665 0 6.0587695260065341e-05 -0.0067881148089570954 0 0.00049375360170196331 -0.0053987587567930389 0 -8.9446101194575725e-08 -0.0054618141377735076 0 -3.9544831714367844e-06 -0.0052748514590258604 0 8.9478802038190121e-08 -0.0039614130860601638 0 -6.2725850073141714e-05 -0.0053416873646900797 0 0.00017528002207582859 -0.0040237010022825658 0 0.00036415898559888913 -0.004444474843976089 0 0.00036670028665675825 -0.0044437415330177699 0 0.00036850401060079403 -0.0044411515641534921 0 0.00036415898559888913 -0.004444474843976089 0 0.0003642975400118521 -0.004446087202994665 0 0.00036670028665675825 -0.0044437415330177699 0 -3.9544831714367844e-06 -0.0052748514590258604 0 8.9478802038190121e-08 -0.0039614130860601638 0 7.8552680804205928e-06 -0.0038008236878796695 0 0.00036850401060079403 -0.0044411515641534921 0 0.00037087022628353442 -0.0044400644277455895 0 0.00036877822133343758 -0.0044421291524581056 0 1.4752462021990523e-06 -0.0039605124695456153 0 0.00017528002207582859 -0.0040237010022825658 0 4.8954107323939938e-09 -0.0039596408311755125 0 -3.7326844039061931e-09 -0.0037500520360539353 0 -7.3356150695851744e-06 -0.0036994798268780902 0 0.00036670028665675825 -0.0044437415330177699 0 0.00036850401060079403 -0.0044411515641534921 0 0.00036877822133343758 -0.0044421291524581056 0 -3.7326844039061931e-09 -0.0037500520360539353 0 -7.3356150695851744e-06 -0.0036994798268780902 0 -0.00030931749902733631 -0.0035773384621379592 0 -7.3356150695851744e-06 -0.0036994798268780902 0 -0.00020073195063158368 -0.003477020832809233 0 -0.00030931749902733631 -0.0035773384621379592 0 3.1488027464399392e-07 -0.0037456086852724708 0 8.2740341953350182e-05 -0.0021810308299266179 0 4.2771155678369007e-07 -0.0037480517781592255 0 0.00019323093685421066 -0.001070807422575845 0 4.8889040340769878e-07 -0.0017604403469155872 0 0.00017528002207582859 -0.0040237010022825658 0 0.00045525713537737195 -0.0020669291146936998 0 0.00045525713537737195 -0.0020669291146936998 0 8.2740341953350182e-05 -0.0021810308299266179 0 0.00037087022628353442 -0.0044400644277455895 0 0.00037006061665844525 -0.0044413329682850651 0 0.00036877822133343758 -0.0044421291524581056 0 0.00045525713537737195 -0.0020669291146936998 0 0.00054683110512226062 -0.0020737876675460312 0 0.00079783615948385604 -0.00095290105952880021 0 0.00033082325861700579 -0.0013861381192669762 0 0.0012816514304759392 -0.0014932867769853243 0 0.0013517808092956189 -0.00018043732874670407 0 0.0013656821672771459 -0.00020729881555659363 0 0.0012969777645559224 -0.00025078424424613958 0 0.00054683110512226062 -0.0020737876675460312 0 0.00063179014228336751 -0.0010754798746619675 0 0.00045525713537737195 -0.0020669291146936998 0 0.00063179014228336751 -0.0010754798746619675 0 0.00014146931779282141 -0.0011020218111800493 0 0.00010512384598456637 -0.0010604007373097963 0 9.5890184837821391e-05 -0.001101410685689648 0 0.00036696351531461958 -0.0044446740710438063 0 0.00036665064831176608 -0.0044451932638317464 0 0.00037006061665844525 -0.0044413329682850651 0 0.00036696351531461958 -0.0044446740710438063 0 0.00037006061665844525 -0.0044413329682850651 0 0.00036877822133343758 -0.0044421291524581056 0 0.00061002167997427879 -0.0043340317386116184 0 0.00054683110512226062 -0.0020737876675460312 0 0.00036696351531461958 -0.0044446740710438063 0 0.00036670028665675825 -0.0044437415330177699 0 0.00036877822133343758 -0.0044421291524581056 0 -8.046383171226772e-05 -0.0028747504619598165 0 0.00083073865347382965 -0.0029760669389128753 0 0.00034182301408701177 -0.0034303018557560114 0 0.0011754607885370342 -0.00020551857362430834 0 0.0012979638939909295 -0.00022370825194462646 0 0.001153559676360406 -0.00037835480611765512 0 0.0013517808092956189 -0.00018043732874670407 0 0.0011754607885370342 -0.00020551857362430834 0 0.0012979638939909295 -0.00022370825194462646 0 0.00054683110512226062 -0.0020737876675460312 0 0.00051077125028432748 -0.0021170346901661003 0 0.0028310103809743629 0.0024987664784383843 0 0.0027737025901064731 0.0030233400229998236 0 0.0013656821672771459 -0.00020729881555659363 0 0.0013813210090978653 -0.00023750612424908285 0 0.0012494658483208534 -0.00016686208027675149 0 0.0013656821672771459 -0.00020729881555659363 0 0.0012687989663673223 0.00015201990332651868 0 0.0012631804420707403 -0.00012609235741071996 0 0.0013517808092956189 -0.00018043732874670407 0 0.0013656821672771459 -0.00020729881555659363 0 0.0012979638939909295 -0.00022370825194462646 0 0.0013656821672771459 -0.00020729881555659363 0 0.0012631804420707403 -0.00012609235741071996 0 0.0012969777645559224 -0.00025078424424613958 0 0.0013656821672771459 -0.00020729881555659363 0 0.0012979638939909295 -0.00022370825194462646 0 0.0013813210090978653 -0.00023750612424908285 0 0.0012437373315394248 0.00037998647126585996 0 0.0012928906147052623 0.00020186454455549993 0 0.0012979638939909295 -0.00022370825194462646 0 0.0013813210090978653 -0.00023750612424908285 0 0.0012913608609065607 -0.00044814071574701626 0 0.0015216095759701712 -0.00060610375583544781 0 0.0013813210090978653 -0.00023750612424908285 0 0.0012913608609065607 -0.00044814071574701626 0 0.0012979638939909295 -0.00022370825194462646 0 0.0012913608609065607 -0.00044814071574701626 0 0.001153559676360406 -0.00037835480611765512 0 0.0010921951928893558 -0.00070332334107337251 0 0.00094429139325979071 -0.0003736311694736836 0 0.001153559676360406 -0.00037835480611765512 0 0.00094429139325979071 -0.0003736311694736836 0 0.0011754607885370342 -0.00020551857362430834 0 0.001153559676360406 -0.00037835480611765512 0 0.0019148049590599792 0.0049000890032336051 0 0.0014249298371089428 0.0043534859464912324 0 0.0010786531877771807 0.0047556823596280086 0 0.0019148049590599792 0.0049000890032336051 0 0.002286697027927507 0.0042918898967026766 0 0.0018837548407582743 0.004328727681908443 0 0.0019148049590599792 0.0049000890032336051 0 0.0018837548407582743 0.004328727681908443 0 0.0014249298371089428 0.0043534859464912324 0 0.00090089100762110038 0.00043894749970594115 0 0.00083146390432337395 0.00027321795566861279 0 0.0012687989663673223 0.00015201990332651868 0 0.0013392446553740455 0.00045164405763779966 0 0.0013813210090978653 -0.00023750612424908285 0 0.0011372979090517152 0.00011554551296647285 0 0.00083146390432337395 0.00027321795566861279 0 0.0012687989663673223 0.00015201990332651868 0 0.0011358154307000228 -0.00014148801529221107 0 0.002098595793151645 0.0036442934916253705 0 0.0027737025901064731 0.0030233400229998236 0 0.0037046063886932664 0.0052147911934906123 0 0.0046209702068036422 0.0050729097087991197 0 0.0049765362566284842 0.0043166768699757548 0 0.0027007547691873589 0.0032961556973032397 0 0.0027737025901064731 0.0030233400229998236 0 0.0013813210090978653 -0.00023750612424908285 0 0.0011372979090517152 0.00011554551296647285 0 0.0012494658483208534 -0.00016686208027675149 0 0.00099531975602469916 0.0024427207629737803 0 0.00075033343327855859 0.0002898657129331853 0 0.0025167307973715451 0.0040318772398624369 0 0.0019082603499437488 0.0037734106177381771 0 0.0028429646364495245 0.0036576860054062083 0 0.0019148049590599792 0.0049000890032336051 0 0.002286697027927507 0.0042918898967026766 0 0.0025163276319125198 0.0040278431432827985 0 0.00072834027560068416 0.00037893881391179852 0 0.00075033343327855859 0.0002898657129331853 0 0.0012687989663673223 0.00015201990332651868 0 0.0012631804420707403 -0.00012609235741071996 0 0.0011358154307000228 -0.00014148801529221107 0 0.00075033343327855859 0.0002898657129331853 0 0.00063179014228336751 -0.0010754798746619675 0 0.0012631804420707403 -0.00012609235741071996 0 0.0011358154307000228 -0.00014148801529221107 0 0.0012969777645559224 -0.00025078424424613958 0 0.002286697027927507 0.0042918898967026766 0 0.0025167307973715451 0.0040318772398624369 0 0.0019082603499437488 0.0037734106177381771 0 0.002286697027927507 0.0042918898967026766 0 0.0019082603499437488 0.0037734106177381771 0 0.0018837548407582743 0.004328727681908443 0 0.0019082603499437488 0.0037734106177381771 0 0.0018837548407582743 0.004328727681908443 0 0.0014249298371089428 0.0043534859464912324 0 -1.6732869082301179e-05 -0.0010439628995866257 0 -2.588420483936552e-05 -0.0010914031900073446 0 -0.00014364897845683863 -0.0010275980862446427 0 -1.6732869082301179e-05 -0.0010439628995866257 0 -2.588420483936552e-05 -0.0010914031900073446 0 4.9163148733634421e-05 -0.0010909146115140214 0 0.00021646092519948774 0.00082733397185099354 0 8.4418827822018702e-05 -0.00013762432262824984 0 8.3767149468499168e-05 0.0010605832597703124 0 -2.588420483936552e-05 -0.0010914031900073446 0 4.9163148733634421e-05 -0.0010909146115140214 0 8.7439767688681302e-05 -0.0011523051915785258 0 -0.00030511242386151795 -0.00094466492210131512 0 8.2740341953350182e-05 -0.0021810308299266179 0 -1.6732869082301179e-05 -0.0010439628995866257 0 0.00010512384598456637 -0.0010604007373097963 0 4.9163148733634421e-05 -0.0010909146115140214 0 0.00021646092519948774 0.00082733397185099354 0 0.00038417849490402064 -0.00080111574270297207 0 0.00019600380622461996 -0.00097064660284061004 0 0.00031486566218408919 -0.00043429330609632693 0 0.00063179014228336751 -0.0010754798746619675 0 0.00010512384598456637 -0.0010604007373097963 0 4.9163148733634421e-05 -0.0010909146115140214 0 9.5890184837821391e-05 -0.001101410685689648 0 4.9163148733634421e-05 -0.0010909146115140214 0 9.5890184837821391e-05 -0.001101410685689648 0 8.7439767688681302e-05 -0.0011523051915785258 0 0.00014146931779282141 -0.0011020218111800493 0 9.5890184837821391e-05 -0.001101410685689648 0 8.7439767688681302e-05 -0.0011523051915785258 0 0.00019323093685421066 -0.001070807422575845 0 0.00019600380622461996 -0.00097064660284061004 0 4.8889040340769878e-07 -0.0017604403469155872 0 8.2740341953350182e-05 -0.0021810308299266179 0 9.180589102073371e-05 -0.0021672271028283408 0 0.00019600380622461996 -0.00097064660284061004 0 4.8889040340769878e-07 -0.0017604403469155872 0 8.4418827822018702e-05 -0.00013762432262824984 0 8.4418827822018702e-05 -0.00013762432262824984 0 -1.3689214933056263e-08 0.00022722952225696667 0 8.3767149468499168e-05 0.0010605832597703124 0 4.8889040340769878e-07 -0.0017604403469155872 0 8.4418827822018702e-05 -0.00013762432262824984 0 -1.3689214933056263e-08 0.00022722952225696667 0 0.00021646092519948774 0.00082733397185099354 0 0.00019600380622461996 -0.00097064660284061004 0 8.4418827822018702e-05 -0.00013762432262824984 0 -1.3689214933056263e-08 0.00022722952225696667 0 -3.3340403163413586e-05 0.0015333147925361001 0 8.3767149468499168e-05 0.0010605832597703124 0 -3.3340403163413586e-05 0.0015333147925361001 0 -8.8540753634941633e-05 0.0024376669135278916 0 -2.9558024449103266e-07 0.0022147846041698648 0 -1.3689214933056263e-08 0.00022722952225696667 0 -3.3340403163413586e-05 0.0015333147925361001 0 -2.9558024449103266e-07 0.0022147846041698648 0 -3.3340403163413586e-05 0.0015333147925361001 0 -8.8540753634941633e-05 0.0024376669135278916 0 6.112036422540595e-05 0.0019872607762621139 0 -8.8540753634941633e-05 0.0024376669135278916 0 5.4888914605023465e-05 0.0024142688329863602 0 6.112036422540595e-05 0.0019872607762621139 0 0.00021646092519948774 0.00082733397185099354 0 8.3767149468499168e-05 0.0010605832597703124 0 0.00018315337578206516 0.0022819020162070098 0 6.112036422540595e-05 0.0019872607762621139 0 8.3767149468499168e-05 0.0010605832597703124 0 0.00018315337578206516 0.0022819020162070098 0 5.4888914605023465e-05 0.0024142688329863602 0 6.112036422540595e-05 0.0019872607762621139 0 0.00018315337578206516 0.0022819020162070098 0 -0.00030511242386151795 -0.00094466492210131512 0 -0.00036281107502590177 -7.8235999185955016e-05 0 -3.3340403163413586e-05 0.0015333147925361001 0 6.112036422540595e-05 0.0019872607762621139 0 8.3767149468499168e-05 0.0010605832597703124 0 -1.0242780737530822e-06 0.0042020316559975655 0 -0.00032765790525889061 0.0032119272110251698 0 -0.00035697269778502892 0.0040097536168634028 0 -8.8540753634941633e-05 0.0024376669135278916 0 -2.9558024449103266e-07 0.0022147846041698648 0 -0.00032765790525889061 0.0032119272110251698 0 -1.0242780737530822e-06 0.0042020316559975655 0 -2.9558024449103266e-07 0.0022147846041698648 0 -0.00032765790525889061 0.0032119272110251698 0 -8.8540753634941633e-05 0.0024376669135278916 0 -0.00032765790525889061 0.0032119272110251698 0 -0.00025111400076143739 0.0033356243187504953 0 -0.00032765790525889061 0.0032119272110251698 0 -0.00055455632439979782 0.0037358873532667663 0 -0.00035697269778502892 0.0040097536168634028 0 -0.00055455632439979782 0.0037358873532667663 0 -0.00062446728381753455 0.0037202444154178353 0 -0.00035697269778502892 0.0040097536168634028 0 -0.00055455632439979782 0.0037358873532667663 0 -0.00067020019701475794 0.0052267160742331901 0 -0.00062446728381753455 0.0037202444154178353 0 -0.00032765790525889061 0.0032119272110251698 0 -0.00055455632439979782 0.0037358873532667663 0 -0.00025111400076143739 0.0033356243187504953 0 -0.00055455632439979782 0.0037358873532667663 0 -0.00025111400076143739 0.0033356243187504953 0 -0.00025737598168998327 0.0044429794079321357 0 -0.00025111400076143739 0.0033356243187504953 0 -0.00025737598168998327 0.0044429794079321357 0 0.00010067301860073165 0.0032745989796700561 0 -0.00096369454695745596 0.0010175094940623596 0 -0.00079207134956895894 0.0007294805525120356 0 -0.00055455632439979782 0.0037358873532667663 0 -0.00025737598168998327 0.0044429794079321357 0 -0.00067020019701475794 0.0052267160742331901 0 -0.00025737598168998327 0.0044429794079321357 0 -0.00015228093719471848 0.0051838232674035799 0 0.00038574937622793694 0.0048282428341920791 0 -0.00025737598168998327 0.0044429794079321357 0 -0.00015228093719471848 0.0051838232674035799 0 -0.00067020019701475794 0.0052267160742331901 0 -0.00015228093719471848 0.0051838232674035799 0 -0.00067020019701475794 0.0052267160742331901 0 -0.00049928603801265839 0.0056389695469586136 0 -0.00067020019701475794 0.0052267160742331901 0 -0.00071452480083965578 0.0059570249734149502 0 -0.00084585929715544914 0.0067442509049701806 0 -0.00067020019701475794 0.0052267160742331901 0 -0.00071452480083965578 0.0059570249734149502 0 -0.00067534152638865368 0.005847234783147112 0 -0.00031091708734302048 0.0058259571222624099 0 -0.00037330801307365011 0.0058006595139911965 0 0.0019082603499437488 0.0037734106177381771 0 0.0014249298371089428 0.0043534859464912324 0 0.0009733869411083717 0.0038923640547410977 0 0.00031486566218408919 -0.00043429330609632693 0 -0.00036281107502590177 -7.8235999185955016e-05 0 0.00079993645906977168 0.0043485224882230103 0 0.0014249298371089428 0.0043534859464912324 0 0.0009733869411083717 0.0038923640547410977 0 5.4888914605023465e-05 0.0024142688329863602 0 0.00018315337578206516 0.0022819020162070098 0 0.00010067301860073165 0.0032745989796700561 0 -0.00036281107502590177 -7.8235999185955016e-05 0 -0.00079207134956895894 0.0007294805525120356 0 -8.8540753634941633e-05 0.0024376669135278916 0 5.4888914605023465e-05 0.0024142688329863602 0 0.00010067301860073165 0.0032745989796700561 0 -8.8540753634941633e-05 0.0024376669135278916 0 -0.00025111400076143739 0.0033356243187504953 0 0.00010067301860073165 0.0032745989796700561 0 0.00079993645906977168 0.0043485224882230103 0 0.0009733869411083717 0.0038923640547410977 0 0.00033626400278459023 0.0042374426380748717 0 0.00079993645906977168 0.0043485224882230103 0 0.00033626400278459023 0.0042374426380748717 0 0.00038574937622793694 0.0048282428341920791 0 -0.00025737598168998327 0.0044429794079321357 0 0.00033626400278459023 0.0042374426380748717 0 0.00038574937622793694 0.0048282428341920791 0 -0.00015228093719471848 0.0051838232674035799 0 0.00038574937622793694 0.0048282428341920791 0 0.00023117469249476808 0.0053493206015566329 0 0.00038574937622793694 0.0048282428341920791 0 0.00095087094083991513 0.0052991817457082183 0 0.00023117469249476808 0.0053493206015566329 0 0.0019148049590599792 0.0049000890032336051 0 0.0010786531877771807 0.0047556823596280086 0 0.00095087094083991513 0.0052991817457082183 0 0.00038574937622793694 0.0048282428341920791 0 0.0010786531877771807 0.0047556823596280086 0 0.00095087094083991513 0.0052991817457082183 0 0.00079993645906977168 0.0043485224882230103 0 0.00038574937622793694 0.0048282428341920791 0 0.0010786531877771807 0.0047556823596280086 0 0.00079993645906977168 0.0043485224882230103 0 0.0014249298371089428 0.0043534859464912324 0 0.0010786531877771807 0.0047556823596280086 0 0.0019148049590599792 0.0049000890032336051 0 0.00095087094083991513 0.0052991817457082183 0 0.0012899211989984289 0.0057970642598133013 0 0.0012899211989984289 0.0057970642598133013 0 0.00062090879439690523 0.0062816104321466344 0 0.00048111159494812559 0.0056566438994032344 0 0.00095087094083991513 0.0052991817457082183 0 0.0012899211989984289 0.0057970642598133013 0 0.00048111159494812559 0.0056566438994032344 0 0.0030050373333475999 0.0067709731022697209 0 0.0024505022061491301 0.0061248444530295106 0 0.0024337096618045947 0.0072824840089125605 0 0.002475398099472136 0.0060886540091539855 0 0.001496975928811792 0.0074668762958246277 0 0.0014287791973247074 0.0068532548932594842 0 0.0024505022061491301 0.0061248444530295106 0 0.0014809249391570312 0.0074824657732480713 0 0.0024337096618045947 0.0072824840089125605 0 0.0011213502051465075 0.0046160714662186837 0 0.00072402890710282031 0.0059012345825144854 0 0.0011213502051465075 0.0046160714662186837 0 0.0008733999889474585 0.0058703775560307652 0 0.0014809249391570312 0.0074824657732480713 0 0.0024337096618045947 0.0072824840089125605 0 0.0020032389523935656 0.007947695289552156 0 0.0029779216091066502 0.0075440658811930768 0 0.0024337096618045947 0.0072824840089125605 0 0.0025870211145054478 0.0079747714196991056 0 -3.8576794751092239e-05 0.0067598904985880339 0 0.00062090879439690523 0.0062816104321466344 0 0.00048111159494812559 0.0056566438994032344 0 0.00069025195847066928 0.0069887350067721213 0 0.00074955053473668709 0.0066508980086938648 0 -0.00011767447269533799 0.0061874081583749383 0 -3.4652721395847572e-05 0.0058844801164024329 0 0.00048111159494812559 0.0056566438994032344 0 0.001496975928811792 0.0074668762958246277 0 0.00037930800060645078 0.0076181516725480599 0 0.0014287791973247074 0.0068532548932594842 0 0.00069025195847066928 0.0069887350067721213 0 0.0008733999889474585 0.0058703775560307652 0 -3.4652721395847572e-05 0.0058844801164024329 0 5.6490702413011107e-05 0.0056480195723440461 0 0.00048111159494812559 0.0056566438994032344 0 0.00095087094083991513 0.0052991817457082183 0 0.00048111159494812559 0.0056566438994032344 0 0.00023117469249476808 0.0053493206015566329 0 5.6490702413011107e-05 0.0056480195723440461 0 0.00048111159494812559 0.0056566438994032344 0 0.00023117469249476808 0.0053493206015566329 0 5.6490702413011107e-05 0.0056480195723440461 0 0.00023117469249476808 0.0053493206015566329 0 -0.00010449410857011066 0.0055171373800295721 0 -0.00015228093719471848 0.0051838232674035799 0 -0.00010449410857011066 0.0055171373800295721 0 -0.00049928603801265839 0.0056389695469586136 0 -0.00010449410857011066 0.0055171373800295721 0 -0.00049928603801265839 0.0056389695469586136 0 -0.00023922731742135822 0.0057782462026507928 0 -0.00015228093719471848 0.0051838232674035799 0 0.00023117469249476808 0.0053493206015566329 0 -0.00010449410857011066 0.0055171373800295721 0 -0.00049928603801265839 0.0056389695469586136 0 -0.00023922731742135822 0.0057782462026507928 0 -0.00045747169795089276 0.0059230279110225126 0 5.6490702413011107e-05 0.0056480195723440461 0 -0.00010449410857011066 0.0055171373800295721 0 -0.00023922731742135822 0.0057782462026507928 0 -3.4652721395847572e-05 0.0058844801164024329 0 5.6490702413011107e-05 0.0056480195723440461 0 -0.00023922731742135822 0.0057782462026507928 0 -0.00049928603801265839 0.0056389695469586136 0 -0.00067534152638865368 0.005847234783147112 0 -0.00057179388420131765 0.0058552922546674779 0 -0.00067020019701475794 0.0052267160742331901 0 -0.00049928603801265839 0.0056389695469586136 0 -0.00067534152638865368 0.005847234783147112 0 -0.00049928603801265839 0.0056389695469586136 0 -0.00057179388420131765 0.0058552922546674779 0 -0.00045747169795089276 0.0059230279110225126 0 -0.00067534152638865368 0.005847234783147112 0 -0.00059163023470308986 0.0059717492999645646 0 -0.00062230717819169849 0.0060340309254795447 0 -0.00067534152638865368 0.005847234783147112 0 -0.00057179388420131765 0.0058552922546674779 0 -0.00059163023470308986 0.0059717492999645646 0 -0.00059163023470308986 0.0059717492999645646 0 -0.00044481829600112295 0.0060739715407618087 0 -0.00050844643503859376 0.0060953359803616793 0 -0.00057179388420131765 0.0058552922546674779 0 -0.00059163023470308986 0.0059717492999645646 0 -0.00045747169795089276 0.0059230279110225126 0 -0.00059163023470308986 0.0059717492999645646 0 -0.00044481829600112295 0.0060739715407618087 0 -0.00045747169795089276 0.0059230279110225126 0 -3.4652721395847572e-05 0.0058844801164024329 0 -0.00023922731742135822 0.0057782462026507928 0 -0.00028073122506652948 0.0060553059234428634 0 -0.00023922731742135822 0.0057782462026507928 0 -0.00045747169795089276 0.0059230279110225126 0 -0.00028073122506652948 0.0060553059234428634 0 -0.00044481829600112295 0.0060739715407618087 0 -0.00028073122506652948 0.0060553059234428634 0 -0.00034825975306297983 0.0061165777765315342 0 -0.00044481829600112295 0.0060739715407618087 0 -0.00045747169795089276 0.0059230279110225126 0 -0.00028073122506652948 0.0060553059234428634 0 -0.00028073122506652948 0.0060553059234428634 0 -0.00027422640967751861 0.0061735363360809663 0 -0.00034825975306297983 0.0061165777765315342 0 -0.00011767447269533799 0.0061874081583749383 0 -0.00028073122506652948 0.0060553059234428634 0 -0.00027422640967751861 0.0061735363360809663 0 -0.00011767447269533799 0.0061874081583749383 0 -3.4652721395847572e-05 0.0058844801164024329 0 -0.00028073122506652948 0.0060553059234428634 0 0.00069025195847066928 0.0069887350067721213 0 0.00067919902747513991 0.0069834759582142062 0 0.00069025195847066928 0.0069887350067721213 0 0.00062630941681256084 0.0094961140319734013 0 0.00037930800060645078 0.0076181516725480599 0 -0.00029779237348571996 0.0090633976097365017 0 0.00051432762492577961 0.0088462505464501854 0 -0.00023836915300300934 0.0061711199456134704 0 -0.00027422640967751861 0.0061735363360809663 0 -0.0003553670038611668 0.0061869195352668065 0 -0.00027422640967751861 0.0061735363360809663 0 -0.00034825975306297983 0.0061165777765315342 0 -0.00038959803879860686 0.0061527356313395253 0 -0.00044481829600112295 0.0060739715407618087 0 -0.00034825975306297983 0.0061165777765315342 0 -0.00038959803879860686 0.0061527356313395253 0 -0.00027422640967751861 0.0061735363360809663 0 -0.00038959803879860686 0.0061527356313395253 0 -0.0003553670038611668 0.0061869195352668065 0 -0.00044481829600112295 0.0060739715407618087 0 -0.00038959803879860686 0.0061527356313395253 0 -0.00050844643503859376 0.0060953359803616793 0 -0.00038959803879860686 0.0061527356313395253 0 -0.00050844643503859376 0.0060953359803616793 0 -0.00043512151437094987 0.0061771604360317221 0 -0.00050844643503859376 0.0060953359803616793 0 -0.00043512151437094987 0.0061771604360317221 0 -0.0004913320377534072 0.0061417554455345255 0 -0.00043512151437094987 0.0061771604360317221 0 -0.00041134830835195147 0.0062342646086209668 0 -0.00045555150753802105 0.0062238750899880979 0 -0.00043512151437094987 0.0061771604360317221 0 -0.0004913320377534072 0.0061417554455345255 0 -0.00045555150753802105 0.0062238750899880979 0 -0.00029779237348571996 0.0090633976097365017 0 -0.00024851472130051484 0.0098450020878083806 0 -0.00097334374182671615 0.010501427643119975 0 0.00062630941681256084 0.0094961140319734013 0 0.0004006748078868792 0.012996497408775653 0 -0.00043512151437094987 0.0061771604360317221 0 -0.0003553670038611668 0.0061869195352668065 0 -0.00041134830835195147 0.0062342646086209668 0 -0.00029779237348571996 0.0090633976097365017 0 3.9512386766432788e-05 0.0094922635938522008 0 0.00051432762492577961 0.0088462505464501854 0 -0.00029779237348571996 0.0090633976097365017 0 3.9512386766432788e-05 0.0094922635938522008 0 -0.00024851472130051484 0.0098450020878083806 0 -0.00038959803879860686 0.0061527356313395253 0 -0.00043512151437094987 0.0061771604360317221 0 -0.0003553670038611668 0.0061869195352668065 0 -0.00024851472130051484 0.0098450020878083806 0 0.00018469467482721858 0.010021380481178361 0 -0.00097334374182671615 0.010501427643119975 0 3.9512386766432788e-05 0.0094922635938522008 0 0.00018469467482721858 0.010021380481178361 0 0.00048172919030995337 0.0096179773157305335 0 3.9512386766432788e-05 0.0094922635938522008 0 -0.00024851472130051484 0.0098450020878083806 0 0.00018469467482721858 0.010021380481178361 0 0.00018469467482721858 0.010021380481178361 0 0.00048172919030995337 0.0096179773157305335 0 0.00095851761108233543 0.0097722676289504467 0 0.00095851761108233543 0.0097722676289504467 0 0.0022485511500321708 0.0097378151191039441 0 0.00057629093016485532 0.010437209945219648 0 0.00018469467482721858 0.010021380481178361 0 0.00095851761108233543 0.0097722676289504467 0 0.00057629093016485532 0.010437209945219648 0 0.00048172919030995337 0.0096179773157305335 0 0.00092524622006720763 0.0093170454171834331 0 0.00095851761108233543 0.0097722676289504467 0 0.00048172919030995337 0.0096179773157305335 0 0.00092524622006720763 0.0093170454171834331 0 0.00051432762492577961 0.0088462505464501854 0 3.9512386766432788e-05 0.0094922635938522008 0 0.00048172919030995337 0.0096179773157305335 0 0.00051432762492577961 0.0088462505464501854 0 0.0012865257386013614 0.0089041103791628589 0 0.00092524622006720763 0.0093170454171834331 0 0.00051432762492577961 0.0088462505464501854 0 0.00092524622006720763 0.0093170454171834331 0 0.0013838402896824893 0.009445345330667005 0 0.00095851761108233543 0.0097722676289504467 0 0.0012865257386013614 0.0089041103791628589 0 0.00092524622006720763 0.0093170454171834331 0 0.0013838402896824893 0.009445345330667005 0 0.0013838402896824893 0.009445345330667005 0 0.00095851761108233543 0.0097722676289504467 0 0.0022485511500321708 0.0097378151191039441 0 0.0022485511500321708 0.0097378151191039441 0 0.0026952948188489565 0.0091929039935434859 0 0.0017149802218416757 0.011274184938557289 0 0.0022485511500321708 0.0097378151191039441 0 0.0026952948188489565 0.0091929039935434859 0 0.0022102731075604285 0.0090229144223133093 0 0.0026952948188489565 0.0091929039935434859 0 0.0022102731075604285 0.0090229144223133093 0 0.0022663236677122021 0.0085481130446004687 0 0.0022485511500321708 0.0097378151191039441 0 0.0022102731075604285 0.0090229144223133093 0 0.0017731075726685561 0.0091482081551079106 0 0.0013838402896824893 0.009445345330667005 0 0.0022485511500321708 0.0097378151191039441 0 0.0017731075726685561 0.0091482081551079106 0 0.0022102731075604285 0.0090229144223133093 0 0.0017731075726685561 0.0091482081551079106 0 0.0018187419308258962 0.0086114798675102321 0 0.0012865257386013614 0.0089041103791628589 0 0.0013838402896824893 0.009445345330667005 0 0.0017731075726685561 0.0091482081551079106 0 0.0012865257386013614 0.0089041103791628589 0 0.0018187419308258962 0.0086114798675102321 0 0.001420627848718077 0.0083583663826858196 0 0.0012865257386013614 0.0089041103791628589 0 0.0017731075726685561 0.0091482081551079106 0 0.0018187419308258962 0.0086114798675102321 0 0.0018187419308258962 0.0086114798675102321 0 0.0022663236677122021 0.0085481130446004687 0 0.0020032389523935656 0.007947695289552156 0 0.0018187419308258962 0.0086114798675102321 0 0.0020032389523935656 0.007947695289552156 0 0.001420627848718077 0.0083583663826858196 0 0.0026952948188489565 0.0091929039935434859 0 0.0022663236677122021 0.0085481130446004687 0 0.0025870211145054478 0.0079747714196991056 0 0.0022102731075604285 0.0090229144223133093 0 0.0018187419308258962 0.0086114798675102321 0 0.0022663236677122021 0.0085481130446004687 0 0.0024337096618045947 0.0072824840089125605 0 0.0025870211145054478 0.0079747714196991056 0 0.0020032389523935656 0.007947695289552156 0 0.0022663236677122021 0.0085481130446004687 0 0.0025870211145054478 0.0079747714196991056 0 0.0020032389523935656 0.007947695289552156 0 0.0014809249391570312 0.0074824657732480713 0 0.0020032389523935656 0.007947695289552156 0 0.001420627848718077 0.0083583663826858196 0 0.00072402890710282031 0.0059012345825144854 0 0.00049672070176452201 0.0064480229460602955 0 0.001496975928811792 0.0074668762958246277 0 0.00037930800060645078 0.0076181516725480599 0 0.00051432762492577961 0.0088462505464501854 0 0.0014809249391570312 0.0074824657732480713 0 0.00051432762492577961 0.0088462505464501854 0 0.001420627848718077 0.0083583663826858196 0 0.0012865257386013614 0.0089041103791628589 0 0.00051432762492577961 0.0088462505464501854 0 0.001420627848718077 0.0083583663826858196 0 0.0014490121026563966 0.018889150195688775 0 0.0018324891599725004 0.018832866956634286 0 0.0014830414250759844 0.01860616175719788 0 0.0014490121026563966 0.018889150195688775 0 0.0016862800468799364 0.01918890566014797 0 0.0018324891599725004 0.018832866956634286 0 0.0011213812245718232 0.016791166378312232 0 0.0013509483913992381 0.017219672400990888 0 0.0015677185303493745 0.019348706365317596 0 0.0011371371495481261 0.019269292735804539 0 0.0012510918389522117 0.019518023418663443 0 0.0014132232016442099 0.019011147160228573 0 0.001679236303464732 0.019370038871759768 0 0.0011371371495481261 0.019269292735804539 0 0.0015509143975037355 0.01784122316112359 0 0.0011213812245718232 0.016791166378312232 0 0.0016862800468799364 0.01918890566014797 0 0.0018324891599725004 0.018832866956634286 0 0.0019704627140720529 0.019237075188826846 0 -0.0005172530741039379 0.0060738491688611188 0 -0.00047293717586553279 0.0060106147357011502 0 -0.00054430958843265935 0.0061633655399113878 0 0.0011213812245718232 0.016791166378312232 0 8.9234627924792843e-05 0.015032738283775675 0 0.00028288985755383625 0.01336756326169178 0 8.9234627924792843e-05 0.015032738283775675 0 -0.0004913320377534072 0.0061417554455345255 0 -0.00045555150753802105 0.0062238750899880979 0 -0.00054430958843265935 0.0061633655399113878 0 -0.0004913320377534072 0.0061417554455345255 0 -0.0005172530741039379 0.0060738491688611188 0 -0.00054430958843265935 0.0061633655399113878 0 -0.00050844643503859376 0.0060953359803616793 0 -0.0005172530741039379 0.0060738491688611188 0 -0.00055918556485992036 0.0060355616902498712 0 -0.00050844643503859376 0.0060953359803616793 0 -0.0004913320377534072 0.0061417554455345255 0 -0.0005172530741039379 0.0060738491688611188 0 -0.0005172530741039379 0.0060738491688611188 0 -0.00047293717586553279 0.0060106147357011502 0 -0.00055918556485992036 0.0060355616902498712 0 -0.00047293717586553279 0.0060106147357011502 0 -0.00055918556485992036 0.0060355616902498712 0 -0.00045323168027150846 0.0061710332179028106 0 -0.00059163023470308986 0.0059717492999645646 0 -0.00055918556485992036 0.0060355616902498712 0 -0.00062230717819169849 0.0060340309254795447 0 -0.00059163023470308986 0.0059717492999645646 0 -0.00050844643503859376 0.0060953359803616793 0 -0.00055918556485992036 0.0060355616902498712 0 -0.00062230717819169849 0.0060340309254795447 0 -0.00045323168027150846 0.0061710332179028106 0 -0.0005901020446194491 0.0063464726725387267 0 -0.00055918556485992036 0.0060355616902498712 0 -0.00062230717819169849 0.0060340309254795447 0 -0.00045323168027150846 0.0061710332179028106 0 -0.00071452480083965578 0.0059570249734149502 0 -0.00067534152638865368 0.005847234783147112 0 -0.00062230717819169849 0.0060340309254795447 0 -0.00045323168027150846 0.0061710332179028106 0 -0.0001602393353804083 0.0061832969087034237 0 -0.00022344534502688964 0.0066551910484424536 0 0.0018324891599725004 0.018832866956634286 0 0.001704989941941547 0.018357247129945912 0 0.0014830414250759844 0.01860616175719788 0 0.00028288985755383625 0.01336756326169178 0 0.00063779613095270391 0.012826462190125643 0 -0.00047293717586553279 0.0060106147357011502 0 -0.00045323168027150846 0.0061710332179028106 0 -0.0001602393353804083 0.0061832969087034237 0 0.0014490121026563966 0.018889150195688775 0 0.0014830414250759844 0.01860616175719788 0 0.0011540195876170924 0.018588860301359051 0 0.0015509143975037355 0.01784122316112359 0 0.0015870996826607222 0.018034557420790895 0 0.0014830414250759844 0.01860616175719788 0 0.001355682990973133 0.018384141667935335 0 0.0011540195876170924 0.018588860301359051 0 0.001704989941941547 0.018357247129945912 0 0.0014830414250759844 0.01860616175719788 0 0.001355682990973133 0.018384141667935335 0 0.001704989941941547 0.018357247129945912 0 0.001355682990973133 0.018384141667935335 0 0.0013731142704038817 0.018112406683751872 0 0.001355682990973133 0.018384141667935335 0 0.0013731142704038817 0.018112406683751872 0 0.0011128476310078314 0.018230809246978015 0 0.0013731142704038817 0.018112406683751872 0 0.0015322014648053146 0.017760308598088678 0 0.0011600441833836033 0.017861517779013809 0 0.001704989941941547 0.018357247129945912 0 0.0013731142704038817 0.018112406683751872 0 0.0015322014648053146 0.017760308598088678 0 0.0011073786927546065 0.0129223010298508 0 0.0011304154644104923 0.012943764143248679 0 -0.0001602393353804083 0.0061832969087034237 0 8.0612181574869771e-05 0.0070886012461540649 0 -0.00022344534502688964 0.0066551910484424536 0 -0.0001602393353804083 0.0061832969087034237 0 8.0612181574869771e-05 0.0070886012461540649 0 0.00018226237292001476 0.0071376392055475055 0 0.00063779613095270391 0.012826462190125643 0 0.0011304154644104923 0.012943764143248679 0 -0.00022344534502688964 0.0066551910484424536 0 -0.00022422149468567142 0.0068834265700887911 0 -0.00010174917197195162 0.0070622608016132063 0 -0.00022344534502688964 0.0066551910484424536 0 -0.00022422149468567142 0.0068834265700887911 0 -0.00035784637304605893 0.0066386751542641649 0 8.0612181574869771e-05 0.0070886012461540649 0 -0.00022344534502688964 0.0066551910484424536 0 -0.00010174917197195162 0.0070622608016132063 0 8.0612181574869771e-05 0.0070886012461540649 0 -0.00010174917197195162 0.0070622608016132063 0 1.9962119659797028e-05 0.0073462466959639192 0 -0.00010174917197195162 0.0070622608016132063 0 -7.4014349392664648e-05 0.0074079573664154255 0 1.9962119659797028e-05 0.0073462466959639192 0 -0.00010174917197195162 0.0070622608016132063 0 -7.4014349392664648e-05 0.0074079573664154255 0 -0.00015701546764513083 0.0071944601040759984 0 -7.4014349392664648e-05 0.0074079573664154255 0 -9.486143736580791e-06 0.0076459940978986377 0 1.9962119659797028e-05 0.0073462466959639192 0 -0.00015701546764513083 0.0071944601040759984 0 -0.00013905540391863841 0.0074708487082582754 0 -0.00027416045969067422 0.0069921182827845738 0 -0.00022422149468567142 0.0068834265700887911 0 -0.00015701546764513083 0.0071944601040759984 0 -0.00027416045969067422 0.0069921182827845738 0 -0.00022422149468567142 0.0068834265700887911 0 -0.00010174917197195162 0.0070622608016132063 0 -0.00015701546764513083 0.0071944601040759984 0 -7.4014349392664648e-05 0.0074079573664154255 0 -0.00015701546764513083 0.0071944601040759984 0 -0.00013905540391863841 0.0074708487082582754 0 -7.4014349392664648e-05 0.0074079573664154255 0 -0.00013905540391863841 0.0074708487082582754 0 -6.8360538025987589e-05 0.0076325600635358051 0 -7.4014349392664648e-05 0.0074079573664154255 0 -6.8360538025987589e-05 0.0076325600635358051 0 -9.486143736580791e-06 0.0076459940978986377 0 0.0011304154644104923 0.012943764143248679 0 0.00050999637909558638 0.013447325507564559 0 -9.486143736580791e-06 0.0076459940978986377 0 5.5192347942063178e-05 0.0074791078010565115 0 -3.1430131131948455e-05 0.0079943304707738271 0 -6.8360538025987589e-05 0.0076325600635358051 0 -9.486143736580791e-06 0.0076459940978986377 0 -5.3006894590384728e-05 0.0078548729646340052 0 -9.486143736580791e-06 0.0076459940978986377 0 -3.1430131131948455e-05 0.0079943304707738271 0 -5.3006894590384728e-05 0.0078548729646340052 0 5.5192347942063178e-05 0.0074791078010565115 0 6.235913615897284e-05 0.0073845225941747581 0 8.665668123520348e-05 0.0082175905418419605 0 5.5192347942063178e-05 0.0074791078010565115 0 -3.1430131131948455e-05 0.0079943304707738271 0 8.665668123520348e-05 0.0082175905418419605 0 8.0612181574869771e-05 0.0070886012461540649 0 1.9962119659797028e-05 0.0073462466959639192 0 0.0001167354039048654 0.007247478825827278 0 5.5192347942063178e-05 0.0074791078010565115 0 1.9962119659797028e-05 0.0073462466959639192 0 0.0001167354039048654 0.007247478825827278 0 0.0011149123242551119 0.012896792021351664 0 0.0011304154644104923 0.012943764143248679 0 -9.486143736580791e-06 0.0076459940978986377 0 5.5192347942063178e-05 0.0074791078010565115 0 1.9962119659797028e-05 0.0073462466959639192 0 -0.00071452480083965578 0.0059570249734149502 0 -0.0005901020446194491 0.0063464726725387267 0 -0.00084585929715544914 0.0067442509049701806 0 -0.00071452480083965578 0.0059570249734149502 0 -0.00062230717819169849 0.0060340309254795447 0 -0.0005901020446194491 0.0063464726725387267 0 -0.00045323168027150846 0.0061710332179028106 0 -0.00022344534502688964 0.0066551910484424536 0 -0.00035784637304605893 0.0066386751542641649 0 -0.00045323168027150846 0.0061710332179028106 0 -0.0005901020446194491 0.0063464726725387267 0 -0.00035784637304605893 0.0066386751542641649 0 -0.0005901020446194491 0.0063464726725387267 0 -0.00035784637304605893 0.0066386751542641649 0 -0.00039359060532993752 0.0069945963024169834 0 -0.00022422149468567142 0.0068834265700887911 0 -0.00035784637304605893 0.0066386751542641649 0 -0.00027416045969067422 0.0069921182827845738 0 -0.00035784637304605893 0.0066386751542641649 0 -0.00027416045969067422 0.0069921182827845738 0 -0.00039359060532993752 0.0069945963024169834 0 -0.00013905540391863841 0.0074708487082582754 0 -0.00027416045969067422 0.0069921182827845738 0 -0.00039359060532993752 0.0069945963024169834 0 -0.00039359060532993752 0.0069945963024169834 0 -0.00084585929715544914 0.0067442509049701806 0 -0.00026965620914168737 0.0076548144870480584 0 -0.0005901020446194491 0.0063464726725387267 0 -0.00039359060532993752 0.0069945963024169834 0 -0.00084585929715544914 0.0067442509049701806 0 -0.00062446728381753455 0.0037202444154178353 0 -0.00035697269778502892 0.0040097536168634028 0 8.7844325392009149e-05 0.0045539803818178881 0 -0.00037330801307365011 0.0058006595139911965 0 -0.00040865774622041829 0.0058576586294135152 0 -0.00013905540391863841 0.0074708487082582754 0 -0.00039359060532993752 0.0069945963024169834 0 -0.00026965620914168737 0.0076548144870480584 0 -0.00035697269778502892 0.0040097536168634028 0 8.7844325392009149e-05 0.0045539803818178881 0 4.6289555096510563e-07 0.0061898191424484611 0 -0.00040865774622041829 0.0058576586294135152 0 -0.00040746060338597335 0.0059326055947595243 0 8.7844325392009149e-05 0.0045539803818178881 0 4.6289555096510563e-07 0.0061898191424484611 0 4.0029452420283792e-05 0.0071751927403442082 0 -1.0242780737530822e-06 0.0042020316559975655 0 -0.00035697269778502892 0.0040097536168634028 0 4.6289555096510563e-07 0.0061898191424484611 0 -9.4925671918862783e-05 0.0080840197873283531 0 -9.6710455453360533e-05 0.0079247780230813358 0 -9.8992723340683402e-05 0.0087313193211959617 0 -9.4925671918862783e-05 0.0080840197873283531 0 -8.5927289868828843e-05 0.0078094928973377843 0 -9.6710455453360533e-05 0.0079247780230813358 0 -9.4925671918862783e-05 0.0080840197873283531 0 -3.1430131131948455e-05 0.0079943304707738271 0 -9.8992723340683402e-05 0.0087313193211959617 0 -9.4925671918862783e-05 0.0080840197873283531 0 -5.3006894590384728e-05 0.0078548729646340052 0 -8.5927289868828843e-05 0.0078094928973377843 0 -6.8360538025987589e-05 0.0076325600635358051 0 -5.3006894590384728e-05 0.0078548729646340052 0 -8.5927289868828843e-05 0.0078094928973377843 0 -9.4925671918862783e-05 0.0080840197873283531 0 -3.1430131131948455e-05 0.0079943304707738271 0 -5.3006894590384728e-05 0.0078548729646340052 0 -0.00013905540391863841 0.0074708487082582754 0 -8.5927289868828843e-05 0.0078094928973377843 0 -0.00010768588847306694 0.0077060164669566326 0 -0.00013905540391863841 0.0074708487082582754 0 -0.00026965620914168737 0.0076548144870480584 0 -0.00010768588847306694 0.0077060164669566326 0 -0.00013905540391863841 0.0074708487082582754 0 -6.8360538025987589e-05 0.0076325600635358051 0 -8.5927289868828843e-05 0.0078094928973377843 0 -8.5927289868828843e-05 0.0078094928973377843 0 -0.00010768588847306694 0.0077060164669566326 0 -9.6710455453360533e-05 0.0079247780230813358 0 -0.00010768588847306694 0.0077060164669566326 0 4.0029452420283792e-05 0.0071751927403442082 0 -9.6710455453360533e-05 0.0079247780230813358 0 -0.00026965620914168737 0.0076548144870480584 0 -0.00010768588847306694 0.0077060164669566326 0 4.0029452420283792e-05 0.0071751927403442082 0 4.6289555096510563e-07 0.0061898191424484611 0 4.0029452420283792e-05 0.0071751927403442082 0 -2.4354265265877644e-07 0.0081782586721265704 0 4.0029452420283792e-05 0.0071751927403442082 0 -2.4354265265877644e-07 0.0081782586721265704 0 -9.6710455453360533e-05 0.0079247780230813358 0 -2.4354265265877644e-07 0.0081782586721265704 0 -9.6710455453360533e-05 0.0079247780230813358 0 -9.8992723340683402e-05 0.0087313193211959617 0 -2.4354265265877644e-07 0.0081782586721265704 0 -9.8992723340683402e-05 0.0087313193211959617 0 -5.092760792430869e-07 0.010166160308606063 0 -3.1430131131948455e-05 0.0079943304707738271 0 -9.8992723340683402e-05 0.0087313193211959617 0 8.665668123520348e-05 0.0082175905418419605 0 -9.8992723340683402e-05 0.0087313193211959617 0 0.00037147372435300389 0.0092949554648804368 0 8.665668123520348e-05 0.0082175905418419605 0 0.00035410712769919328 0.014326631235145829 0 0.00050999637909558638 0.013447325507564559 0 -9.8992723340683402e-05 0.0087313193211959617 0 -5.092760792430869e-07 0.010166160308606063 0 0.00037147372435300389 0.0092949554648804368 0 -5.092760792430869e-07 0.010166160308606063 0 1.8532615988090464e-06 0.012150616430987037 0 0.00037147372435300389 0.0092949554648804368 0 -7.2404621849539232e-07 0.01215609277098543 0 0.00035410712769919328 0.014326631235145829 0 4.9704182153547554e-07 0.012155605409892389 0 -5.003657313599411e-06 0.012817798227910427 0 0.0014218428443822061 0.014261503984210213 0 0.00052196495201502614 0.015250247353539506 0 0.00023378216127487562 0.014984668738269664 0 -7.4383403478801052e-05 0.012955309595148552 0 4.9704182153547554e-07 0.012155605409892389 0 -4.9749392115348107e-07 0.013494639133472573 0 -7.4383403478801052e-05 0.012955309595148552 0 -6.0017202663732481e-05 0.012847469580008325 0 7.5652903314597633e-07 0.013261650232142338 0 -7.4383403478801052e-05 0.012955309595148552 0 4.9704182153547554e-07 0.012155605409892389 0 -5.003657313599411e-06 0.012817798227910427 0 0.00053526897102496788 0.015117529229853495 0 0.00052196495201502614 0.015250247353539506 0 -7.4383403478801052e-05 0.012955309595148552 0 -5.003657313599411e-06 0.012817798227910427 0 -6.0017202663732481e-05 0.012847469580008325 0 0.0026743149780961511 0.016552592421380123 0 0.0021756562621564651 0.018186841337192054 0 0.0016427908764982896 0.017223383995957291 0 0.00052196495201502614 0.015250247353539506 0 0.00049596229283386281 0.017221253936774022 0 -5.003657313599411e-06 0.012817798227910427 0 -0.00016873207334355288 0.013546188084425813 0 0.0014218428443822061 0.014261503984210213 0 0.00052196495201502614 0.015250247353539506 0 0.00035410712769919328 0.014326631235145829 0 4.6690709947967963e-05 0.016985855003681844 0 0.00049752021016908829 0.017198530426135693 0 0.00035107106136493093 0.017631367852718915 0 4.6690709947967963e-05 0.016985855003681844 0 0.00035107106136493093 0.017631367852718915 0 -0.00010740309790307711 0.017663457923036457 0 -0.00010740309790307711 0.017663457923036457 0 0.00010169383462777246 0.018054362174514661 0 -0.00025987285473713152 0.018334921533969515 0 0.00049596229283386281 0.017221253936774022 0 0.00043316497151006878 0.018297311681665294 0 0.00035107106136493093 0.017631367852718915 0 -0.00010740309790307711 0.017663457923036457 0 0.00010169383462777246 0.018054362174514661 0 0.00035107106136493093 0.017631367852718915 0 0.00010169383462777246 0.018054362174514661 0 0.00046226620104027072 0.018079262839874037 0 0.00046226620104027072 0.018079262839874037 0 0.00080120991061493067 0.018104786132004551 0 0.00081474377713609098 0.017717015113139008 0 0.00035107106136493093 0.017631367852718915 0 0.00046226620104027072 0.018079262839874037 0 0.00081474377713609098 0.017717015113139008 0 0.001061616242764781 0.016191458018774689 0 0.0012666414579332965 0.016744454608449911 0 0.0013731142704038817 0.018112406683751872 0 0.0011600441833836033 0.017861517779013809 0 0.0011128476310078314 0.018230809246978015 0 0.00080120991061493067 0.018104786132004551 0 0.00081474377713609098 0.017717015113139008 0 0.0011128476310078314 0.018230809246978015 0 0.0011600441833836033 0.017861517779013809 0 0.00078731717196208785 0.017744554889319114 0 0.0011128476310078314 0.018230809246978015 0 0.0015322014648053146 0.017760308598088678 0 0.0011600441833836033 0.017861517779013809 0 0.0010172044090063499 0.017493491510609943 0 0.0011600441833836033 0.017861517779013809 0 0.0010172044090063499 0.017493491510609943 0 0.00078731717196208785 0.017744554889319114 0 0.00049752021016908829 0.017198530426135693 0 0.00035107106136493093 0.017631367852718915 0 0.00081474377713609098 0.017717015113139008 0 0.00046532053368090559 0.017221822810919607 0 0.0010172044090063499 0.017493491510609943 0 0.00078731717196208785 0.017744554889319114 0 0.00035410712769919328 0.014326631235145829 0 0.001061616242764781 0.016191458018774689 0 -0.00046434275212733851 0.01741134980626249 0 -0.0006425848693792437 0.017891902034008443 0 -0.00073115802935182141 0.01817198890907425 0 -0.00045798406644598536 0.017704342015172927 0 -0.0006425848693792437 0.017891902034008443 0 -0.00070296415211978382 0.018089857751212621 0 -0.00045798406644598536 0.017704342015172927 0 -0.00046434275212733851 0.01741134980626249 0 -0.0006425848693792437 0.017891902034008443 0 -0.00018449294899236318 0.018476519441418673 0 -0.00026407208018449811 0.018717454928317487 0 -1.2008251242308159e-06 0.016667066972445424 0 -0.00015119511410637142 0.016441049594478948 0 -8.9469692636321331e-06 0.017907488523351396 0 -0.00046434275212733851 0.01741134980626249 0 -0.00015119511410637142 0.016441049594478948 0 -0.00073115802935182141 0.01817198890907425 0 -1.2008251242308159e-06 0.016667066972445424 0 -0.00015119511410637142 0.016441049594478948 0 2.1140747657488403e-06 0.014839451805963112 0 -0.00015119511410637142 0.016441049594478948 0 -5.4519093476639953e-05 0.017091484559387991 0 0.00026659014131770622 0.016312958464115245 0 -0.00046434275212733851 0.01741134980626249 0 -0.00015119511410637142 0.016441049594478948 0 -5.4519093476639953e-05 0.017091484559387991 0 -0.00045798406644598536 0.017704342015172927 0 -0.00046434275212733851 0.01741134980626249 0 -5.4519093476639953e-05 0.017091484559387991 0 -0.00045798406644598536 0.017704342015172927 0 -5.4519093476639953e-05 0.017091484559387991 0 -8.9430274871671271e-05 0.017707743597873676 0 -5.4519093476639953e-05 0.017091484559387991 0 0.00059758751133808538 0.017257719963643635 0 -8.9430274871671271e-05 0.017707743597873676 0 0.00059758751133808538 0.017257719963643635 0 0.00026659014131770622 0.016312958464115245 0 0.0016507064238857655 0.015963979882459938 0 -5.4519093476639953e-05 0.017091484559387991 0 0.00059758751133808538 0.017257719963643635 0 0.00026659014131770622 0.016312958464115245 0 -0.00015119511410637142 0.016441049594478948 0 2.1140747657488403e-06 0.014839451805963112 0 0.00026659014131770622 0.016312958464115245 0 2.1140747657488403e-06 0.014839451805963112 0 0.00026659014131770622 0.016312958464115245 0 0.0016507064238857655 0.015963979882459938 0 8.0266115521444844e-08 0.014836393074284927 0 0.00023378216127487562 0.014984668738269664 0 4.9592099816105435e-07 0.014835604761731985 0 -4.9749392115348107e-07 0.013494639133472573 0 7.5652903314597633e-07 0.013261650232142338 0 -7.4383403478801052e-05 0.012955309595148552 0 -4.9749392115348107e-07 0.013494639133472573 0 7.5652903314597633e-07 0.013261650232142338 0 0.0026743149780961511 0.016552592421380123 0 0.0016507064238857655 0.015963979882459938 0 0.0016427908764982896 0.017223383995957291 0 0.00059758751133808538 0.017257719963643635 0 0.0016507064238857655 0.015963979882459938 0 0.0016427908764982896 0.017223383995957291 0 0.00059758751133808538 0.017257719963643635 0 0.0016427908764982896 0.017223383995957291 0 0.00097753567064674525 0.018059532830585895 0 0.0021756562621564651 0.018186841337192054 0 0.0016427908764982896 0.017223383995957291 0 0.00097753567064674525 0.018059532830585895 0 0.0021756562621564651 0.018186841337192054 0 0.0008293297207591111 0.019257448002715612 0 0.0017823382539484897 0.019643126601152167 0 0.0021756562621564651 0.018186841337192054 0 0.00097753567064674525 0.018059532830585895 0 0.0008293297207591111 0.019257448002715612 0 0.00043741464160621462 0.018459943743146433 0 0.00048199532938664316 0.018440425448605052 0 0.00033815178709482342 0.018433959978942798 0 -5.6450315254759956e-05 0.01875505913099677 0 0.0008293297207591111 0.019257448002715612 0 0.00033815178709482342 0.018433959978942798 0 0.00097753567064674525 0.018059532830585895 0 0.0008293297207591111 0.019257448002715612 0 0.00033815178709482342 0.018433959978942798 0 0.00031703374251630776 0.017938496026478488 0 -0.00013039348693661567 0.018174294871484368 0 0.00033815178709482342 0.018433959978942798 0 0.00097753567064674525 0.018059532830585895 0 0.00031703374251630776 0.017938496026478488 0 0.00059758751133808538 0.017257719963643635 0 0.00097753567064674525 0.018059532830585895 0 0.00031703374251630776 0.017938496026478488 0 0.00059758751133808538 0.017257719963643635 0 0.00031703374251630776 0.017938496026478488 0 -8.9430274871671271e-05 0.017707743597873676 0 -0.00045798406644598536 0.017704342015172927 0 -8.9430274871671271e-05 0.017707743597873676 0 -0.00053878302713512545 0.018076038761952323 0 -8.9430274871671271e-05 0.017707743597873676 0 -0.00013039348693661567 0.018174294871484368 0 -0.00053878302713512545 0.018076038761952323 0 0.00031703374251630776 0.017938496026478488 0 -8.9430274871671271e-05 0.017707743597873676 0 -0.00013039348693661567 0.018174294871484368 0 0.00033815178709482342 0.018433959978942798 0 -0.00013039348693661567 0.018174294871484368 0 -5.6450315254759956e-05 0.01875505913099677 0 -5.6450315254759956e-05 0.01875505913099677 0 -0.00042295895130529016 0.018767868249203793 0 -0.00021885643139788391 0.018888107626003105 0 -0.00025711626950001095 0.018469110825091613 0 -0.00035984796754453153 0.018583581506784699 0 -0.00013039348693661567 0.018174294871484368 0 -5.6450315254759956e-05 0.01875505913099677 0 -0.00042295895130529016 0.018767868249203793 0 -0.0005456316111910512 0.018255801210994141 0 -0.00060188426389279619 0.018157570331003656 0 -0.00062114743831744403 0.018161872005684816 0 -0.0005456316111910512 0.018255801210994141 0 -0.00060188426389279619 0.018157570331003656 0 -0.00053878302713512545 0.018076038761952323 0 -0.00013039348693661567 0.018174294871484368 0 -0.0005456316111910512 0.018255801210994141 0 -0.00053878302713512545 0.018076038761952323 0 -0.00060188426389279619 0.018157570331003656 0 -0.00053878302713512545 0.018076038761952323 0 -0.00066622538672640632 0.018111344473470445 0 -0.00053878302713512545 0.018076038761952323 0 -0.00070296415211978382 0.018089857751212621 0 -0.00066622538672640632 0.018111344473470445 0 -0.00045798406644598536 0.017704342015172927 0 -0.00053878302713512545 0.018076038761952323 0 -0.00070296415211978382 0.018089857751212621 0 -0.00032959637831679172 0.019019231959493437 0 -0.00032989684731194585 0.019216323607253182 0 -0.00049964035046967984 0.019174847733755985 0 -0.00032959637831679172 0.019019231959493437 0 -0.00016353460083753306 0.019155172629506809 0 -0.00032989684731194585 0.019216323607253182 0 -0.00042295895130529016 0.018767868249203793 0 -0.00032959637831679172 0.019019231959493437 0 -0.00053765139954501349 0.01896411350966587 0 -0.00042295895130529016 0.018767868249203793 0 -0.00032959637831679172 0.019019231959493437 0 -0.00021885643139788391 0.018888107626003105 0 -0.00032959637831679172 0.019019231959493437 0 -0.00021885643139788391 0.018888107626003105 0 -8.799802030308096e-05 0.018965430427833767 0 -5.6450315254759956e-05 0.01875505913099677 0 -0.00021885643139788391 0.018888107626003105 0 -8.799802030308096e-05 0.018965430427833767 0 -0.00032959637831679172 0.019019231959493437 0 -8.799802030308096e-05 0.018965430427833767 0 -0.00016353460083753306 0.019155172629506809 0 -8.799802030308096e-05 0.018965430427833767 0 1.5889804944404964e-05 0.019122683875052886 0 -0.00016353460083753306 0.019155172629506809 0 -8.799802030308096e-05 0.018965430427833767 0 1.5889804944404964e-05 0.019122683875052886 0 8.585576276583965e-05 0.01898695382445344 0 -5.6450315254759956e-05 0.01875505913099677 0 -8.799802030308096e-05 0.018965430427833767 0 5.9167113869990678e-05 0.018846913770153337 0 -8.799802030308096e-05 0.018965430427833767 0 5.9167113869990678e-05 0.018846913770153337 0 8.585576276583965e-05 0.01898695382445344 0 5.9167113869990678e-05 0.018846913770153337 0 0.00021056961044115444 0.018916952133326958 0 8.585576276583965e-05 0.01898695382445344 0 0.00048199532938664316 0.018440425448605052 0 0.00043316497151006878 0.018297311681665294 0 0.00043316497151006878 0.018297311681665294 0 0.00032697487998999158 0.018669066832413424 0 0.00021056961044115444 0.018916952133326958 0 8.585576276583965e-05 0.01898695382445344 0 0.00015902701850691891 0.019098758767740573 0 1.5889804944404964e-05 0.019122683875052886 0 8.585576276583965e-05 0.01898695382445344 0 0.00015902701850691891 0.019098758767740573 0 1.5889804944404964e-05 0.019122683875052886 0 0.00015902701850691891 0.019098758767740573 0 0.00011323555035823091 0.019250119999701627 0 0.00032697487998999158 0.018669066832413424 0 0.00029082914975334356 0.018798878021075074 0 0.00015906358814376086 0.018911155710601289 0 0.00011323555035823091 0.019250119999701627 0 0.00039117622995479633 0.019117054595350975 0 -4.3461019866578248e-05 0.019269849456421601 0 -0.00020172486009488807 0.019370149716883368 0 1.2319507170121436e-05 0.019572497547219278 0 0.00011323555035823091 0.019250119999701627 0 -4.3461019866578248e-05 0.019269849456421601 0 1.2319507170121436e-05 0.019572497547219278 0 1.5889804944404964e-05 0.019122683875052886 0 -4.3461019866578248e-05 0.019269849456421601 0 -0.00016353460083753306 0.019155172629506809 0 1.5889804944404964e-05 0.019122683875052886 0 0.00011323555035823091 0.019250119999701627 0 -4.3461019866578248e-05 0.019269849456421601 0 -0.00016353460083753306 0.019155172629506809 0 -0.00020172486009488807 0.019370149716883368 0 -0.00032989684731194585 0.019216323607253182 0 -4.3461019866578248e-05 0.019269849456421601 0 -0.00016353460083753306 0.019155172629506809 0 -0.00020172486009488807 0.019370149716883368 0 -0.00032878914671407791 0.019470002688694421 0 -0.00042207774407282384 0.019359575812377829 0 -0.00044910413766691018 0.019615752103094485 0 -0.00020172486009488807 0.019370149716883368 0 -0.00032878914671407791 0.019470002688694421 0 -0.00042207774407282384 0.019359575812377829 0 -0.00020172486009488807 0.019370149716883368 0 -0.00042207774407282384 0.019359575812377829 0 -0.00032989684731194585 0.019216323607253182 0 -0.00042207774407282384 0.019359575812377829 0 -0.00032989684731194585 0.019216323607253182 0 -0.00049964035046967984 0.019174847733755985 0 0.000938593790719429 0.018810001161085978 0 0.00080703249786974159 0.018388929740601068 0 0.00032895963928308039 0.018568959758868055 0 0.00066998090889457509 0.018519175988054314 0 0.00054558848751873822 0.018441453167453874 0 0.000938593790719429 0.018810001161085978 0 0.00058717324518059487 0.018743373400757209 0 0.00068214118856537494 0.01900784535310595 0 0.000938593790719429 0.018810001161085978 0 0.0011540195876170924 0.018588860301359051 0 0.0011016118700222064 0.018973361131756433 0 0.000938593790719429 0.018810001161085978 0 0.0011540195876170924 0.018588860301359051 0 0.00080703249786974159 0.018388929740601068 0 0.0011540195876170924 0.018588860301359051 0 0.0011128476310078314 0.018230809246978015 0 0.00080703249786974159 0.018388929740601068 0 0.001355682990973133 0.018384141667935335 0 0.0011540195876170924 0.018588860301359051 0 0.0011128476310078314 0.018230809246978015 0 0.00080120991061493067 0.018104786132004551 0 0.0011128476310078314 0.018230809246978015 0 0.00080703249786974159 0.018388929740601068 0 0.00046226620104027072 0.018079262839874037 0 0.00080120991061493067 0.018104786132004551 0 0.00080703249786974159 0.018388929740601068 0 0.00046226620104027072 0.018079262839874037 0 0.00080703249786974159 0.018388929740601068 0 0.00032895963928308039 0.018568959758868055 0 0.00010169383462777246 0.018054362174514661 0 0.00046226620104027072 0.018079262839874037 0 0.00032895963928308039 0.018568959758868055 0 0.00043316497151006878 0.018297311681665294 0 0.00054558848751873822 0.018441453167453874 0 0.00010169383462777246 0.018054362174514661 0 -0.00025987285473713152 0.018334921533969515 0 0.00032895963928308039 0.018568959758868055 0 0.00015906358814376086 0.018911155710601289 0 0.00058717324518059487 0.018743373400757209 0 0.00039117622995479633 0.019117054595350975 0 0.00022397165552199579 0.018611794519070659 0 0.00015906358814376086 0.018911155710601289 0 0.00058717324518059487 0.018743373400757209 0 0.00068214118856537494 0.01900784535310595 0 0.00039117622995479633 0.019117054595350975 0 0.00062763173241122913 0.019257875190814486 0 0.00058717324518059487 0.018743373400757209 0 0.00068214118856537494 0.01900784535310595 0 0.00039117622995479633 0.019117054595350975 0 0.00039117622995479633 0.019117054595350975 0 0.00062763173241122913 0.019257875190814486 0 0.00036600662446491629 0.019558795296590093 0 0.00011323555035823091 0.019250119999701627 0 0.00039117622995479633 0.019117054595350975 0 0.00036600662446491629 0.019558795296590093 0 0.00089206089850043407 0.01911673561910722 0 0.0011371371495481261 0.019269292735804539 0 0.00079612969460876289 0.019544812419112191 0 0.00062763173241122913 0.019257875190814486 0 0.00089206089850043407 0.01911673561910722 0 0.00079612969460876289 0.019544812419112191 0 0.00068214118856537494 0.01900784535310595 0 0.00062763173241122913 0.019257875190814486 0 0.00089206089850043407 0.01911673561910722 0 0.000938593790719429 0.018810001161085978 0 0.00068214118856537494 0.01900784535310595 0 0.00089206089850043407 0.01911673561910722 0 0.00089206089850043407 0.01911673561910722 0 0.0011016118700222064 0.018973361131756433 0 0.0011371371495481261 0.019269292735804539 0 0.0014132232016442099 0.019011147160228573 0 0.0011540195876170924 0.018588860301359051 0 0.0011016118700222064 0.018973361131756433 0 0.0014132232016442099 0.019011147160228573 0 0.0011016118700222064 0.018973361131756433 0 0.0011371371495481261 0.019269292735804539 0 0.000938593790719429 0.018810001161085978 0 0.00089206089850043407 0.01911673561910722 0 0.0011016118700222064 0.018973361131756433 0 0.0011371371495481261 0.019269292735804539 0 0.00079612969460876289 0.019544812419112191 0 0.0012510918389522117 0.019518023418663443 0 0.00062465921983054858 0.018674302453543713 0 0.00084151960695005466 0.018018248282144239 0 0.00082199086868442776 0.019603138746346515 0 0.00058891622623490059 0.019516356488474627 0 0.00085140608844423531 0.019512987000025225 0 0.00063842600564669079 0.019746218013691592 0 0.00056703059062295522 0.019816998602092243 0 0.00082199086868442776 0.019603138746346515 0 0.00066346021276661676 0.019658825294065024 0 0.00064871923643770781 0.019841401954685797 0 0.00082199086868442776 0.019603138746346515 0 0.00070201870474133224 0.019683938075562853 0 0.00083492806384136847 0.019661888462766335 0 0.00082199086868442776 0.019603138746346515 0 0.00066346021276661676 0.019658825294065024 0 0.00058891622623490059 0.019516356488474627 0 0.00066346021276661676 0.019658825294065024 0 0.00058891622623490059 0.019516356488474627 0 0.00042637535578682453 0.019762000956094868 0 0.00062763173241122913 0.019257875190814486 0 0.00079612969460876289 0.019544812419112191 0 0.00036600662446491629 0.019558795296590093 0 0.00062465921983054858 0.018674302453543713 0 0.00034062762916938296 0.019036556605465507 0 0.00029097904599584561 0.01954158729394485 0 0.00042637535578682453 0.019762000956094868 0 0.00012474050162028749 0.019743201547412156 0 0.00058891622623490059 0.019516356488474627 0 0.00029097904599584561 0.01954158729394485 0 0.00042637535578682453 0.019762000956094868 0 0.00042637535578682453 0.019762000956094868 0 0.00046228992521469252 0.020057722383159105 0 0.00064871923643770781 0.019841401954685797 0 0.00042637535578682453 0.019762000956094868 0 0.00012474050162028749 0.019743201547412156 0 0.00020119530154426741 0.019967442620784513 0 0.00040223757230566185 0.019972243703590284 0 0.00020725567341779599 0.019936352432727268 0 0.00042637535578682453 0.019762000956094868 0 0.00046228992521469252 0.020057722383159105 0 0.00020119530154426741 0.019967442620784513 0 0.00029178191711393923 0.020111679192050043 0 0.00042370714453522071 0.020094597310729725 0 0.00019367652817450234 0.020006734672013606 0 0.00029178191711393923 0.020111679192050043 0 0.00019367652817450234 0.020006734672013606 0 0.00023085240988716667 0.02013262460244717 0 0.00040223757230566185 0.019972243703590284 0 0.00040347606208390187 0.019972332382795346 0 0.00080459766789748948 0.019875837329441599 0 0.00070201870474133224 0.019683938075562853 0 0.00066982570229006332 0.019918668524817947 0 0.0005270658631571206 0.019915768375146338 0 0.00070201870474133224 0.019683938075562853 0 0.00066982570229006332 0.019918668524817947 0 0.00048216025016609843 0.019899289520552001 0 0.0005270658631571206 0.019915768375146338 0 0.00070201870474133224 0.019683938075562853 0 0.00040223757230566185 0.019972243703590284 0 0.00056703059062295522 0.019816998602092243 0 0.00080459766789748948 0.019875837329441599 0 0.00084072939651004075 0.019731634944226785 0 0.00070201870474133224 0.019683938075562853 0 0.00080459766789748948 0.019875837329441599 0 0.00084072939651004075 0.019731634944226785 0 0.00089377912312241876 0.019763640859328468 0 0.00084072939651004075 0.019731634944226785 0 0.00070201870474133224 0.019683938075562853 0 0.00083492806384136847 0.019661888462766335 0 0.00066346021276661676 0.019658825294065024 0 0.00042637535578682453 0.019762000956094868 0 0.00064871923643770781 0.019841401954685797 0 -0.00028342813894959078 0.019603626892536433 0 -0.00031361250837652084 0.019813275958370451 0 -0.00044910413766691018 0.019615752103094485 0 -0.00031361250837652084 0.019813275958370451 0 -0.00044910413766691018 0.019615752103094485 0 -0.00052767873192424697 0.019853575750188243 0 -0.00032878914671407791 0.019470002688694421 0 -0.00028342813894959078 0.019603626892536433 0 -0.00044910413766691018 0.019615752103094485 0 -0.00020172486009488807 0.019370149716883368 0 -0.00032878914671407791 0.019470002688694421 0 -0.00028342813894959078 0.019603626892536433 0 -0.00020172486009488807 0.019370149716883368 0 -0.00028342813894959078 0.019603626892536433 0 1.2319507170121436e-05 0.019572497547219278 0 -4.3804039615429422e-05 0.019278802232543194 0 8.2833546770886025e-05 0.019220617374685472 0 -0.00028342813894959078 0.019603626892536433 0 -0.00013708752420700914 0.019715229671743141 0 -0.00031361250837652084 0.019813275958370451 0 -0.00028342813894959078 0.019603626892536433 0 -0.00013708752420700914 0.019715229671743141 0 9.278262996520153e-07 0.019571048800674732 0 -0.00013708752420700914 0.019715229671743141 0 9.278262996520153e-07 0.019571048800674732 0 0.00012474050162028749 0.019743201547412156 0 0.00034062762916938296 0.019036556605465507 0 8.2833546770886025e-05 0.019220617374685472 0 0.00011323555035823091 0.019250119999701627 0 0.00036600662446491629 0.019558795296590093 0 1.2319507170121436e-05 0.019572497547219278 0 0.00029097904599584561 0.01954158729394485 0 9.278262996520153e-07 0.019571048800674732 0 0.00012474050162028749 0.019743201547412156 0 0.00020725567341779599 0.019936352432727268 0 1.3128218890207521e-05 0.019883945670469236 0 0.00012474050162028749 0.019743201547412156 0 0.00020119530154426741 0.019967442620784513 0 -5.4584173107900652e-05 0.01988507045572948 0 0.00019367652817450234 0.020006734672013606 0 -5.403891626511318e-05 0.019911205636660927 0 5.7635127372748111e-05 0.020136571927464764 0 0.00019367652817450234 0.020006734672013606 0 5.7635127372748111e-05 0.020136571927464764 0 0.00023085240988716667 0.02013262460244717 0 -5.403891626511318e-05 0.019911205636660927 0 -0.00019339329851465235 0.020059784378897869 0 5.7635127372748111e-05 0.020136571927464764 0 -0.00013708752420700914 0.019715229671743141 0 0.00012474050162028749 0.019743201547412156 0 -5.4584173107900652e-05 0.01988507045572948 0 -0.00013708752420700914 0.019715229671743141 0 -5.4584173107900652e-05 0.01988507045572948 0 -0.00031361250837652084 0.019813275958370451 0 1.3128218890207521e-05 0.019883945670469236 0 -8.700433908695278e-05 0.019853497489937331 0 -5.403891626511318e-05 0.019911205636660927 0 -0.00019339329851465235 0.020059784378897869 0 -0.00031361250837652084 0.019813275958370451 0 -0.00019339329851465235 0.020059784378897869 0 -0.00042726424410385942 0.020024006124652778 0 -0.00031361250837652084 0.019813275958370451 0 -0.00019339329851465235 0.020059784378897869 0 -0.00042726424410385942 0.020024006124652778 0 -0.0003088253446419854 0.02018924811866097 0 -0.00042726424410385942 0.020024006124652778 0 -0.00031361250837652084 0.019813275958370451 0 -0.00052767873192424697 0.019853575750188243 0 -0.00034433834359535564 0.020360889977522084 0 -0.0003088253446419854 0.02018924811866097 0 -0.00053611254836405441 0.020197343724460439 0 -0.00042726424410385942 0.020024006124652778 0 -0.0003088253446419854 0.02018924811866097 0 -0.00053611254836405441 0.020197343724460439 0 -0.00034433834359535564 0.020360889977522084 0 -0.0003088253446419854 0.02018924811866097 0 -5.7587555764346405e-05 0.020300091838951553 0 -0.00019339329851465235 0.020059784378897869 0 -0.0003088253446419854 0.02018924811866097 0 -5.7587555764346405e-05 0.020300091838951553 0 -0.00031502545755206153 0.020338448531468396 0 -0.00012371345684003237 0.02030683172479901 0 -0.0003762772782983742 0.020344826564801393 0 -6.042557741456115e-05 0.020284881583907934 0 -0.00014802207361448919 0.020554698374203276 0 -6.042557741456115e-05 0.020284881583907934 0 9.3338147806949683e-05 0.02034307013903091 0 6.9013845144763402e-05 0.02050178265247769 0 -0.00019339329851465235 0.020059784378897869 0 -5.7587555764346405e-05 0.020300091838951553 0 5.7635127372748111e-05 0.020136571927464764 0 -0.00012371345684003237 0.02030683172479901 0 -1.9359149192637386e-05 0.020289455768304755 0 -5.7587555764346405e-05 0.020300091838951553 0 5.7635127372748111e-05 0.020136571927464764 0 0.00020852292692319019 0.020237618922532539 0 5.7635127372748111e-05 0.020136571927464764 0 0.00023085240988716667 0.02013262460244717 0 0.00020852292692319019 0.020237618922532539 0 9.3338147806949683e-05 0.02034307013903091 0 0.00020852292692319019 0.020237618922532539 0 0.00021598746379729853 0.020312292792782977 0 -6.042557741456115e-05 0.020284881583907934 0 9.3338147806949683e-05 0.02034307013903091 0 0.00020852292692319019 0.020237618922532539 0 9.3338147806949683e-05 0.02034307013903091 0 0.00018566259008099135 0.020432877424906976 0 0.00021598746379729853 0.020312292792782977 0 0.00018566259008099135 0.020432877424906976 0 6.9013845144763402e-05 0.02050178265247769 0 0.00026345617424284185 0.02059971893383488 0 9.3338147806949683e-05 0.02034307013903091 0 0.00018566259008099135 0.020432877424906976 0 6.9013845144763402e-05 0.02050178265247769 0 6.9013845144763402e-05 0.02050178265247769 0 3.7857957228422748e-05 0.020754713348294394 0 0.00026345617424284185 0.02059971893383488 0 3.7857957228422748e-05 0.020754713348294394 0 0.00026345617424284185 0.02059971893383488 0 0.00028311988319148113 0.020947695651029823 0 6.9013845144763402e-05 0.02050178265247769 0 3.7857957228422748e-05 0.020754713348294394 0 -0.00014802207361448919 0.020554698374203276 0 -6.042557741456115e-05 0.020284881583907934 0 6.9013845144763402e-05 0.02050178265247769 0 -0.00014802207361448919 0.020554698374203276 0 -0.0003762772782983742 0.020344826564801393 0 -0.00014802207361448919 0.020554698374203276 0 -0.00034784146093503709 0.020624928602837843 0 -0.00014802207361448919 0.020554698374203276 0 -0.00023971070363327832 0.020818370072840747 0 -0.00034784146093503709 0.020624928602837843 0 3.7857957228422748e-05 0.020754713348294394 0 -0.00014802207361448919 0.020554698374203276 0 -0.00023971070363327832 0.020818370072840747 0 -0.00023971070363327832 0.020818370072840747 0 -0.00044305304691495537 0.020793435108375495 0 -0.00034784146093503709 0.020624928602837843 0 -0.00044305304691495537 0.020793435108375495 0 -0.00034784146093503709 0.020624928602837843 0 -0.00053506662604487583 0.020628891110011132 0 -0.0003762772782983742 0.020344826564801393 0 -0.00034784146093503709 0.020624928602837843 0 -0.00053506662604487583 0.020628891110011132 0 0.0005334975878335342 0.020191479217403975 0 0.00044474769105941597 0.020332880399623575 0 0.00067498269069497579 0.020348917178388395 0 0.00065378217063444494 0.020068440831983291 0 0.0005334975878335342 0.020191479217403975 0 0.00067498269069497579 0.020348917178388395 0 0.00085752962984082261 0.020118611535214825 0 0.00065378217063444494 0.020068440831983291 0 0.00067498269069497579 0.020348917178388395 0 0.00085752962984082261 0.020118611535214825 0 0.00067498269069497579 0.020348917178388395 0 0.0010119529061944639 0.02029309448154492 0 0.00080459766789748948 0.019875837329441599 0 0.00085752962984082261 0.020118611535214825 0 0.00065378217063444494 0.020068440831983291 0 0.00080459766789748948 0.019875837329441599 0 0.00066982570229006332 0.019918668524817947 0 0.00065378217063444494 0.020068440831983291 0 0.0005270658631571206 0.019915768375146338 0 0.00066982570229006332 0.019918668524817947 0 0.00065378217063444494 0.020068440831983291 0 0.00047235124664236244 0.019897723233587652 0 0.0005270658631571206 0.019915768375146338 0 0.00045646377420312435 0.020045134559595747 0 0.00065378217063444494 0.020068440831983291 0 0.00045646377420312435 0.020045134559595747 0 0.0005334975878335342 0.020191479217403975 0 0.0005270658631571206 0.019915768375146338 0 0.00065378217063444494 0.020068440831983291 0 0.00045646377420312435 0.020045134559595747 0 0.00040223757230566185 0.019972243703590284 0 0.00035599909061369322 0.020039670061956377 0 0.00029178191711393923 0.020111679192050043 0 0.00042370714453522071 0.020094597310729725 0 0.00031821398744501667 0.020210455755917098 0 0.00047235124664236244 0.019897723233587652 0 0.00045646377420312435 0.020045134559595747 0 0.00032844612155128426 0.020093794721815245 0 0.00045646377420312435 0.020045134559595747 0 0.00032844612155128426 0.020093794721815245 0 0.00042080511293031604 0.020176435098951954 0 0.00045646377420312435 0.020045134559595747 0 0.0005334975878335342 0.020191479217403975 0 0.00042080511293031604 0.020176435098951954 0 0.00029178191711393923 0.020111679192050043 0 0.00023085240988716667 0.02013262460244717 0 0.00031821398744501667 0.020210455755917098 0 0.00031821398744501667 0.020210455755917098 0 0.00020852292692319019 0.020237618922532539 0 0.00021598746379729853 0.020312292792782977 0 0.00023085240988716667 0.02013262460244717 0 0.00031821398744501667 0.020210455755917098 0 0.00020852292692319019 0.020237618922532539 0 0.00035599909061369322 0.020039670061956377 0 0.00033220565433006156 0.020072244702179658 0 0.00032844612155128426 0.020093794721815245 0 0.00021598746379729853 0.020312292792782977 0 0.00034135994441715679 0.020270963374639319 0 0.00021598746379729853 0.020312292792782977 0 0.00034135994441715679 0.020270963374639319 0 0.00030552982682320899 0.020420060638248298 0 0.00034135994441715679 0.020270963374639319 0 0.00044474769105941597 0.020332880399623575 0 0.00030552982682320899 0.020420060638248298 0 0.00018566259008099135 0.020432877424906976 0 0.00021598746379729853 0.020312292792782977 0 0.00030552982682320899 0.020420060638248298 0 0.0005334975878335342 0.020191479217403975 0 0.00042080511293031604 0.020176435098951954 0 0.00044474769105941597 0.020332880399623575 0 0.00032844612155128426 0.020093794721815245 0 0.00034135994441715679 0.020270963374639319 0 0.00042080511293031604 0.020176435098951954 0 0.00034135994441715679 0.020270963374639319 0 0.00042080511293031604 0.020176435098951954 0 0.00044474769105941597 0.020332880399623575 0 0.00044474769105941597 0.020332880399623575 0 0.00047439400314045166 0.020525182745948962 0 0.00030552982682320899 0.020420060638248298 0 0.00044474769105941597 0.020332880399623575 0 0.00047439400314045166 0.020525182745948962 0 0.00067498269069497579 0.020348917178388395 0 0.00047439400314045166 0.020525182745948962 0 0.00030552982682320899 0.020420060638248298 0 0.00026345617424284185 0.02059971893383488 0 0.00018566259008099135 0.020432877424906976 0 0.00030552982682320899 0.020420060638248298 0 0.00026345617424284185 0.02059971893383488 0 0.00047439400314045166 0.020525182745948962 0 0.00026345617424284185 0.02059971893383488 0 0.00050091338109929347 0.020773895702618991 0 0.00047439400314045166 0.020525182745948962 0 0.00065649839182525154 0.020627517966980726 0 0.00050091338109929347 0.020773895702618991 0 0.00047439400314045166 0.020525182745948962 0 0.00065649839182525154 0.020627517966980726 0 0.00067498269069497579 0.020348917178388395 0 0.00065649839182525154 0.020627517966980726 0 0.00067498269069497579 0.020348917178388395 0 0.00090944025462182533 0.020600400133563845 0 0.00067498269069497579 0.020348917178388395 0 0.00090944025462182533 0.020600400133563845 0 0.0010119529061944639 0.02029309448154492 0 0.00065649839182525154 0.020627517966980726 0 0.00090944025462182533 0.020600400133563845 0 0.00073300507313071991 0.020888709222879678 0 0.00090944025462182533 0.020600400133563845 0 0.0011052540788255155 0.02068893774346818 0 0.0012160072997158837 0.020479569893496464 0 0.0011052540788255155 0.02068893774346818 0 0.0012160072997158837 0.020479569893496464 0 0.0012788519123470891 0.020779160077946009 0 0.0012160072997158837 0.020479569893496464 0 0.0012527147763578906 0.020219644734979513 0 0.0014592180164075771 0.020340457746938597 0 0.0012160072997158837 0.020479569893496464 0 0.0010119529061944639 0.02029309448154492 0 0.0012527147763578906 0.020219644734979513 0 0.00090944025462182533 0.020600400133563845 0 0.0012160072997158837 0.020479569893496464 0 0.0010119529061944639 0.02029309448154492 0 0.00085752962984082261 0.020118611535214825 0 0.0010119529061944639 0.02029309448154492 0 0.0011506167531882534 0.019999416009606683 0 0.0010119529061944639 0.02029309448154492 0 0.0012527147763578906 0.020219644734979513 0 0.0011506167531882534 0.019999416009606683 0 0.0012527147763578906 0.020219644734979513 0 0.0011506167531882534 0.019999416009606683 0 0.001465066854044537 0.020086785883738894 0 0.0010588492734452419 0.019883978372958775 0 0.001221166238632236 0.01991984319793725 0 0.00080459766789748948 0.019875837329441599 0 0.00085752962984082261 0.020118611535214825 0 0.0011506167531882534 0.019999416009606683 0 0.00096937181842165457 0.019863824551222833 0 0.0010588492734452419 0.019883978372958775 0 0.0010363234388961963 0.01973984325695461 0 0.0010319988337190648 0.019724089439608943 0 0.0010732775563412312 0.019686725255026981 0 0.0010363234388961963 0.01973984325695461 0 0.0010319988337190648 0.019724089439608943 0 0.0010177098189462347 0.019755098334894666 0 0.00093256788024640835 0.019794380175838823 0 0.0010177098189462347 0.019755098334894666 0 0.001008973680734896 0.019727853610430356 0 0.0010319988337190648 0.019724089439608943 0 0.0010177098189462347 0.019755098334894666 0 0.001008973680734896 0.019727853610430356 0 0.0012527147763578906 0.020219644734979513 0 0.001465066854044537 0.020086785883738894 0 0.0014592180164075771 0.020340457746938597 0 0.001465066854044537 0.020086785883738894 0 0.0016722576818615556 0.020142289426232248 0 0.0016994722113795413 0.020122620849166065 0 0.001221166238632236 0.01991984319793725 0 0.0013765382592224311 0.019954127996221635 0 0.0010363234388961963 0.01973984325695461 0 0.0010177098189462347 0.019755098334894666 0 0.0010297157938390709 0.019761107379675787 0 0.001465066854044537 0.020086785883738894 0 0.0014592180164075771 0.020340457746938597 0 0.0016722576818615556 0.020142289426232248 0 0.0014592180164075771 0.020340457746938597 0 0.0016598808451452724 0.020511965060344185 0 0.0016722576818615556 0.020142289426232248 0 0.0004618269932173264 0.019671620874000432 0 0.00059240259485983295 0.0198109115444343 0 0.0012160072997158837 0.020479569893496464 0 0.0014768374602177989 0.020653791586205672 0 0.0012788519123470891 0.020779160077946009 0 0.0012160072997158837 0.020479569893496464 0 0.0014592180164075771 0.020340457746938597 0 0.0014768374602177989 0.020653791586205672 0 0.0004618269932173264 0.019671620874000432 0 7.5386696451218093e-05 0.018997624650094958 0 0.0014768374602177989 0.020653791586205672 0 0.0016598808451452724 0.020511965060344185 0 0.0016045089613162167 0.020852139541129917 0 0.0014592180164075771 0.020340457746938597 0 0.0014768374602177989 0.020653791586205672 0 0.0016598808451452724 0.020511965060344185 0 0.0016461451575030324 0.020079517826947068 0 0.0016630097621197872 0.020078228332205038 0 0.0016731507170299393 0.020050447381132104 0 0.0016867875301342472 0.020065418210570288 0 0.0016630097621197872 0.020078228332205038 0 0.0016731507170299393 0.020050447381132104 0 0.0016461451575030324 0.020079517826947068 0 0.0016656125800938221 0.020060793643696437 0 0.0016630097621197872 0.020078228332205038 0 0.0016656125800938221 0.020060793643696437 0 0.0016630097621197872 0.020078228332205038 0 0.0016529227095637177 0.019959611284067258 0 0.0016630097621197872 0.020078228332205038 0 0.0016529227095637177 0.019959611284067258 0 0.0016994722113795413 0.020122620849166065 0 0.0016867875301342472 0.020065418210570288 0 0.0016630097621197872 0.020078228332205038 0 0.0016722576818615556 0.020142289426232248 0 -0.0021867913420949609 0.0089283685449928329 0 -0.0021770472192990807 0.0089877251930926983 0 -0.0020894685236802096 0.0089328923103608737 0 -0.0021770472192990807 0.0089877251930926983 0 -0.0020894685236802096 0.0089328923103608737 0 -0.0020873091698938038 0.0089981027027738695 0 -0.0020462190841994588 0.0089100224594960333 0 -0.0020894685236802096 0.0089328923103608737 0 -0.0020873091698938038 0.0089981027027738695 0 0.0016461451575030324 0.020079517826947068 0 0.0016656125800938221 0.020060793643696437 0 0.0018520069997961766 0.020106249985131878 0 -0.00035014476744787704 0.014506064898949098 0 -0.00055266204872202998 0.013716231073150688 0 0.0018520069997961766 0.020106249985131878 0 0.0019423579649678175 0.019733600359665079 0 0.0016529227095637177 0.019959611284067258 0 0.0016656125800938221 0.020060793643696437 0 0.0018520069997961766 0.020106249985131878 0 0.0016529227095637177 0.019959611284067258 0 -0.0021770472192990807 0.0089877251930926983 0 -0.0021836627473502839 0.0090716928266227626 0 -0.0020873091698938038 0.0089981027027738695 0 0.0025307323169351864 0.019642847265453043 0 0.0018520069997961766 0.020106249985131878 0 0.0019423579649678175 0.019733600359665079 0 0.0025307323169351864 0.019642847265453043 0 0.0019423579649678175 0.019733600359665079 0 0.0020314740172709903 0.019384263192802849 0 -0.00075783215607976983 0.012508493134536579 0 -0.00055266204872202998 0.013716231073150688 0 0.0019423579649678175 0.019733600359665079 0 0.0017079278200153717 0.019507732862903041 0 0.0020314740172709903 0.019384263192802849 0 0.0019423579649678175 0.019733600359665079 0 0.0016529227095637177 0.019959611284067258 0 0.0017079278200153717 0.019507732862903041 0 0.0016529227095637177 0.019959611284067258 0 0.0017079278200153717 0.019507732862903041 0 0.0014849259718852854 0.019619180566993348 0 0.0017079278200153717 0.019507732862903041 0 0.0017827529927116005 0.019064795677870214 0 0.0013537646041234851 0.019246443485746466 0 0.0017827529927116005 0.019064795677870214 0 0.0013537646041234851 0.019246443485746466 0 0.0015354993669094278 0.018807433251264018 0 0.0017079278200153717 0.019507732862903041 0 0.0017827529927116005 0.019064795677870214 0 0.0020314740172709903 0.019384263192802849 0 0.0017827529927116005 0.019064795677870214 0 0.002335500721835861 0.018979160278088741 0 0.0020314740172709903 0.019384263192802849 0 0.0025307323169351864 0.019642847265453043 0 0.002335500721835861 0.018979160278088741 0 0.0020314740172709903 0.019384263192802849 0 0.0016630097621197872 0.020078228332205038 0 0.0016722576818615556 0.020142289426232248 0 0.0016994722113795413 0.020122620849166065 0 0.0010297157938390709 0.019761107379675787 0 0.0012184435620270083 0.019739692815748104 0 0.0011261265966459803 0.019709554555707484 0 0.0010297157938390709 0.019761107379675787 0 0.0011261265966459803 0.019709554555707484 0 0.0010678612277569555 0.019724747949545297 0 0.0010363234388961963 0.01973984325695461 0 0.0010297157938390709 0.019761107379675787 0 0.0010678612277569555 0.019724747949545297 0 0.0016529227095637177 0.019959611284067258 0 0.0010297157938390709 0.019761107379675787 0 0.0012184435620270083 0.019739692815748104 0 0.0014701903280837916 0.019975133560971626 0 0.0013765382592224311 0.019954127996221635 0 0.0016529227095637177 0.019959611284067258 0 0.0014849259718852854 0.019619180566993348 0 0.0012184435620270083 0.019739692815748104 0 0.0014849259718852854 0.019619180566993348 0 0.0012184435620270083 0.019739692815748104 0 0.0013537646041234851 0.019246443485746466 0 0.0012184435620270083 0.019739692815748104 0 0.001148641790812252 0.019692166870940393 0 0.0011261265966459803 0.019709554555707484 0 0.0004215612707294755 0.017878954255846756 0 0.00047449043907624551 0.017568985641455575 0 0.0017079278200153717 0.019507732862903041 0 0.0014849259718852854 0.019619180566993348 0 0.0013537646041234851 0.019246443485746466 0 0.001148641790812252 0.019692166870940393 0 0.0010970982997041271 0.019702283019161725 0 0.0011225163743859849 0.019672044120768943 0 0.0010363234388961963 0.01973984325695461 0 0.0010970982997041271 0.019702283019161725 0 0.0010732775563412312 0.019686725255026981 0 0.001148641790812252 0.019692166870940393 0 0.0010970982997041271 0.019702283019161725 0 0.0011261265966459803 0.019709554555707484 0 0.0010970982997041271 0.019702283019161725 0 0.0011261265966459803 0.019709554555707484 0 0.0010678612277569555 0.019724747949545297 0 0.0010363234388961963 0.01973984325695461 0 0.0010970982997041271 0.019702283019161725 0 0.0010678612277569555 0.019724747949545297 0 0.0011023710637106156 0.019658062745092325 0 0.0011225163743859849 0.019672044120768943 0 0.0011229948754675819 0.01963452845842335 0 0.0010732775563412312 0.019686725255026981 0 0.0011023710637106156 0.019658062745092325 0 0.0011225163743859849 0.019672044120768943 0 0.0010970982997041271 0.019702283019161725 0 0.0010732775563412312 0.019686725255026981 0 0.0011225163743859849 0.019672044120768943 0 0.0010732775563412312 0.019686725255026981 0 0.0010800202453578678 0.019656690710840637 0 0.0011023710637106156 0.019658062745092325 0 0.0011225163743859849 0.019672044120768943 0 0.0011529893695204315 0.019663320254325673 0 0.0011229948754675819 0.01963452845842335 0 0.001148641790812252 0.019692166870940393 0 0.0011225163743859849 0.019672044120768943 0 0.0011529893695204315 0.019663320254325673 0 0.00047449043907624551 0.017568985641455575 0 0.00065599814454832164 0.01658070064023235 0 0.00065599814454832164 0.01658070064023235 0 0.00047075397789159357 0.015821278429900026 0 -0.00076983040544956823 0.013319764871451679 0 0.00095695047728663234 0.012833236102392011 0 -0.00020244179775082163 0.01215964583421233 0 0.00022152971223147604 0.01438888252812166 0 -0.00076983040544956823 0.013319764871451679 0 0.00095695047728663234 0.012833236102392011 0 -0.00076983040544956823 0.013319764871451679 0 -0.00094282808575290135 0.012322649495683907 0 -0.00020244179775082163 0.01215964583421233 0 -0.00076983040544956823 0.013319764871451679 0 -0.0017582718606094945 0.012253560869872065 0 -0.00094282808575290135 0.012322649495683907 0 0.00047075397789159357 0.015821278429900026 0 0.0002347693285059046 0.014862140421932851 0 0.0011229948754675819 0.01963452845842335 0 0.0010954683028789795 0.019634181035881142 0 0.0010897314984441872 0.019592622031684975 0 0.0010812150145954667 0.019615682303893614 0 0.0010954683028789795 0.019634181035881142 0 0.0010719010577620661 0.019640343002546697 0 0.0010812150145954667 0.019615682303893614 0 0.0010954683028789795 0.019634181035881142 0 0.0010897314984441872 0.019592622031684975 0 0.0010800202453578678 0.019656690710840637 0 0.0010954683028789795 0.019634181035881142 0 0.0010719010577620661 0.019640343002546697 0 0.0010800202453578678 0.019656690710840637 0 0.0011023710637106156 0.019658062745092325 0 0.0010954683028789795 0.019634181035881142 0 0.0011023710637106156 0.019658062745092325 0 0.0011229948754675819 0.01963452845842335 0 0.0010954683028789795 0.019634181035881142 0 0.0017827529927116005 0.019064795677870214 0 0.002335500721835861 0.018979160278088741 0 0.0020450811146494256 0.01848097851385927 0 0.0026796355698757023 0.018389449424853762 0 0.002335500721835861 0.018979160278088741 0 0.0020450811146494256 0.01848097851385927 0 0.0017827529927116005 0.019064795677870214 0 0.0014282680301403174 0.018691067974414461 0 0.0020450811146494256 0.01848097851385927 0 0.00086192987367662832 0.016849416232024364 0 0.00065599814454832164 0.01658070064023235 0 0.00065599814454832164 0.01658070064023235 0 0.00075680371902762326 0.013422473878274364 0 0.0014282680301403174 0.018691067974414461 0 0.0020450811146494256 0.01848097851385927 0 0.0017545645970023544 0.017966980797664015 0 0.0020450811146494256 0.01848097851385927 0 0.0017545645970023544 0.017966980797664015 0 0.002311090582859273 0.017964473495289294 0 0.0026796355698757023 0.018389449424853762 0 0.0020450811146494256 0.01848097851385927 0 0.002311090582859273 0.017964473495289294 0 0.0017545645970023544 0.017966980797664015 0 0.002311090582859273 0.017964473495289294 0 0.0020834632468688177 0.017258605428753265 0 0.0029837852685130413 0.017727662205243366 0 0.002311090582859273 0.017964473495289294 0 0.0020834632468688177 0.017258605428753265 0 0.00075680371902762326 0.013422473878274364 0 0.0012066915733612168 0.0088472432096310064 0 0.00095695047728663234 0.012833236102392011 0 0.00056744031344212469 0.011556858303191642 0 -0.00020244179775082163 0.01215964583421233 0 0.00095695047728663234 0.012833236102392011 0 0.00056744031344212469 0.011556858303191642 0 0.0017008620176322397 0.011270158520225117 0 0.00056744031344212469 0.011556858303191642 0 0.0003623478976069875 0.011197629667189395 0 -6.9371497498441854e-05 0.011371610339477997 0 0.0022485511500321708 0.0097378151191039441 0 0.00035776656831822525 0.010740413618106312 0 0.00057629093016485532 0.010437209945219648 0 0.0022485511500321708 0.0097378151191039441 0 0.00034366944672121834 0.010750414954174779 0 0.0011114618989849253 0.010967965816958594 0 0.0015766365346857312 0.012196833308816615 0 0.0010279440697998289 0.012818872879658529 0 0.00060788921977079316 0.01111105130744477 0 0.00034366944672121834 0.010750414954174779 0 0.0011114618989849253 0.010967965816958594 0 0.00056744031344212469 0.011556858303191642 0 0.0003623478976069875 0.011197629667189395 0 0.00060788921977079316 0.01111105130744477 0 0.00056744031344212469 0.011556858303191642 0 0.00060788921977079316 0.01111105130744477 0 0.0011114618989849253 0.010967965816958594 0 0.0003623478976069875 0.011197629667189395 0 0.00060788921977079316 0.01111105130744477 0 0.00034366944672121834 0.010750414954174779 0 0.00056744031344212469 0.011556858303191642 0 0.0011114618989849253 0.010967965816958594 0 0.0017008620176322397 0.011270158520225117 0 0.0012501768300882991 0.0089016761683227991 0 0.0012066915733612168 0.0088472432096310064 0 0.0022485511500321708 0.0097378151191039441 0 0.0011114618989849253 0.010967965816958594 0 0.0017149802218416757 0.011274184938557289 0 0.0017621555791909051 0.0064114470348566269 0 0.0012066915733612168 0.0088472432096310064 0 5.4085502755154024e-05 0.0031032974934734523 0 -6.6586155800395631e-05 0.0024796297758906132 0 -0.00070701022852047641 0.0038354506476969918 0 5.4085502755154024e-05 0.0031032974934734523 0 -2.6283697491649868e-05 0.0037066667702155584 0 -0.00070701022852047641 0.0038354506476969918 0 -0.0015142989412354575 0.011736662574622483 0 -0.00094282808575290135 0.012322649495683907 0 -0.00063950339355925087 0.01164307298737337 0 -0.00016364376362627044 0.014025211624675566 0 -5.9459764527137507e-06 0.013943553149721247 0 -1.603121107153445e-05 0.014209391354804601 0 0.00030284524189475113 0.014308930269989762 0 0.00025417644890607833 0.014818657165012204 0 -0.00049289585561708784 0.015002979720520424 0 -6.9874608966454441e-05 0.014109882492531981 0 0.00035199223185475482 0.014563438355108546 0 0.00030284524189475113 0.014308930269989762 0 0.0002347693285059046 0.014862140421932851 0 0.001100102915517252 0.019579093371113757 0 0.0010853728427597817 0.01956290830350764 0 0.0010698436545189842 0.019597332904801142 0 0.0002347693285059046 0.014862140421932851 0 0.00025417644890607833 0.014818657165012204 0 0.00018153789290681279 0.015061415180805945 0 0.0002347693285059046 0.014862140421932851 0 0.0010812150145954667 0.019615682303893614 0 0.001100102915517252 0.019579093371113757 0 0.0010698436545189842 0.019597332904801142 0 -0.0015142989412354575 0.011736662574622483 0 -0.0017582718606094945 0.012253560869872065 0 -0.00094282808575290135 0.012322649495683907 0 -0.00094282808575290135 0.012322649495683907 0 -0.00020244179775082163 0.01215964583421233 0 -0.00063950339355925087 0.01164307298737337 0 0.00034366944672121834 0.010750414954174779 0 -0.0015142989412354575 0.011736662574622483 0 -0.00063950339355925087 0.01164307298737337 0 0.00056744031344212469 0.011556858303191642 0 -0.00020244179775082163 0.01215964583421233 0 -6.9371497498441854e-05 0.011371610339477997 0 -0.00020244179775082163 0.01215964583421233 0 -0.00063950339355925087 0.01164307298737337 0 -6.9371497498441854e-05 0.011371610339477997 0 0.00035776656831822525 0.010740413618106312 0 -0.0014912983048615417 0.011721034024536956 0 -0.00051307720321718019 0.010794224388858914 0 0.00033466074022285585 0.012809123052291401 0 0.0004006748078868792 0.012996497408775653 0 0.0010279440697998289 0.012818872879658529 0 0.00030284524189475113 0.014308930269989762 0 0.00057629093016485532 0.010437209945219648 0 -0.00051307720321718019 0.010794224388858914 0 -0.00092527265671944932 0.010515656086734859 0 0.00018469467482721858 0.010021380481178361 0 0.00057629093016485532 0.010437209945219648 0 -0.00097334374182671615 0.010501427643119975 0 0.0003623478976069875 0.011197629667189395 0 0.00034366944672121834 0.010750414954174779 0 -6.9371497498441854e-05 0.011371610339477997 0 0.00034366944672121834 0.010750414954174779 0 -0.00063950339355925087 0.01164307298737337 0 -6.9371497498441854e-05 0.011371610339477997 0 0.00035776656831822525 0.010740413618106312 0 0.00057629093016485532 0.010437209945219648 0 -0.00051307720321718019 0.010794224388858914 0 -0.00051307720321718019 0.010794224388858914 0 -0.00092527265671944932 0.010515656086734859 0 -0.0010129760482022344 0.010702011981922195 0 0.00027149502058861731 0.013317161604844922 0 0.00031837425653566712 0.013347617016140678 0 0.0004006748078868792 0.012996497408775653 0 0.00021899361047225078 0.01377376167582788 0 0.00031837425653566712 0.013347617016140678 0 0.00021899361047225078 0.01377376167582788 0 -0.00048042891455102495 0.013535362376368494 0 -0.00036641077426987023 0.013294704423721592 0 0.00066091177320124622 0.013491645001317382 0 0.0004006748078868792 0.012996497408775653 0 0.00031837425653566712 0.013347617016140678 0 0.00030284524189475113 0.014308930269989762 0 0.00031837425653566712 0.013347617016140678 0 -0.00016364376362627044 0.014025211624675566 0 -0.00031868680138719797 0.014352126357821503 0 -1.603121107153445e-05 0.014209391354804601 0 -0.0014912983048615417 0.011721034024536956 0 -0.00051307720321718019 0.010794224388858914 0 -0.0010130217637932567 0.010701292720455597 0 -0.00031868680138719797 0.014352126357821503 0 -1.603121107153445e-05 0.014209391354804601 0 -6.0887682787908341e-05 0.01440195150207115 0 0.00025417644890607833 0.014818657165012204 0 0.00035501533737616154 0.015156408412711516 0 -1.603121107153445e-05 0.014209391354804601 0 -6.0887682787908341e-05 0.01440195150207115 0 0.00040377869965395601 0.014384937389560795 0 -3.81909239421582e-05 0.014491645958168301 0 0.00062053177761105878 0.014467092946875697 0 0.00067035460809268912 0.01452073284368348 0 0.00040528185503782587 0.015363274575881011 0 0.00027205048369427509 0.014744042136933968 0 0.00050391622572658074 0.015359475801153046 0 -3.81909239421582e-05 0.014491645958168301 0 0.00067035460809268912 0.01452073284368348 0 0.00082704225243320786 0.014658275961934418 0 -5.9459764527137507e-06 0.013943553149721247 0 -1.603121107153445e-05 0.014209391354804601 0 0.00040377869965395601 0.014384937389560795 0 0.00021899361047225078 0.01377376167582788 0 8.9234627924792843e-05 0.015032738283775675 0 0.00021899361047225078 0.01377376167582788 0 0.00035501533737616154 0.015156408412711516 0 0.00035501533737616154 0.015156408412711516 0 0.00035478163399546992 0.015155293638939147 0 0.0010956956735237915 0.01961889032428548 0 0.0010149416430503956 0.01959495152447225 0 0.00099229478344404739 0.019292747865973296 0 -5.0023676099838435e-06 0.015797350332762052 0 0.00035438155001141344 0.015501967535283439 0 -2.6275931391132312e-05 0.014899062937286392 0 0.00040528185503782587 0.015363274575881011 0 0.00027205048369427509 0.014744042136933968 0 0.0010544268409323767 0.01962662842268512 0 0.0010149416430503956 0.01959495152447225 0 0.0010190894980875755 0.019630485047439326 0 0.0010544268409323767 0.01962662842268512 0 0.0010956956735237915 0.01961889032428548 0 0.0010149416430503956 0.01959495152447225 0 -6.9300125955993256e-06 0.015806966264996371 0 -5.0023676099838435e-06 0.015797350332762052 0 0.0010853728427597817 0.01956290830350764 0 0.0010327014106308774 0.019592937480929044 0 0.0010698436545189842 0.019597332904801142 0 0.00025417644890607833 0.014818657165012204 0 -5.0023676099838435e-06 0.015797350332762052 0 0.0012124182024526432 0.017693072088555344 0 0.00082399921907736048 0.016851789241157066 0 0.0010149416430503956 0.01959495152447225 0 0.00097443242590386243 0.01953294534198281 0 0.0009723295049075786 0.019592647416043954 0 0.00099481936608784806 0.019618009026782526 0 0.0010149416430503956 0.01959495152447225 0 0.0009723295049075786 0.019592647416043954 0 0.00099481936608784806 0.019618009026782526 0 0.0009723295049075786 0.019592647416043954 0 0.00097281609563788806 0.019625387628001149 0 0.00099481936608784806 0.019618009026782526 0 0.0010149416430503956 0.01959495152447225 0 0.0010190894980875755 0.019630485047439326 0 0.00088882140395898804 0.015964975326056962 0 0.00030018716524261038 0.015852691867850974 0 0.00066385305570839629 0.015660560910106536 0 0.0010149416430503956 0.01959495152447225 0 0.00099229478344404739 0.019292747865973296 0 0.00080085788124890478 0.019297211093216537 0 0.00062040001347650128 0.014467169643744966 0 0.00067035460809268912 0.01452073284368348 0 0.00075353863513139344 0.014461904724380484 0 0.00035501533737616154 0.015156408412711516 0 0.00035438155001141344 0.015501967535283439 0 0.00035438155001141344 0.015501967535283439 0 8.9234627924792843e-05 0.015032738283775675 0 0.00067035460809268912 0.01452073284368348 0 0.00075353863513139344 0.014461904724380484 0 0.00082704225243320786 0.014658275961934418 0 0.00023391185897035999 0.015677137265087033 0 0.00030018716524261038 0.015852691867850974 0 0.00066385305570839629 0.015660560910106536 0 0.00035438155001141344 0.015501967535283439 0 0.00082399921907736048 0.016851789241157066 0 0.00082399921907736048 0.016851789241157066 0 0.00084151960695005466 0.018018248282144239 0 0.0011213812245718232 0.016791166378312232 0 0.00082399921907736048 0.016851789241157066 0 0.00097443242590386243 0.01953294534198281 0 0.00091679199272421286 0.019563250440291162 0 0.0009723295049075786 0.019592647416043954 0 0.00097443242590386243 0.01953294534198281 0 0.00091679199272421286 0.019563250440291162 0 0.00085140608844423531 0.019512987000025225 0 0.0015677185303493745 0.019348706365317596 0 0.0016736002175208697 0.019491241989062505 0 0.0012510918389522117 0.019518023418663443 0 0.00091679199272421286 0.019563250440291162 0 0.00085140608844423531 0.019512987000025225 0 0.00087030904388796498 0.019574025853298153 0 0.00082199086868442776 0.019603138746346515 0 0.00085140608844423531 0.019512987000025225 0 0.00087030904388796498 0.019574025853298153 0 0.00082199086868442776 0.019603138746346515 0 0.00087030904388796498 0.019574025853298153 0 0.00088343525101969105 0.019612908298497971 0 0.00091679199272421286 0.019563250440291162 0 0.00087030904388796498 0.019574025853298153 0 0.00088343525101969105 0.019612908298497971 0 0.00088343525101969105 0.019612908298497971 0 0.00093486322123888157 0.019628663984926666 0 0.00090383987087813624 0.01968202171037052 0 0.00082199086868442776 0.019603138746346515 0 0.00088343525101969105 0.019612908298497971 0 0.00083492806384136847 0.019661888462766335 0 0.00091679199272421286 0.019563250440291162 0 0.0009723295049075786 0.019592647416043954 0 0.00093486322123888157 0.019628663984926666 0 0.00091679199272421286 0.019563250440291162 0 0.00088343525101969105 0.019612908298497971 0 0.00093486322123888157 0.019628663984926666 0 0.0009723295049075786 0.019592647416043954 0 0.00093486322123888157 0.019628663984926666 0 0.00097281609563788806 0.019625387628001149 0 0.00093486322123888157 0.019628663984926666 0 0.00097281609563788806 0.019625387628001149 0 0.00096224326429708411 0.019668194870447634 0 0.00093486322123888157 0.019628663984926666 0 0.00096224326429708411 0.019668194870447634 0 0.00090383987087813624 0.01968202171037052 0 0.00096224326429708411 0.019668194870447634 0 0.00090383987087813624 0.01968202171037052 0 0.00093744680885470141 0.019726391780075358 0 0.00088343525101969105 0.019612908298497971 0 0.00083492806384136847 0.019661888462766335 0 0.00090383987087813624 0.01968202171037052 0 0.00084072939651004075 0.019731634944226785 0 0.00090383987087813624 0.01968202171037052 0 0.00089377912312241876 0.019763640859328468 0 0.00084072939651004075 0.019731634944226785 0 0.00083492806384136847 0.019661888462766335 0 0.00090383987087813624 0.01968202171037052 0 0.00080459766789748948 0.019875837329441599 0 0.00093256788024640835 0.019794380175838823 0 0.00089377912312241876 0.019763640859328468 0 0.00093256788024640835 0.019794380175838823 0 0.00089377912312241876 0.019763640859328468 0 0.00093744680885470141 0.019726391780075358 0 0.00090383987087813624 0.01968202171037052 0 0.00089377912312241876 0.019763640859328468 0 0.00093744680885470141 0.019726391780075358 0 0.00093256788024640835 0.019794380175838823 0 0.00093744680885470141 0.019726391780075358 0 0.00098729857388722675 0.019703144438497567 0 0.00093256788024640835 0.019794380175838823 0 0.00098729857388722675 0.019703144438497567 0 0.001008973680734896 0.019727853610430356 0 0.00096224326429708411 0.019668194870447634 0 0.00093744680885470141 0.019726391780075358 0 0.00098729857388722675 0.019703144438497567 0 0.00098729857388722675 0.019703144438497567 0 0.0010202408768854824 0.019680107469774964 0 0.001008973680734896 0.019727853610430356 0 0.0010202408768854824 0.019680107469774964 0 0.001008973680734896 0.019727853610430356 0 0.001038036132662926 0.019694344506463582 0 0.0010319988337190648 0.019724089439608943 0 0.001008973680734896 0.019727853610430356 0 0.001038036132662926 0.019694344506463582 0 0.0010319988337190648 0.019724089439608943 0 0.0010732775563412312 0.019686725255026981 0 0.001038036132662926 0.019694344506463582 0 0.0010732775563412312 0.019686725255026981 0 0.001038036132662926 0.019694344506463582 0 0.0010525781843733618 0.01966306294339213 0 0.0010732775563412312 0.019686725255026981 0 0.0010800202453578678 0.019656690710840637 0 0.0010525781843733618 0.01966306294339213 0 0.0010202408768854824 0.019680107469774964 0 0.001038036132662926 0.019694344506463582 0 0.0010525781843733618 0.01966306294339213 0 0.0010525781843733618 0.01966306294339213 0 0.001052213198826524 0.019633993195163957 0 0.0010344829428583619 0.019646752063259075 0 0.0010202408768854824 0.019680107469774964 0 0.0010525781843733618 0.01966306294339213 0 0.0010344829428583619 0.019646752063259075 0 0.0010719010577620661 0.019640343002546697 0 0.0010525781843733618 0.01966306294339213 0 0.001052213198826524 0.019633993195163957 0 0.0010800202453578678 0.019656690710840637 0 0.0010719010577620661 0.019640343002546697 0 0.0010525781843733618 0.01966306294339213 0 0.0010812150145954667 0.019615682303893614 0 0.0010719010577620661 0.019640343002546697 0 0.001052213198826524 0.019633993195163957 0 0.0010812150145954667 0.019615682303893614 0 0.0010698436545189842 0.019597332904801142 0 0.001052213198826524 0.019633993195163957 0 0.0010327014106308774 0.019592937480929044 0 0.0010698436545189842 0.019597332904801142 0 0.001052213198826524 0.019633993195163957 0 0.0010544268409323767 0.01962662842268512 0 0.001052213198826524 0.019633993195163957 0 0.0010344829428583619 0.019646752063259075 0 0.0010544268409323767 0.01962662842268512 0 0.0010552055374134462 0.019625439223380194 0 0.001052213198826524 0.019633993195163957 0 -5.0023676099838435e-06 0.015797350332762052 0 6.6268948513600409e-05 0.016001285956290193 0 0.0010544268409323767 0.01962662842268512 0 0.0010344829428583619 0.019646752063259075 0 0.0010190894980875755 0.019630485047439326 0 0.0010344829428583619 0.019646752063259075 0 0.0010190894980875755 0.019630485047439326 0 0.0010005343617972033 0.019650846653333717 0 0.00099481936608784806 0.019618009026782526 0 0.0010190894980875755 0.019630485047439326 0 0.0010005343617972033 0.019650846653333717 0 0.00099481936608784806 0.019618009026782526 0 0.00097281609563788806 0.019625387628001149 0 0.0010005343617972033 0.019650846653333717 0 0.00097281609563788806 0.019625387628001149 0 0.00096224326429708411 0.019668194870447634 0 0.0010005343617972033 0.019650846653333717 0 0.00096224326429708411 0.019668194870447634 0 0.00098729857388722675 0.019703144438497567 0 0.0010005343617972033 0.019650846653333717 0 0.00098729857388722675 0.019703144438497567 0 0.0010202408768854824 0.019680107469774964 0 0.0010005343617972033 0.019650846653333717 0 0.0010202408768854824 0.019680107469774964 0 0.0010344829428583619 0.019646752063259075 0 0.0010005343617972033 0.019650846653333717 0 2.9482494324768368e-05 0.034973592832446367 0 1.2289320425835811e-07 0.035000115876837753 0 8.5226877173256281e-09 0.034999910254469517 0 2.9482494324768368e-05 0.034973592832446367 0 2.4755374683674792e-05 0.034905579871322159 0 1.7878454270054554e-05 0.034962880877478252 0 -0.00020277391151705143 0.034111841453606788 0 -0.00019433877536701924 0.034363586526947133 0 2.9482494324768368e-05 0.034973592832446367 0 7.234238454527848e-05 0.034965331615485831 0 2.4755374683674792e-05 0.034905579871322159 0 0.00021276872409295753 0.034662976219045911 0 -3.5641233266416809e-05 0.034333879392061277 0 2.4755374683674792e-05 0.034905579871322159 0 0.00021276872409295753 0.034662976219045911 0 -3.5641233266416809e-05 0.034333879392061277 0 0.00042084916113385414 0.034136221211379089 0 2.9482494324768368e-05 0.034973592832446367 0 7.234238454527848e-05 0.034965331615485831 0 5.1271139655795803e-05 0.034926617581656383 0 7.234238454527848e-05 0.034965331615485831 0 0.00017568441202336289 0.034870812347707059 0 5.1271139655795803e-05 0.034926617581656383 0 7.924091776509021e-06 0.033676195790841648 0 0.00039160553978412902 0.033616611439303841 0 0.00042084916113385414 0.034136221211379089 0 -0.00020277391151705143 0.034111841453606788 0 -0.00022374934822323993 0.033263639574932294 0 -3.5641233266416809e-05 0.034333879392061277 0 7.924091776509021e-06 0.033676195790841648 0 0.00042084916113385414 0.034136221211379089 0 0.00017568441202336289 0.034870812347707059 0 0.0001207344528421308 0.034763396641145666 0 0.00026156471064887356 0.034618107105130899 0 -0.00022374934822323993 0.033263639574932294 0 -0.00021538756110697904 0.031151717164348908 0 7.924091776509021e-06 0.033676195790841648 0 0.0002573203635825972 0.033342547194019342 0 9.5210997204860955e-05 0.03302144147783561 0 7.924091776509021e-06 0.033676195790841648 0 0.0002573203635825972 0.033342547194019342 0 0.00039160553978412902 0.033616611439303841 0 0.00017568441202336289 0.034870812347707059 0 0.0001207344528421308 0.034763396641145666 0 5.1271139655795803e-05 0.034926617581656383 0 5.1271139655795803e-05 0.034926617581656383 0 1.2289320425835811e-07 0.035000115876837753 0 2.3319056638380023e-05 0.034743373054849085 0 0.0001207344528421308 0.034763396641145666 0 5.1271139655795803e-05 0.034926617581656383 0 2.3319056638380023e-05 0.034743373054849085 0 2.9482494324768368e-05 0.034973592832446367 0 5.1271139655795803e-05 0.034926617581656383 0 1.2289320425835811e-07 0.035000115876837753 0 1.2289320425835811e-07 0.035000115876837753 0 2.3319056638380023e-05 0.034743373054849085 0 -0.00019622169886109999 0.03426476340361493 0 1.2289320425835811e-07 0.035000115876837753 0 -1.4296253870810726e-06 0.034996406077500181 0 -0.00019622169886109999 0.03426476340361493 0 2.3319056638380023e-05 0.034743373054849085 0 -0.00019622169886109999 0.03426476340361493 0 0.0001219500402840627 0.034599385375912603 0 -1.4296253870810726e-06 0.034996406077500181 0 -0.00019622169886109999 0.03426476340361493 0 2.5710355193150368e-06 0.030860913905877564 0 -0.00019622169886109999 0.03426476340361493 0 0.0006064360157811596 0.033547789645234014 0 0.00029778003297924839 0.034186504818102349 0 -0.00019622169886109999 0.03426476340361493 0 2.5710355193150368e-06 0.030860913905877564 0 0.0006064360157811596 0.033547789645234014 0 1.0477283884819503e-06 0.030851188074248512 0 0.00034537991335833334 0.029508455316498265 0 -0.00013650909200064315 0.029655330285786364 0 -7.5206221123429469e-08 0.030854743048578631 0 -6.6398616525362633e-05 0.031233182070997553 0 0.0006064360157811596 0.033547789645234014 0 0.00029778003297924839 0.034186504818102349 0 0.00058739736681706601 0.034691169314360677 0 -6.6398616525362633e-05 0.031233182070997553 0 -0.00021538756110697904 0.031151717164348908 0 0.00034537991335833334 0.029508455316498265 0 0.00035981073263468698 0.029021395523258865 0 0.00013557608051844856 0.029304340776061585 0 0.00035981073263468698 0.029021395523258865 0 0.00012625041603779645 0.029016835070847135 0 0.00013557608051844856 0.029304340776061585 0 -0.00019622169886109999 0.03426476340361493 0 0.00029778003297924839 0.034186504818102349 0 0.0001219500402840627 0.034599385375912603 0 0.00029778003297924839 0.034186504818102349 0 0.0001219500402840627 0.034599385375912603 0 0.00058739736681706601 0.034691169314360677 0 -0.00014030234674826755 0.031298977397849148 0 -0.00021538756110697904 0.031151717164348908 0 0.0001207344528421308 0.034763396641145666 0 0.0001219500402840627 0.034599385375912603 0 0.00026156471064887356 0.034618107105130899 0 0.0001207344528421308 0.034763396641145666 0 2.3319056638380023e-05 0.034743373054849085 0 0.0001219500402840627 0.034599385375912603 0 9.5210997204860955e-05 0.03302144147783561 0 0.00032382899532953067 0.033118223201307535 0 0.00039988007774083604 0.033020992667996595 0 -0.00021538756110697904 0.031151717164348908 0 -5.9703671980299957e-05 0.030120608254450957 0 0.0002573203635825972 0.033342547194019342 0 9.5210997204860955e-05 0.03302144147783561 0 0.00032382899532953067 0.033118223201307535 0 0.00057264661826427019 0.033094433287010311 0 0.00042158371022192414 0.033037065902157992 0 0.00066933161716124616 0.033067780041390792 0 -5.9703671980299957e-05 0.030120608254450957 0 0.00046030930637708169 0.029548568384453095 0 0.00045543128930981423 0.033281353490893707 0 0.00057264661826427019 0.033094433287010311 0 0.00042158371022192414 0.033037065902157992 0 0.0002573203635825972 0.033342547194019342 0 0.00032382899532953067 0.033118223201307535 0 0.00045543128930981423 0.033281353490893707 0 0.00032382899532953067 0.033118223201307535 0 0.00045543128930981423 0.033281353490893707 0 0.00042158371022192414 0.033037065902157992 0 -7.5617189734507095e-05 0.030156538719584038 0 -5.9703671980299957e-05 0.030120608254450957 0 0.00057264661826427019 0.033094433287010311 0 0.00066933161716124616 0.033067780041390792 0 0.00064078409473447497 0.033123330060273924 0 0.0011535159352802863 0.024899317431176821 0 0.0014928128914329824 0.025580741768882542 0 0.00061704353269118745 0.0254833747472273 0 -5.9703671980299957e-05 0.030120608254450957 0 0.00036791705815431887 0.028673431520972292 0 0.0020182351773642029 0.024905779766664832 0 0.0011535159352802863 0.024899317431176821 0 0.0014928128914329824 0.025580741768882542 0 0.00012625041603779645 0.029016835070847135 0 -0.00013902296353637058 0.029420488980501227 0 0.00013557608051844856 0.029304340776061585 0 0.00034537991335833334 0.029508455316498265 0 0.00013557608051844856 0.029304340776061585 0 -0.00013650909200064315 0.029655330285786364 0 -0.00013902296353637058 0.029420488980501227 0 0.00013557608051844856 0.029304340776061585 0 -0.00013650909200064315 0.029655330285786364 0 0.0014928128914329824 0.025580741768882542 0 0.00099792113639758022 0.026318897829274636 0 0.00061704353269118745 0.0254833747472273 0 0.00036791705815431887 0.028673431520972292 0 0.00023136243920846868 0.028094994064140583 0 -0.00013902296353637058 0.029420488980501227 0 -0.00013650909200064315 0.029655330285786364 0 -1.5838452097232823e-05 0.029328502115114445 0 -1.5838452097232823e-05 0.029328502115114445 0 -1.056653501077894e-06 0.029253476146929237 0 1.0630507650412802e-06 0.027653892497155688 0 -0.00013650909200064315 0.029655330285786364 0 -1.5838452097232823e-05 0.029328502115114445 0 -1.056653501077894e-06 0.029253476146929237 0 1.0477283884819503e-06 0.030851188074248512 0 -0.00013650909200064315 0.029655330285786364 0 -1.056653501077894e-06 0.029253476146929237 0 -0.00017551463135283605 0.026110755746641685 0 1.6758727480742166e-06 0.027648848116523083 0 -4.2330705747514943e-05 0.025937436193740296 0 -0.00017551463135283605 0.026110755746641685 0 1.6758727480742166e-06 0.027648848116523083 0 -1.4494038709432981e-06 0.025821881478271417 0 0.00099792113639758022 0.026318897829274636 0 1.6758727480742166e-06 0.027648848116523083 0 -4.2330705747514943e-05 0.025937436193740296 0 0.00023136243920846868 0.028094994064140583 0 8.3008617551689586e-07 0.027653350715427457 0 0.00099792113639758022 0.026318897829274636 0 -4.2330705747514943e-05 0.025937436193740296 0 0.00061704353269118745 0.0254833747472273 0 -0.00017551463135283605 0.026110755746641685 0 -4.2330705747514943e-05 0.025937436193740296 0 -0.00035934179532254442 0.025590949991072136 0 -4.2330705747514943e-05 0.025937436193740296 0 -3.5123215986157815e-05 0.02536510116264816 0 0.00061704353269118745 0.0254833747472273 0 -4.2330705747514943e-05 0.025937436193740296 0 -3.5123215986157815e-05 0.02536510116264816 0 -0.00039489889128098367 0.025505659551515215 0 0.0011535159352802863 0.024899317431176821 0 0.00061704353269118745 0.0254833747472273 0 0.00030792658930968973 0.024944283872547903 0 -3.5123215986157815e-05 0.02536510116264816 0 0.00061704353269118745 0.0254833747472273 0 0.00030792658930968973 0.024944283872547903 0 0.00066933161716124616 0.033067780041390792 0 0.00069023443022716874 0.033070863149909716 0 0.00067671287594421906 0.033083118265840011 0 0.00046030930637708169 0.029548568384453095 0 0.00060994615614127113 0.029085221523877946 0 0.00069023443022716874 0.033070863149909716 0 0.00067821767842801879 0.033072075705428229 0 0.00067671287594421906 0.033083118265840011 0 0.00069023443022716874 0.033070863149909716 0 0.00067821767842801879 0.033072075705428229 0 0.0006203623957686846 0.033044087662175078 0 0.00060994615614127113 0.029085221523877946 0 0.00082488846436732711 0.028636635116631635 0 0.00069023443022716874 0.033070863149909716 0 0.0006203623957686846 0.033044087662175078 0 0.00058906595936804762 0.033047160883698738 0 0.00067821767842801879 0.033072075705428229 0 0.0006203623957686846 0.033044087662175078 0 0.00069559424072533898 0.033096972635954104 0 -3.5123215986157815e-05 0.02536510116264816 0 0.00030792658930968973 0.024944283872547903 0 -0.00035957527000798071 0.025024292779065618 0 0.0006203623957686846 0.033044087662175078 0 0.00060711675358247539 0.032626189767832041 0 0.00089393537831639145 0.032617303760521431 0 0.0007058988399727083 0.033067567368438119 0 0.00070788906072329777 0.033085748750064696 0 0.00060711675358247539 0.032626189767832041 0 0.00077508201869736686 0.032417750035010982 0 0.0007188422535986677 0.032198256285354068 0 0.00053850291766192404 0.030763282464073297 0 0.00048334029759228346 0.031268624157233055 0 0.00060711675358247539 0.032626189767832041 0 0.00077508201869736686 0.032417750035010982 0 0.00089393537831639145 0.032617303760521431 0 0.00073019550876710798 0.031912159172354709 0 0.0007188422535986677 0.032198256285354068 0 0.00073677517080345185 0.032200164354214821 0 0.00077508201869736686 0.032417750035010982 0 0.00089107339532909697 0.032329086833545691 0 0.00081067061362533749 0.032284941872136631 0 0.00077508201869736686 0.032417750035010982 0 0.0007188422535986677 0.032198256285354068 0 0.00081067061362533749 0.032284941872136631 0 0.00089107339532909697 0.032329086833545691 0 0.00089393537831639145 0.032617303760521431 0 0.0011027794090739695 0.032243231592599175 0 0.00070788906072329777 0.033085748750064696 0 0.0005441467921612858 0.033376301314424629 0 0.00077508201869736686 0.032417750035010982 0 0.00089107339532909697 0.032329086833545691 0 0.00089393537831639145 0.032617303760521431 0 0.00069559424072533898 0.033096972635954104 0 0.00067671287594421906 0.033083118265840011 0 0.00064078409473447497 0.033123330060273924 0 0.00067821767842801879 0.033072075705428229 0 0.00069559424072533898 0.033096972635954104 0 0.00067671287594421906 0.033083118265840011 0 0.00066933161716124616 0.033067780041390792 0 0.00067671287594421906 0.033083118265840011 0 0.00064078409473447497 0.033123330060273924 0 0.00057234710828917479 0.033315149579971975 0 0.00058093855131195206 0.033367256530795801 0 0.00045543128930981423 0.033281353490893707 0 0.00057264661826427019 0.033094433287010311 0 0.00081818979509808891 0.033645357955588692 0 0.00045543128930981423 0.033281353490893707 0 0.00081818979509808891 0.033645357955588692 0 0.00039160553978412902 0.033616611439303841 0 0.0002573203635825972 0.033342547194019342 0 0.00045543128930981423 0.033281353490893707 0 0.00039160553978412902 0.033616611439303841 0 0.00081818979509808891 0.033645357955588692 0 0.00039160553978412902 0.033616611439303841 0 0.00042084916113385414 0.034136221211379089 0 0.00069559424072533898 0.033096972635954104 0 0.00064078409473447497 0.033123330060273924 0 0.0006585432906282047 0.03316659796810642 0 0.00081818979509808891 0.033645357955588692 0 0.00099471749427854062 0.034177364554228484 0 0.00042084916113385414 0.034136221211379089 0 0.00058093855131195206 0.033367256530795801 0 0.0005441467921612858 0.033376301314424629 0 0.0005441467921612858 0.033376301314424629 0 0.00026265006383003209 0.034206750007026304 0 0.00099471749427854062 0.034177364554228484 0 0.00042084916113385414 0.034136221211379089 0 0.00055067535789409569 0.034726195947766735 0 0.00021276872409295753 0.034662976219045911 0 0.00042084916113385414 0.034136221211379089 0 0.00055067535789409569 0.034726195947766735 0 0.00024396607867872825 0.034634977585029966 0 0.00024705038686024595 0.034634634182374564 0 0.00023987935766350515 0.034633467856360574 0 0.00095257679337882705 0.031950778408258343 0 0.00087346888267230479 0.03208700591663869 0 0.00074516884635199656 0.031950407738025259 0 0.0011027794090739695 0.032243231592599175 0 0.00095257679337882705 0.031950778408258343 0 0.00087346888267230479 0.03208700591663869 0 0.0005441467921612858 0.033376301314424629 0 0.00040829848423089082 0.032991851828206881 0 0.00074516884635199656 0.031950407738025259 0 0.00077400448628320198 0.03212929149991476 0 0.00073677517080345185 0.032200164354214821 0 0.00087346888267230479 0.03208700591663869 0 0.00074516884635199656 0.031950407738025259 0 0.00077400448628320198 0.03212929149991476 0 0.00023662526695838397 0.030262257038307674 0 0.00040412251774567368 0.029144026439461929 0 -0.0016511305881864492 0.026953921616256496 0 -0.0010679765240608102 0.025291490629459561 0 -0.00081604215343261254 0.026019176685189559 0 0.00077400448628320198 0.03212929149991476 0 0.0007188422535986677 0.032198256285354068 0 0.00085055521992878982 0.032203489826803725 0 0.00087346888267230479 0.03208700591663869 0 0.00077400448628320198 0.03212929149991476 0 0.00085055521992878982 0.032203489826803725 0 0.00077400448628320198 0.03212929149991476 0 0.0007188422535986677 0.032198256285354068 0 0.00073677517080345185 0.032200164354214821 0 0.0007188422535986677 0.032198256285354068 0 0.00081067061362533749 0.032284941872136631 0 0.00085055521992878982 0.032203489826803725 0 0.00089107339532909697 0.032329086833545691 0 0.00081067061362533749 0.032284941872136631 0 0.00085055521992878982 0.032203489826803725 0 0.0011027794090739695 0.032243231592599175 0 0.00087346888267230479 0.03208700591663869 0 0.00085055521992878982 0.032203489826803725 0 0.00089107339532909697 0.032329086833545691 0 0.0011027794090739695 0.032243231592599175 0 0.00085055521992878982 0.032203489826803725 0 0.00024611260217218846 0.025842696563820447 0 0.00080857591443370461 0.025265211239509405 0 0.0012790624801240398 0.024928981612908668 0 0.00011931710130477166 0.025936830235521284 0 0.00086253139527508159 0.025847884787761535 0 0.0011529694820294428 0.025081229003600075 0 -0.00070865498067246291 0.023563374730371667 0 -0.00023213760851474488 0.022361893553041905 0 0.00024611260217218846 0.025842696563820447 0 9.8522065074940489e-05 0.025367052507275636 0 -0.0003691177199023269 0.025799890616620781 0 0.00024611260217218846 0.025842696563820447 0 0.00080857591443370461 0.025265211239509405 0 9.8522065074940489e-05 0.025367052507275636 0 0.00011931710130477166 0.025936830235521284 0 0.00086253139527508159 0.025847884787761535 0 0.00057063905639760497 0.026403493764011774 0 0.00080857591443370461 0.025265211239509405 0 0.00031237203722893315 0.024996613898864442 0 0.00062295532742309744 0.024758004185246457 0 0.00080857591443370461 0.025265211239509405 0 0.00098570332418785938 0.024810587556207162 0 0.00062295532742309744 0.024758004185246457 0 0.00080857591443370461 0.025265211239509405 0 0.00031237203722893315 0.024996613898864442 0 9.8522065074940489e-05 0.025367052507275636 0 0.00031237203722893315 0.024996613898864442 0 9.8522065074940489e-05 0.025367052507275636 0 -8.3166781840812858e-05 0.024980349171640444 0 -8.3166781840812858e-05 0.024980349171640444 0 -0.00047013639570678425 0.02499020867256678 0 -0.00036085418788423473 0.025335440565597195 0 -0.00047013639570678425 0.02499020867256678 0 -0.00036085418788423473 0.025335440565597195 0 -0.00064442075829364439 0.025506167025203384 0 9.8522065074940489e-05 0.025367052507275636 0 -8.3166781840812858e-05 0.024980349171640444 0 -0.00036085418788423473 0.025335440565597195 0 -0.00047013639570678425 0.02499020867256678 0 -0.0010679765240608102 0.025291490629459561 0 -0.00064442075829364439 0.025506167025203384 0 -0.0010679765240608102 0.025291490629459561 0 -0.00064442075829364439 0.025506167025203384 0 -0.00081604215343261254 0.026019176685189559 0 -0.00064442075829364439 0.025506167025203384 0 -0.0003691177199023269 0.025799890616620781 0 -0.00081604215343261254 0.026019176685189559 0 9.8522065074940489e-05 0.025367052507275636 0 -0.00036085418788423473 0.025335440565597195 0 -0.0003691177199023269 0.025799890616620781 0 -0.00036085418788423473 0.025335440565597195 0 -0.00064442075829364439 0.025506167025203384 0 -0.0003691177199023269 0.025799890616620781 0 0.00024611260217218846 0.025842696563820447 0 -0.0003691177199023269 0.025799890616620781 0 -0.0008958313377297009 0.026774983633215371 0 -0.0008958313377297009 0.026774983633215371 0 0.00011628572506743136 0.026862961829589849 0 -0.00052040990353498804 0.027383356366991039 0 0.00011931710130477166 0.025936830235521284 0 -0.0008958313377297009 0.026774983633215371 0 0.00011628572506743136 0.026862961829589849 0 -0.00070865498067246291 0.023563374730371667 0 -0.00096252606121242771 0.02402658020698625 0 -0.0003691177199023269 0.025799890616620781 0 -0.00081604215343261254 0.026019176685189559 0 -0.0008958313377297009 0.026774983633215371 0 -0.0016511305881864492 0.026953921616256496 0 -0.00081604215343261254 0.026019176685189559 0 -0.0008958313377297009 0.026774983633215371 0 0.00011628572506743136 0.026862961829589849 0 0.00057063905639760497 0.026403493764011774 0 0.0011699390663915282 0.026834037269913267 0 0.00011931710130477166 0.025936830235521284 0 0.00011628572506743136 0.026862961829589849 0 0.00057063905639760497 0.026403493764011774 0 -0.0010712889551438909 0.019825693765381156 0 -0.0010675980309624454 0.019830202004541303 0 -0.0010664922517066519 0.019823971663051269 0 0.00086253139527508159 0.025847884787761535 0 0.00057063905639760497 0.026403493764011774 0 0.0011699390663915282 0.026834037269913267 0 -0.00058652169051913797 0.020898890406383559 0 -0.00069187350577147859 0.020650305446678681 0 -0.0010675980309624454 0.019830202004541303 0 -0.0010664922517066519 0.019823971663051269 0 -0.0010380802560271427 0.019843071068906135 0 -0.0010057790009084723 0.019839238156043968 0 -0.001016915665279159 0.019835339775482897 0 -0.0010380802560271427 0.019843071068906135 0 -0.0010057790009084723 0.019839238156043968 0 -0.0010380802560271427 0.019843071068906135 0 -0.0010128562500763161 0.019855502326874594 0 -0.001016915665279159 0.019835339775482897 0 -0.00099829156696050188 0.019806273886460442 0 -0.0010369449566574847 0.019793675496920449 0 -0.0010057790009084723 0.019839238156043968 0 -0.00097951614552323316 0.019820776105103789 0 -0.001016915665279159 0.019835339775482897 0 -0.00097951614552323316 0.019820776105103789 0 -0.001016915665279159 0.019835339775482897 0 -0.00099829156696050188 0.019806273886460442 0 -0.00097951614552323316 0.019820776105103789 0 -0.00099829156696050188 0.019806273886460442 0 -0.00097185681529381152 0.019794317175640321 0 -0.0001285544268164161 0.023397519395145606 0 -0.00016073956582855948 0.022094035216422857 0 -0.00058652169051913797 0.020898890406383559 0 -0.00018108162361221651 0.021856376228610166 0 -0.0010664922517066519 0.019823971663051269 0 -0.0010590465372733939 0.019832014683230981 0 -0.0010597291109822062 0.019833011463109135 0 -0.0010712889551438909 0.019825693765381156 0 -0.0010664922517066519 0.019823971663051269 0 -0.0010590465372733939 0.019832014683230981 0 0.00086253139527508159 0.025847884787761535 0 0.0011699390663915282 0.026834037269913267 0 0.0013026291130246808 0.024958243884533597 0 0.00086253139527508159 0.025847884787761535 0 0.0011529694820294428 0.025081229003600075 0 0.0013026291130246808 0.024958243884533597 0 -0.00023329253808926413 0.022418218909844981 0 -0.00023213760851474488 0.022361893553041905 0 0.00080857591443370461 0.025265211239509405 0 0.001263144715304935 0.024948620219482805 0 0.00098570332418785938 0.024810587556207162 0 0.00098570332418785938 0.024810587556207162 0 0.0011296768469703062 0.024604495113202118 0 0.0012445801178732987 0.024751466232327199 0 0.001263144715304935 0.024948620219482805 0 0.00098570332418785938 0.024810587556207162 0 0.0012445801178732987 0.024751466232327199 0 0.00098570332418785938 0.024810587556207162 0 0.0011296768469703062 0.024604495113202118 0 0.00084846764164141567 0.024450794926545689 0 0.0011296768469703062 0.024604495113202118 0 0.0014321081831843009 0.024505094814016245 0 0.0011122719310067942 0.024408603989878631 0 0.0011296768469703062 0.024604495113202118 0 0.0011122719310067942 0.024408603989878631 0 0.00084846764164141567 0.024450794926545689 0 0.0011296768469703062 0.024604495113202118 0 0.0014321081831843009 0.024505094814016245 0 0.0012445801178732987 0.024751466232327199 0 -0.0001154536229666898 0.021989389443039797 0 -0.00016073956582855948 0.022094035216422857 0 0.0014321081831843009 0.024505094814016245 0 0.0012445801178732987 0.024751466232327199 0 0.0014109118747901732 0.024827111969816833 0 0.00027072087570950226 0.021926772190536646 0 0.00029803835393162553 0.021533826501469185 0 0.00015419326166140156 0.021651578494224121 0 -0.00016073956582855948 0.022094035216422857 0 -0.00018108162361221651 0.021856376228610166 0 0.001263144715304935 0.024948620219482805 0 0.0012445801178732987 0.024751466232327199 0 0.0014109118747901732 0.024827111969816833 0 -0.00023213760851474488 0.022361893553041905 0 -0.00016073956582855948 0.022094035216422857 0 -0.0001154536229666898 0.021989389443039797 0 -0.00018108162361221651 0.021856376228610166 0 -0.00018108162361221651 0.021856376228610166 0 -0.00016828775689119142 0.021252995953630161 0 0.00031644377752641063 0.019630214012830532 0 0.00022180976118298999 0.019916577224352514 0 -2.1310151141873337e-05 0.01990504995036247 0 0.00035269429542695625 0.019716930473819595 0 0.00031644377752641063 0.019630214012830532 0 0.00022180976118298999 0.019916577224352514 0 0.0014321081831843009 0.024505094814016245 0 0.00099775939795079859 0.02405947159363506 0 0.0011122719310067942 0.024408603989878631 0 0.00099775939795079859 0.02405947159363506 0 0.0011122719310067942 0.024408603989878631 0 0.00084846764164141567 0.024450794926545689 0 -0.0010369449566574847 0.019793675496920449 0 -0.00098722182264977506 0.019760331155205292 0 -0.00098196031895365454 0.019752476520356041 0 -0.0010369449566574847 0.019793675496920449 0 -0.00099334397090171237 0.01978495657137113 0 -0.00098722182264977506 0.019760331155205292 0 -0.00018108162361221651 0.021856376228610166 0 -0.00035328461333542519 0.020979250817387083 0 -0.00038481279576615143 0.021431327903409077 0 -0.00021820964372045858 0.021291777809912739 0 -0.00014281830446544701 0.021276409394560027 0 -0.00099334397090171237 0.01978495657137113 0 -0.00097185681529381152 0.019794317175640321 0 -0.00096487578023719345 0.019767912184717063 0 -0.00099829156696050188 0.019806273886460442 0 -0.00099334397090171237 0.01978495657137113 0 -0.00097185681529381152 0.019794317175640321 0 -0.00099829156696050188 0.019806273886460442 0 -0.0010369449566574847 0.019793675496920449 0 -0.00099334397090171237 0.01978495657137113 0 -0.00099334397090171237 0.01978495657137113 0 -0.00098722182264977506 0.019760331155205292 0 -0.00096487578023719345 0.019767912184717063 0 -0.00035240490158129173 0.02097401042247099 0 -0.00035328461333542519 0.020979250817387083 0 -0.00098722182264977506 0.019760331155205292 0 -0.00098104935446640014 0.019749495953155168 0 -0.00096487578023719345 0.019767912184717063 0 -2.1310151141873337e-05 0.01990504995036247 0 -5.0768115551489708e-05 0.020348932308723068 0 -0.00036975616292049302 0.020198988682243079 0 -2.1310151141873337e-05 0.01990504995036247 0 0.0001188850785949153 0.020133757435601852 0 -5.0768115551489708e-05 0.020348932308723068 0 -0.00021820964372045858 0.021291777809912739 0 -0.00014281830446544701 0.021276409394560027 0 -5.1563354175610851e-05 0.021152519724298015 0 -0.00016828775689119142 0.021252995953630161 0 -0.00030525240680313409 0.020849093534626145 0 0.00022180976118298999 0.019916577224352514 0 -2.1310151141873337e-05 0.01990504995036247 0 0.0001188850785949153 0.020133757435601852 0 0.0001188850785949153 0.020133757435601852 0 0.00032525087434151902 0.020319705739077723 0 -5.0768115551489708e-05 0.020348932308723068 0 -5.0768115551489708e-05 0.020348932308723068 0 -0.00025521895191915985 0.020420418549730594 0 -0.00036975616292049302 0.020198988682243079 0 -0.0001154536229666898 0.021989389443039797 0 1.9002850909826153e-05 0.021669346588624832 0 0.00022180976118298999 0.019916577224352514 0 0.0001188850785949153 0.020133757435601852 0 0.00032525087434151902 0.020319705739077723 0 0.0014321081831843009 0.024505094814016245 0 0.00099775939795079859 0.02405947159363506 0 0.00080355592994293945 0.023199389581184972 0 0.00035269429542695625 0.019716930473819595 0 0.00022180976118298999 0.019916577224352514 0 0.00032525087434151902 0.020319705739077723 0 -0.0001154536229666898 0.021989389443039797 0 0.00016072299359903383 0.022442823774777746 0 0.00026866302871611053 0.022122925769844551 0 0.00026437840364233549 0.022236211503577519 0 0.00031216728607258161 0.022220437232953756 0 0.00080355592994293945 0.023199389581184972 0 0.00041502980929111424 0.023435369688895272 0 0.00061949223048987851 0.023699233214018033 0 0.00080355592994293945 0.023199389581184972 0 0.00017782228101269608 0.023178419671986264 0 0.00020145435355313021 0.022890437065868564 0 0.00017782228101269608 0.023178419671986264 0 0.00041502980929111424 0.023435369688895272 0 8.0364515767770539e-05 0.023594388462886241 0 0.00080355592994293945 0.023199389581184972 0 0.00017782228101269608 0.023178419671986264 0 0.00041502980929111424 0.023435369688895272 0 0.00041502980929111424 0.023435369688895272 0 0.00028974475975537697 0.023755531472082383 0 0.00061949223048987851 0.023699233214018033 0 0.00041502980929111424 0.023435369688895272 0 8.0364515767770539e-05 0.023594388462886241 0 0.00028974475975537697 0.023755531472082383 0 8.0364515767770539e-05 0.023594388462886241 0 0.00028974475975537697 0.023755531472082383 0 -4.8438279351849588e-05 0.023924871518386129 0 0.00099775939795079859 0.02405947159363506 0 0.00080355592994293945 0.023199389581184972 0 0.00061949223048987851 0.023699233214018033 0 0.00028974475975537697 0.023755531472082383 0 0.00061949223048987851 0.023699233214018033 0 0.00060500277539447356 0.024062278618421588 0 0.00099775939795079859 0.02405947159363506 0 0.00061949223048987851 0.023699233214018033 0 0.00060500277539447356 0.024062278618421588 0 0.00099775939795079859 0.02405947159363506 0 0.00060500277539447356 0.024062278618421588 0 0.00084846764164141567 0.024450794926545689 0 0.00060500277539447356 0.024062278618421588 0 0.00084846764164141567 0.024450794926545689 0 0.00053720894309917683 0.024426937334320362 0 0.00028974475975537697 0.023755531472082383 0 0.00060500277539447356 0.024062278618421588 0 0.00016205115807242456 0.024202362874249803 0 0.00028974475975537697 0.023755531472082383 0 0.00016205115807242456 0.024202362874249803 0 -4.8438279351849588e-05 0.023924871518386129 0 0.00060500277539447356 0.024062278618421588 0 0.00016205115807242456 0.024202362874249803 0 0.00053720894309917683 0.024426937334320362 0 0.00016205115807242456 0.024202362874249803 0 0.00024403484409583694 0.024606142788004822 0 0.00053720894309917683 0.024426937334320362 0 0.00024403484409583694 0.024606142788004822 0 0.00062295532742309744 0.024758004185246457 0 0.00053720894309917683 0.024426937334320362 0 0.00016205115807242456 0.024202362874249803 0 0.00024403484409583694 0.024606142788004822 0 -0.00016130048102541825 0.02459686492595033 0 -8.3166781840812858e-05 0.024980349171640444 0 0.00024403484409583694 0.024606142788004822 0 -0.00016130048102541825 0.02459686492595033 0 0.00031237203722893315 0.024996613898864442 0 -8.3166781840812858e-05 0.024980349171640444 0 0.00024403484409583694 0.024606142788004822 0 0.00031237203722893315 0.024996613898864442 0 0.00024403484409583694 0.024606142788004822 0 0.00062295532742309744 0.024758004185246457 0 0.00098570332418785938 0.024810587556207162 0 0.00062295532742309744 0.024758004185246457 0 0.00084846764164141567 0.024450794926545689 0 0.00062295532742309744 0.024758004185246457 0 0.00084846764164141567 0.024450794926545689 0 0.00053720894309917683 0.024426937334320362 0 0.00073019550876710798 0.031912159172354709 0 0.00073677517080345185 0.032200164354214821 0 0.00086513511582889341 0.031911141280812884 0 0.00040412251774567368 0.029144026439461929 0 0.00065211297744418944 0.028357699909187736 0 -0.0010679765240608102 0.025291490629459561 0 -0.00032939695785334436 0.024445889088885005 0 -0.00042313642333315446 0.02373133800524491 0 -0.00047013639570678425 0.02499020867256678 0 -0.0010679765240608102 0.025291490629459561 0 -0.00032939695785334436 0.024445889088885005 0 -0.00047013639570678425 0.02499020867256678 0 -0.00016130048102541825 0.02459686492595033 0 -0.00032939695785334436 0.024445889088885005 0 -8.3166781840812858e-05 0.024980349171640444 0 -0.00047013639570678425 0.02499020867256678 0 -0.00016130048102541825 0.02459686492595033 0 0.00016205115807242456 0.024202362874249803 0 -0.00032939695785334436 0.024445889088885005 0 -4.8438279351849588e-05 0.023924871518386129 0 -0.00032939695785334436 0.024445889088885005 0 -0.00042313642333315446 0.02373133800524491 0 -4.8438279351849588e-05 0.023924871518386129 0 0.00016205115807242456 0.024202362874249803 0 -0.00016130048102541825 0.02459686492595033 0 -0.00032939695785334436 0.024445889088885005 0 0.00053850291766192404 0.030763282464073297 0 0.00082488846436732711 0.028636635116631635 0 0.00073019550876710798 0.031912159172354709 0 0.00086513511582889341 0.031911141280812884 0 0.0007999067105229975 0.031533583040942365 0 0.00065211297744418944 0.028357699909187736 0 0.00092745803203162446 0.027989141343716144 0 0.00017782228101269608 0.023178419671986264 0 -0.00042313642333315446 0.02373133800524491 0 0.00020145435355313021 0.022890437065868564 0 0.00017782228101269608 0.023178419671986264 0 8.0364515767770539e-05 0.023594388462886241 0 -0.00042313642333315446 0.02373133800524491 0 8.0364515767770539e-05 0.023594388462886241 0 -0.00042313642333315446 0.02373133800524491 0 -4.8438279351849588e-05 0.023924871518386129 0 0.00086513511582889341 0.031911141280812884 0 0.0007999067105229975 0.031533583040942365 0 0.00099567133591742869 0.031530307467037479 0 0.0006203623957686846 0.033044087662175078 0 0.00060711675358247539 0.032626189767832041 0 0.00058906595936804762 0.033047160883698738 0 -0.00042313642333315446 0.02373133800524491 0 0.00020145435355313021 0.022890437065868564 0 0.00017478301132328069 0.022501364809668141 0 0.00082488846436732711 0.028636635116631635 0 0.00092745803203162446 0.027989141343716144 0 -0.00073283535050110539 0.027346117612544383 0 -9.28213574173772e-05 0.027344530595869256 0 -0.00041406155555603793 0.026960057933577052 0 0.00031216728607258161 0.022220437232953756 0 0.00033073297473435793 0.022365253252524534 0 0.00029407064119472737 0.022290431795906031 0 0.00016072299359903383 0.022442823774777746 0 0.00020067515515853602 0.022482919077696971 0 0.00080355592994293945 0.023199389581184972 0 0.00028096846123922361 0.022517430781429062 0 0.00033073297473435793 0.022365253252524534 0 0.00080355592994293945 0.023199389581184972 0 0.00020145435355313021 0.022890437065868564 0 0.00028096846123922361 0.022517430781429062 0 0.00020145435355313021 0.022890437065868564 0 0.00028096846123922361 0.022517430781429062 0 0.00017478301132328069 0.022501364809668141 0 0.0009262794486790258 0.027984322805212181 0 0.00092745803203162446 0.027989141343716144 0 0.00028096846123922361 0.022517430781429062 0 0.00024802562005004486 0.0224233478370621 0 0.00033073297473435793 0.022365253252524534 0 0.00024802562005004486 0.0224233478370621 0 0.00033073297473435793 0.022365253252524534 0 0.00047480925277116302 0.022362600785452644 0 0.00092745803203162446 0.027989141343716144 0 0.0010600743389006823 0.026068618184897373 0 -9.28213574173772e-05 0.027344530595869256 0 -0.00041406155555603793 0.026960057933577052 0 0.0002954460415156872 0.026159953937564883 0 0.00033697466717673191 0.022327642825594865 0 0.00033073297473435793 0.022365253252524534 0 0.00047480925277116302 0.022362600785452644 0 0.00033697466717673191 0.022327642825594865 0 0.00033073297473435793 0.022365253252524534 0 0.00029407064119472737 0.022290431795906031 0 -0.00054901057373948545 0.026476333654973264 0 -0.00041406155555603793 0.026960057933577052 0 0.0002954460415156872 0.026159953937564883 0 -3.5123215986157815e-05 0.02536510116264816 0 -0.00035957527000798071 0.025024292779065618 0 -0.00039489889128098367 0.025505659551515215 0 0.00082488846436732711 0.028636635116631635 0 0.00076896258029895623 0.027561727394212122 0 -0.00073283535050110539 0.027346117612544383 0 -0.00054901057373948545 0.026476333654973264 0 -0.00041406155555603793 0.026960057933577052 0 -4.2330705747514943e-05 0.025937436193740296 0 -0.00039489889128098367 0.025505659551515215 0 -0.00035934179532254442 0.025590949991072136 0 -0.00054901057373948545 0.026476333654973264 0 -0.00035934179532254442 0.025590949991072136 0 0.0002954460415156872 0.026159953937564883 0 0.00076896258029895623 0.027561727394212122 0 0.00075123099820449419 0.02722031215945514 0 0.0010600743389006823 0.026068618184897373 0 0.0010611034514969035 0.025563997379453352 0 0.0002954460415156872 0.026159953937564883 0 1.3492842514225273e-05 0.025120081894291272 0 0.00017352443125975804 0.023901086149025169 0 -0.00035934179532254442 0.025590949991072136 0 0.0002954460415156872 0.026159953937564883 0 1.3492842514225273e-05 0.025120081894291272 0 -0.00035934179532254442 0.025590949991072136 0 -2.4725338311744543e-05 0.024850662788332437 0 1.3492842514225273e-05 0.025120081894291272 0 -2.4725338311744543e-05 0.024850662788332437 0 -1.4494038709432981e-06 0.025821881478271417 0 1.4324414516146996e-06 0.023989831048411649 0 -2.4725338311744543e-05 0.024850662788332437 0 1.3492842514225273e-05 0.025120081894291272 0 0.00017352443125975804 0.023901086149025169 0 -2.4725338311744543e-05 0.024850662788332437 0 0.00017352443125975804 0.023901086149025169 0 1.4324414516146996e-06 0.023989831048411649 0 -0.00017551463135283605 0.026110755746641685 0 -0.00035934179532254442 0.025590949991072136 0 -1.4494038709432981e-06 0.025821881478271417 0 -0.00035934179532254442 0.025590949991072136 0 -2.4725338311744543e-05 0.024850662788332437 0 -1.4494038709432981e-06 0.025821881478271417 0 -0.00011575623290655265 0.021935239214608247 0 -8.8534533469740927e-07 0.022159378991817601 0 1.5729311213968941e-05 0.022600976863854826 0 -0.00011575623290655265 0.021935239214608247 0 -8.8534533469740927e-07 0.022159378991817601 0 -0.00026792749278676094 0.021414736505689782 0 -8.8534533469740927e-07 0.022159378991817601 0 1.4324414516146996e-06 0.023989831048411649 0 1.5729311213968941e-05 0.022600976863854826 0 0.00017352443125975804 0.023901086149025169 0 1.4324414516146996e-06 0.023989831048411649 0 1.5729311213968941e-05 0.022600976863854826 0 5.8251952637703092e-05 0.021952726792261727 0 6.1896081456427912e-05 0.021782026860461393 0 0.00047480925277116302 0.022362600785452644 0 0.00017352443125975804 0.023901086149025169 0 1.5729311213968941e-05 0.022600976863854826 0 0.00047480925277116302 0.022362600785452644 0 1.5729311213968941e-05 0.022600976863854826 0 0.00021310637052561083 0.022307266721249802 0 1.5729311213968941e-05 0.022600976863854826 0 -0.0002196496602633713 0.021438920796899019 0 0.00034663659011300164 0.020932324561251037 0 -0.00011575623290655265 0.021935239214608247 0 1.5729311213968941e-05 0.022600976863854826 0 -0.0002196496602633713 0.021438920796899019 0 -0.00011575623290655265 0.021935239214608247 0 -0.0002196496602633713 0.021438920796899019 0 -0.00026792749278676094 0.021414736505689782 0 -0.0002196496602633713 0.021438920796899019 0 -0.00031809813366426493 0.020973138965735098 0 0.00034663659011300164 0.020932324561251037 0 -0.00031809813366426493 0.020973138965735098 0 0.00034663659011300164 0.020932324561251037 0 -0.00020843787958671619 0.020673699393015773 0 0.00033697466717673191 0.022327642825594865 0 0.00047480925277116302 0.022362600785452644 0 0.00021310637052561083 0.022307266721249802 0 0.00033697466717673191 0.022327642825594865 0 0.00021310637052561083 0.022307266721249802 0 0.00029407064119472737 0.022290431795906031 0 1.9002850909826153e-05 0.021669346588624832 0 6.1896081456427912e-05 0.021782026860461393 0 0.00026437840364233549 0.022236211503577519 0 0.00021310637052561083 0.022307266721249802 0 0.00029407064119472737 0.022290431795906031 0 0.00032525087434151902 0.020319705739077723 0 0.00034663659011300164 0.020932324561251037 0 -5.0768115551489708e-05 0.020348932308723068 0 0.00026437840364233549 0.022236211503577519 0 0.00031216728607258161 0.022220437232953756 0 0.00029407064119472737 0.022290431795906031 0 0.00034663659011300164 0.020932324561251037 0 -0.00020843787958671619 0.020673699393015773 0 -5.0768115551489708e-05 0.020348932308723068 0 -0.00020843787958671619 0.020673699393015773 0 -5.0768115551489708e-05 0.020348932308723068 0 -0.00025521895191915985 0.020420418549730594 0 -0.00033836023486706585 0.020735422356564503 0 -0.00030525240680313409 0.020849093534626145 0 -0.00037130027268011706 0.020527170418219075 0 -0.00030525240680313409 0.020849093534626145 0 -0.00039489371655985773 0.020518121268466732 0 -0.00058166720588866453 0.020668112245270161 0 -0.00036975616292049302 0.020198988682243079 0 -0.00025521895191915985 0.020420418549730594 0 -0.00039489371655985773 0.020518121268466732 0 -0.00036975616292049302 0.020198988682243079 0 -0.00093240086477854565 0.019682804294697299 0 -0.00097867845952847817 0.019636596233355036 0 -0.0011389068182671434 0.019860988273936626 0 -0.00020843787958671619 0.020673699393015773 0 -0.00025521895191915985 0.020420418549730594 0 -0.00039489371655985773 0.020518121268466732 0 -0.00039489371655985773 0.020518121268466732 0 -0.00049174708327122342 0.020659913406584893 0 -0.00045417845061027339 0.02075304598000105 0 -0.00039489371655985773 0.020518121268466732 0 -0.00049174708327122342 0.020659913406584893 0 -0.00058166720588866453 0.020668112245270161 0 -0.00052109172755921936 0.020698126114117896 0 -0.00049174708327122342 0.020659913406584893 0 -0.00058166720588866453 0.020668112245270161 0 -0.00052109172755921936 0.020698126114117896 0 -0.00049174708327122342 0.020659913406584893 0 -0.00045417845061027339 0.02075304598000105 0 -0.00020843787958671619 0.020673699393015773 0 -0.00039489371655985773 0.020518121268466732 0 -0.00045417845061027339 0.02075304598000105 0 -0.00043485074083872931 0.020508891660734985 0 -0.00043476670105572135 0.020632501050341267 0 -0.00093240086477854565 0.019682804294697299 0 -0.00073280462675691556 0.019632744567726151 0 -0.00098438571231095388 0.019824323702301708 0 -0.00073280462675691556 0.019632744567726151 0 -0.00081373309215554402 0.019707588694811588 0 -0.00089108024748393736 0.01969270844619005 0 -0.00097867845952847817 0.019636596233355036 0 -0.00089311397915221359 0.019616181440411686 0 -0.00084898654062166607 0.01955511271471785 0 -0.00093240086477854565 0.019682804294697299 0 -0.00097867845952847817 0.019636596233355036 0 -0.00089311397915221359 0.019616181440411686 0 -0.00093240086477854565 0.019682804294697299 0 -0.00089311397915221359 0.019616181440411686 0 -0.00073280462675691556 0.019632744567726151 0 -0.00089311397915221359 0.019616181440411686 0 -0.00084898654062166607 0.01955511271471785 0 -0.00073280462675691556 0.019632744567726151 0 -0.00097867845952847817 0.019636596233355036 0 -0.00084898654062166607 0.01955511271471785 0 -0.00081806446849600097 0.019390160532860676 0 -0.00058166720588866453 0.020668112245270161 0 -0.00054189472748692217 0.020709353595310009 0 -0.00046971210118715198 0.020647666693549001 0 -0.00037130027268011706 0.020527170418219075 0 -0.00042815302546361122 0.020366606363239961 0 -0.00052109172755921936 0.020698126114117896 0 -0.00058166720588866453 0.020668112245270161 0 -0.00054189472748692217 0.020709353595310009 0 -0.00054189472748692217 0.020709353595310009 0 -0.00054794078879258107 0.020700475696573066 0 -0.00046971210118715198 0.020647666693549001 0 -0.00031809813366426493 0.020973138965735098 0 -0.00020843787958671619 0.020673699393015773 0 -0.00045417845061027339 0.02075304598000105 0 -0.00052109172755921936 0.020698126114117896 0 -0.00054189472748692217 0.020709353595310009 0 -0.00045417845061027339 0.02075304598000105 0 -0.00054189472748692217 0.020709353595310009 0 -0.00045417845061027339 0.02075304598000105 0 -0.00046399267213683001 0.020880190112126856 0 -0.00054189472748692217 0.020709353595310009 0 -0.00054794078879258107 0.020700475696573066 0 -0.00046399267213683001 0.020880190112126856 0 -0.0002196496602633713 0.021438920796899019 0 -0.00031809813366426493 0.020973138965735098 0 -0.00046399267213683001 0.020880190112126856 0 -0.00031809813366426493 0.020973138965735098 0 -0.00045417845061027339 0.02075304598000105 0 -0.00046399267213683001 0.020880190112126856 0 -0.00043367118389709021 0.02096358496844488 0 -0.00054435214139026843 0.02047872060496847 0 -0.00026792749278676094 0.021414736505689782 0 -0.0002196496602633713 0.021438920796899019 0 -0.00046399267213683001 0.020880190112126856 0 -0.00043367118389709021 0.02096358496844488 0 -0.0002196496602633713 0.021438920796899019 0 -0.00043367118389709021 0.02096358496844488 0 -0.00026792749278676094 0.021414736505689782 0 -0.00054794078879258107 0.020700475696573066 0 -0.00046399267213683001 0.020880190112126856 0 -0.00043367118389709021 0.02096358496844488 0 -0.00054794078879258107 0.020700475696573066 0 -0.00046971210118715198 0.020647666693549001 0 -0.00054435214139026843 0.02047872060496847 0 -0.00054435214139026843 0.02047872060496847 0 -0.00053289290620692339 0.019873097774839248 0 -0.00026792749278676094 0.021414736505689782 0 -0.00054794078879258107 0.020700475696573066 0 -0.00043367118389709021 0.02096358496844488 0 -0.00054435214139026843 0.02047872060496847 0 -0.00046971210118715198 0.020647666693549001 0 -0.00052848179258275195 0.020004966661657058 0 -0.00054435214139026843 0.02047872060496847 0 -0.00052848179258275195 0.020004966661657058 0 -0.00054435214139026843 0.02047872060496847 0 -0.00053289290620692339 0.019873097774839248 0 -2.0741801839967445e-07 0.02032869182037305 0 5.4892819137080112e-06 0.019817380895656121 0 -0.00026792749278676094 0.021414736505689782 0 -0.00032054792248709628 0.019159482986732302 0 -0.00033289827546625054 0.01939534693157147 0 -8.8534533469740927e-07 0.022159378991817601 0 -2.0741801839967445e-07 0.02032869182037305 0 -0.00026792749278676094 0.021414736505689782 0 -1.2008251242308159e-06 0.016667066972445424 0 3.400396917715052e-07 0.018498116698114381 0 -8.9469692636321331e-06 0.017907488523351396 0 -0.00053289290620692339 0.019873097774839248 0 -0.00073115802935182141 0.01817198890907425 0 -0.00057665773635891574 0.018949722887993462 0 5.4892819137080112e-06 0.019817380895656121 0 3.400396917715052e-07 0.018498116698114381 0 -8.9469692636321331e-06 0.017907488523351396 0 -0.00032054792248709628 0.019159482986732302 0 -0.00026407208018449811 0.018717454928317487 0 -2.0741801839967445e-07 0.02032869182037305 0 5.4892819137080112e-06 0.019817380895656121 0 3.400396917715052e-07 0.018498116698114381 0 -0.00042815302546361122 0.020366606363239961 0 -0.00043811280084045449 0.020285793636391658 0 -0.00046971210118715198 0.020647666693549001 0 -0.00052848179258275195 0.020004966661657058 0 -0.00054473543630623622 0.01919244297196419 0 -0.00067060720231174194 0.018926742305308386 0 -0.000681537890499847 0.018922563409944894 0 -0.00053289290620692339 0.019873097774839248 0 -0.00057665773635891574 0.018949722887993462 0 -0.00054473543630623622 0.01919244297196419 0 -0.00057665773635891574 0.018949722887993462 0 -0.00054473543630623622 0.01919244297196419 0 -0.00064551338214765717 0.019270749514088394 0 -0.00081806446849600097 0.019390160532860676 0 -0.00054473543630623622 0.01919244297196419 0 -0.00064551338214765717 0.019270749514088394 0 -0.00057665773635891574 0.018949722887993462 0 -0.00071448273543894228 0.018242541652496478 0 -0.00056549135553683088 0.018039259596598099 0 -0.00057665773635891574 0.018949722887993462 0 -0.00064551338214765717 0.019270749514088394 0 -0.0006119816581689429 0.019541705737019074 0 -0.00052848179258275195 0.020004966661657058 0 -0.00053289290620692339 0.019873097774839248 0 -0.00054473543630623622 0.01919244297196419 0 -0.00073115802935182141 0.01817198890907425 0 -0.00057665773635891574 0.018949722887993462 0 -0.00072976708949813675 0.018280653365794756 0 -0.00057665773635891574 0.018949722887993462 0 -0.00071448273543894228 0.018242541652496478 0 -0.00072976708949813675 0.018280653365794756 0 -0.0006425848693792437 0.017891902034008443 0 -0.00073115802935182141 0.01817198890907425 0 -0.00072976708949813675 0.018280653365794756 0 -0.0006425848693792437 0.017891902034008443 0 -0.00072976708949813675 0.018280653365794756 0 -0.00070296415211978382 0.018089857751212621 0 -0.00071448273543894228 0.018242541652496478 0 -0.00072976708949813675 0.018280653365794756 0 -0.00070296415211978382 0.018089857751212621 0 -0.00071448273543894228 0.018242541652496478 0 -0.00070296415211978382 0.018089857751212621 0 -0.00066622538672640632 0.018111344473470445 0 -0.00071448273543894228 0.018242541652496478 0 -0.00066622538672640632 0.018111344473470445 0 -0.00056549135553683088 0.018039259596598099 0 -0.00066622538672640632 0.018111344473470445 0 -0.00056549135553683088 0.018039259596598099 0 -0.00062114743831744403 0.018161872005684816 0 -0.00084898654062166607 0.01955511271471785 0 -0.00081806446849600097 0.019390160532860676 0 -0.0006119816581689429 0.019541705737019074 0 -0.00084898654062166607 0.01955511271471785 0 -0.0006119816581689429 0.019541705737019074 0 -0.00073280462675691556 0.019632744567726151 0 -0.00081806446849600097 0.019390160532860676 0 -0.00064551338214765717 0.019270749514088394 0 -0.0006119816581689429 0.019541705737019074 0 -0.000681537890499847 0.018922563409944894 0 -0.00071844985496130273 0.018994939285727545 0 -0.00056549135553683088 0.018039259596598099 0 -0.00062114743831744403 0.018161872005684816 0 -0.00068718593509023602 0.018213072801839605 0 -0.0006119816581689429 0.019541705737019074 0 -0.00073280462675691556 0.019632744567726151 0 -0.00074677272803204929 0.019710123773391035 0 -0.00073280462675691556 0.019632744567726151 0 -0.00074677272803204929 0.019710123773391035 0 -0.00081373309215554402 0.019707588694811588 0 -0.00060188426389279619 0.018157570331003656 0 -0.00066622538672640632 0.018111344473470445 0 -0.00062114743831744403 0.018161872005684816 0 -0.0005456316111910512 0.018255801210994141 0 -0.00062114743831744403 0.018161872005684816 0 -0.00061961614360483085 0.018264455980266353 0 -0.00035984796754453153 0.018583581506784699 0 -0.00053342018244144991 0.018805062467069488 0 -0.00062114743831744403 0.018161872005684816 0 -0.00061961614360483085 0.018264455980266353 0 -0.00068718593509023602 0.018213072801839605 0 -0.00053765139954501349 0.01896411350966587 0 -0.00069554873581318039 0.019144108714943823 0 -0.00049964035046967984 0.019174847733755985 0 -0.00032959637831679172 0.019019231959493437 0 -0.00053765139954501349 0.01896411350966587 0 -0.00049964035046967984 0.019174847733755985 0 -0.00076611138123576072 0.019132988711793305 0 -0.00071844985496130273 0.018994939285727545 0 -0.00053342018244144991 0.018805062467069488 0 -0.00076611138123576072 0.019132988711793305 0 -0.00061961614360483085 0.018264455980266353 0 -0.00070576736434606888 0.018345657295468762 0 -0.00068718593509023602 0.018213072801839605 0 -0.00080217451330083273 0.01980086988101178 0 -0.00074677272803204929 0.019710123773391035 0 -0.00082471663726221129 0.019748459781162402 0 -0.00074677272803204929 0.019710123773391035 0 -0.00081373309215554402 0.019707588694811588 0 -0.00082471663726221129 0.019748459781162402 0 -0.00081373309215554402 0.019707588694811588 0 -0.00089108024748393736 0.01969270844619005 0 -0.00087210703651133682 0.019737021343412965 0 -0.00081373309215554402 0.019707588694811588 0 -0.00087210703651133682 0.019737021343412965 0 -0.00082471663726221129 0.019748459781162402 0 -0.00035328461333542519 0.020979250817387083 0 -0.00043476670105572135 0.020632501050341267 0 -0.00098104935446640014 0.019749495953155168 0 -0.00089108024748393736 0.01969270844619005 0 -0.00092137698812112465 0.019745551627830329 0 -0.00093240086477854565 0.019682804294697299 0 -0.00098438571231095388 0.019824323702301708 0 -0.001145521317457067 0.019867735634649362 0 -0.001242667694539756 0.020002765476082745 0 -0.00098438571231095388 0.019824323702301708 0 -0.001145521317457067 0.019867735634649362 0 -0.00089108024748393736 0.01969270844619005 0 -0.00087210703651133682 0.019737021343412965 0 -0.00092137698812112465 0.019745551627830329 0 -0.00035328461333542519 0.020979250817387083 0 -0.00030525240680313409 0.020849093534626145 0 -0.00092137698812112465 0.019745551627830329 0 -0.00096487578023719345 0.019767912184717063 0 -0.00093397696138346491 0.019796531301773477 0 -0.00098104935446640014 0.019749495953155168 0 -0.00092137698812112465 0.019745551627830329 0 -0.00096487578023719345 0.019767912184717063 0 -0.00092137698812112465 0.019745551627830329 0 -0.00093397696138346491 0.019796531301773477 0 -0.00087387705641191313 0.019784958706760915 0 -0.00097185681529381152 0.019794317175640321 0 -0.00096487578023719345 0.019767912184717063 0 -0.00093397696138346491 0.019796531301773477 0 -0.00080217451330083273 0.01980086988101178 0 -0.00082471663726221129 0.019748459781162402 0 -0.00087387705641191313 0.019784958706760915 0 -0.00087210703651133682 0.019737021343412965 0 -0.00082471663726221129 0.019748459781162402 0 -0.00087387705641191313 0.019784958706760915 0 -0.00087210703651133682 0.019737021343412965 0 -0.00092137698812112465 0.019745551627830329 0 -0.00087387705641191313 0.019784958706760915 0 -0.00068436398869422882 0.019188740189214938 0 -0.00084998996132600144 0.019365111678281921 0 -0.00070047345261766748 0.019332253223128752 0 -0.00076611138123576072 0.019132988711793305 0 -0.00090903617063088366 0.019398823444200235 0 -0.00093397696138346491 0.019796531301773477 0 -0.00087387705641191313 0.019784958706760915 0 -0.00091235018464214698 0.019849609756941881 0 -0.00080217451330083273 0.01980086988101178 0 -0.00087387705641191313 0.019784958706760915 0 -0.00091235018464214698 0.019849609756941881 0 -0.0010057790009084723 0.019839238156043968 0 -0.00097951614552323316 0.019820776105103789 0 -0.00091235018464214698 0.019849609756941881 0 -0.00097951614552323316 0.019820776105103789 0 -0.00093397696138346491 0.019796531301773477 0 -0.00091235018464214698 0.019849609756941881 0 -0.00097951614552323316 0.019820776105103789 0 -0.00097185681529381152 0.019794317175640321 0 -0.00093397696138346491 0.019796531301773477 0 -0.00084998996132600144 0.019365111678281921 0 -0.00088218484866543659 0.019515717671414752 0 -0.0010085876494262114 0.019576916479261498 0 -0.0010057790009084723 0.019839238156043968 0 -0.00091235018464214698 0.019849609756941881 0 -0.0010128562500763161 0.019855502326874594 0 -0.00090903617063088366 0.019398823444200235 0 -0.00099505746812473032 0.019544091525041059 0 -0.00084998996132600144 0.019365111678281921 0 -0.00088218484866543659 0.019515717671414752 0 -0.00072988413144958926 0.019490226574274135 0 -0.00084998996132600144 0.019365111678281921 0 -0.00072988413144958926 0.019490226574274135 0 -0.00070047345261766748 0.019332253223128752 0 -0.00072988413144958926 0.019490226574274135 0 -0.00058834745286720708 0.019496009119515562 0 -0.00070047345261766748 0.019332253223128752 0 -0.00058834745286720708 0.019496009119515562 0 -0.00056420281191939356 0.019316912336971703 0 -0.00070047345261766748 0.019332253223128752 0 -0.00042207774407282384 0.019359575812377829 0 -0.00058834745286720708 0.019496009119515562 0 -0.00056420281191939356 0.019316912336971703 0 -0.00042207774407282384 0.019359575812377829 0 -0.00058834745286720708 0.019496009119515562 0 -0.00044910413766691018 0.019615752103094485 0 -0.00069554873581318039 0.019144108714943823 0 -0.00049964035046967984 0.019174847733755985 0 -0.00056420281191939356 0.019316912336971703 0 -0.00042207774407282384 0.019359575812377829 0 -0.00049964035046967984 0.019174847733755985 0 -0.00056420281191939356 0.019316912336971703 0 -0.00069554873581318039 0.019144108714943823 0 -0.00056420281191939356 0.019316912336971703 0 -0.00070047345261766748 0.019332253223128752 0 -0.00076611138123576072 0.019132988711793305 0 -0.00076450202802563348 0.019156615768828173 0 -0.00066994447960624904 0.019712216045420217 0 -0.00044910413766691018 0.019615752103094485 0 -0.00052767873192424697 0.019853575750188243 0 -0.00058834745286720708 0.019496009119515562 0 -0.00066994447960624904 0.019712216045420217 0 -0.00044910413766691018 0.019615752103094485 0 -0.00072988413144958926 0.019490226574274135 0 -0.00058834745286720708 0.019496009119515562 0 -0.00066994447960624904 0.019712216045420217 0 -0.00088218484866543659 0.019515717671414752 0 -0.00072988413144958926 0.019490226574274135 0 -0.00082234097150317475 0.019615452361577246 0 -0.00072988413144958926 0.019490226574274135 0 -0.00066994447960624904 0.019712216045420217 0 -0.00082234097150317475 0.019615452361577246 0 -0.00088218484866543659 0.019515717671414752 0 -0.00092372755742846878 0.019619533346372581 0 -0.0010085876494262114 0.019576916479261498 0 -0.00092372755742846878 0.019619533346372581 0 -0.0010019761973092561 0.019700837286049551 0 -0.0010085876494262114 0.019576916479261498 0 -0.00088218484866543659 0.019515717671414752 0 -0.00082234097150317475 0.019615452361577246 0 -0.00092372755742846878 0.019619533346372581 0 -0.00082234097150317475 0.019615452361577246 0 -0.00092372755742846878 0.019619533346372581 0 -0.00091839967172509794 0.019716710531426627 0 -0.00082234097150317475 0.019615452361577246 0 -0.00091839967172509794 0.019716710531426627 0 -0.00082855055967946754 0.019763985518407599 0 -0.00092372755742846878 0.019619533346372581 0 -0.00091839967172509794 0.019716710531426627 0 -0.0010019761973092561 0.019700837286049551 0 -0.00091839967172509794 0.019716710531426627 0 -0.00082855055967946754 0.019763985518407599 0 -0.00092674096526279917 0.019862193665905942 0 -0.00091839967172509794 0.019716710531426627 0 -0.00092674096526279917 0.019862193665905942 0 -0.0010173747951705413 0.019780697468107882 0 -0.00091839967172509794 0.019716710531426627 0 -0.0010173747951705413 0.019780697468107882 0 -0.0010019761973092561 0.019700837286049551 0 -0.00066994447960624904 0.019712216045420217 0 -0.00082234097150317475 0.019615452361577246 0 -0.00082855055967946754 0.019763985518407599 0 -0.00066994447960624904 0.019712216045420217 0 -0.00082855055967946754 0.019763985518407599 0 -0.00079357366213691246 0.019899965825730247 0 -0.00082855055967946754 0.019763985518407599 0 -0.00079357366213691246 0.019899965825730247 0 -0.00092674096526279917 0.019862193665905942 0 -0.00079357366213691246 0.019899965825730247 0 -0.00074277490007822026 0.020030277560890264 0 -0.00066425028210776794 0.019916529522906592 0 -0.00071976072034101747 0.020712197004906369 0 -0.00069253304024088013 0.021242540624056776 0 -0.00092674096526279917 0.019862193665905942 0 -0.00088589759787802819 0.020144129716953434 0 -0.0010427597629337529 0.0199588225791093 0 -0.00079357366213691246 0.019899965825730247 0 -0.00092674096526279917 0.019862193665905942 0 -0.00093500550428758623 0.020060388312778992 0 -0.00079357366213691246 0.019899965825730247 0 -0.00093500550428758623 0.020060388312778992 0 -0.00074277490007822026 0.020030277560890264 0 -0.00093500550428758623 0.020060388312778992 0 -0.00074277490007822026 0.020030277560890264 0 -0.00077321711384360098 0.02015642187480652 0 -0.00074277490007822026 0.020030277560890264 0 -0.00061849158580255337 0.020044185486248724 0 -0.00066425028210776794 0.019916529522906592 0 -0.00074277490007822026 0.020030277560890264 0 -0.00061849158580255337 0.020044185486248724 0 -0.00077321711384360098 0.02015642187480652 0 -0.00066994447960624904 0.019712216045420217 0 -0.00079357366213691246 0.019899965825730247 0 -0.00066425028210776794 0.019916529522906592 0 -0.00066994447960624904 0.019712216045420217 0 -0.00066425028210776794 0.019916529522906592 0 -0.00052767873192424697 0.019853575750188243 0 -0.00061849158580255337 0.020044185486248724 0 -0.00066425028210776794 0.019916529522906592 0 -0.00052767873192424697 0.019853575750188243 0 -0.00042726424410385942 0.020024006124652778 0 -0.00061849158580255337 0.020044185486248724 0 -0.00052767873192424697 0.019853575750188243 0 -0.00042726424410385942 0.020024006124652778 0 -0.00061849158580255337 0.020044185486248724 0 -0.00053611254836405441 0.020197343724460439 0 -0.00061849158580255337 0.020044185486248724 0 -0.00053611254836405441 0.020197343724460439 0 -0.00073557038879882219 0.020288032746931202 0 -0.00061849158580255337 0.020044185486248724 0 -0.00073557038879882219 0.020288032746931202 0 -0.00094579795001989311 0.020234664153278584 0 -0.00010713571326403771 0.021786117316751005 0 -0.00021398968504150951 0.022146308348487256 0 -0.00073557038879882219 0.020288032746931202 0 -0.00085282449007973511 0.020410357386263532 0 -0.00094579795001989311 0.020234664153278584 0 -0.00073557038879882219 0.020288032746931202 0 -0.00085282449007973511 0.020410357386263532 0 -0.00072952839684619622 0.020583030194026079 0 -0.00053611254836405441 0.020197343724460439 0 -0.00073557038879882219 0.020288032746931202 0 -0.00072952839684619622 0.020583030194026079 0 -0.00053611254836405441 0.020197343724460439 0 -0.00076394487538615486 0.020471339174442833 0 -0.00069685884416601429 0.020408655380256518 0 -0.00076394487538615486 0.020471339174442833 0 -0.00069685884416601429 0.020408655380256518 0 -0.00061962222052372798 0.02050615568842843 0 -0.00085282449007973511 0.020410357386263532 0 -0.00072952839684619622 0.020583030194026079 0 -0.00088649314431933223 0.020547416087825433 0 -0.0007176897158209614 0.02046885068377198 0 -0.00079314037032224369 0.02059424604455206 0 -0.00034433834359535564 0.020360889977522084 0 -0.00053611254836405441 0.020197343724460439 0 -0.00069685884416601429 0.020408655380256518 0 -0.0003762772782983742 0.020344826564801393 0 -0.00069685884416601429 0.020408655380256518 0 -0.00061962222052372798 0.02050615568842843 0 -0.00031502545755206153 0.020338448531468396 0 -0.00043012769433863524 0.020356947987132393 0 -0.0003762772782983742 0.020344826564801393 0 -0.00053506662604487583 0.020628891110011132 0 -0.00061962222052372798 0.02050615568842843 0 -0.00053506662604487583 0.020628891110011132 0 -0.00061962222052372798 0.02050615568842843 0 -0.00074611895667977505 0.02069330675865097 0 -0.00079314037032224369 0.02059424604455206 0 -0.00092566990036722419 0.020814680155145832 0 -0.00076394487538615486 0.020471339174442833 0 -0.00074611895667977505 0.02069330675865097 0 -0.00098732810636210314 0.020816228818231808 0 -0.00076394487538615486 0.020471339174442833 0 -0.00061962222052372798 0.02050615568842843 0 -0.00074611895667977505 0.02069330675865097 0 -0.00072952839684619622 0.020583030194026079 0 -0.00095535461238481284 0.02068432442458383 0 -0.00088649314431933223 0.020547416087825433 0 -0.00074611895667977505 0.02069330675865097 0 -0.0006397465017007382 0.020859610703663774 0 -0.00098732810636210314 0.020816228818231808 0 -0.00053506662604487583 0.020628891110011132 0 -0.00074611895667977505 0.02069330675865097 0 -0.0006397465017007382 0.020859610703663774 0 -0.00044305304691495537 0.020793435108375495 0 -0.00053506662604487583 0.020628891110011132 0 -0.0006397465017007382 0.020859610703663774 0 -0.0011924946631422975 0.020958970133986621 0 -0.0010875759721969463 0.020804764315862697 0 -0.0012507947681842805 0.020802052825642563 0 -0.0011924946631422975 0.020958970133986621 0 -0.0012507947681842805 0.020802052825642563 0 -0.00131740037990007 0.020906987734083428 0 -0.0012507947681842805 0.020802052825642563 0 -0.00131740037990007 0.020906987734083428 0 -0.001329140856670283 0.020827423876301539 0 -0.0011924946631422975 0.020958970133986621 0 -0.00131740037990007 0.020906987734083428 0 -0.0013577167876207194 0.02104286293454986 0 -0.0011924946631422975 0.020958970133986621 0 -0.00096606700420317571 0.020941275870607005 0 -0.0010875759721969463 0.020804764315862697 0 -0.0010875759721969463 0.020804764315862697 0 -0.0010624312564814606 0.020673089083266868 0 -0.0011461621357659385 0.020711598803167502 0 -0.00072952839684619622 0.020583030194026079 0 -0.00096606700420317571 0.020941275870607005 0 -0.00095535461238481284 0.02068432442458383 0 -0.0010875759721969463 0.020804764315862697 0 -0.00095535461238481284 0.02068432442458383 0 -0.0010624312564814606 0.020673089083266868 0 -0.00096606700420317571 0.020941275870607005 0 -0.0010875759721969463 0.020804764315862697 0 -0.00095535461238481284 0.02068432442458383 0 -0.00095535461238481284 0.02068432442458383 0 -0.00088649314431933223 0.020547416087825433 0 -0.0010073506629240275 0.02056275884200642 0 -0.00095535461238481284 0.02068432442458383 0 -0.0010624312564814606 0.020673089083266868 0 -0.0010073506629240275 0.02056275884200642 0 -0.0010624312564814606 0.020673089083266868 0 -0.0011153555253470301 0.020598688225486855 0 -0.0010073506629240275 0.02056275884200642 0 -0.0011153555253470301 0.020598688225486855 0 -0.0011906675174387937 0.020649585149504927 0 -0.0011844330533094135 0.020571975685002665 0 -0.0011906675174387937 0.020649585149504927 0 -0.0012567939658232827 0.02068589776284337 0 -0.0011844330533094135 0.020571975685002665 0 -0.0011906675174387937 0.020649585149504927 0 -0.0011461621357659385 0.020711598803167502 0 -0.0012365799906953298 0.020710681107956815 0 -0.0011153555253470301 0.020598688225486855 0 -0.0011906675174387937 0.020649585149504927 0 -0.0011461621357659385 0.020711598803167502 0 -0.0010624312564814606 0.020673089083266868 0 -0.0011153555253470301 0.020598688225486855 0 -0.0011461621357659385 0.020711598803167502 0 -0.0010875759721969463 0.020804764315862697 0 -0.0011461621357659385 0.020711598803167502 0 -0.0012507947681842805 0.020802052825642563 0 -0.0012507947681842805 0.020802052825642563 0 -0.0012544716031609919 0.020719027799268326 0 -0.0013424176709035357 0.020759975557986289 0 -0.0012507947681842805 0.020802052825642563 0 -0.0012365799906953298 0.020710681107956815 0 -0.0012558483921980012 0.020686874679129594 0 -0.0010752726023831869 0.0235977287089826 0 -0.0010737860188430369 0.023745708904085082 0 -0.0011461621357659385 0.020711598803167502 0 -0.0012507947681842805 0.020802052825642563 0 -0.0012365799906953298 0.020710681107956815 0 -0.0010737860188430369 0.023745708904085082 0 -0.00095423063883206497 0.024913919197740546 0 -0.0011906675174387937 0.020649585149504927 0 -0.0012365799906953298 0.020710681107956815 0 -0.0012567939658232827 0.02068589776284337 0 -0.0010780373358100579 0.023737606498728844 0 -0.0010737860188430369 0.023745708904085082 0 -0.0010737860188430369 0.023745708904085082 0 -0.0006083024872679865 0.023357735570854615 0 -0.0013702190486990593 0.024254938695139307 0 -0.0013754488367312145 0.02524997812298219 0 -0.00087477591533082475 0.024903820508244051 0 -0.0010984562845041466 0.020467875260087223 0 -0.0012594696088808089 0.020456206399907209 0 -0.00094579795001989311 0.020234664153278584 0 -0.0012567939658232827 0.02068589776284337 0 -0.0011844330533094135 0.020571975685002665 0 -0.0012594696088808089 0.020456206399907209 0 -0.0006083024872679865 0.023357735570854615 0 -0.00095423063883206497 0.024913919197740546 0 -0.0011844330533094135 0.020571975685002665 0 -0.0010984562845041466 0.020467875260087223 0 -0.0012594696088808089 0.020456206399907209 0 -0.0011153555253470301 0.020598688225486855 0 -0.0011844330533094135 0.020571975685002665 0 -0.0010984562845041466 0.020467875260087223 0 -0.00088649314431933223 0.020547416087825433 0 -0.0010073506629240275 0.02056275884200642 0 -0.00095821824015086181 0.02044462953982228 0 -0.0011153555253470301 0.020598688225486855 0 -0.0010984562845041466 0.020467875260087223 0 -0.0010073506629240275 0.02056275884200642 0 -0.0010984562845041466 0.020467875260087223 0 -0.0010073506629240275 0.02056275884200642 0 -0.00095821824015086181 0.02044462953982228 0 -0.0010984562845041466 0.020467875260087223 0 -0.00095821824015086181 0.02044462953982228 0 -0.00094579795001989311 0.020234664153278584 0 -0.00085282449007973511 0.020410357386263532 0 -0.00095821824015086181 0.02044462953982228 0 -0.00094579795001989311 0.020234664153278584 0 -0.00085282449007973511 0.020410357386263532 0 -0.00088649314431933223 0.020547416087825433 0 -0.00095821824015086181 0.02044462953982228 0 -0.00088589759787802819 0.020144129716953434 0 -0.00087525703976623398 0.020458854969888363 0 -0.00099363113305897771 0.020277162415635472 0 -0.00069253304024088013 0.021242540624056776 0 -0.0006083024872679865 0.023357735570854615 0 -0.0006083024872679865 0.023357735570854615 0 -0.00021398968504150951 0.022146308348487256 0 -0.00093500550428758623 0.020060388312778992 0 -0.00093743866947967728 0.020277713287775476 0 -0.00077321711384360098 0.02015642187480652 0 -0.00048403147621182871 0.026323257986464739 0 -0.00073049781246541947 0.025615832778309228 0 -0.00099363113305897771 0.020277162415635472 0 -0.0011345993138112348 0.020277289983645381 0 -0.0010680558695452221 0.020133825724652738 0 -0.00099363113305897771 0.020277162415635472 0 -0.0011345993138112348 0.020277289983645381 0 -0.00097813795657798763 0.020420394690806476 0 0.00073334451866506015 0.031908693314554745 0 0.00027813257406633451 0.032033687192292548 0 0.00032222472430279794 0.031350351751908312 0 0.00073334451866506015 0.031908693314554745 0 0.00054226455388273697 0.032398019341825957 0 0.00027813257406633451 0.032033687192292548 0 0.00073334451866506015 0.031908693314554745 0 0.00054226455388273697 0.032398019341825957 0 0.00080701578624895636 0.032466294128775837 0 0.00054226455388273697 0.032398019341825957 0 0.00029141914386485119 0.032688979968325614 0 0.00027813257406633451 0.032033687192292548 0 0.00080701578624895636 0.032466294128775837 0 0.00058389452388195914 0.032698205514344908 0 0.00093555911296699901 0.032778813763789438 0 0.00054226455388273697 0.032398019341825957 0 0.00080701578624895636 0.032466294128775837 0 0.00058389452388195914 0.032698205514344908 0 0.00054226455388273697 0.032398019341825957 0 0.00058389452388195914 0.032698205514344908 0 0.00029141914386485119 0.032688979968325614 0 0.00073334451866506015 0.031908693314554745 0 0.00080701578624895636 0.032466294128775837 0 0.0011211864397133256 0.032434427819291296 0 -0.0011345993138112348 0.020277289983645381 0 -0.0010060180586104069 0.02047319804797736 0 -0.00097813795657798763 0.020420394690806476 0 -0.0010092601350614788 0.020476196770046095 0 -0.00097813795657798763 0.020420394690806476 0 -0.00096948139959983034 0.020528643622630779 0 -0.00087525703976623398 0.020458854969888363 0 -0.00099363113305897771 0.020277162415635472 0 -0.00097813795657798763 0.020420394690806476 0 -0.00087525703976623398 0.020458854969888363 0 -0.00097813795657798763 0.020420394690806476 0 -0.00096948139959983034 0.020528643622630779 0 -0.00073049781246541947 0.025615832778309228 0 -0.00070055886635015806 0.025532576027419464 0 0.00080701578624895636 0.032466294128775837 0 0.0011211864397133256 0.032434427819291296 0 0.00093555911296699901 0.032778813763789438 0 -0.00073049781246541947 0.025615832778309228 0 -0.00086591598607755325 0.025901235912596091 0 -0.00095423063883206497 0.024913919197740546 0 -0.00086591598607755325 0.025901235912596091 0 -0.00027738025180580622 0.024377043531932246 0 0.00012884167053091864 0.024909996683545675 0 -0.00098821730585596252 0.025682758395300088 0 -0.00073049781246541947 0.025615832778309228 0 -0.00095423063883206497 0.024913919197740546 0 -0.0012544716031609919 0.020719027799268326 0 -0.0013386407343400335 0.020615311800290186 0 -0.0013491535138653919 0.020699984127078016 0 -0.0013386407343400335 0.020615311800290186 0 -0.0013491535138653919 0.020699984127078016 0 -0.001433781026840645 0.020680421337281502 0 -0.0012544716031609919 0.020719027799268326 0 -0.0013491535138653919 0.020699984127078016 0 -0.0013424176709035357 0.020759975557986289 0 -0.0014205591827930522 0.020771129889612439 0 -0.001433781026840645 0.020680421337281502 0 -0.0015791836047266857 0.020868561951203263 0 -0.0012507947681842805 0.020802052825642563 0 -0.0013424176709035357 0.020759975557986289 0 -0.001329140856670283 0.020827423876301539 0 -0.0013491535138653919 0.020699984127078016 0 -0.0013424176709035357 0.020759975557986289 0 -0.0014205591827930522 0.020771129889612439 0 -0.0013424176709035357 0.020759975557986289 0 -0.001329140856670283 0.020827423876301539 0 -0.0014044867663392038 0.020843600413037715 0 -0.0013424176709035357 0.020759975557986289 0 -0.0014205591827930522 0.020771129889612439 0 -0.0014044867663392038 0.020843600413037715 0 -0.0013491535138653919 0.020699984127078016 0 -0.0014205591827930522 0.020771129889612439 0 -0.001433781026840645 0.020680421337281502 0 -0.00086591598607755325 0.025901235912596091 0 -0.00086950400860409227 0.026605971046925473 0 -0.00086591598607755325 0.025901235912596091 0 -0.0011950405875610728 0.026694498402415435 0 0.00058389452388195914 0.032698205514344908 0 0.00093555911296699901 0.032778813763789438 0 0.00033613163059681872 0.033119289058185439 0 0.00050690445699581291 0.032984695301642421 0 0.00033613163059681872 0.033119289058185439 0 0.00032859348464154176 0.033232115087617572 0 0.00058389452388195914 0.032698205514344908 0 0.00033613163059681872 0.033119289058185439 0 0.00029141914386485119 0.032688979968325614 0 0.00032859348464154176 0.033232115087617572 0 0.00012797796508728798 0.033255559243914642 0 9.1802348908223005e-05 0.033225590399228747 0 0.00032859348464154176 0.033232115087617572 0 0.00012797796508728798 0.033255559243914642 0 0.00020244861887332033 0.033219196964271426 0 0.00033613163059681872 0.033119289058185439 0 0.00032859348464154176 0.033232115087617572 0 0.00020244861887332033 0.033219196964271426 0 -0.0015791836047266857 0.020868561951203263 0 -0.0014534741131046985 0.020964530689300518 0 -0.0016366005784916591 0.021114622956784644 0 -0.0014534741131046985 0.020964530689300518 0 -0.00131740037990007 0.020906987734083428 0 -0.0013577167876207194 0.02104286293454986 0 -0.0014534741131046985 0.020964530689300518 0 -0.00131740037990007 0.020906987734083428 0 -0.0014044867663392038 0.020843600413037715 0 -0.00131740037990007 0.020906987734083428 0 -0.001329140856670283 0.020827423876301539 0 -0.0014044867663392038 0.020843600413037715 0 -0.0014205591827930522 0.020771129889612439 0 -0.0015791836047266857 0.020868561951203263 0 -0.0014044867663392038 0.020843600413037715 0 -0.0015791836047266857 0.020868561951203263 0 -0.0014534741131046985 0.020964530689300518 0 -0.0014044867663392038 0.020843600413037715 0 0.00015931513999173409 0.033362310347699681 0 7.9020164796500582e-05 0.033257391189532526 0 -3.8418405421984271e-05 0.033277827420220257 0 0.00015931513999173409 0.033362310347699681 0 0.00019883093488070382 0.033254057780915378 0 7.9020164796500582e-05 0.033257391189532526 0 0.00019883093488070382 0.033254057780915378 0 7.9020164796500582e-05 0.033257391189532526 0 0.00011117990949528884 0.033208393152362445 0 7.9020164796500582e-05 0.033257391189532526 0 0.00012797796508728798 0.033255559243914642 0 0.00011117990949528884 0.033208393152362445 0 0.00012797796508728798 0.033255559243914642 0 0.00020244861887332033 0.033219196964271426 0 -3.8418405421984271e-05 0.033277827420220257 0 7.9020164796500582e-05 0.033257391189532526 0 0.00012797796508728798 0.033255559243914642 0 -3.8418405421984271e-05 0.033277827420220257 0 -3.8418405421984271e-05 0.033277827420220257 0 0.00011174612557341946 0.032913433076218461 0 -0.00059186935669073768 0.032404599065987562 0 0.00020244861887332033 0.033219196964271426 0 -3.8418405421984271e-05 0.033277827420220257 0 0.00011174612557341946 0.032913433076218461 0 0.00033613163059681872 0.033119289058185439 0 0.00020244861887332033 0.033219196964271426 0 0.00011174612557341946 0.032913433076218461 0 0.00033613163059681872 0.033119289058185439 0 0.00011174612557341946 0.032913433076218461 0 0.00029141914386485119 0.032688979968325614 0 -0.00010961627118015436 0.032946819919565724 0 -0.00014035023235575819 0.032829477869588612 0 -3.8418405421984271e-05 0.033277827420220257 0 1.0384083182475006e-05 0.033861608456242198 0 0.00020914250276328722 0.033604272163985718 0 0.00015931513999173409 0.033362310347699681 0 -3.8418405421984271e-05 0.033277827420220257 0 0.00020914250276328722 0.033604272163985718 0 1.0384083182475006e-05 0.033861608456242198 0 0.00019049091727113952 0.033821710637466605 0 0.00020914250276328722 0.033604272163985718 0 -0.00059186935669073768 0.032404599065987562 0 2.5006049216858346e-05 0.032335134429034754 0 -0.00030739175458558923 0.031623161225023504 0 1.0384083182475006e-05 0.033861608456242198 0 0.00018141699436764072 0.034088761174665728 0 0.00019049091727113952 0.033821710637466605 0 -0.00024839340378850997 0.03016331714265633 0 -0.00025580513068065185 0.029426001248312048 0 0.00029141914386485119 0.032688979968325614 0 2.5006049216858346e-05 0.032335134429034754 0 0.00053918247837740543 0.031692865393435132 0 0.00011174612557341946 0.032913433076218461 0 0.00029141914386485119 0.032688979968325614 0 2.5006049216858346e-05 0.032335134429034754 0 0.00011174612557341946 0.032913433076218461 0 -0.00059186935669073768 0.032404599065987562 0 2.5006049216858346e-05 0.032335134429034754 0 0.00053918247837740543 0.031692865393435132 0 6.5862903528414481e-05 0.031106212725650138 0 -0.00030739175458558923 0.031623161225023504 0 2.5006049216858346e-05 0.032335134429034754 0 0.00053918247837740543 0.031692865393435132 0 -0.00030739175458558923 0.031623161225023504 0 -0.00025580513068065185 0.029426001248312048 0 -0.00028336214528819684 0.027072628201972863 0 0.00053918247837740543 0.031692865393435132 0 6.5862903528414481e-05 0.031106212725650138 0 0.00069640264041440178 0.030550664984129762 0 6.5862903528414481e-05 0.031106212725650138 0 -0.00030739175458558923 0.031623161225023504 0 -0.00050867523895734349 0.031018939135160205 0 -0.00059186935669073768 0.032404599065987562 0 -0.00030739175458558923 0.031623161225023504 0 -0.0011174726070796997 0.031233915081459424 0 -0.00014035023235575819 0.032829477869588612 0 -0.0001846630797700046 0.032534727468306497 0 1.0384083182475006e-05 0.033861608456242198 0 0.00017319817905152546 0.034260021751667855 0 0.00018141699436764072 0.034088761174665728 0 -0.00030739175458558923 0.031623161225023504 0 -0.0011174726070796997 0.031233915081459424 0 -0.00050867523895734349 0.031018939135160205 0 -0.0011174726070796997 0.031233915081459424 0 -0.00050867523895734349 0.031018939135160205 0 -0.0008561078060484663 0.030524038119203602 0 -0.00050867523895734349 0.031018939135160205 0 -0.00025505346728719552 0.030479408972127135 0 -0.0008561078060484663 0.030524038119203602 0 -0.00025505346728719552 0.030479408972127135 0 -0.0008561078060484663 0.030524038119203602 0 -0.00078128645257274617 0.029933048302775725 0 -0.0008561078060484663 0.030524038119203602 0 -0.00078128645257274617 0.029933048302775725 0 -0.00164416710020521 0.029935262822246452 0 -0.00025505346728719552 0.030479408972127135 0 -0.00078128645257274617 0.029933048302775725 0 -8.3461691457427915e-05 0.02940806576844365 0 -0.00078128645257274617 0.029933048302775725 0 -0.0010064649789376242 0.029187851963706053 0 -0.00164416710020521 0.029935262822246452 0 -0.00078128645257274617 0.029933048302775725 0 -0.0010064649789376242 0.029187851963706053 0 -8.3461691457427915e-05 0.02940806576844365 0 6.9180005749935831e-05 0.028026265417309758 0 -0.00028336214528819684 0.027072628201972863 0 3.1500885667929532e-06 0.029311132903968883 0 0.00087998390286580012 0.030457754655256731 0 0.0010209791248627488 0.028675697017310597 0 -0.00025505346728719552 0.030479408972127135 0 -8.3461691457427915e-05 0.02940806576844365 0 0.00069640264041440178 0.030550664984129762 0 6.5862903528414481e-05 0.031106212725650138 0 -0.00025505346728719552 0.030479408972127135 0 0.00069640264041440178 0.030550664984129762 0 6.5862903528414481e-05 0.031106212725650138 0 -0.00050867523895734349 0.031018939135160205 0 -0.00025505346728719552 0.030479408972127135 0 -0.00048403147621182871 0.026323257986464739 0 -0.00028336214528819684 0.027072628201972863 0 -0.0011345993138112348 0.020277289983645381 0 -0.0012379970976305948 0.02009666480464772 0 -0.0010680558695452221 0.020133825724652738 0 -0.0012379970976305948 0.02009666480464772 0 -0.0010680558695452221 0.020133825724652738 0 -0.0010427597629337529 0.0199588225791093 0 -0.00088589759787802819 0.020144129716953434 0 -0.00099363113305897771 0.020277162415635472 0 -0.0010680558695452221 0.020133825724652738 0 -0.00088589759787802819 0.020144129716953434 0 -0.0010680558695452221 0.020133825724652738 0 -0.0010427597629337529 0.0199588225791093 0 -0.0012379970976305948 0.02009666480464772 0 -0.0011114539850784104 0.019886118615194646 0 -0.0011605543025394595 0.019834588535727903 0 -0.0012379970976305948 0.02009666480464772 0 -0.0010427597629337529 0.0199588225791093 0 -0.0011114539850784104 0.019886118615194646 0 -0.00028336214528819684 0.027072628201972863 0 -0.0001642035414435994 0.024792966239942576 0 -0.0011605543025394595 0.019834588535727903 0 -0.0011206891768985852 0.019815587231060045 0 -0.0010876862525123815 0.01982586379455625 0 -0.0011114539850784104 0.019886118615194646 0 -0.0011605543025394595 0.019834588535727903 0 -0.0011206891768985852 0.019815587231060045 0 -0.0010427597629337529 0.0199588225791093 0 -0.0011114539850784104 0.019886118615194646 0 -0.0010173747951705413 0.019780697468107882 0 -0.00092674096526279917 0.019862193665905942 0 -0.0010427597629337529 0.0199588225791093 0 -0.0010173747951705413 0.019780697468107882 0 -0.0011206891768985852 0.019815587231060045 0 -0.0010173747951705413 0.019780697468107882 0 -0.0010019761973092561 0.019700837286049551 0 -0.0011114539850784104 0.019886118615194646 0 -0.0011206891768985852 0.019815587231060045 0 -0.0010173747951705413 0.019780697468107882 0 -0.0011206891768985852 0.019815587231060045 0 -0.0010019761973092561 0.019700837286049551 0 -0.0010085876494262114 0.019576916479261498 0 -0.0010323915943894527 0.019598338559842408 0 -0.00099505746812473032 0.019544091525041059 0 -0.0011206891768985852 0.019815587231060045 0 -0.0010380802560271427 0.019843071068906135 0 -0.0010128562500763161 0.019855502326874594 0 -0.0010675980309624454 0.019830202004541303 0 -0.0010380802560271427 0.019843071068906135 0 -0.0010876862525123815 0.01982586379455625 0 -0.0010712889551438909 0.019825693765381156 0 -0.0011605543025394595 0.019834588535727903 0 -0.0010876862525123815 0.01982586379455625 0 -0.0011206891768985852 0.019815587231060045 0 -0.0010380802560271427 0.019843071068906135 0 -0.0010876862525123815 0.01982586379455625 0 -0.0001285544268164161 0.023397519395145606 0 -0.0001642035414435994 0.024792966239942576 0 -0.0010712889551438909 0.019825693765381156 0 -0.0010675980309624454 0.019830202004541303 0 -0.0010876862525123815 0.01982586379455625 0 0.0011699390663915282 0.026834037269913267 0 0.0010209791248627488 0.028675697017310597 0 0.00023015463862873642 0.027718416419326722 0 0.00011628572506743136 0.026862961829589849 0 0.0011699390663915282 0.026834037269913267 0 0.00023015463862873642 0.027718416419326722 0 0.00011628572506743136 0.026862961829589849 0 0.00023015463862873642 0.027718416419326722 0 -0.00052040990353498804 0.027383356366991039 0 0.00023015463862873642 0.027718416419326722 0 -0.00052040990353498804 0.027383356366991039 0 -0.00091682252186899352 0.028168209001801937 0 -0.0008958313377297009 0.026774983633215371 0 -0.00052040990353498804 0.027383356366991039 0 -0.0012330977303003667 0.027567959723214054 0 -0.00052040990353498804 0.027383356366991039 0 -0.00091682252186899352 0.028168209001801937 0 -0.0012330977303003667 0.027567959723214054 0 0.00023015463862873642 0.027718416419326722 0 -0.00091682252186899352 0.028168209001801937 0 8.6867812458079634e-05 0.02847020511473319 0 -0.0010064649789376242 0.029187851963706053 0 -8.3461691457427915e-05 0.02940806576844365 0 -0.00091682252186899352 0.028168209001801937 0 3.1500885667929532e-06 0.029311132903968883 0 -0.00091682252186899352 0.028168209001801937 0 8.6867812458079634e-05 0.02847020511473319 0 6.9180005749935831e-05 0.028026265417309758 0 -1.1341613507879107e-05 0.028070506442496267 0 3.1500885667929532e-06 0.029311132903968883 0 0.0010209791248627488 0.028675697017310597 0 8.6867812458079634e-05 0.02847020511473319 0 0.0010209791248627488 0.028675697017310597 0 0.00023015463862873642 0.027718416419326722 0 8.6867812458079634e-05 0.02847020511473319 0 0.00022955649093686032 0.034633089405236975 0 0.00023923786880114713 0.034632963261481173 0 0.00023137371790921937 0.034634070957310532 0 -0.0010064649789376242 0.029187851963706053 0 -0.00091682252186899352 0.028168209001801937 0 -0.0021729249350190029 0.028548436523466864 0 0.00023662526695838397 0.030262257038307674 0 7.5698474271658844e-05 0.032145024542869091 0 -0.0016511305881864492 0.026953921616256496 0 -0.0021729249350190029 0.028548436523466864 0 -0.0012330977303003667 0.027567959723214054 0 -0.00091682252186899352 0.028168209001801937 0 -0.0021729249350190029 0.028548436523466864 0 -0.0012330977303003667 0.027567959723214054 0 -0.0016511305881864492 0.026953921616256496 0 -0.0008958313377297009 0.026774983633215371 0 -0.0012330977303003667 0.027567959723214054 0 0.00040829848423089082 0.032991851828206881 0 7.5698474271658844e-05 0.032145024542869091 0 0.00095257679337882705 0.031950778408258343 0 0.00074516884635199656 0.031950407738025259 0 0.0008353230952184269 0.031659199080321158 0 0.00023987935766350515 0.034633467856360574 0 0.00022955649093686032 0.034633089405236975 0 0.00023923786880114713 0.034632963261481173 0 0.00024705038686024595 0.034634634182374564 0 0.00023987935766350515 0.034633467856360574 0 0.00023923786880114713 0.034632963261481173 0 0.00024705038686024595 0.034634634182374564 0 0.00023923786880114713 0.034632963261481173 0 0.00024871912777614335 0.034627561885629918 0 0.00024705038686024595 0.034634634182374564 0 0.00024871912777614335 0.034627561885629918 0 0.00025276497440376562 0.034615462674685557 0 0.00026265006383003209 0.034206750007026304 0 0.00014300089708151379 0.034571249089821648 0 0.00025244043979347626 0.034632343761317429 0 0.00027280050800795717 0.034637554400348727 0 0.00025276497440376562 0.034615462674685557 0 0.00024871912777614335 0.034627561885629918 0 0.00025244043979347626 0.034632343761317429 0 0.00025276497440376562 0.034615462674685557 0 0.00023923786880114713 0.034632963261481173 0 0.00025244043979347626 0.034632343761317429 0 0.00023137371790921937 0.034634070957310532 0 0.00023923786880114713 0.034632963261481173 0 0.00024871912777614335 0.034627561885629918 0 0.00025244043979347626 0.034632343761317429 0 0.00023137371790921937 0.034634070957310532 0 0.00025459899025484376 0.034624273193906846 0 0.0001921674906435833 0.034622952101009019 0 0.00025244043979347626 0.034632343761317429 0 0.00023137371790921937 0.034634070957310532 0 0.00025459899025484376 0.034624273193906846 0 0.00025244043979347626 0.034632343761317429 0 0.00025459899025484376 0.034624273193906846 0 0.00027280050800795717 0.034637554400348727 0 0.00025459899025484376 0.034624273193906846 0 0.00027280050800795717 0.034637554400348727 0 0.00031991637714743324 0.034621912971325428 0 0.00025459899025484376 0.034624273193906846 0 0.0002401409690534118 0.034563380569883687 0 0.0001921674906435833 0.034622952101009019 0 0.00025459899025484376 0.034624273193906846 0 0.0002401409690534118 0.034563380569883687 0 0.00031991637714743324 0.034621912971325428 0 0.00017104615724240774 0.034218564454947996 0 0.00020126201972115899 0.034258337306031166 0 0.0001941674157663477 0.034297022332323943 0 0.00017104615724240774 0.034218564454947996 0 0.00019824420834981056 0.034246707833664354 0 0.00020126201972115899 0.034258337306031166 0 0.00019213516450997925 0.034161624363905269 0 0.00017104615724240774 0.034218564454947996 0 0.00020858777038911531 0.034214764082606985 0 0.00022955649093686032 0.034633089405236975 0 0.00023137371790921937 0.034634070957310532 0 0.0001921674906435833 0.034622952101009019 0 7.5698474271658844e-05 0.032145024542869091 0 -0.00011190245044773399 0.033613758916074883 0 7.5698474271658844e-05 0.032145024542869091 0 -0.0001639256479706198 0.032199338844862251 0 -0.0010064649789376242 0.029187851963706053 0 -0.0021729249350190029 0.028548436523466864 0 -0.00164416710020521 0.029935262822246452 0 -0.0011174726070796997 0.031233915081459424 0 -0.0008561078060484663 0.030524038119203602 0 -0.00164416710020521 0.029935262822246452 0 -0.0001846630797700046 0.032534727468306497 0 -0.0001639256479706198 0.032199338844862251 0 0.00017104615724240774 0.034218564454947996 0 0.00020858777038911531 0.034214764082606985 0 0.00019824420834981056 0.034246707833664354 0 0.00017319817905152546 0.034260021751667855 0 0.00020858777038911531 0.034214764082606985 0 0.00019824420834981056 0.034246707833664354 0 0.00017319817905152546 0.034260021751667855 0 0.00019824420834981056 0.034246707833664354 0 0.00020647492059375282 0.034231898632144563 0 0.00017319817905152546 0.034260021751667855 0 0.00020647492059375282 0.034231898632144563 0 0.00018141699436764072 0.034088761174665728 0 0.00020647492059375282 0.034231898632144563 0 0.00018141699436764072 0.034088761174665728 0 0.00017894705154795142 0.034359993822041496 0 0.00019824420834981056 0.034246707833664354 0 0.00020647492059375282 0.034231898632144563 0 0.00020126201972115899 0.034258337306031166 0 0.00017104615724240774 0.034218564454947996 0 0.0001941674157663477 0.034297022332323943 0 0.00018646997931174244 0.034391450344343016 0 -0.00011190245044773399 0.033613758916074883 0 -0.00012451712509613569 0.033916609038475251 0 0.00020647492059375282 0.034231898632144563 0 0.0001941674157663477 0.034297022332323943 0 0.00017894705154795142 0.034359993822041496 0 0.00020647492059375282 0.034231898632144563 0 0.00020126201972115899 0.034258337306031166 0 0.0001941674157663477 0.034297022332323943 0 0.0001941674157663477 0.034297022332323943 0 0.00017894705154795142 0.034359993822041496 0 0.00018646997931174244 0.034391450344343016 0 0.00062654759481580477 0.033825288735073775 0 0.00043186642157442222 0.03381226943238097 0 0.0005433622102519513 0.033647095089338351 0 0.00035166996124146233 0.033736602780310182 0 0.00043186642157442222 0.03381226943238097 0 0.0005433622102519513 0.033647095089338351 0 0.00062654759481580477 0.033825288735073775 0 0.0005433622102519513 0.033647095089338351 0 0.00072447634737977343 0.033652570157987852 0 0.00028259763757997454 0.034186963248199406 0 0.00039071181623191004 0.034176799721494032 0 0.00018141699436764072 0.034088761174665728 0 0.00062654759481580477 0.033825288735073775 0 0.00043186642157442222 0.03381226943238097 0 0.00018141699436764072 0.034088761174665728 0 0.00035166996124146233 0.033736602780310182 0 0.00019049091727113952 0.033821710637466605 0 0.00018141699436764072 0.034088761174665728 0 0.00035166996124146233 0.033736602780310182 0 0.00043186642157442222 0.03381226943238097 0 0.00035166996124146233 0.033736602780310182 0 0.00019049091727113952 0.033821710637466605 0 0.00020914250276328722 0.033604272163985718 0 0.00035166996124146233 0.033736602780310182 0 0.00020914250276328722 0.033604272163985718 0 0.0003449336118598034 0.03345639352768294 0 0.00035166996124146233 0.033736602780310182 0 0.0003449336118598034 0.03345639352768294 0 0.0005433622102519513 0.033647095089338351 0 0.00015931513999173409 0.033362310347699681 0 0.00020914250276328722 0.033604272163985718 0 0.0003449336118598034 0.03345639352768294 0 0.0005433622102519513 0.033647095089338351 0 0.0005168264837665526 0.033420247121455367 0 0.00067410195520155151 0.033494603351434941 0 0.0003449336118598034 0.03345639352768294 0 0.0005433622102519513 0.033647095089338351 0 0.0005168264837665526 0.033420247121455367 0 0.0005168264837665526 0.033420247121455367 0 0.00039702712476886868 0.033273958910184608 0 0.0006275727906724564 0.033259710979795812 0 0.0005168264837665526 0.033420247121455367 0 0.00067410195520155151 0.033494603351434941 0 0.0006275727906724564 0.033259710979795812 0 0.00019883093488070382 0.033254057780915378 0 0.0003449336118598034 0.03345639352768294 0 0.00039702712476886868 0.033273958910184608 0 0.0003449336118598034 0.03345639352768294 0 0.0005168264837665526 0.033420247121455367 0 0.00039702712476886868 0.033273958910184608 0 0.00015931513999173409 0.033362310347699681 0 0.00019883093488070382 0.033254057780915378 0 0.0003449336118598034 0.03345639352768294 0 0.00082138633922862741 0.033367508943606294 0 0.0010411933947255974 0.033443889078554813 0 0.00095332250515051456 0.033169767438574353 0 0.00082138633922862741 0.033367508943606294 0 0.00083547018855473676 0.033547889132529075 0 0.0010411933947255974 0.033443889078554813 0 0.00082138633922862741 0.033367508943606294 0 0.00067410195520155151 0.033494603351434941 0 0.0006275727906724564 0.033259710979795812 0 0.00082138633922862741 0.033367508943606294 0 0.00067410195520155151 0.033494603351434941 0 0.00083547018855473676 0.033547889132529075 0 0.00072447634737977343 0.033652570157987852 0 0.00083547018855473676 0.033547889132529075 0 0.00093577493502716214 0.033697207910904345 0 0.00067410195520155151 0.033494603351434941 0 0.00072447634737977343 0.033652570157987852 0 0.00083547018855473676 0.033547889132529075 0 0.0005433622102519513 0.033647095089338351 0 0.00067410195520155151 0.033494603351434941 0 0.00072447634737977343 0.033652570157987852 0 0.00083547018855473676 0.033547889132529075 0 0.00093577493502716214 0.033697207910904345 0 0.0010411933947255974 0.033443889078554813 0 0.00031853913168259783 0.034355758538154785 0 0.00028701016833825439 0.03447318274949001 0 0.00043569934402061034 0.034401523047799025 0 0.00039071181623191004 0.034176799721494032 0 0.00056787879192540412 0.034181024924863308 0 0.00062654759481580477 0.033825288735073775 0 0.00072447634737977343 0.033652570157987852 0 0.00093577493502716214 0.033697207910904345 0 0.00031853913168259783 0.034355758538154785 0 0.00018646997931174244 0.034391450344343016 0 0.00028701016833825439 0.03447318274949001 0 0.00017894705154795142 0.034359993822041496 0 0.00031853913168259783 0.034355758538154785 0 0.00018646997931174244 0.034391450344343016 0 0.0002401409690534118 0.034563380569883687 0 0.0001921674906435833 0.034622952101009019 0 0.00018646997931174244 0.034391450344343016 0 0.0002401409690534118 0.034563380569883687 0 0.00018646997931174244 0.034391450344343016 0 0.00028701016833825439 0.03447318274949001 0 0.0002401409690534118 0.034563380569883687 0 0.00028701016833825439 0.03447318274949001 0 0.00031991637714743324 0.034621912971325428 0 0.00028701016833825439 0.03447318274949001 0 0.00031991637714743324 0.034621912971325428 0 0.00043569934402061034 0.034401523047799025 0 0.00031991637714743324 0.034621912971325428 0 0.00021036099604078637 0.034878837033268578 0 0.00023306873113033053 0.034720289701791945 0 0.00028977021369194057 0.03474378919387619 0 0.00028847854902486008 0.034752883031875646 0 0.00031991637714743324 0.034621912971325428 0 0.00051712074463863248 0.034509880677006936 0 0.00043569934402061034 0.034401523047799025 0 0.00021036099604078637 0.034878837033268578 0 5.2345149161781547e-05 0.035001962800188025 0 2.4158688879496925e-05 0.034949847926819134 0 0.00021036099604078637 0.034878837033268578 0 2.4158688879496925e-05 0.034949847926819134 0 0.00023306873113033053 0.034720289701791945 0 0.0005578912625432233 0.034365091850106111 0 0.00062750241434588914 0.034338051813340396 0 0.00068898282185646308 0.034413495117674137 0 0.00028847854902486008 0.034752883031875646 0 0.00024830802527489669 0.03478898747278384 0 0.00051712074463863248 0.034509880677006936 0 0.0005578912625432233 0.034365091850106111 0 0.00068898282185646308 0.034413495117674137 0 0.0005578912625432233 0.034365091850106111 0 0.00062750241434588914 0.034338051813340396 0 0.00056577241007315174 0.034297210198249856 0 0.00031853913168259783 0.034355758538154785 0 0.00043569934402061034 0.034401523047799025 0 0.00056432632016940149 0.03428938994439773 0 0.00051712074463863248 0.034509880677006936 0 0.0005578912625432233 0.034365091850106111 0 0.00043569934402061034 0.034401523047799025 0 0.0005578912625432233 0.034365091850106111 0 0.00043569934402061034 0.034401523047799025 0 0.00056432632016940149 0.03428938994439773 0 0.00056787879192540412 0.034181024924863308 0 0.00060040905270775634 0.034272110144172419 0 0.00093577493502716214 0.033697207910904345 0 0.0012592555305844593 0.033606878603843385 0 0.0010411933947255974 0.033443889078554813 0 0.00059953154762966247 0.03427622743626154 0 0.00060040905270775634 0.034272110144172419 0 0.00062750241434588914 0.034338051813340396 0 0.00056577241007315174 0.034297210198249856 0 0.00069251045985407856 0.034310527265729106 0 0.00060040905270775634 0.034272110144172419 0 0.00055688867412732402 0.034168285296159749 0 1.1101505457668656e-05 0.034983542385647895 0 7.3747325334689615e-06 0.034994972062083206 0 4.3028941295527628e-06 0.034989518220207752 0 7.3747325334689615e-06 0.034994972062083206 0 2.0955698757218529e-06 0.034996514688836952 0 4.3028941295527628e-06 0.034989518220207752 0 0.0012843230806931947 0.033324228815989634 0 0.0010411933947255974 0.033443889078554813 0 0.0011511633677210587 0.033175602484831583 0 0.0012592555305844593 0.033606878603843385 0 0.0012843230806931947 0.033324228815989634 0 0.0010411933947255974 0.033443889078554813 0 5.2741168319643165e-07 0.034999235606845681 0 5.4493835198461409e-10 0.03499999692633559 0 3.5755625674916825e-07 0.034999560558148381 0 5.2741168319643165e-07 0.034999235606845681 0 8.3461570500153729e-07 0.034998412861007848 0 5.2348660230822041e-07 0.03499905490217662 0 5.2741168319643165e-07 0.034999235606845681 0 5.4493835198461409e-10 0.03499999692633559 0 8.3461570500153729e-07 0.034998412861007848 0 0.00015609891633864393 0.034817482941836411 0 0.00015841257282825477 0.034797600571502073 0 2.0955698757218529e-06 0.034996514688836952 0 -2.6147059301752543e-06 0.034989056555475864 0 4.3028941295527628e-06 0.034989518220207752 0 8.3461570500153729e-07 0.034998412861007848 0 2.0955698757218529e-06 0.034996514688836952 0 5.2348660230822041e-07 0.03499905490217662 0 1.1101505457668656e-05 0.034983542385647895 0 4.3028941295527628e-06 0.034989518220207752 0 -3.4634597926409128e-06 0.034987809012719182 0 0.00060040905270775634 0.034272110144172419 0 0.00015929153023493746 0.034789251390893373 0 0.00056577241007315174 0.034297210198249856 0 0.00069251045985407856 0.034310527265729106 0 0.00079245063963080957 0.034239669760176047 0 -2.6147059301752543e-06 0.034989056555475864 0 4.3028941295527628e-06 0.034989518220207752 0 -3.4634597926409128e-06 0.034987809012719182 0 0.00062750241434588914 0.034338051813340396 0 0.00069251045985407856 0.034310527265729106 0 0.00069894144559737499 0.03434832861943727 0 0.00069251045985407856 0.034310527265729106 0 0.00076696488015592348 0.034323600990945183 0 0.00069894144559737499 0.03434832861943727 0 0.00069251045985407856 0.034310527265729106 0 0.00076696488015592348 0.034323600990945183 0 0.00079245063963080957 0.034239669760176047 0 0.00015929153023493746 0.034789251390893373 0 7.6325944257315227e-05 0.034896186019547151 0 4.4561894275964865e-07 0.034999273655014762 0 3.5755625674916825e-07 0.034999560558148381 0 2.7690488619107183e-07 0.034999768898481796 0 0.00076696488015592348 0.034323600990945183 0 0.00079245063963080957 0.034239669760176047 0 0.00085207300821904595 0.034329607285664761 0 5.4493835198461409e-10 0.03499999692633559 0 3.5755625674916825e-07 0.034999560558148381 0 9.1458431118137028e-10 0.034999999224105724 0 5.2348660230822041e-07 0.03499905490217662 0 4.4561894275964865e-07 0.034999273655014762 0 3.5755625674916825e-07 0.034999560558148381 0 5.2741168319643165e-07 0.034999235606845681 0 5.2348660230822041e-07 0.03499905490217662 0 3.5755625674916825e-07 0.034999560558148381 0 0.00015841257282825477 0.034797600571502073 0 0.00015929153023493746 0.034789251390893373 0 3.5755625674916825e-07 0.034999560558148381 0 2.7690488619107183e-07 0.034999768898481796 0 9.1458431118137028e-10 0.034999999224105724 0 7.6325944257315227e-05 0.034896186019547151 0 2.3756923286140947e-07 0.034999250417435471 0 2.0855437902603239e-08 0.034999909850128678 0 -9.2679392576706505e-11 0.034999999623739633 0 1.1669530307124308e-10 0.035000000045455677 0 1.2491726463765733e-05 0.035018890102879487 0 1.925758312913895e-08 0.034999877853373232 0 5.2345149161781547e-05 0.035001962800188025 0 7.6325944257315227e-05 0.034896186019547151 0 5.3220726844106484e-07 0.03499948993164579 0 1.925758312913895e-08 0.034999877853373232 0 5.2345149161781547e-05 0.035001962800188025 0 2.4158688879496925e-05 0.034949847926819134 0 7.6325944257315227e-05 0.034896186019547151 0 0.00024830802527489669 0.03478898747278384 0 0.00076696488015592348 0.034323600990945183 0 0.00085207300821904595 0.034329607285664761 0 0.00068898282185646308 0.034413495117674137 0 0.00062750241434588914 0.034338051813340396 0 0.00069894144559737499 0.03434832861943727 0 0.00068898282185646308 0.034413495117674137 0 0.00076696488015592348 0.034323600990945183 0 0.00069894144559737499 0.03434832861943727 0 0.00068898282185646308 0.034413495117674137 0 1.925758312913895e-08 0.034999877853373232 0 2.4158688879496925e-05 0.034949847926819134 0 8.5226877173256281e-09 0.034999910254469517 0 2.4158688879496925e-05 0.034949847926819134 0 2.1474943219906969e-05 0.03499550339904061 0 8.5226877173256281e-09 0.034999910254469517 0 5.3608681340083459e-05 0.034789565264058589 0 8.244554712211587e-05 0.034728955890375897 0 2.4158688879496925e-05 0.034949847926819134 0 0.00023306873113033053 0.034720289701791945 0 0.00017805463629662197 0.034638571263800468 0 0.00027280050800795717 0.034637554400348727 0 0.00031991637714743324 0.034621912971325428 0 0.00023306873113033053 0.034720289701791945 0 0.00027280050800795717 0.034637554400348727 0 0.00023306873113033053 0.034720289701791945 0 0.00017805463629662197 0.034638571263800468 0 8.244554712211587e-05 0.034728955890375897 0 0.00014300089708151379 0.034571249089821648 0 0.00027280050800795717 0.034637554400348727 0 0.00017805463629662197 0.034638571263800468 0 0.00025276497440376562 0.034615462674685557 0 2.1474943219906969e-05 0.03499550339904061 0 2.3577356508281028e-05 0.034992242871556473 0 0.00015187433406253637 0.035042617802857765 0 0.00021276872409295753 0.034662976219045911 0 0.00015187433406253637 0.035042617802857765 0 2.4755374683674792e-05 0.034905579871322159 0 0.00021276872409295753 0.034662976219045911 0 0.00055067535789409569 0.034726195947766735 0 0.00015187433406253637 0.035042617802857765 0 2.3577356508281028e-05 0.034992242871556473 0 0.00015187433406253637 0.035042617802857765 0 2.4755374683674792e-05 0.034905579871322159 0 2.3577356508281028e-05 0.034992242871556473 0 2.4755374683674792e-05 0.034905579871322159 0 1.7878454270054554e-05 0.034962880877478252 0 2.1474943219906969e-05 0.03499550339904061 0 2.3577356508281028e-05 0.034992242871556473 0 8.5226877173256281e-09 0.034999910254469517 0 2.9482494324768368e-05 0.034973592832446367 0 1.7878454270054554e-05 0.034962880877478252 0 8.5226877173256281e-09 0.034999910254469517 0 2.3577356508281028e-05 0.034992242871556473 0 1.7878454270054554e-05 0.034962880877478252 0 8.5226877173256281e-09 0.034999910254469517 0 -1.1487440638467395e-05 0.034989706893026905 0 -7.4908767992979633e-06 0.034996135113369062 0 -8.9149927909599065e-06 0.034999704705448845 0 9.4960838767603467e-05 0.034702450066259896 0 0.00010648152547000526 0.034631083115552956 0 -6.5700760590368363e-06 0.034993540888088481 0 -4.1525693192087708e-06 0.03499641124236038 0 -3.939200657991605e-06 0.034991196386325162 0 -4.1525693192087708e-06 0.03499641124236038 0 -3.684642898919231e-07 0.034995839973031892 0 -3.939200657991605e-06 0.034991196386325162 0 -6.5700760590368363e-06 0.034993540888088481 0 -1.1487440638467395e-05 0.034989706893026905 0 -7.4908767992979633e-06 0.034996135113369062 0 -6.5700760590368363e-06 0.034993540888088481 0 -1.1487440638467395e-05 0.034989706893026905 0 -3.939200657991605e-06 0.034991196386325162 0 -7.4908767992979633e-06 0.034996135113369062 0 -5.8762620723209031e-06 0.034999172994091589 0 -8.9149927909599065e-06 0.034999704705448845 0 -7.4908767992979633e-06 0.034996135113369062 0 -4.1525693192087708e-06 0.03499641124236038 0 -5.8762620723209031e-06 0.034999172994091589 0 -6.5700760590368363e-06 0.034993540888088481 0 -7.4908767992979633e-06 0.034996135113369062 0 -4.1525693192087708e-06 0.03499641124236038 0 -4.1525693192087708e-06 0.03499641124236038 0 -3.5443080952614396e-06 0.034998974696989225 0 -5.8762620723209031e-06 0.034999172994091589 0 -4.1525693192087708e-06 0.03499641124236038 0 -3.5443080952614396e-06 0.034998974696989225 0 -1.9013239974674834e-06 0.034997677922458649 0 -3.5443080952614396e-06 0.034998974696989225 0 -1.9013239974674834e-06 0.034997677922458649 0 -2.8432190440116282e-07 0.034999317367793756 0 -4.1525693192087708e-06 0.03499641124236038 0 -1.9013239974674834e-06 0.034997677922458649 0 -3.684642898919231e-07 0.034995839973031892 0 -1.9013239974674834e-06 0.034997677922458649 0 -2.8432190440116282e-07 0.034999317367793756 0 -3.684642898919231e-07 0.034995839973031892 0 -1.4120208832362139e-11 0.035000000701509562 0 -3.684642898919231e-07 0.034995839973031892 0 2.5380051748391826e-09 0.03499996826623477 0 -1.4120208832362139e-11 0.035000000701509562 0 -2.8432190440116282e-07 0.034999317367793756 0 -3.684642898919231e-07 0.034995839973031892 0 -3.684642898919231e-07 0.034995839973031892 0 2.5380051748391826e-09 0.03499996826623477 0 -1.1965797279796696e-06 0.034989976406675075 0 -3.684642898919231e-07 0.034995839973031892 0 -1.1965797279796696e-06 0.034989976406675075 0 -3.939200657991605e-06 0.034991196386325162 0 -1.1965797279796696e-06 0.034989976406675075 0 -5.4647508859371193e-06 0.034981564722209646 0 -1.2375566008444503e-06 0.034978259340532607 0 -5.4647508859371193e-06 0.034981564722209646 0 -1.0714539001883092e-05 0.034990929794693502 0 -1.314478557122695e-05 0.034956390719494655 0 -1.1965797279796696e-06 0.034989976406675075 0 -3.939200657991605e-06 0.034991196386325162 0 -5.4647508859371193e-06 0.034981564722209646 0 -1.1487440638467395e-05 0.034989706893026905 0 -3.939200657991605e-06 0.034991196386325162 0 -5.4647508859371193e-06 0.034981564722209646 0 -1.1487440638467395e-05 0.034989706893026905 0 -5.4647508859371193e-06 0.034981564722209646 0 -1.0714539001883092e-05 0.034990929794693502 0 -3.8171553620400606e-06 0.034929285930747574 0 -2.4114452676108962e-05 0.034887363216394601 0 -1.314478557122695e-05 0.034956390719494655 0 0.00015249127806413071 0.034755524399280299 0 0.00013287059633529207 0.034810840398973045 0 -3.8171553620400606e-06 0.034929285930747574 0 -6.7844409307826439e-06 0.034899387299732423 0 2.4610798628791643e-06 0.034900442086355413 0 -6.7844409307826439e-06 0.034899387299732423 0 2.4610798628791643e-06 0.034900442086355413 0 -3.6269087964908121e-06 0.034882474311591326 0 -6.7844409307826439e-06 0.034899387299732423 0 -2.4114452676108962e-05 0.034887363216394601 0 -3.6269087964908121e-06 0.034882474311591326 0 -3.8171553620400606e-06 0.034929285930747574 0 -6.7844409307826439e-06 0.034899387299732423 0 -2.4114452676108962e-05 0.034887363216394601 0 -3.8171553620400606e-06 0.034929285930747574 0 2.4610798628791643e-06 0.034900442086355413 0 1.1684602873980118e-05 0.03491059852521914 0 2.4610798628791643e-06 0.034900442086355413 0 1.4831389822966473e-05 0.034882605913176962 0 5.6848617084976674e-06 0.03488369197392565 0 2.4610798628791643e-06 0.034900442086355413 0 5.6848617084976674e-06 0.03488369197392565 0 -3.6269087964908121e-06 0.034882474311591326 0 1.4831389822966473e-05 0.034882605913176962 0 2.4947768149398944e-05 0.034882468524925062 0 1.1684602873980118e-05 0.03491059852521914 0 2.4610798628791643e-06 0.034900442086355413 0 1.4831389822966473e-05 0.034882605913176962 0 1.1684602873980118e-05 0.03491059852521914 0 1.4831389822966473e-05 0.034882605913176962 0 7.4406482720009251e-06 0.034870180747298522 0 1.7639284361622121e-05 0.034865583947889189 0 7.4406482720009251e-06 0.034870180747298522 0 -3.6269087964908121e-06 0.034882474311591326 0 -3.7891516145086891e-06 0.034864902735901926 0 1.4831389822966473e-05 0.034882605913176962 0 5.6848617084976674e-06 0.03488369197392565 0 7.4406482720009251e-06 0.034870180747298522 0 5.6848617084976674e-06 0.03488369197392565 0 7.4406482720009251e-06 0.034870180747298522 0 -3.6269087964908121e-06 0.034882474311591326 0 7.4406482720009251e-06 0.034870180747298522 0 -3.7891516145086891e-06 0.034864902735901926 0 8.5661227762720141e-06 0.034855246506376204 0 1.7639284361622121e-05 0.034865583947889189 0 8.5661227762720141e-06 0.034855246506376204 0 2.2676136844620025e-05 0.034851650212966732 0 7.4406482720009251e-06 0.034870180747298522 0 1.7639284361622121e-05 0.034865583947889189 0 8.5661227762720141e-06 0.034855246506376204 0 -1.0714539001883092e-05 0.034990929794693502 0 2.6395751905954533e-06 0.034953208951662269 0 -1.3850956396536656e-05 0.034960917795684845 0 -1.1487440638467395e-05 0.034989706893026905 0 -1.0714539001883092e-05 0.034990929794693502 0 -1.3850956396536656e-05 0.034960917795684845 0 0.00015249127806413071 0.034755524399280299 0 0.00021940206175128627 0.034552655465540531 0 -2.4114452676108962e-05 0.034887363216394601 0 -3.7891516145086891e-06 0.034864902735901926 0 -1.3855050906182903e-05 0.034849945053934087 0 -2.4114452676108962e-05 0.034887363216394601 0 -3.6269087964908121e-06 0.034882474311591326 0 -3.7891516145086891e-06 0.034864902735901926 0 -1.3855050906182903e-05 0.034849945053934087 0 6.795689346797701e-06 0.034839681430311319 0 -6.5737259487825525e-06 0.034823806030787587 0 0.00021940206175128627 0.034552655465540531 0 0.00036058076162991083 0.034063371452369068 0 2.6395751905954533e-06 0.034953208951662269 0 -1.1476833452605379e-05 0.034918100246866556 0 -1.3850956396536656e-05 0.034960917795684845 0 -3.7891516145086891e-06 0.034864902735901926 0 -1.3855050906182903e-05 0.034849945053934087 0 -4.072438570211501e-07 0.034852127820856518 0 -1.3855050906182903e-05 0.034849945053934087 0 -4.072438570211501e-07 0.034852127820856518 0 6.795689346797701e-06 0.034839681430311319 0 8.5661227762720141e-06 0.034855246506376204 0 6.795689346797701e-06 0.034839681430311319 0 2.2676136844620025e-05 0.034851650212966732 0 -3.7891516145086891e-06 0.034864902735901926 0 -4.072438570211501e-07 0.034852127820856518 0 8.5661227762720141e-06 0.034855246506376204 0 -4.072438570211501e-07 0.034852127820856518 0 8.5661227762720141e-06 0.034855246506376204 0 6.795689346797701e-06 0.034839681430311319 0 0.00041332298327737286 0.033970807209124869 0 0.00039795328734784635 0.033514995255958732 0 0.0012448362397437629 0.032464597684290636 0 0.0010489920125286052 0.032613262942277982 0 0.00094149101855186884 0.032453678428756239 0 6.795689346797701e-06 0.034839681430311319 0 -3.9474509437783025e-06 0.034822050558602928 0 2.65821368244347e-05 0.034826066380613141 0 2.6395751905954533e-06 0.034953208951662269 0 -1.1476833452605379e-05 0.034918100246866556 0 1.2568729886310856e-05 0.034899237100731229 0 0.00014479644461063402 0.034384275518500707 0 0.00036058076162991083 0.034063371452369068 0 0.00014479644461063402 0.034384275518500707 0 0.00019096544784652123 0.034261403088006598 0 6.795689346797701e-06 0.034839681430311319 0 -6.5737259487825525e-06 0.034823806030787587 0 -3.9474509437783025e-06 0.034822050558602928 0 0.00036058076162991083 0.034063371452369068 0 0.00041332298327737286 0.033970807209124869 0 0.0007366603068685618 0.033446382186242032 0 0.00063207408859268044 0.034131930885399814 0 -0.00014032255962335315 0.034119657047622029 0 0.00036058076162991083 0.034063371452369068 0 0.00038068506373039712 0.034005959190308646 0 0.00038068506373039712 0.034005959190308646 0 0.00041332298327737286 0.033970807209124869 0 0.0003443738650469589 0.0338340160966678 0 -0.0001848006368224447 0.034240215994228072 0 0.00029594059194241936 0.034339050169007505 0 0.00038068506373039712 0.034005959190308646 0 0.00019096544784652123 0.034261403088006598 0 -0.0001848006368224447 0.034240215994228072 0 -0.00019863719473319451 0.034331060786724502 0 0.00029594059194241936 0.034339050169007505 0 1.3714493553010538e-06 0.03499855069338853 0 1.0045230748297136e-06 0.03499943051363677 0 1.301614889403938e-06 0.034999114084993059 0 0.00019096544784652123 0.034261403088006598 0 7.8150594726954033e-05 0.034649401177224481 0 6.4794422587061434e-07 0.034997935925214517 0 1.7326500012398488e-07 0.034998894984253161 0 2.7221993428652362e-07 0.034998786112463653 0 6.0666025745021896e-07 0.034998310071646652 0 6.4794422587061434e-07 0.034997935925214517 0 2.7221993428652362e-07 0.034998786112463653 0 0.00014479644461063402 0.034384275518500707 0 0.00010648152547000526 0.034631083115552956 0 0.00014479644461063402 0.034384275518500707 0 2.9599475968858903e-05 0.034538498280697036 0 -8.6026335011819748e-06 0.035003513913793909 0 -4.8811118536209627e-06 0.035001629979832437 0 -8.9149927909599065e-06 0.034999704705448845 0 6.0666025745021896e-07 0.034998310071646652 0 2.7221993428652362e-07 0.034998786112463653 0 1.476961983404937e-07 0.034999086612523003 0 2.7221993428652362e-07 0.034998786112463653 0 1.476961983404937e-07 0.034999086612523003 0 -2.5975704031938812e-08 0.034999625461747709 0 -3.5443080952614396e-06 0.034998974696989225 0 -4.8811118536209627e-06 0.035001629979832437 0 -5.8762620723209031e-06 0.034999172994091589 0 -4.8811118536209627e-06 0.035001629979832437 0 -5.8762620723209031e-06 0.034999172994091589 0 -8.9149927909599065e-06 0.034999704705448845 0 -1.4120208832362139e-11 0.035000000701509562 0 -2.5975704031938812e-08 0.034999625461747709 0 -7.7657812692128653e-11 0.034999997109607335 0 -1.4120208832362139e-11 0.035000000701509562 0 -2.8432190440116282e-07 0.034999317367793756 0 -2.5975704031938812e-08 0.034999625461747709 0 -2.8432190440116282e-07 0.034999317367793756 0 1.476961983404937e-07 0.034999086612523003 0 -2.5975704031938812e-08 0.034999625461747709 0 -2.848691024496972e-06 0.0345846297313177 0 2.9599475968858903e-05 0.034538498280697036 0 -3.5443080952614396e-06 0.034998974696989225 0 -2.8432190440116282e-07 0.034999317367793756 0 -4.8811118536209627e-06 0.035001629979832437 0 7.8150594726954033e-05 0.034649401177224481 0 1.6626644091760066e-07 0.034998537905972092 0 1.7326500012398488e-07 0.034998894984253161 0 -2.5975704031938812e-08 0.034999625461747709 0 -7.7657812692128653e-11 0.034999997109607335 0 1.7326500012398488e-07 0.034998894984253161 0 2.7221993428652362e-07 0.034998786112463653 0 -2.5975704031938812e-08 0.034999625461747709 0 1.0045230748297136e-06 0.03499943051363677 0 7.2766580527439345e-10 0.034999999739608038 0 7.9500540734655605e-07 0.034999546185039816 0 7.2766580527439345e-10 0.034999999739608038 0 7.9500540734655605e-07 0.034999546185039816 0 7.7836962787297028e-10 0.03499999917149247 0 1.3714493553010538e-06 0.03499855069338853 0 1.301614889403938e-06 0.034999114084993059 0 1.8013499347000841e-06 0.034998730797002268 0 1.0045230748297136e-06 0.03499943051363677 0 7.9500540734655605e-07 0.034999546185039816 0 1.301614889403938e-06 0.034999114084993059 0 7.9500540734655605e-07 0.034999546185039816 0 1.301614889403938e-06 0.034999114084993059 0 1.4268738335269548e-06 0.03499924759252563 0 1.301614889403938e-06 0.034999114084993059 0 1.4268738335269548e-06 0.03499924759252563 0 1.8013499347000841e-06 0.034998730797002268 0 7.9500540734655605e-07 0.034999546185039816 0 1.4268738335269548e-06 0.03499924759252563 0 8.4283567877393267e-07 0.034999578173576538 0 1.4268738335269548e-06 0.03499924759252563 0 2.03947633186435e-06 0.034999166580938962 0 1.8013499347000841e-06 0.034998730797002268 0 1.4268738335269548e-06 0.03499924759252563 0 2.03947633186435e-06 0.034999166580938962 0 8.4283567877393267e-07 0.034999578173576538 0 7.7836962787297028e-10 0.03499999917149247 0 8.4283567877393267e-07 0.034999578173576538 0 5.3795969987720688e-10 0.03499999899577301 0 7.9500540734655605e-07 0.034999546185039816 0 7.7836962787297028e-10 0.03499999917149247 0 8.4283567877393267e-07 0.034999578173576538 0 8.4283567877393267e-07 0.034999578173576538 0 5.3795969987720688e-10 0.03499999899577301 0 9.9220615920868288e-07 0.034998866057617629 0 2.03947633186435e-06 0.034999166580938962 0 9.9220615920868288e-07 0.034998866057617629 0 3.774067188772386e-06 0.034998660573228917 0 2.03947633186435e-06 0.034999166580938962 0 8.4283567877393267e-07 0.034999578173576538 0 9.9220615920868288e-07 0.034998866057617629 0 8.3461570500153729e-07 0.034998412861007848 0 2.0955698757218529e-06 0.034996514688836952 0 9.9220615920868288e-07 0.034998866057617629 0 2.0955698757218529e-06 0.034996514688836952 0 9.9220615920868288e-07 0.034998866057617629 0 3.774067188772386e-06 0.034998660573228917 0 5.4493835198461409e-10 0.03499999692633559 0 5.3795969987720688e-10 0.03499999899577301 0 9.9220615920868288e-07 0.034998866057617629 0 5.4493835198461409e-10 0.03499999692633559 0 8.3461570500153729e-07 0.034998412861007848 0 9.9220615920868288e-07 0.034998866057617629 0 0.0010411933947255974 0.033443889078554813 0 0.0011511633677210587 0.033175602484831583 0 0.00095332250515051456 0.033169767438574353 0 0.0011511633677210587 0.033175602484831583 0 0.0010647540951236884 0.03297049023944322 0 0.00095332250515051456 0.033169767438574353 0 0.00055688867412732402 0.034168285296159749 0 0.00049119709766432679 0.03408068626827114 0 0.0012843230806931947 0.033324228815989634 0 0.0011511633677210587 0.033175602484831583 0 0.0013036413442153027 0.033039542672974841 0 7.3747325334689615e-06 0.034994972062083206 0 2.0955698757218529e-06 0.034996514688836952 0 3.774067188772386e-06 0.034998660573228917 0 0.0011511633677210587 0.033175602484831583 0 0.0013036413442153027 0.033039542672974841 0 0.0010647540951236884 0.03297049023944322 0 0.0013036413442153027 0.033039542672974841 0 0.0010647540951236884 0.03297049023944322 0 0.0011963180757362684 0.032857850350349702 0 0.0010647540951236884 0.03297049023944322 0 0.0010753312460423596 0.032789909953294796 0 0.0011963180757362684 0.032857850350349702 0 0.0010753312460423596 0.032789909953294796 0 0.0011963180757362684 0.032857850350349702 0 0.0012149579943354196 0.032742148255111451 0 0.0013036413442153027 0.033039542672974841 0 0.0011963180757362684 0.032857850350349702 0 0.0013146302597067665 0.032768607764613641 0 2.03947633186435e-06 0.034999166580938962 0 3.774067188772386e-06 0.034998660573228917 0 1.8013499347000841e-06 0.034998730797002268 0 0.00049119709766432679 0.03408068626827114 0 0.00038168021089186156 0.034066740514078625 0 0.0011963180757362684 0.032857850350349702 0 0.0012149579943354196 0.032742148255111451 0 0.0013146302597067665 0.032768607764613641 0 0.0012495149072362058 0.032500112064070913 0 0.0012296859210368552 0.032499657492125793 0 0.0012149579943354196 0.032742148255111451 0 0.00038068506373039712 0.034005959190308646 0 0.00050142731529940034 0.033584943868087129 0 0.0013300033732725162 0.032536636797661493 0 0.0012149579943354196 0.032742148255111451 0 0.0013146302597067665 0.032768607764613641 0 0.0012468923993725631 0.032535696691294289 0 0.0013300033732725162 0.032536636797661493 0 0.0012149579943354196 0.032742148255111451 0 0.00019096544784652123 0.034261403088006598 0 0.00038168021089186156 0.034066740514078625 0 0.00041332298327737286 0.033970807209124869 0 0.00084972901793904318 0.033456494516237209 0 0.0012296859210368552 0.032499657492125793 0 0.0012149579943354196 0.032742148255111451 0 0.001042151306495383 0.032640083369603175 0 0.0010753312460423596 0.032789909953294796 0 0.0012149579943354196 0.032742148255111451 0 0.001042151306495383 0.032640083369603175 0 0.00084972901793904318 0.033456494516237209 0 0.0009327068513135799 0.033336236632084813 0 0.0010489920125286052 0.032613262942277982 0 0.00081826206083074121 0.032593673644387276 0 0.00094149101855186884 0.032453678428756239 0 0.0010489920125286052 0.032613262942277982 0 0.00081826206083074121 0.032593673644387276 0 0.00084779501007015915 0.032772736691759417 0 0.00081826206083074121 0.032593673644387276 0 0.00084779501007015915 0.032772736691759417 0 0.00061929113624584762 0.032691454057692283 0 0.00081826206083074121 0.032593673644387276 0 0.00061929113624584762 0.032691454057692283 0 0.00062870646866566382 0.032437234584383447 0 0.00084779501007015915 0.032772736691759417 0 0.00062572647638129721 0.032964817820131019 0 0.00061929113624584762 0.032691454057692283 0 0.0010753312460423596 0.032789909953294796 0 0.001042151306495383 0.032640083369603175 0 0.00084779501007015915 0.032772736691759417 0 0.0010647540951236884 0.03297049023944322 0 0.0010753312460423596 0.032789909953294796 0 0.00084779501007015915 0.032772736691759417 0 0.0010647540951236884 0.03297049023944322 0 0.00084779501007015915 0.032772736691759417 0 0.00085845805432034855 0.032988967676984456 0 0.0010647540951236884 0.03297049023944322 0 0.00085845805432034855 0.032988967676984456 0 0.00095332250515051456 0.033169767438574353 0 0.00084779501007015915 0.032772736691759417 0 0.00085845805432034855 0.032988967676984456 0 0.00062572647638129721 0.032964817820131019 0 0.00085845805432034855 0.032988967676984456 0 0.00062572647638129721 0.032964817820131019 0 0.00076775420930604596 0.033134737484747663 0 0.00082138633922862741 0.033367508943606294 0 0.00076775420930604596 0.033134737484747663 0 0.0006275727906724564 0.033259710979795812 0 0.00062572647638129721 0.032964817820131019 0 0.00076775420930604596 0.033134737484747663 0 0.0006275727906724564 0.033259710979795812 0 0.00082138633922862741 0.033367508943606294 0 0.00076775420930604596 0.033134737484747663 0 0.00095332250515051456 0.033169767438574353 0 0.00085845805432034855 0.032988967676984456 0 0.00076775420930604596 0.033134737484747663 0 0.00095332250515051456 0.033169767438574353 0 0.00026073288619552377 0.033159940305518242 0 0.00046383248523983775 0.033130232964671394 0 0.00036514805997741023 0.032993220602062501 0 0.00039702712476886868 0.033273958910184608 0 0.00026073288619552377 0.033159940305518242 0 0.00046383248523983775 0.033130232964671394 0 0.00019883093488070382 0.033254057780915378 0 0.00039702712476886868 0.033273958910184608 0 0.00026073288619552377 0.033159940305518242 0 0.00039702712476886868 0.033273958910184608 0 0.0006275727906724564 0.033259710979795812 0 0.00046383248523983775 0.033130232964671394 0 0.00062572647638129721 0.032964817820131019 0 0.0006275727906724564 0.033259710979795812 0 0.00046383248523983775 0.033130232964671394 0 0.00062572647638129721 0.032964817820131019 0 0.00036514805997741023 0.032993220602062501 0 0.00040347565153891644 0.032790444309398072 0 0.00062572647638129721 0.032964817820131019 0 0.00046383248523983775 0.033130232964671394 0 0.00036514805997741023 0.032993220602062501 0 0.00036514805997741023 0.032993220602062501 0 0.0002489530827444369 0.032893024971403215 0 0.00015821088751861764 0.033091926947252215 0 0.00026073288619552377 0.033159940305518242 0 0.00036514805997741023 0.032993220602062501 0 0.00015821088751861764 0.033091926947252215 0 0.00036514805997741023 0.032993220602062501 0 0.0002489530827444369 0.032893024971403215 0 0.00040347565153891644 0.032790444309398072 0 0.0002489530827444369 0.032893024971403215 0 0.00040347565153891644 0.032790444309398072 0 0.00016436601458418257 0.032763665919169849 0 0.00040347565153891644 0.032790444309398072 0 0.00020414621663651921 0.032593945629062551 0 0.00016436601458418257 0.032763665919169849 0 0.00062572647638129721 0.032964817820131019 0 0.00040347565153891644 0.032790444309398072 0 0.00061929113624584762 0.032691454057692283 0 0.00061929113624584762 0.032691454057692283 0 0.00043426385138839972 0.032584864615666322 0 0.00062870646866566382 0.032437234584383447 0 0.00040347565153891644 0.032790444309398072 0 0.00061929113624584762 0.032691454057692283 0 0.00043426385138839972 0.032584864615666322 0 0.00040347565153891644 0.032790444309398072 0 0.00043426385138839972 0.032584864615666322 0 0.00020414621663651921 0.032593945629062551 0 0.00043426385138839972 0.032584864615666322 0 0.00030604149867203331 0.032412837342702464 0 0.00020414621663651921 0.032593945629062551 0 4.3085108799111002e-05 0.034840105362234766 0 4.6089959427234673e-05 0.034840468646065319 0 3.7547132233743945e-05 0.034837659269080022 0 4.6089959427234673e-05 0.034840468646065319 0 4.0132799562313007e-05 0.034837607140628543 0 4.6843869458630796e-05 0.03484210910671872 0 4.6089959427234673e-05 0.034840468646065319 0 4.0132799562313007e-05 0.034837607140628543 0 3.7547132233743945e-05 0.034837659269080022 0 4.6089959427234673e-05 0.034840468646065319 0 4.3684415289950863e-05 0.034841357822862483 0 4.6945797518248332e-05 0.034845217925894172 0 4.6089959427234673e-05 0.034840468646065319 0 4.5311044293030392e-05 0.034834005083536894 0 4.3684415289950863e-05 0.034841357822862483 0 4.6089959427234673e-05 0.034840468646065319 0 4.6843869458630796e-05 0.03484210910671872 0 4.6945797518248332e-05 0.034845217925894172 0 4.3085108799111002e-05 0.034840105362234766 0 4.6089959427234673e-05 0.034840468646065319 0 4.5311044293030392e-05 0.034834005083536894 0 9.5629641688467907e-05 0.03236575031523084 0 0.00028062399957972062 0.033023963727850027 0 0.00043426385138839972 0.032584864615666322 0 0.00030604149867203331 0.032412837342702464 0 0.00062870646866566382 0.032437234584383447 0 0.00028062399957972062 0.033023963727850027 0 0.00039795328734784635 0.033514995255958732 0 4.5311044293030392e-05 0.034834005083536894 0 3.3020370719706824e-05 0.034839474773741802 0 4.3684415289950863e-05 0.034841357822862483 0 0.00081826206083074121 0.032593673644387276 0 0.00062870646866566382 0.032437234584383447 0 0.00094149101855186884 0.032453678428756239 0 4.5311044293030392e-05 0.034834005083536894 0 2.65821368244347e-05 0.034826066380613141 0 3.3020370719706824e-05 0.034839474773741802 0 6.795689346797701e-06 0.034839681430311319 0 2.65821368244347e-05 0.034826066380613141 0 3.3020370719706824e-05 0.034839474773741802 0 6.795689346797701e-06 0.034839681430311319 0 3.3020370719706824e-05 0.034839474773741802 0 2.2676136844620025e-05 0.034851650212966732 0 3.3020370719706824e-05 0.034839474773741802 0 2.2676136844620025e-05 0.034851650212966732 0 3.8804104350372645e-05 0.034849974867973442 0 3.3020370719706824e-05 0.034839474773741802 0 4.3684415289950863e-05 0.034841357822862483 0 3.8804104350372645e-05 0.034849974867973442 0 4.3684415289950863e-05 0.034841357822862483 0 3.8804104350372645e-05 0.034849974867973442 0 4.6945797518248332e-05 0.034845217925894172 0 3.8804104350372645e-05 0.034849974867973442 0 4.4894130314695403e-05 0.034851860279309886 0 4.6945797518248332e-05 0.034845217925894172 0 3.8804104350372645e-05 0.034849974867973442 0 3.9014621209041851e-05 0.034858540457978919 0 2.8651098833705726e-05 0.034865568244025653 0 3.8804104350372645e-05 0.034849974867973442 0 3.9014621209041851e-05 0.034858540457978919 0 4.4894130314695403e-05 0.034851860279309886 0 3.9014621209041851e-05 0.034858540457978919 0 4.4894130314695403e-05 0.034851860279309886 0 4.5285445109504963e-05 0.034858567275074977 0 2.2676136844620025e-05 0.034851650212966732 0 3.8804104350372645e-05 0.034849974867973442 0 2.8651098833705726e-05 0.034865568244025653 0 1.7639284361622121e-05 0.034865583947889189 0 2.2676136844620025e-05 0.034851650212966732 0 2.8651098833705726e-05 0.034865568244025653 0 3.9014621209041851e-05 0.034858540457978919 0 2.8651098833705726e-05 0.034865568244025653 0 3.5230685830344589e-05 0.034872008427975935 0 1.4831389822966473e-05 0.034882605913176962 0 1.7639284361622121e-05 0.034865583947889189 0 2.8651098833705726e-05 0.034865568244025653 0 2.4947768149398944e-05 0.034882468524925062 0 2.7832035397128046e-05 0.034893760676398114 0 1.1684602873980118e-05 0.03491059852521914 0 1.4831389822966473e-05 0.034882605913176962 0 2.8651098833705726e-05 0.034865568244025653 0 2.4947768149398944e-05 0.034882468524925062 0 2.8651098833705726e-05 0.034865568244025653 0 2.4947768149398944e-05 0.034882468524925062 0 3.5230685830344589e-05 0.034872008427975935 0 2.4947768149398944e-05 0.034882468524925062 0 3.5230685830344589e-05 0.034872008427975935 0 2.7832035397128046e-05 0.034893760676398114 0 4.5285445109504963e-05 0.034858567275074977 0 3.5230685830344589e-05 0.034872008427975935 0 4.3962879546333982e-05 0.034874672046827267 0 3.9014621209041851e-05 0.034858540457978919 0 4.5285445109504963e-05 0.034858567275074977 0 3.5230685830344589e-05 0.034872008427975935 0 3.5230685830344589e-05 0.034872008427975935 0 4.3962879546333982e-05 0.034874672046827267 0 2.7832035397128046e-05 0.034893760676398114 0 4.5285445109504963e-05 0.034858567275074977 0 4.3962879546333982e-05 0.034874672046827267 0 5.1064869100287639e-05 0.03485270339415316 0 5.82371014993826e-05 0.034836995470598695 0 4.424109968335889e-05 0.034837740291444014 0 5.1593442263314647e-05 0.034846508537369855 0 4.3962879546333982e-05 0.034874672046827267 0 5.1064869100287639e-05 0.03485270339415316 0 5.82371014993826e-05 0.034836995470598695 0 5.1064869100287639e-05 0.03485270339415316 0 5.82371014993826e-05 0.034836995470598695 0 5.1593442263314647e-05 0.034846508537369855 0 4.5285445109504963e-05 0.034858567275074977 0 5.1064869100287639e-05 0.03485270339415316 0 5.1593442263314647e-05 0.034846508537369855 0 5.82371014993826e-05 0.034836995470598695 0 4.424109968335889e-05 0.034837740291444014 0 3.25688000285832e-05 0.034822435706786954 0 5.82371014993826e-05 0.034836995470598695 0 3.25688000285832e-05 0.034822435706786954 0 5.5729069295295591e-05 0.03481020478725895 0 4.424109968335889e-05 0.034837740291444014 0 4.6843869458630796e-05 0.03484210910671872 0 5.1593442263314647e-05 0.034846508537369855 0 4.424109968335889e-05 0.034837740291444014 0 4.0132799562313007e-05 0.034837607140628543 0 4.6843869458630796e-05 0.03484210910671872 0 4.6843869458630796e-05 0.03484210910671872 0 4.6945797518248332e-05 0.034845217925894172 0 5.1593442263314647e-05 0.034846508537369855 0 4.4894130314695403e-05 0.034851860279309886 0 4.6945797518248332e-05 0.034845217925894172 0 5.1593442263314647e-05 0.034846508537369855 0 4.4894130314695403e-05 0.034851860279309886 0 4.5285445109504963e-05 0.034858567275074977 0 5.1593442263314647e-05 0.034846508537369855 0 2.1914558676124365e-05 0.034826694482746341 0 2.7719122437244659e-05 0.034832093088443553 0 3.0884682231381561e-05 0.034829698319657119 0 2.1914558676124365e-05 0.034826694482746341 0 2.7719122437244659e-05 0.034832093088443553 0 2.0293096956906568e-05 0.034829631719104186 0 4.424109968335889e-05 0.034837740291444014 0 4.0132799562313007e-05 0.034837607140628543 0 3.0884682231381561e-05 0.034829698319657119 0 4.0132799562313007e-05 0.034837607140628543 0 2.7719122437244659e-05 0.034832093088443553 0 3.0884682231381561e-05 0.034829698319657119 0 3.0884682231381561e-05 0.034829698319657119 0 3.25688000285832e-05 0.034822435706786954 0 2.3723665015236034e-05 0.034821527514326461 0 -5.5048797779623455e-05 0.034367907504338852 0 -0.00011815155097589925 0.034237143848483642 0 4.424109968335889e-05 0.034837740291444014 0 3.0884682231381561e-05 0.034829698319657119 0 3.25688000285832e-05 0.034822435706786954 0 2.1914558676124365e-05 0.034826694482746341 0 3.0884682231381561e-05 0.034829698319657119 0 2.3723665015236034e-05 0.034821527514326461 0 -0.00011815155097589925 0.034237143848483642 0 -0.00023720449284403896 0.033993574870336843 0 2.1914558676124365e-05 0.034826694482746341 0 2.3723665015236034e-05 0.034821527514326461 0 1.3114829190053495e-05 0.034820667111706428 0 -1.5419332688098166e-05 0.034729204304468131 0 -0.0001232436344599107 0.034690205049730284 0 -3.9586730130635425e-05 0.034672074658564894 0 -0.00011301267822072041 0.034463390455613085 0 -0.00022739837842157985 0.034367953126841204 0 -9.1308072305079635e-05 0.034286609440920032 0 -0.00011301267822072041 0.034463390455613085 0 -9.1308072305079635e-05 0.034286609440920032 0 -1.1234528646819875e-05 0.034515537633293208 0 -0.00011301267822072041 0.034463390455613085 0 -0.00022739837842157985 0.034367953126841204 0 -0.0001444895729435403 0.034602146660137612 0 -0.00023720449284403896 0.033993574870336843 0 -0.00023030104122832081 0.034054435062224629 0 -0.00050019386423915356 0.03434939211336422 0 -9.1308072305079635e-05 0.034286609440920032 0 -0.00033311465848343246 0.034041443413567518 0 -0.00023720449284403896 0.033993574870336843 0 -0.00022998613183236336 0.034003334028402034 0 -0.00033311465848343246 0.034041443413567518 0 -0.0003879991662523812 0.033681195287067318 0 0.000185477583407222 0.034097882113845762 0 -0.00050019386423915356 0.03434939211336422 0 -0.00033311465848343246 0.034041443413567518 0 -0.0005462100627495846 0.033555918977239335 0 -0.00023720449284403896 0.033993574870336843 0 -0.00040807243203114609 0.032706775826158219 0 -0.00033311465848343246 0.034041443413567518 0 -0.0003879991662523812 0.033681195287067318 0 -0.0005462100627495846 0.033555918977239335 0 -0.0003879991662523812 0.033681195287067318 0 -0.00033167854456723974 0.033510962190960204 0 -0.00027310007516648943 0.033515364816162824 0 2.1914558676124365e-05 0.034826694482746341 0 1.3114829190053495e-05 0.034820667111706428 0 1.7375575564096884e-05 0.034826429814530269 0 1.3114829190053495e-05 0.034820667111706428 0 1.7375575564096884e-05 0.034826429814530269 0 1.4136087999920866e-05 0.034828749040349487 0 1.7375575564096884e-05 0.034826429814530269 0 2.0293096956906568e-05 0.034829631719104186 0 1.4136087999920866e-05 0.034828749040349487 0 2.1914558676124365e-05 0.034826694482746341 0 1.7375575564096884e-05 0.034826429814530269 0 2.0293096956906568e-05 0.034829631719104186 0 -0.00040807243203114609 0.032706775826158219 0 -0.00074775278816997803 0.029744790396881379 0 2.0293096956906568e-05 0.034829631719104186 0 1.4136087999920866e-05 0.034828749040349487 0 2.1112568121429076e-05 0.034833055679852808 0 1.4136087999920866e-05 0.034828749040349487 0 2.1112568121429076e-05 0.034833055679852808 0 1.4407069958282854e-05 0.03483373195022825 0 -0.0005462100627495846 0.033555918977239335 0 -0.00043133065427074664 0.033364278092061238 0 -0.00054665362174776365 0.033208931085738795 0 -0.00033167854456723974 0.033510962190960204 0 -0.0003511891193937867 0.033438338510889024 0 -0.00028202287662873753 0.033438680116312465 0 -0.0003879991662523812 0.033681195287067318 0 -0.00033167854456723974 0.033510962190960204 0 -0.00040615911507684493 0.033509097599281189 0 -0.00033167854456723974 0.033510962190960204 0 -0.00040615911507684493 0.033509097599281189 0 -0.0003511891193937867 0.033438338510889024 0 -0.0005462100627495846 0.033555918977239335 0 -0.00040615911507684493 0.033509097599281189 0 -0.00043133065427074664 0.033364278092061238 0 -0.0003879991662523812 0.033681195287067318 0 -0.0005462100627495846 0.033555918977239335 0 -0.00040615911507684493 0.033509097599281189 0 -0.0003511891193937867 0.033438338510889024 0 -0.00028475300995998976 0.033350769080490818 0 -0.00028202287662873753 0.033438680116312465 0 -0.00043133065427074664 0.033364278092061238 0 -0.0003511891193937867 0.033438338510889024 0 -0.00028475300995998976 0.033350769080490818 0 -0.00040615911507684493 0.033509097599281189 0 -0.00043133065427074664 0.033364278092061238 0 -0.0003511891193937867 0.033438338510889024 0 -0.00078433799619252655 0.028655998072728738 0 -0.00059305305832667396 0.02895313696513847 0 -0.00043133065427074664 0.033364278092061238 0 -0.00038527252915945424 0.03322316045433904 0 -0.00028475300995998976 0.033350769080490818 0 -0.00043133065427074664 0.033364278092061238 0 -0.00038527252915945424 0.03322316045433904 0 -0.00054665362174776365 0.033208931085738795 0 -0.00078433799619252655 0.028655998072728738 0 -0.0010187516138111564 0.026939104411965644 0 -0.00078433799619252655 0.028655998072728738 0 -0.00074775278816997803 0.029744790396881379 0 -0.00090338812443594644 0.027898082868512888 0 0.00055211064837822998 0.027919996337497473 0 0.00068239473355218158 0.029490962833410274 0 -0.00074775278816997803 0.029744790396881379 0 -0.00019432660375207214 0.031363145509206922 0 -0.00040937321650739663 0.03236374407653634 0 -4.064756643532801e-05 0.032384057629784066 0 -0.0003256696760427069 0.032533947044702208 0 2.1112568121429076e-05 0.034833055679852808 0 1.4407069958282854e-05 0.03483373195022825 0 2.8973380418586059e-05 0.034839126385030297 0 -0.00074775278816997803 0.029744790396881379 0 -0.0010187516138111564 0.026939104411965644 0 2.7719122437244659e-05 0.034832093088443553 0 2.1112568121429076e-05 0.034833055679852808 0 2.8973380418586059e-05 0.034839126385030297 0 2.7719122437244659e-05 0.034832093088443553 0 2.0293096956906568e-05 0.034829631719104186 0 2.1112568121429076e-05 0.034833055679852808 0 4.0132799562313007e-05 0.034837607140628543 0 2.7719122437244659e-05 0.034832093088443553 0 3.7547132233743945e-05 0.034837659269080022 0 2.7719122437244659e-05 0.034832093088443553 0 2.8973380418586059e-05 0.034839126385030297 0 3.7547132233743945e-05 0.034837659269080022 0 9.5629641688467907e-05 0.03236575031523084 0 -0.00019432660375207214 0.031363145509206922 0 0.00030604149867203331 0.032412837342702464 0 -4.064756643532801e-05 0.032384057629784066 0 0.00020414621663651921 0.032593945629062551 0 4.3085108799111002e-05 0.034840105362234766 0 2.8973380418586059e-05 0.034839126385030297 0 3.7547132233743945e-05 0.034837659269080022 0 -4.064756643532801e-05 0.032384057629784066 0 0.00020414621663651921 0.032593945629062551 0 -3.9527257836005408e-06 0.032646870207158583 0 0.00020414621663651921 0.032593945629062551 0 -3.9527257836005408e-06 0.032646870207158583 0 0.00016436601458418257 0.032763665919169849 0 -4.064756643532801e-05 0.032384057629784066 0 -0.00014366975347695991 0.032575318757067172 0 -0.0003256696760427069 0.032533947044702208 0 -4.064756643532801e-05 0.032384057629784066 0 -0.00014366975347695991 0.032575318757067172 0 -3.9527257836005408e-06 0.032646870207158583 0 -0.00014366975347695991 0.032575318757067172 0 -3.9527257836005408e-06 0.032646870207158583 0 -0.00020517375079544156 0.032736158748113982 0 -0.00020517375079544156 0.032736158748113982 0 2.9166146245148924e-05 0.032811896199008941 0 -2.6664128970635293e-05 0.032909330585708912 0 -3.9527257836005408e-06 0.032646870207158583 0 -0.00020517375079544156 0.032736158748113982 0 2.9166146245148924e-05 0.032811896199008941 0 -0.00080251772883065478 0.027556582326971654 0 -0.00072800054805314954 0.027326059829063606 0 -0.0018346031214153894 0.022556385681388676 0 -0.0022766322459085758 0.022091770892854561 0 -0.0018674086062864122 0.022002746886871608 0 -0.00085061762304465614 0.027197196879093378 0 -0.00072800054805314954 0.027326059829063606 0 -3.9527257836005408e-06 0.032646870207158583 0 0.00016436601458418257 0.032763665919169849 0 2.9166146245148924e-05 0.032811896199008941 0 2.9166146245148924e-05 0.032811896199008941 0 0.00012420666549382378 0.032929971279571674 0 -3.0472802719043145e-05 0.032916044904657452 0 0.00016436601458418257 0.032763665919169849 0 2.9166146245148924e-05 0.032811896199008941 0 0.00012420666549382378 0.032929971279571674 0 0.0002489530827444369 0.032893024971403215 0 0.00016436601458418257 0.032763665919169849 0 0.00012420666549382378 0.032929971279571674 0 0.0002489530827444369 0.032893024971403215 0 0.00015821088751861764 0.033091926947252215 0 0.00012420666549382378 0.032929971279571674 0 0.00015821088751861764 0.033091926947252215 0 9.4300233909491441e-05 0.033056662697187614 0 0.00010996446358309714 0.033146865196864939 0 0.00015821088751861764 0.033091926947252215 0 0.00012420666549382378 0.032929971279571674 0 -3.0472802719043145e-05 0.032916044904657452 0 -0.00025025359794926045 0.028052431412785937 0 -0.00072800054805314954 0.027326059829063606 0 -0.0022766322459085758 0.022091770892854561 0 -0.0018674086062864122 0.022002746886871608 0 -0.0018736907488404548 0.021384011978745898 0 -0.00072800054805314954 0.027326059829063606 0 -0.00083609180060388339 0.027053522292231222 0 9.4300233909491441e-05 0.033056662697187614 0 0.00010996446358309714 0.033146865196864939 0 9.1802348908223005e-05 0.033225590399228747 0 0.00010996446358309714 0.033146865196864939 0 9.1802348908223005e-05 0.033225590399228747 0 0.00011117990949528884 0.033208393152362445 0 0.00012797796508728798 0.033255559243914642 0 9.1802348908223005e-05 0.033225590399228747 0 0.00011117990949528884 0.033208393152362445 0 0.00019883093488070382 0.033254057780915378 0 0.00026073288619552377 0.033159940305518242 0 0.00011117990949528884 0.033208393152362445 0 0.00026073288619552377 0.033159940305518242 0 0.00015821088751861764 0.033091926947252215 0 0.00011117990949528884 0.033208393152362445 0 0.00015821088751861764 0.033091926947252215 0 0.00010996446358309714 0.033146865196864939 0 0.00011117990949528884 0.033208393152362445 0 -0.0014849365151823747 0.021216759263888562 0 -0.0013577167876207194 0.02104286293454986 0 -0.0011732297902416473 0.021219025803256162 0 -0.0014849365151823747 0.021216759263888562 0 -0.0013577167876207194 0.02104286293454986 0 -0.0014887756416960864 0.021097472508227764 0 -0.0014534741131046985 0.020964530689300518 0 -0.0013577167876207194 0.02104286293454986 0 -0.0014887756416960864 0.021097472508227764 0 -0.0014816746780887716 0.022494929810142113 0 -0.0013901516049535561 0.0233971021975013 0 -0.0014534741131046985 0.020964530689300518 0 -0.0014887756416960864 0.021097472508227764 0 -0.0016366005784916591 0.021114622956784644 0 -0.00086950400860409227 0.026605971046925473 0 -0.00083609180060388339 0.027053522292231222 0 -0.0014849365151823747 0.021216759263888562 0 -0.0014887756416960864 0.021097472508227764 0 -0.0016366005784916591 0.021114622956784644 0 -0.0015791836047266857 0.020868561951203263 0 -0.0018736907488404548 0.021384011978745898 0 -0.0016366005784916591 0.021114622956784644 0 -0.0014849365151823747 0.021216759263888562 0 -0.0016366005784916591 0.021114622956784644 0 -0.0015657924704143408 0.021368740331580306 0 -0.0018736907488404548 0.021384011978745898 0 -0.0016366005784916591 0.021114622956784644 0 -0.001482686034034136 0.022002871402847859 0 -0.0018674086062864122 0.022002746886871608 0 -0.0018736907488404548 0.021384011978745898 0 -0.001482686034034136 0.022002871402847859 0 -0.0014849365151823747 0.021216759263888562 0 -0.0013819372007619866 0.021384704333928351 0 -0.0011732297902416473 0.021219025803256162 0 -0.0014849365151823747 0.021216759263888562 0 -0.0015657924704143408 0.021368740331580306 0 -0.0013819372007619866 0.021384704333928351 0 -0.0013819372007619866 0.021384704333928351 0 -0.0014313862205413545 0.021560437204631477 0 -0.0012531857467089245 0.021611832911517751 0 -0.0015657924704143408 0.021368740331580306 0 -0.0013819372007619866 0.021384704333928351 0 -0.0014313862205413545 0.021560437204631477 0 -0.0015657924704143408 0.021368740331580306 0 -0.0014313862205413545 0.021560437204631477 0 -0.0015359912103722435 0.02169382902831276 0 -0.0013901516049535561 0.0233971021975013 0 -0.0010187516138111564 0.026939104411965644 0 -0.0018346031214153894 0.022556385681388676 0 -0.001482686034034136 0.022002871402847859 0 -0.0013552958906823411 0.023048200767784254 0 -0.0018346031214153894 0.022556385681388676 0 -0.0018674086062864122 0.022002746886871608 0 -0.001482686034034136 0.022002871402847859 0 -0.00020517375079544156 0.032736158748113982 0 -0.00039219830614706464 0.032550803720475356 0 -0.0003256696760427069 0.032533947044702208 0 -0.00085061762304465614 0.027197196879093378 0 -0.0010187516138111564 0.026939104411965644 0 -0.00014366975347695991 0.032575318757067172 0 -0.00020517375079544156 0.032736158748113982 0 -0.0003256696760427069 0.032533947044702208 0 -0.00040937321650739663 0.03236374407653634 0 -0.00039435389265541612 0.032551470239499843 0 -0.0003256696760427069 0.032533947044702208 0 -0.0010187516138111564 0.026939104411965644 0 -0.0010269628304803 0.026967983453544692 0 -0.0015104315095293766 0.021968895152476506 0 -0.0016945623220494918 0.021785436619866625 0 -0.001353419402089068 0.021675720928278134 0 -0.0014313862205413545 0.021560437204631477 0 -0.0015359912103722435 0.02169382902831276 0 -0.0012531857467089245 0.021611832911517751 0 -0.0010187516138111564 0.026939104411965644 0 -0.0007032848063334375 0.024949492904612486 0 -0.0012531857467089245 0.021611832911517751 0 -0.00095126075627618295 0.02151850008821863 0 -0.0011732297902416473 0.021219025803256162 0 -0.0013819372007619866 0.021384704333928351 0 -0.0012531857467089245 0.021611832911517751 0 -0.0011732297902416473 0.021219025803256162 0 -0.001353419402089068 0.021675720928278134 0 -0.0010019348465417574 0.021555530416854204 0 -0.001123940511113042 0.02196781535674918 0 -0.0010019348465417574 0.021555530416854204 0 -0.00084280116834637938 0.021756066113349175 0 -0.001123940511113042 0.02196781535674918 0 -0.0007032848063334375 0.024949492904612486 0 -0.00052592084494599211 0.023928013674879466 0 -0.00095126075627618295 0.02151850008821863 0 -0.0011732297902416473 0.021219025803256162 0 -0.00083922869087054396 0.021289963110604278 0 -0.0011732297902416473 0.021219025803256162 0 -0.00095135084433515865 0.02110293828608608 0 -0.00083922869087054396 0.021289963110604278 0 -0.00098732810636210314 0.020816228818231808 0 -0.0011732297902416473 0.021219025803256162 0 -0.00095135084433515865 0.02110293828608608 0 -0.00092566990036722419 0.020814680155145832 0 -0.001000900464203457 0.020941540501856551 0 -0.0011924946631422975 0.020958970133986621 0 -0.00096606700420317571 0.020941275870607005 0 -0.0011732297902416473 0.021219025803256162 0 -0.0011924946631422975 0.020958970133986621 0 -0.0013577167876207194 0.02104286293454986 0 -0.0011732297902416473 0.021219025803256162 0 -0.0006397465017007382 0.020859610703663774 0 -0.00074187037105510022 0.021069052022999687 0 -0.00046219052723607741 0.021032000027469175 0 -0.00074187037105510022 0.021069052022999687 0 -0.00061019802894635318 0.021212426944433573 0 -0.00046219052723607741 0.021032000027469175 0 -0.00044305304691495537 0.020793435108375495 0 -0.0006397465017007382 0.020859610703663774 0 -0.00046219052723607741 0.021032000027469175 0 -0.00098732810636210314 0.020816228818231808 0 -0.00095135084433515865 0.02110293828608608 0 -0.00074187037105510022 0.021069052022999687 0 -0.0006397465017007382 0.020859610703663774 0 -0.00098732810636210314 0.020816228818231808 0 -0.00074187037105510022 0.021069052022999687 0 -0.00074187037105510022 0.021069052022999687 0 -0.00083922869087054396 0.021289963110604278 0 -0.00061019802894635318 0.021212426944433573 0 -0.00095135084433515865 0.02110293828608608 0 -0.00074187037105510022 0.021069052022999687 0 -0.00083922869087054396 0.021289963110604278 0 -0.00061019802894635318 0.021212426944433573 0 -0.00044298054235337227 0.021265734573670043 0 -0.00046219052723607741 0.021032000027469175 0 -0.00083922869087054396 0.021289963110604278 0 -0.00061019802894635318 0.021212426944433573 0 -0.00063101293582799997 0.021421838039816298 0 -0.00061019802894635318 0.021212426944433573 0 -0.00063101293582799997 0.021421838039816298 0 -0.00044298054235337227 0.021265734573670043 0 -0.00063101293582799997 0.021421838039816298 0 -0.00060687833259513333 0.021659008987960381 0 -0.00037722271728402376 0.021530887262908215 0 -0.00063101293582799997 0.021421838039816298 0 -0.00073592766589632814 0.021627867989568939 0 -0.00060687833259513333 0.021659008987960381 0 -0.00052592084494599211 0.023928013674879466 0 -0.00043426234821837155 0.023603983016095072 0 -0.00095126075627618295 0.02151850008821863 0 -0.00083922869087054396 0.021289963110604278 0 -0.00063101293582799997 0.021421838039816298 0 -0.0010019348465417574 0.021555530416854204 0 -0.00063101293582799997 0.021421838039816298 0 -0.00073592766589632814 0.021627867989568939 0 -0.0010019348465417574 0.021555530416854204 0 -0.00073592766589632814 0.021627867989568939 0 -0.00084280116834637938 0.021756066113349175 0 -0.00073592766589632814 0.021627867989568939 0 -0.00084280116834637938 0.021756066113349175 0 -0.0007094466834329054 0.021785492141332786 0 -0.00084280116834637938 0.021756066113349175 0 -0.0007094466834329054 0.021785492141332786 0 -0.00071686947669683237 0.021969534633647297 0 -0.00060687833259513333 0.021659008987960381 0 -0.00065058999891844625 0.021927945578076525 0 -0.00037722271728402376 0.021530887262908215 0 -0.00036716689221491755 0.024477097958677953 0 -3.1209571279501961e-05 0.02324198063217281 0 -0.00060687833259513333 0.021659008987960381 0 -0.0007094466834329054 0.021785492141332786 0 -0.00065058999891844625 0.021927945578076525 0 -0.00036716689221491755 0.024477097958677953 0 0.00010049913914665938 0.02251799714627838 0 -0.00073592766589632814 0.021627867989568939 0 -0.00060687833259513333 0.021659008987960381 0 -0.0007094466834329054 0.021785492141332786 0 -0.00064455224691486784 0.025285582055972013 0 -0.00041122699115148689 0.025916623401703393 0 -0.00017661629493530672 0.033348413191069987 0 -0.00018160601400891153 0.033341892407142561 0 -0.00021397312636415146 0.033328893294205936 0 -0.00083739468959441541 0.021638325866041828 0 -0.00089421563411245717 0.021677179667106319 0 -0.0005464023651783243 0.021671027315020529 0 -0.0007094466834329054 0.021785492141332786 0 -0.00065058999891844625 0.021927945578076525 0 -0.00071686947669683237 0.021969534633647297 0 -0.00036716689221491755 0.024477097958677953 0 -0.00064455224691486784 0.025285582055972013 0 -0.00017661629493530672 0.033348413191069987 0 -0.00018160601400891153 0.033341892407142561 0 -0.000169513214510609 0.033345498743114245 0 -0.00018160601400891153 0.033341892407142561 0 -0.00017501740166609548 0.033354065879408056 0 -0.00019102748614639083 0.033323347793980669 0 -0.00018160601400891153 0.033341892407142561 0 -0.00019102748614639083 0.033323347793980669 0 -0.00021397312636415146 0.033328893294205936 0 -0.00017501740166609548 0.033354065879408056 0 -0.00017820455038464298 0.033379451299357425 0 -0.00017423107663611144 0.033366492860422245 0 -0.00018160601400891153 0.033341892407142561 0 -0.00017501740166609548 0.033354065879408056 0 -0.00017424585219124 0.033349811358870309 0 -0.00017501740166609548 0.033354065879408056 0 -0.00017424585219124 0.033349811358870309 0 -0.00017473251033138455 0.033357578944373953 0 -0.00017501740166609548 0.033354065879408056 0 -0.00017473251033138455 0.033357578944373953 0 -0.00017820455038464298 0.033379451299357425 0 -0.00017473251033138455 0.033357578944373953 0 -0.0001825766459619526 0.033359675954321322 0 -0.00017820455038464298 0.033379451299357425 0 -0.00064455224691486784 0.025285582055972013 0 -0.00069383311021791274 0.027062508144297358 0 -0.00016439291681318203 0.033341880074971589 0 -0.000169513214510609 0.033345498743114245 0 -0.00019587665969954515 0.033330594272473334 0 -0.00017473251033138455 0.033357578944373953 0 -0.000169513214510609 0.033345498743114245 0 -0.0001825766459619526 0.033359675954321322 0 -0.00084280116834637938 0.021756066113349175 0 -0.00071686947669683237 0.021969534633647297 0 -0.001123940511113042 0.02196781535674918 0 -0.00018160601400891153 0.033341892407142561 0 -0.00017424585219124 0.033349811358870309 0 -0.000169513214510609 0.033345498743114245 0 -0.00017424585219124 0.033349811358870309 0 -0.00017473251033138455 0.033357578944373953 0 -0.000169513214510609 0.033345498743114245 0 -0.00064455224691486784 0.025285582055972013 0 -0.00069423483051465537 0.025361827616503883 0 -0.000169513214510609 0.033345498743114245 0 -0.00019587665969954515 0.033330594272473334 0 -0.0001825766459619526 0.033359675954321322 0 -0.00019587665969954515 0.033330594272473334 0 -0.00021402964908365664 0.033400817375095093 0 -0.0001825766459619526 0.033359675954321322 0 -0.00078433799619252655 0.028655998072728738 0 -0.00069383311021791274 0.027062508144297358 0 -0.000322245257114689 0.03330703691719087 0 -0.00019587665969954515 0.033330594272473334 0 -0.00028475300995998976 0.033350769080490818 0 -0.00019587665969954515 0.033330594272473334 0 -0.00028475300995998976 0.033350769080490818 0 -0.00021402964908365664 0.033400817375095093 0 -0.0015104315095293766 0.021968895152476506 0 -0.001353419402089068 0.021675720928278134 0 -0.001123940511113042 0.02196781535674918 0 -0.00021402964908365664 0.033400817375095093 0 -0.00018598828583447322 0.033416422314768213 0 -0.00027310007516648943 0.033515364816162824 0 -0.00028475300995998976 0.033350769080490818 0 -0.00021402964908365664 0.033400817375095093 0 -0.00028202287662873753 0.033438680116312465 0 -0.00021402964908365664 0.033400817375095093 0 -0.00028202287662873753 0.033438680116312465 0 -0.00027310007516648943 0.033515364816162824 0 -0.00033167854456723974 0.033510962190960204 0 -0.00028202287662873753 0.033438680116312465 0 -0.00027310007516648943 0.033515364816162824 0 -0.00021402964908365664 0.033400817375095093 0 -0.0001825766459619526 0.033359675954321322 0 -0.00017820455038464298 0.033379451299357425 0 -0.00021402964908365664 0.033400817375095093 0 -0.00017820455038464298 0.033379451299357425 0 -0.00018598828583447322 0.033416422314768213 0 4.7571457648974773e-06 0.033044533545521004 0 0.00015490898437308602 0.032796124904450344 0 -0.00017820455038464298 0.033379451299357425 0 -0.00018598828583447322 0.033416422314768213 0 -0.00017423107663611144 0.033366492860422245 0 -0.00018598828583447322 0.033416422314768213 0 -0.00020465177003137544 0.033460072606753016 0 -0.0001712905920199 0.033352317928073104 0 -0.00018598828583447322 0.033416422314768213 0 -0.00020465177003137544 0.033460072606753016 0 -0.00027310007516648943 0.033515364816162824 0 -0.00011235087229868612 0.033100887347963209 0 4.7571457648974773e-06 0.033044533545521004 0 -9.1308072305079635e-05 0.034286609440920032 0 -0.00033311465848343246 0.034041443413567518 0 0.000185477583407222 0.034097882113845762 0 -0.0003879991662523812 0.033681195287067318 0 -0.00020465177003137544 0.033460072606753016 0 -0.00027310007516648943 0.033515364816162824 0 -9.1308072305079635e-05 0.034286609440920032 0 0.00018223526485398327 0.034416602055751797 0 -1.1234528646819875e-05 0.034515537633293208 0 -9.1308072305079635e-05 0.034286609440920032 0 0.000185477583407222 0.034097882113845762 0 0.00018223526485398327 0.034416602055751797 0 0.000185477583407222 0.034097882113845762 0 0.00018223526485398327 0.034416602055751797 0 0.00040807846672289637 0.03426709018505146 0 0.00018223526485398327 0.034416602055751797 0 0.00040807846672289637 0.03426709018505146 0 0.00034199321859678154 0.03449081842978214 0 0.00015490898437308602 0.032796124904450344 0 0.00016290618570140319 0.032229278032763251 0 0.00040807846672289637 0.03426709018505146 0 0.00053756675896362899 0.034501264068652032 0 0.0006041749430111522 0.034359500603759016 0 -0.0001712905920199 0.033352317928073104 0 -0.00019102748614639083 0.033323347793980669 0 -0.00019794108387016652 0.033281927190262128 0 -0.00017501740166609548 0.033354065879408056 0 -0.00019102748614639083 0.033323347793980669 0 -0.00017423107663611144 0.033366492860422245 0 -0.0001712905920199 0.033352317928073104 0 -0.00019102748614639083 0.033323347793980669 0 -0.00017423107663611144 0.033366492860422245 0 -0.00018598828583447322 0.033416422314768213 0 -0.0001712905920199 0.033352317928073104 0 -0.00017423107663611144 0.033366492860422245 0 0.00043604801751127755 0.034606288633093674 0 0.00030840957959085051 0.03467813037822056 0 0.00034199321859678154 0.03449081842978214 0 0.00043604801751127755 0.034606288633093674 0 0.00030840957959085051 0.03467813037822056 0 0.00042879805777575736 0.034738559230143011 0 0.00043604801751127755 0.034606288633093674 0 0.00053915088883140525 0.03465363011223431 0 0.00053756675896362899 0.034501264068652032 0 0.00043604801751127755 0.034606288633093674 0 0.00053915088883140525 0.03465363011223431 0 0.00042879805777575736 0.034738559230143011 0 0.00053915088883140525 0.03465363011223431 0 0.00053756675896362899 0.034501264068652032 0 0.00064048938652649229 0.034602787776825329 0 0.00040807846672289637 0.03426709018505146 0 0.00053756675896362899 0.034501264068652032 0 0.00034199321859678154 0.03449081842978214 0 0.00043604801751127755 0.034606288633093674 0 0.00053756675896362899 0.034501264068652032 0 0.00034199321859678154 0.03449081842978214 0 0.00018223526485398327 0.034416602055751797 0 7.832457325878997e-05 0.034585648711618747 0 0.00019502414812982183 0.034604026797660815 0 0.00018223526485398327 0.034416602055751797 0 0.00034199321859678154 0.03449081842978214 0 0.00019502414812982183 0.034604026797660815 0 0.00018223526485398327 0.034416602055751797 0 -1.1234528646819875e-05 0.034515537633293208 0 7.832457325878997e-05 0.034585648711618747 0 -1.1234528646819875e-05 0.034515537633293208 0 7.832457325878997e-05 0.034585648711618747 0 -3.24880516767198e-05 0.034662170506100654 0 7.832457325878997e-05 0.034585648711618747 0 -3.24880516767198e-05 0.034662170506100654 0 7.5828308219566304e-05 0.034701473905891463 0 7.832457325878997e-05 0.034585648711618747 0 7.5828308219566304e-05 0.034701473905891463 0 0.00019502414812982183 0.034604026797660815 0 7.5828308219566304e-05 0.034701473905891463 0 0.00017387800616191359 0.034748451374149156 0 7.0462535247258168e-05 0.034808672642315679 0 -3.24880516767198e-05 0.034662170506100654 0 7.5828308219566304e-05 0.034701473905891463 0 -1.6439046910982839e-05 0.034790633979527016 0 0.00030840957959085051 0.03467813037822056 0 0.00034199321859678154 0.03449081842978214 0 0.00019502414812982183 0.034604026797660815 0 7.5828308219566304e-05 0.034701473905891463 0 0.00019502414812982183 0.034604026797660815 0 0.00017387800616191359 0.034748451374149156 0 0.00030840957959085051 0.03467813037822056 0 0.00019502414812982183 0.034604026797660815 0 0.00017387800616191359 0.034748451374149156 0 0.00030840957959085051 0.03467813037822056 0 0.00017387800616191359 0.034748451374149156 0 0.00027769631819306496 0.034821473457767212 0 0.00017387800616191359 0.034748451374149156 0 0.00027769631819306496 0.034821473457767212 0 0.00011990482473463955 0.034883600548889247 0 0.00017387800616191359 0.034748451374149156 0 0.00011990482473463955 0.034883600548889247 0 7.0462535247258168e-05 0.034808672642315679 0 0.00027769631819306496 0.034821473457767212 0 0.00011990482473463955 0.034883600548889247 0 0.00015245372746180592 0.035008434920748933 0 -1.6439046910982839e-05 0.034790633979527016 0 1.0099945399859852e-05 0.034918971557926393 0 -6.3003151165773021e-05 0.03497028400630104 0 -1.6439046910982839e-05 0.034790633979527016 0 7.0462535247258168e-05 0.034808672642315679 0 1.0099945399859852e-05 0.034918971557926393 0 7.5828308219566304e-05 0.034701473905891463 0 -1.6439046910982839e-05 0.034790633979527016 0 7.0462535247258168e-05 0.034808672642315679 0 0.00011990482473463955 0.034883600548889247 0 7.0462535247258168e-05 0.034808672642315679 0 1.0099945399859852e-05 0.034918971557926393 0 -4.4312585727104478e-05 0.034804706897825687 0 -2.9414606281076046e-05 0.034816785304533027 0 1.0099945399859852e-05 0.034918971557926393 0 6.7865508012757779e-06 0.035038705281106974 0 -6.3003151165773021e-05 0.03497028400630104 0 6.7865508012757779e-06 0.035038705281106974 0 1.0382820246103788e-05 0.034996907674334589 0 -6.3003151165773021e-05 0.03497028400630104 0 0.00011990482473463955 0.034883600548889247 0 1.0099945399859852e-05 0.034918971557926393 0 6.7865508012757779e-06 0.035038705281106974 0 -0.00012377048482579473 0.035147431663407627 0 -0.0004448776871758981 0.035185780330582929 0 -0.00023679431042640037 0.034955827485112279 0 0.00011990482473463955 0.034883600548889247 0 6.7865508012757779e-06 0.035038705281106974 0 0.00015245372746180592 0.035008434920748933 0 -0.0006865253569381469 0.031486591634208388 0 -0.00068417990547493346 0.031425316105183836 0 6.7865508012757779e-06 0.035038705281106974 0 -0.00012377048482579473 0.035147431663407627 0 -0.00010338114555440839 0.035018614706722975 0 0.00027769631819306496 0.034821473457767212 0 0.00015245372746180592 0.035008434920748933 0 0.00043765804901577706 0.034897467454035505 0 -0.00068417990547493346 0.031425316105183836 0 -0.00088861261368710916 0.031289793228467547 0 -0.00068417990547493346 0.031425316105183836 0 -0.00075680485245885874 0.031210353068881536 0 -0.00072574311787065263 0.030417067407888406 0 -0.001039589423693368 0.030364858573245685 0 -0.0010910617519338706 0.030505516133701425 0 0.00027769631819306496 0.034821473457767212 0 0.00043765804901577706 0.034897467454035505 0 0.00042879805777575736 0.034738559230143011 0 0.00030840957959085051 0.03467813037822056 0 0.00027769631819306496 0.034821473457767212 0 0.00042879805777575736 0.034738559230143011 0 0.00043765804901577706 0.034897467454035505 0 0.00055496872090990228 0.03478238903386769 0 0.00068321424059202831 0.034793773459723232 0 -0.00075680485245885874 0.031210353068881536 0 -0.00098739973986243339 0.030568900321367876 0 0.00053915088883140525 0.03465363011223431 0 0.00055496872090990228 0.03478238903386769 0 0.00062489079183719164 0.034691008425390905 0 0.00053915088883140525 0.03465363011223431 0 0.00042879805777575736 0.034738559230143011 0 0.00055496872090990228 0.03478238903386769 0 0.00043765804901577706 0.034897467454035505 0 0.00042879805777575736 0.034738559230143011 0 0.00055496872090990228 0.03478238903386769 0 -0.0010910617519338706 0.030505516133701425 0 -0.0013536650474442772 0.030313138513656895 0 -0.0014562249270822813 0.030593509041766595 0 -0.001039589423693368 0.030364858573245685 0 -0.0010910617519338706 0.030505516133701425 0 -0.0013536650474442772 0.030313138513656895 0 -0.00088861261368710916 0.031289793228467547 0 -0.0013522109518854942 0.030816037770282197 0 -0.0004448776871758981 0.035185780330582929 0 -0.0005085754921354056 0.034901780862761175 0 -0.00078703028425926942 0.035198864076860258 0 -0.0005085754921354056 0.034901780862761175 0 -0.00078703028425926942 0.035198864076860258 0 -0.00086481148098399704 0.034952368638570243 0 -0.0004448776871758981 0.035185780330582929 0 -0.0005085754921354056 0.034901780862761175 0 -0.00023679431042640037 0.034955827485112279 0 -0.0005085754921354056 0.034901780862761175 0 -0.00015617116266184759 0.034694476446624427 0 -0.00023679431042640037 0.034955827485112279 0 -0.0005085754921354056 0.034901780862761175 0 -0.00043678093810581758 0.034575788589045968 0 -0.00015617116266184759 0.034694476446624427 0 -0.0005085754921354056 0.034901780862761175 0 -0.00071275692582362105 0.034703387735051272 0 -0.00043678093810581758 0.034575788589045968 0 -0.0005085754921354056 0.034901780862761175 0 -0.00071275692582362105 0.034703387735051272 0 -0.00086481148098399704 0.034952368638570243 0 -0.00071275692582362105 0.034703387735051272 0 -0.00043678093810581758 0.034575788589045968 0 -0.0006781837031817915 0.034414562780749947 0 -0.00043678093810581758 0.034575788589045968 0 -0.00017854353168213143 0.034479734219101082 0 -0.00042972946301793433 0.034292910585571462 0 -0.00043678093810581758 0.034575788589045968 0 -0.0006781837031817915 0.034414562780749947 0 -0.00042972946301793433 0.034292910585571462 0 -0.0006781837031817915 0.034414562780749947 0 -0.00066449673267841662 0.0341988940330284 0 -0.00042972946301793433 0.034292910585571462 0 1.0312174987145278e-05 0.034409172722753491 0 -0.00017854353168213143 0.034479734219101082 0 -0.00017247197419197947 0.03420128041132188 0 -0.00017854353168213143 0.034479734219101082 0 -0.00017247197419197947 0.03420128041132188 0 -0.00042972946301793433 0.034292910585571462 0 -0.00043678093810581758 0.034575788589045968 0 -0.00017854353168213143 0.034479734219101082 0 -0.00015617116266184759 0.034694476446624427 0 1.0312174987145278e-05 0.034409172722753491 0 -0.00017854353168213143 0.034479734219101082 0 2.1257046414377109e-05 0.034673630254381645 0 -0.00017854353168213143 0.034479734219101082 0 -0.00015617116266184759 0.034694476446624427 0 2.1257046414377109e-05 0.034673630254381645 0 -6.5405849894371813e-05 0.034775665402582978 0 -4.4312585727104478e-05 0.034804706897825687 0 -0.00015617116266184759 0.034694476446624427 0 -2.125882976229117e-05 0.034779937879609056 0 2.1257046414377109e-05 0.034673630254381645 0 -0.00015617116266184759 0.034694476446624427 0 -0.00023679431042640037 0.034955827485112279 0 1.0382820246103788e-05 0.034996907674334589 0 -0.00023679431042640037 0.034955827485112279 0 -0.00010338114555440839 0.035018614706722975 0 1.0382820246103788e-05 0.034996907674334589 0 -0.00012377048482579473 0.035147431663407627 0 -0.00023679431042640037 0.034955827485112279 0 -0.00010338114555440839 0.035018614706722975 0 6.7865508012757779e-06 0.035038705281106974 0 -0.00010338114555440839 0.035018614706722975 0 1.0382820246103788e-05 0.034996907674334589 0 5.6005178454126337e-05 0.034781806900981316 0 0.00012299474173779466 0.034737608152104464 0 4.6765961341041756e-05 0.034797025104007659 0 -2.125882976229117e-05 0.034779937879609056 0 5.6005178454126337e-05 0.034781806900981316 0 2.1257046414377109e-05 0.034673630254381645 0 -2.6317438325083679e-06 0.034755707015422965 0 5.193152725794881e-05 0.034789776280110235 0 4.6765961341041756e-05 0.034797025104007659 0 5.1015376193101815e-05 0.034622676179700926 0 5.1487079032647184e-05 0.034673434471479948 0 5.1015376193101815e-05 0.034622676179700926 0 4.690448470526152e-05 0.034479157710773589 0 0.00012299474173779466 0.034737608152104464 0 2.1257046414377109e-05 0.034673630254381645 0 0.00019157233013749955 0.034516175359284196 0 5.6005178454126337e-05 0.034781806900981316 0 0.00012299474173779466 0.034737608152104464 0 2.1257046414377109e-05 0.034673630254381645 0 1.0312174987145278e-05 0.034409172722753491 0 2.1257046414377109e-05 0.034673630254381645 0 0.00019157233013749955 0.034516175359284196 0 -5.2756197061876834e-05 0.034587924325526341 0 6.7544517141830852e-05 0.034445899593393045 0 8.7732224837929436e-05 0.034676847966029462 0 -2.6317438325083679e-06 0.034755707015422965 0 -5.2756197061876834e-05 0.034587924325526341 0 8.7732224837929436e-05 0.034676847966029462 0 -5.2756197061876834e-05 0.034587924325526341 0 6.7544517141830852e-05 0.034445899593393045 0 4.0881432158117028e-06 0.034320481694839422 0 4.690448470526152e-05 0.034479157710773589 0 3.4461285033405591e-05 0.034283122793864557 0 -5.2756197061876834e-05 0.034587924325526341 0 4.0881432158117028e-06 0.034320481694839422 0 -4.0940970976187512e-05 0.034296348960246588 0 0.00019157233013749955 0.034516175359284196 0 0.00011774521097934523 0.034347572089916255 0 0.0002202771459395774 0.034215387064016313 0 1.0312174987145278e-05 0.034409172722753491 0 0.00019157233013749955 0.034516175359284196 0 0.00011774521097934523 0.034347572089916255 0 1.0312174987145278e-05 0.034409172722753491 0 0.00011774521097934523 0.034347572089916255 0 4.6207983976448105e-05 0.034243449391144237 0 0.00017186858551576986 0.034684471406430037 0 0.00016279750284355608 0.034717211344402088 0 0.00015818189332626457 0.034452124047519177 0 0.00019499001745747281 0.034711775424460245 0 0.00038330625124646193 0.03447403554530043 0 0.00015818189332626457 0.034452124047519177 0 0.00030826928023277981 0.034362329739404923 0 0.00024610124374937055 0.03429873953249396 0 0.00015818189332626457 0.034452124047519177 0 6.7544517141830852e-05 0.034445899593393045 0 0.00013766304737522064 0.034327572652178097 0 0.00015818189332626457 0.034452124047519177 0 6.7544517141830852e-05 0.034445899593393045 0 8.7732224837929436e-05 0.034676847966029462 0 8.7732224837929436e-05 0.034676847966029462 0 0.00019499001745747281 0.034711775424460245 0 0.00013391802861431303 0.034756283988048232 0 0.00015818189332626457 0.034452124047519177 0 8.7732224837929436e-05 0.034676847966029462 0 0.00019499001745747281 0.034711775424460245 0 8.7732224837929436e-05 0.034676847966029462 0 0.00013391802861431303 0.034756283988048232 0 8.1517932998479445e-05 0.034770354351078704 0 -2.6317438325083679e-06 0.034755707015422965 0 8.7732224837929436e-05 0.034676847966029462 0 8.1517932998479445e-05 0.034770354351078704 0 -2.6317438325083679e-06 0.034755707015422965 0 8.1517932998479445e-05 0.034770354351078704 0 5.193152725794881e-05 0.034789776280110235 0 0.00013391802861431303 0.034756283988048232 0 8.1517932998479445e-05 0.034770354351078704 0 0.0001022245645174954 0.034779463497571869 0 8.1517932998479445e-05 0.034770354351078704 0 6.822927866432809e-05 0.03478358809835367 0 0.0001022245645174954 0.034779463497571869 0 6.822927866432809e-05 0.03478358809835367 0 5.480011191440275e-05 0.034776743587820499 0 8.0308167170363263e-05 0.034785484363421569 0 6.822927866432809e-05 0.03478358809835367 0 8.0308167170363263e-05 0.034785484363421569 0 0.0001022245645174954 0.034779463497571869 0 6.822927866432809e-05 0.03478358809835367 0 5.480011191440275e-05 0.034776743587820499 0 3.8095063581014403e-05 0.034773634861145167 0 5.480011191440275e-05 0.034776743587820499 0 3.8095063581014403e-05 0.034773634861145167 0 2.2661366401578452e-05 0.034752541431651518 0 3.8095063581014403e-05 0.034773634861145167 0 5.193152725794881e-05 0.034789776280110235 0 3.5488060028184995e-05 0.034775342148345691 0 3.8095063581014403e-05 0.034773634861145167 0 3.5488060028184995e-05 0.034775342148345691 0 5.0315753783976689e-06 0.034739227211273697 0 6.822927866432809e-05 0.03478358809835367 0 3.8095063581014403e-05 0.034773634861145167 0 5.193152725794881e-05 0.034789776280110235 0 8.1517932998479445e-05 0.034770354351078704 0 6.822927866432809e-05 0.03478358809835367 0 5.193152725794881e-05 0.034789776280110235 0 5.193152725794881e-05 0.034789776280110235 0 4.6765961341041756e-05 0.034797025104007659 0 3.5488060028184995e-05 0.034775342148345691 0 5.6005178454126337e-05 0.034781806900981316 0 4.6765961341041756e-05 0.034797025104007659 0 5.2762684691242939e-05 0.03480215860918065 0 -2.125882976229117e-05 0.034779937879609056 0 5.6005178454126337e-05 0.034781806900981316 0 5.2762684691242939e-05 0.03480215860918065 0 4.6765961341041756e-05 0.034797025104007659 0 5.2762684691242939e-05 0.03480215860918065 0 5.4115324993191287e-05 0.034758624332936375 0 -1.6439046910982839e-05 0.034790633979527016 0 -6.3003151165773021e-05 0.03497028400630104 0 -0.00014898764449438907 0.034717977665969346 0 -2.9414606281076046e-05 0.034816785304533027 0 -3.2151965487469003e-05 0.034795607443888772 0 4.6765961341041756e-05 0.034797025104007659 0 3.5488060028184995e-05 0.034775342148345691 0 5.4115324993191287e-05 0.034758624332936375 0 3.5488060028184995e-05 0.034775342148345691 0 5.4115324993191287e-05 0.034758624332936375 0 5.0315753783976689e-06 0.034739227211273697 0 -3.2151965487469003e-05 0.034795607443888772 0 -3.4582523398716764e-05 0.034782576578442401 0 -0.00014898764449438907 0.034717977665969346 0 -0.00011497015731707413 0.034648834027471785 0 -3.9586730130635425e-05 0.034672074658564894 0 5.4115324993191287e-05 0.034758624332936375 0 -3.9586730130635425e-05 0.034672074658564894 0 5.0315753783976689e-06 0.034739227211273697 0 -3.24880516767198e-05 0.034662170506100654 0 -1.6439046910982839e-05 0.034790633979527016 0 -0.00014898764449438907 0.034717977665969346 0 -3.24880516767198e-05 0.034662170506100654 0 -0.00014898764449438907 0.034717977665969346 0 -0.00011497015731707413 0.034648834027471785 0 -3.24880516767198e-05 0.034662170506100654 0 -8.1980527689457002e-05 0.034603788519774172 0 -0.00011497015731707413 0.034648834027471785 0 -1.1234528646819875e-05 0.034515537633293208 0 -3.24880516767198e-05 0.034662170506100654 0 -8.1980527689457002e-05 0.034603788519774172 0 -8.1980527689457002e-05 0.034603788519774172 0 -0.00011497015731707413 0.034648834027471785 0 -0.0001444895729435403 0.034602146660137612 0 -0.00011301267822072041 0.034463390455613085 0 -8.1980527689457002e-05 0.034603788519774172 0 -0.0001444895729435403 0.034602146660137612 0 -0.00011301267822072041 0.034463390455613085 0 -1.1234528646819875e-05 0.034515537633293208 0 -8.1980527689457002e-05 0.034603788519774172 0 -0.00011497015731707413 0.034648834027471785 0 -0.0001444895729435403 0.034602146660137612 0 -3.9586730130635425e-05 0.034672074658564894 0 -0.0001232436344599107 0.034690205049730284 0 -0.0001444895729435403 0.034602146660137612 0 -3.9586730130635425e-05 0.034672074658564894 0 2.9259940878806295e-05 0.034766784946731369 0 -1.5419332688098166e-05 0.034729204304468131 0 2.4556164373396306e-06 0.034723722057997605 0 -3.9586730130635425e-05 0.034672074658564894 0 2.4556164373396306e-06 0.034723722057997605 0 5.0315753783976689e-06 0.034739227211273697 0 -1.5419332688098166e-05 0.034729204304468131 0 -3.9586730130635425e-05 0.034672074658564894 0 2.4556164373396306e-06 0.034723722057997605 0 2.9259940878806295e-05 0.034766784946731369 0 2.4556164373396306e-06 0.034723722057997605 0 2.6645844911836801e-05 0.034755534003854782 0 2.9259940878806295e-05 0.034766784946731369 0 2.6645844911836801e-05 0.034755534003854782 0 4.2279413928865433e-05 0.034777501119146147 0 2.6645844911836801e-05 0.034755534003854782 0 2.2661366401578452e-05 0.034752541431651518 0 4.6615718230320826e-05 0.034771168200225085 0 2.4556164373396306e-06 0.034723722057997605 0 2.6645844911836801e-05 0.034755534003854782 0 2.2661366401578452e-05 0.034752541431651518 0 5.480011191440275e-05 0.034776743587820499 0 2.2661366401578452e-05 0.034752541431651518 0 4.6615718230320826e-05 0.034771168200225085 0 3.8095063581014403e-05 0.034773634861145167 0 2.2661366401578452e-05 0.034752541431651518 0 5.0315753783976689e-06 0.034739227211273697 0 2.4556164373396306e-06 0.034723722057997605 0 2.2661366401578452e-05 0.034752541431651518 0 5.0315753783976689e-06 0.034739227211273697 0 6.329018616984145e-05 0.034783916594714512 0 7.4513791023952269e-05 0.034787612666875821 0 7.1314209766584381e-05 0.03479491011010679 0 6.329018616984145e-05 0.034783916594714512 0 4.6615718230320826e-05 0.034771168200225085 0 4.2279413928865433e-05 0.034777501119146147 0 6.329018616984145e-05 0.034783916594714512 0 4.6615718230320826e-05 0.034771168200225085 0 7.3316509650581409e-05 0.034787797015444905 0 2.6645844911836801e-05 0.034755534003854782 0 4.6615718230320826e-05 0.034771168200225085 0 4.2279413928865433e-05 0.034777501119146147 0 2.9259940878806295e-05 0.034766784946731369 0 4.2279413928865433e-05 0.034777501119146147 0 5.5729069295295591e-05 0.03481020478725895 0 6.329018616984145e-05 0.034783916594714512 0 4.2279413928865433e-05 0.034777501119146147 0 5.5729069295295591e-05 0.03481020478725895 0 -5.5048797779623455e-05 0.034367907504338852 0 -3.3370580459918386e-05 0.034409093648589198 0 6.329018616984145e-05 0.034783916594714512 0 5.5729069295295591e-05 0.03481020478725895 0 7.4513791023952269e-05 0.034787612666875821 0 4.4228732463714028e-05 0.034860892164722677 0 4.3369274838887289e-05 0.034862550822849628 0 5.82371014993826e-05 0.034836995470598695 0 5.5729069295295591e-05 0.03481020478725895 0 7.4513791023952269e-05 0.034787612666875821 0 4.3962879546333982e-05 0.034874672046827267 0 4.2560111332645969e-05 0.034915456433651688 0 2.7832035397128046e-05 0.034893760676398114 0 4.3962879546333982e-05 0.034874672046827267 0 5.82371014993826e-05 0.034836995470598695 0 4.2560111332645969e-05 0.034915456433651688 0 4.2560111332645969e-05 0.034915456433651688 0 1.5690762011806343e-05 0.034923342804971225 0 2.7832035397128046e-05 0.034893760676398114 0 1.5690762011806343e-05 0.034923342804971225 0 2.7832035397128046e-05 0.034893760676398114 0 1.1684602873980118e-05 0.03491059852521914 0 4.3369274838887289e-05 0.034862550822849628 0 3.7940717166478255e-05 0.034868765164773809 0 4.2560111332645969e-05 0.034915456433651688 0 1.5690762011806343e-05 0.034923342804971225 0 6.0190741374985121e-06 0.034938772873534925 0 7.4513791023952269e-05 0.034787612666875821 0 7.1314209766584381e-05 0.03479491011010679 0 4.7715763079472595e-05 0.034808541997842765 0 7.1314209766584381e-05 0.03479491011010679 0 4.7715763079472595e-05 0.034808541997842765 0 7.3480551646067836e-05 0.034816682367692926 0 4.7715763079472595e-05 0.034808541997842765 0 5.1039338921439874e-05 0.034856691070203602 0 7.3480551646067836e-05 0.034816682367692926 0 5.1039338921439874e-05 0.034856691070203602 0 7.3480551646067836e-05 0.034816682367692926 0 7.7954615119664832e-05 0.034830898167751548 0 7.3480551646067836e-05 0.034816682367692926 0 9.0619352383093809e-05 0.034798364939988377 0 7.3316509650581409e-05 0.034787797015444905 0 7.1314209766584381e-05 0.03479491011010679 0 7.3480551646067836e-05 0.034816682367692926 0 7.3316509650581409e-05 0.034787797015444905 0 6.329018616984145e-05 0.034783916594714512 0 7.1314209766584381e-05 0.03479491011010679 0 7.3316509650581409e-05 0.034787797015444905 0 5.480011191440275e-05 0.034776743587820499 0 4.6615718230320826e-05 0.034771168200225085 0 7.3316509650581409e-05 0.034787797015444905 0 5.480011191440275e-05 0.034776743587820499 0 7.3316509650581409e-05 0.034787797015444905 0 8.0308167170363263e-05 0.034785484363421569 0 9.0619352383093809e-05 0.034798364939988377 0 7.3316509650581409e-05 0.034787797015444905 0 8.0308167170363263e-05 0.034785484363421569 0 9.0619352383093809e-05 0.034798364939988377 0 8.0308167170363263e-05 0.034785484363421569 0 0.0001022245645174954 0.034779463497571869 0 0.00013391802861431303 0.034756283988048232 0 0.0001022245645174954 0.034779463497571869 0 0.00012009070619168569 0.034781951056533277 0 9.0619352383093809e-05 0.034798364939988377 0 0.0001022245645174954 0.034779463497571869 0 0.00012009070619168569 0.034781951056533277 0 9.0619352383093809e-05 0.034798364939988377 0 0.00012009070619168569 0.034781951056533277 0 7.7954615119664832e-05 0.034830898167751548 0 0.00012009070619168569 0.034781951056533277 0 0.00010233064384391886 0.034818811638693048 0 7.7954615119664832e-05 0.034830898167751548 0 0.00019499001745747281 0.034711775424460245 0 0.00013391802861431303 0.034756283988048232 0 0.00012009070619168569 0.034781951056533277 0 0.00019499001745747281 0.034711775424460245 0 0.00012009070619168569 0.034781951056533277 0 0.00010233064384391886 0.034818811638693048 0 0.00019499001745747281 0.034711775424460245 0 0.00010233064384391886 0.034818811638693048 0 0.00014526260506669811 0.034863406613607095 0 0.00010233064384391886 0.034818811638693048 0 0.00014526260506669811 0.034863406613607095 0 7.6600844765422712e-05 0.034892151107257699 0 0.00016279750284355608 0.034717211344402088 0 8.6692141738227237e-05 0.034808572059979448 0 0.00017353021330711836 0.034708299632253477 0 0.00016279750284355608 0.034717211344402088 0 4.1167479894278166e-05 0.034927205847488242 0 7.6600844765422712e-05 0.034892151107257699 0 5.2225743430693629e-05 0.034882099455197754 0 4.4277059794256423e-05 0.034864746194362153 0 8.6692141738227237e-05 0.034808572059979448 0 0.00010233064384391886 0.034818811638693048 0 7.6600844765422712e-05 0.034892151107257699 0 5.2225743430693629e-05 0.034882099455197754 0 5.2225743430693629e-05 0.034882099455197754 0 7.7954615119664832e-05 0.034830898167751548 0 4.2521112360798273e-05 0.034879116947782229 0 0.00010233064384391886 0.034818811638693048 0 5.2225743430693629e-05 0.034882099455197754 0 7.7954615119664832e-05 0.034830898167751548 0 7.3480551646067836e-05 0.034816682367692926 0 9.0619352383093809e-05 0.034798364939988377 0 7.7954615119664832e-05 0.034830898167751548 0 5.1039338921439874e-05 0.034856691070203602 0 7.7954615119664832e-05 0.034830898167751548 0 4.2521112360798273e-05 0.034879116947782229 0 5.1039338921439874e-05 0.034856691070203602 0 4.2521112360798273e-05 0.034879116947782229 0 1.1124248406265208e-05 0.034910682541515907 0 2.3811120702098493e-05 0.034915530089374397 0 7.3228819663365701e-06 0.034953795351344033 0 1.1124248406265208e-05 0.034910682541515907 0 4.2521112360798273e-05 0.034879116947782229 0 2.3811120702098493e-05 0.034915530089374397 0 1.1124248406265208e-05 0.034910682541515907 0 2.3811120702098493e-05 0.034915530089374397 0 9.0165469837742854e-06 0.03495681195033068 0 7.3228819663365701e-06 0.034953795351344033 0 5.2225743430693629e-05 0.034882099455197754 0 4.2521112360798273e-05 0.034879116947782229 0 2.3811120702098493e-05 0.034915530089374397 0 4.1167479894278166e-05 0.034927205847488242 0 5.2225743430693629e-05 0.034882099455197754 0 2.2779622368113188e-05 0.034933843824866362 0 5.2225743430693629e-05 0.034882099455197754 0 2.3811120702098493e-05 0.034915530089374397 0 2.2779622368113188e-05 0.034933843824866362 0 2.3811120702098493e-05 0.034915530089374397 0 2.2779622368113188e-05 0.034933843824866362 0 9.0165469837742854e-06 0.03495681195033068 0 2.2779622368113188e-05 0.034933843824866362 0 1.0163035873097028e-05 0.03496404606188163 0 9.0165469837742854e-06 0.03495681195033068 0 2.2779622368113188e-05 0.034933843824866362 0 1.6440675144017592e-05 0.034959820817101139 0 1.0163035873097028e-05 0.03496404606188163 0 4.1167479894278166e-05 0.034927205847488242 0 2.2779622368113188e-05 0.034933843824866362 0 1.6440675144017592e-05 0.034959820817101139 0 4.4277059794256423e-05 0.034864746194362153 0 2.0189931449908051e-05 0.034896322684501317 0 -2.1116208854915191e-10 0.03499997100717947 0 1.7383566447972698e-06 0.034991648046840303 0 2.5675403583607425e-06 0.034982231163265862 0 1.7383566447972698e-06 0.034991648046840303 0 1.0163035873097028e-05 0.03496404606188163 0 2.5675403583607425e-06 0.034982231163265862 0 1.6440675144017592e-05 0.034959820817101139 0 1.7383566447972698e-06 0.034991648046840303 0 1.0163035873097028e-05 0.03496404606188163 0 2.0189931449908051e-05 0.034896322684501317 0 1.1105737611239628e-05 0.034907012955969041 0 2.058772544951217e-05 0.034986086449293685 0 1.7383566447972698e-06 0.034991648046840303 0 1.0663799372222383e-05 0.034992703081391387 0 1.0163035873097028e-05 0.03496404606188163 0 9.0165469837742854e-06 0.03495681195033068 0 2.5675403583607425e-06 0.034982231163265862 0 9.0165469837742854e-06 0.03495681195033068 0 2.5675403583607425e-06 0.034982231163265862 0 4.821232662135709e-10 0.034999950704758108 0 -2.1116208854915191e-10 0.03499997100717947 0 2.5675403583607425e-06 0.034982231163265862 0 4.821232662135709e-10 0.034999950704758108 0 9.0165469837742854e-06 0.03495681195033068 0 4.821232662135709e-10 0.034999950704758108 0 7.3228819663365701e-06 0.034953795351344033 0 4.821232662135709e-10 0.034999950704758108 0 7.3228819663365701e-06 0.034953795351344033 0 5.45054834194621e-09 0.034999945751363004 0 7.3228819663365701e-06 0.034953795351344033 0 5.45054834194621e-09 0.034999945751363004 0 5.3987351688912881e-06 0.034963471378429707 0 5.45054834194621e-09 0.034999945751363004 0 5.3987351688912881e-06 0.034963471378429707 0 2.3720104628777803e-09 0.034999956416924147 0 5.3987351688912881e-06 0.034963471378429707 0 2.3720104628777803e-09 0.034999956416924147 0 3.558953337875316e-06 0.034961176502659286 0 7.3228819663365701e-06 0.034953795351344033 0 5.3987351688912881e-06 0.034963471378429707 0 1.1124248406265208e-05 0.034910682541515907 0 1.1124248406265208e-05 0.034910682541515907 0 1.1654608933926352e-06 0.034948782340823055 0 3.558953337875316e-06 0.034961176502659286 0 6.0190741374985121e-06 0.034938772873534925 0 1.1124248406265208e-05 0.034910682541515907 0 1.1654608933926352e-06 0.034948782340823055 0 4.7715763079472595e-05 0.034808541997842765 0 5.1039338921439874e-05 0.034856691070203602 0 1.1124248406265208e-05 0.034910682541515907 0 3.7940717166478255e-05 0.034868765164773809 0 3.3321373004815513e-05 0.034874537844050216 0 5.3987351688912881e-06 0.034963471378429707 0 1.1124248406265208e-05 0.034910682541515907 0 3.558953337875316e-06 0.034961176502659286 0 1.1654608933926352e-06 0.034948782340823055 0 -1.314478557122695e-05 0.034956390719494655 0 3.558953337875316e-06 0.034961176502659286 0 1.5690762011806343e-05 0.034923342804971225 0 6.0190741374985121e-06 0.034938772873534925 0 1.1654608933926352e-06 0.034948782340823055 0 -3.8171553620400606e-06 0.034929285930747574 0 1.1654608933926352e-06 0.034948782340823055 0 1.1684602873980118e-05 0.03491059852521914 0 1.5690762011806343e-05 0.034923342804971225 0 1.1654608933926352e-06 0.034948782340823055 0 1.1684602873980118e-05 0.03491059852521914 0 -3.8171553620400606e-06 0.034929285930747574 0 1.1654608933926352e-06 0.034948782340823055 0 -1.314478557122695e-05 0.034956390719494655 0 -5.4647508859371193e-06 0.034981564722209646 0 -1.314478557122695e-05 0.034956390719494655 0 -1.2375566008444503e-06 0.034978259340532607 0 -1.314478557122695e-05 0.034956390719494655 0 -1.2375566008444503e-06 0.034978259340532607 0 3.558953337875316e-06 0.034961176502659286 0 2.5380051748391826e-09 0.03499996826623477 0 -1.2375566008444503e-06 0.034978259340532607 0 2.3720104628777803e-09 0.034999956416924147 0 2.5380051748391826e-09 0.03499996826623477 0 -1.1965797279796696e-06 0.034989976406675075 0 -1.2375566008444503e-06 0.034978259340532607 0 -1.2375566008444503e-06 0.034978259340532607 0 2.3720104628777803e-09 0.034999956416924147 0 3.558953337875316e-06 0.034961176502659286 0 -0.0031149702956998547 0.021759050495901971 0 -0.003229777578139597 0.021755246988575835 0 -0.0031155435191042389 0.021850702463569356 0 -0.003229777578139597 0.021755246988575835 0 -0.0031155435191042389 0.021850702463569356 0 -0.0032952048411559361 0.021852673507382663 0 -0.0031155435191042389 0.021850702463569356 0 -0.0032952048411559361 0.021852673507382663 0 -0.0031721758054058871 0.022027807683973201 0 -0.0031155435191042389 0.021850702463569356 0 -0.0030215246593294559 0.021794182127124452 0 -0.00299431617531683 0.021927842776844803 0 -0.0030215246593294559 0.021794182127124452 0 -0.00299431617531683 0.021927842776844803 0 -0.0029134169987205609 0.021814537685920028 0 -0.0030215246593294559 0.021794182127124452 0 -0.0029400915642273221 0.021709019178943172 0 -0.0029134169987205609 0.021814537685920028 0 -0.0030543750275237934 0.021732616993917105 0 -0.0030215246593294559 0.021794182127124452 0 -0.0029400915642273221 0.021709019178943172 0 -0.0031149702956998547 0.021759050495901971 0 -0.0030543750275237934 0.021732616993917105 0 -0.0030215246593294559 0.021794182127124452 0 -0.0031149702956998547 0.021759050495901971 0 -0.0031155435191042389 0.021850702463569356 0 -0.0030215246593294559 0.021794182127124452 0 -0.0029400915642273221 0.021709019178943172 0 -0.0031407089359156057 0.021668287467029108 0 -0.00281613431503324 0.021672960192675714 0 -0.0030057222483839017 0.01342416976207363 0 -0.0043148079524311942 0.013805175232674764 0 -0.0016987299639070364 0.013920299303422137 0 -0.0028489872621838622 0.018672520537629411 0 -0.0026076658092053411 0.015897500778524996 0 -0.0030543750275237934 0.021732616993917105 0 -0.0029400915642273221 0.021709019178943172 0 -0.0031407089359156057 0.021668287467029108 0 -0.0030057222483839017 0.01342416976207363 0 -0.002246524501980558 0.013112762640839817 0 -0.0027737364456109953 0.012781485419052893 0 -0.0030057222483839017 0.01342416976207363 0 -0.0034754512228514873 0.012646811294693347 0 -0.0027737364456109953 0.012781485419052893 0 -0.0030057222483839017 0.01342416976207363 0 -0.0037176212260170787 0.013461464740633325 0 -0.0043148079524311942 0.013805175232674764 0 -0.0030057222483839017 0.01342416976207363 0 -0.0037176212260170787 0.013461464740633325 0 -0.0034754512228514873 0.012646811294693347 0 -0.0037176212260170787 0.013461464740633325 0 -0.0039434785273467525 0.013008675141158086 0 -0.0034754512228514873 0.012646811294693347 0 -0.0037176212260170787 0.013461464740633325 0 -0.0039434785273467525 0.013008675141158086 0 -0.0040879625664910577 0.013442005032670398 0 -0.0043632698169036328 0.013436729526628284 0 -0.0043148079524311942 0.013805175232674764 0 -0.0060095874154261044 0.013762719276702289 0 -0.0039434785273467525 0.013008675141158086 0 -0.0043632698169036328 0.013436729526628284 0 -0.0040879625664910577 0.013442005032670398 0 -0.0037176212260170787 0.013461464740633325 0 -0.0040879625664910577 0.013442005032670398 0 -0.0043148079524311942 0.013805175232674764 0 -0.0043632698169036328 0.013436729526628284 0 -0.0040879625664910577 0.013442005032670398 0 -0.0043148079524311942 0.013805175232674764 0 -0.0031149702956998547 0.021759050495901971 0 -0.003229777578139597 0.021755246988575835 0 -0.0031407089359156057 0.021668287467029108 0 -0.0031149702956998547 0.021759050495901971 0 -0.0030543750275237934 0.021732616993917105 0 -0.0031407089359156057 0.021668287467029108 0 -0.0028489872621838622 0.018672520537629411 0 -0.0016149000259456604 0.02181288051684158 0 -0.003229777578139597 0.021755246988575835 0 -0.0031407089359156057 0.021668287467029108 0 -0.0034977181362408996 0.021632528593882022 0 -0.0016149000259456604 0.02181288051684158 0 -0.00096399419531488268 0.018880485486701949 0 -0.0043632698169036328 0.013436729526628284 0 -0.0060095874154261044 0.013762719276702289 0 -0.0049861666604487037 0.0127369782022846 0 0.0010907434366977968 0.021636913635189638 0 0.00092873916177785656 0.021462392200113079 0 0.00077301836006067116 0.021639063357906642 0 -0.0016149000259456604 0.02181288051684158 0 -0.00041870492981100206 0.024021524994993351 0 -0.0016149000259456604 0.02181288051684158 0 -0.0025797374941798302 0.024805449018639271 0 -0.0034977181362408996 0.021632528593882022 0 -0.0034731452927395474 0.021993694315837337 0 -0.00374190876576788 0.021828103100083006 0 -0.0034977181362408996 0.021632528593882022 0 -0.0032952048411559361 0.021852673507382663 0 -0.0034731452927395474 0.021993694315837337 0 -0.003229777578139597 0.021755246988575835 0 -0.0034977181362408996 0.021632528593882022 0 -0.0032952048411559361 0.021852673507382663 0 -0.0032952048411559361 0.021852673507382663 0 -0.0034731452927395474 0.021993694315837337 0 -0.0031721758054058871 0.022027807683973201 0 -0.0034731452927395474 0.021993694315837337 0 -0.0033084399939291458 0.022201880988687268 0 -0.0031721758054058871 0.022027807683973201 0 -0.0034731452927395474 0.021993694315837337 0 -0.0034763984830874731 0.02229487490903706 0 -0.0037146353637636767 0.022118828471905636 0 -0.0034731452927395474 0.021993694315837337 0 -0.00374190876576788 0.021828103100083006 0 -0.0037146353637636767 0.022118828471905636 0 -0.0034763984830874731 0.02229487490903706 0 -0.0037146353637636767 0.022118828471905636 0 -0.0038579771812933396 0.022473313489458559 0 -0.0034763984830874731 0.02229487490903706 0 -0.0033084399939291458 0.022201880988687268 0 -0.0032894876856415529 0.022347785910142404 0 -0.0034731452927395474 0.021993694315837337 0 -0.0034763984830874731 0.02229487490903706 0 -0.0033084399939291458 0.022201880988687268 0 -0.0033084399939291458 0.022201880988687268 0 -0.0031110864845701183 0.022271348575181184 0 -0.0032894876856415529 0.022347785910142404 0 -0.0033084399939291458 0.022201880988687268 0 -0.0031110864845701183 0.022271348575181184 0 -0.0031721758054058871 0.022027807683973201 0 -0.0031155435191042389 0.021850702463569356 0 -0.0031721758054058871 0.022027807683973201 0 -0.00299431617531683 0.021927842776844803 0 -0.0031721758054058871 0.022027807683973201 0 -0.00299431617531683 0.021927842776844803 0 -0.0029547064111430177 0.022099777731913416 0 -0.0031110864845701183 0.022271348575181184 0 -0.0031721758054058871 0.022027807683973201 0 -0.0029547064111430177 0.022099777731913416 0 -0.0031110864845701183 0.022271348575181184 0 -0.0029547064111430177 0.022099777731913416 0 -0.0029195872634158217 0.022260517261114852 0 -0.0029547064111430177 0.022099777731913416 0 -0.0027299338467289369 0.022135774257251637 0 -0.0029195872634158217 0.022260517261114852 0 -0.0026350577102263327 0.021000163825838337 0 -0.0019980411594694575 0.021065107959075017 0 -0.0022493419979032433 0.021595002587313568 0 -0.0026350577102263327 0.021000163825838337 0 -0.0019980411594694575 0.021065107959075017 0 -0.0024694806949177063 0.020262511501813789 0 -0.0027299338467289369 0.022135774257251637 0 -0.0028404737905395809 0.021942232341956362 0 -0.0026589308023812364 0.021867854138510407 0 -0.0025058654074846518 0.020292040909918669 0 -0.0020122677613742656 0.017824133425459399 0 -0.0029547064111430177 0.022099777731913416 0 -0.0027299338467289369 0.022135774257251637 0 -0.0028404737905395809 0.021942232341956362 0 -0.00299431617531683 0.021927842776844803 0 -0.0029547064111430177 0.022099777731913416 0 -0.0028404737905395809 0.021942232341956362 0 -0.0017549418721001264 0.013297934779660636 0 -0.0016999832965784297 0.01333629106615924 0 -0.001396870621329068 0.02129234843999802 0 -0.0019980411594694575 0.021065107959075017 0 -0.0017841636411503601 0.020384875990089122 0 -0.001396870621329068 0.02129234843999802 0 -0.0019980411594694575 0.021065107959075017 0 -0.0018199008017602447 0.021581209866079101 0 -0.0019980411594694575 0.021065107959075017 0 -0.0017841636411503601 0.020384875990089122 0 -0.0025981601811144038 0.020065570983663357 0 -0.0016298100142605736 0.01899396701579582 0 -0.0020122677613742656 0.017824133425459399 0 -0.0020307108063884424 0.0049650421490882437 0 -0.001539866171966556 0.0058482123636637651 0 -0.0020374120997990789 0.0057058135160901226 0 -0.001539866171966556 0.0058482123636637651 0 -0.0020374120997990789 0.0057058135160901226 0 -0.0018986667148039103 0.0062145102977770638 0 -0.0022666929551933396 0.0060550675736636868 0 -0.0020374120997990789 0.0057058135160901226 0 -0.0018986667148039103 0.0062145102977770638 0 -0.001539866171966556 0.0058482123636637651 0 -0.0018986667148039103 0.0062145102977770638 0 -0.0015655994410944227 0.0064233562824522359 0 -0.0022416154579843741 0.0064017281964325583 0 -0.0018986667148039103 0.0062145102977770638 0 -0.0018802641667489527 0.0067148006641512539 0 -0.0018986667148039103 0.0062145102977770638 0 -0.0015655994410944227 0.0064233562824522359 0 -0.0018802641667489527 0.0067148006641512539 0 -0.0016999832965784297 0.01333629106615924 0 -0.0015414700179269319 0.013665793171451791 0 -0.0017841636411503601 0.020384875990089122 0 -0.0022659793407333322 0.019403778337292045 0 -0.0025981601811144038 0.020065570983663357 0 -0.001539866171966556 0.0058482123636637651 0 -0.0015655994410944227 0.0064233562824522359 0 -0.0010808358421609862 0.0067429530357396537 0 -0.00078559426460075052 0.0068099970198705296 0 -0.0013366688456411461 0.0071604419448673086 0 -0.0016576825797785667 0.0067762047997415916 0 -0.0015414700179269319 0.013665793171451791 0 -0.0017933244099083362 0.012071221414176221 0 -0.0015655994410944227 0.0064233562824522359 0 -0.0010808358421609862 0.0067429530357396537 0 -0.0018802641667489527 0.0067148006641512539 0 -0.00078559426460075052 0.0068099970198705296 0 -0.0003890751161557131 0.0075852901074479409 0 -0.00098966340802734564 0.007365916475318761 0 -0.00078559426460075052 0.0068099970198705296 0 -0.0013366688456411461 0.0071604419448673086 0 -0.00098966340802734564 0.007365916475318761 0 -0.0013366688456411461 0.0071604419448673086 0 -0.0017015816574633257 0.0072395809982868315 0 -0.0016576825797785667 0.0067762047997415916 0 -0.0021222012869248847 0.0070044135823936317 0 -0.0017015816574633257 0.0072395809982868315 0 -0.0016576825797785667 0.0067762047997415916 0 -0.0028404737905395809 0.021942232341956362 0 -0.0027982520217333055 0.021797979645175755 0 -0.0026589308023812364 0.021867854138510407 0 -0.0027982520217333055 0.021797979645175755 0 -0.0029134169987205609 0.021814537685920028 0 -0.0028245852237638756 0.021676169958446959 0 -0.0029400915642273221 0.021709019178943172 0 -0.0029134169987205609 0.021814537685920028 0 -0.00281613431503324 0.021672960192675714 0 -0.0029469508592396849 0.016617419916143041 0 -0.0026076658092053411 0.015897500778524996 0 -0.0028404737905395809 0.021942232341956362 0 -0.0027982520217333055 0.021797979645175755 0 -0.0029134169987205609 0.021814537685920028 0 -0.00299431617531683 0.021927842776844803 0 -0.0028404737905395809 0.021942232341956362 0 -0.0029134169987205609 0.021814537685920028 0 -0.0020122677613742656 0.017824133425459399 0 -0.0018310147681623466 0.014524121995411796 0 -0.0027982520217333055 0.021797979645175755 0 -0.0026589308023812364 0.021867854138510407 0 -0.0027675028578067968 0.021676729821890745 0 -0.0022659793407333322 0.019403778337292045 0 -0.0025981601811144038 0.020065570983663357 0 -0.0024502033263231605 0.019400395738048731 0 -0.0020122677613742656 0.017824133425459399 0 -0.0022767777310927057 0.015602030060985123 0 -0.0029375837978626658 0.014510869831312206 0 -0.0033569359763247911 0.016374732251555835 0 -0.0018156326512747546 0.016399007804204172 0 -0.0015414700179269319 0.013665793171451791 0 -0.0016995076784010155 0.012120796164699117 0 -0.0012086234844016651 0.013922086408564783 0 -0.0002298897286836802 0.013840596376131357 0 -0.00048773226474751249 0.013405853494860455 0 -0.0024610567213656869 0.013374232009377702 0 -0.0019608623904554313 0.013382169921507783 0 -0.001375724462468063 0.015476133442522163 0 -0.0019608623904554313 0.013382169921507783 0 -0.0012086234844016651 0.013922086408564783 0 -0.001375724462468063 0.015476133442522163 0 -0.0019608623904554313 0.013382169921507783 0 -0.0012086234844016651 0.013922086408564783 0 -0.00048773226474751249 0.013405853494860455 0 -0.0018310147681623466 0.014524121995411796 0 -0.0022767777310927057 0.015602030060985123 0 -0.0015414700179269319 0.013665793171451791 0 -0.0018310147681623466 0.014524121995411796 0 -0.0012086234844016651 0.013922086408564783 0 -0.0002298897286836802 0.013840596376131357 0 -0.001375724462468063 0.015476133442522163 0 -0.0014393810816218939 0.013559097038761207 0 -0.0016987299639070364 0.013920299303422137 0 -0.002246524501980558 0.013112762640839817 0 -0.0024425500382146198 0.015026357101668771 0 -0.0022767777310927057 0.015602030060985123 0 -0.0022767777310927057 0.015602030060985123 0 -0.0026076658092053411 0.015897500778524996 0 -0.0027982520217333055 0.021797979645175755 0 -0.0027675028578067968 0.021676729821890745 0 -0.0028245852237638756 0.021676169958446959 0 -0.0023201702070237478 0.018571765474964544 0 -0.0043898555068737468 0.015080573386719814 0 7.2748374669789892e-05 0.015151318968048565 0 -0.0024425500382146198 0.015026357101668771 0 -0.0026076658092053411 0.015897500778524996 0 -0.0030057222483839017 0.01342416976207363 0 -0.0016987299639070364 0.013920299303422137 0 -0.002246524501980558 0.013112762640839817 0 -0.002246524501980558 0.013112762640839817 0 -0.0023622896178298138 0.011929023024301769 0 -0.0027737364456109953 0.012781485419052893 0 -0.0020515837896971536 0.012495579608819906 0 -0.0027087556357146473 0.011380070463887481 0 -0.0020608151822156923 0.011395567499422776 0 -0.0014393810816218939 0.013559097038761207 0 -0.002246524501980558 0.013112762640839817 0 -0.0023622896178298138 0.011929023024301769 0 -0.0024425500382146198 0.015026357101668771 0 -0.0030003192486310597 0.013440962711384109 0 -0.0027087556357146473 0.011380070463887481 0 -0.0020608151822156923 0.011395567499422776 0 -0.0023640855467153359 0.010835585655019346 0 -0.0020515837896971536 0.012495579608819906 0 -0.0020608151822156923 0.011395567499422776 0 -0.0013727043959655143 0.011526542922963914 0 -0.0024425500382146198 0.015026357101668771 0 -0.0016995076784010155 0.012120796164699117 0 -0.0016995076784010155 0.012120796164699117 0 -0.001387381799036222 0.010660594861004949 0 -0.0020608151822156923 0.011395567499422776 0 -0.0013727043959655143 0.011526542922963914 0 -0.0017526981218471433 0.010781822073694349 0 -0.0016995076784010155 0.012120796164699117 0 -0.0017369790112000791 0.012006159109881344 0 -0.0017526981218471433 0.010781822073694349 0 -0.0013328766098330053 0.010144045196404406 0 -0.00071751656184876323 0.01061765955733112 0 -0.0013627735265691148 0.011539814934540728 0 -0.0017526981218471433 0.010781822073694349 0 -0.00071751656184876323 0.01061765955733112 0 -0.0013328766098330053 0.010144045196404406 0 -0.00071751656184876323 0.01061765955733112 0 -0.0010913122316264807 0.0093891307657799454 0 -0.0017526981218471433 0.010781822073694349 0 -0.0013328766098330053 0.010144045196404406 0 -0.0017684310427936898 0.0097812082822571894 0 -0.0017526981218471433 0.010781822073694349 0 -0.0024220993327272624 0.010104115699128797 0 -0.0017684310427936898 0.0097812082822571894 0 -0.0024220993327272624 0.010104115699128797 0 -0.0027247711194235973 0.010661730593577787 0 -0.0023640855467153359 0.010835585655019346 0 -0.0024220993327272624 0.010104115699128797 0 -0.0027247711194235973 0.010661730593577787 0 -0.0033948011766252464 0.010305446956120307 0 -0.0027087556357146473 0.011380070463887481 0 -0.0027247711194235973 0.010661730593577787 0 -0.0023640855467153359 0.010835585655019346 0 -0.0020608151822156923 0.011395567499422776 0 -0.0017526981218471433 0.010781822073694349 0 -0.0023640855467153359 0.010835585655019346 0 -0.0017526981218471433 0.010781822073694349 0 -0.0024220993327272624 0.010104115699128797 0 -0.0023640855467153359 0.010835585655019346 0 -0.002258211204711401 0.007707552947713199 0 -0.001557789909896156 0.0076127071025794786 0 -0.0019416647458927372 0.0080273678937977395 0 -0.0021207153645854573 0.0073797407340264664 0 -0.0017015816574633257 0.0072395809982868315 0 -0.001557789909896156 0.0076127071025794786 0 -0.0013366688456411461 0.0071604419448673086 0 -0.0017015816574633257 0.0072395809982868315 0 -0.001557789909896156 0.0076127071025794786 0 -0.001557789909896156 0.0076127071025794786 0 -0.0010641012404426109 0.0077956374882907822 0 -0.0014960982521463706 0.0081724091635609307 0 -0.0003890751161557131 0.0075852901074479409 0 -0.0010641012404426109 0.0077956374882907822 0 -0.00078259433173766681 0.0081398423273324333 0 -0.0003890751161557131 0.0075852901074479409 0 -0.0010641012404426109 0.0077956374882907822 0 -0.00098966340802734564 0.007365916475318761 0 -0.001557789909896156 0.0076127071025794786 0 -0.0010641012404426109 0.0077956374882907822 0 -0.00098966340802734564 0.007365916475318761 0 -0.0013366688456411461 0.0071604419448673086 0 -0.001557789909896156 0.0076127071025794786 0 -0.00098966340802734564 0.007365916475318761 0 -0.00078259433173766681 0.0081398423273324333 0 -0.0014960982521463706 0.0081724091635609307 0 -0.0011747809894903202 0.0086923916345021442 0 -0.0010641012404426109 0.0077956374882907822 0 -0.00078259433173766681 0.0081398423273324333 0 -0.0014960982521463706 0.0081724091635609307 0 -0.001387381799036222 0.010660594861004949 0 -0.0014810612064455869 0.0098261988686308664 0 -0.0021160269427772248 0.0084055417603897814 0 -0.0014960982521463706 0.0081724091635609307 0 -0.0019416647458927372 0.0080273678937977395 0 -0.0021160269427772248 0.0084055417603897814 0 -0.0014960982521463706 0.0081724091635609307 0 -0.0011747809894903202 0.0086923916345021442 0 -0.001557789909896156 0.0076127071025794786 0 -0.0014960982521463706 0.0081724091635609307 0 -0.0019416647458927372 0.0080273678937977395 0 -0.0021192721035976402 0.0087753819030740639 0 -0.0019004459949352515 0.0087259022837581478 0 -0.0020412715591975332 0.0088825942638792506 0 -0.0021286226858479203 0.0093119409422527492 0 -0.0014810612064455869 0.0098261988686308664 0 -0.0022119089095160075 0.008512257440748067 0 -0.0021192721035976402 0.0087753819030740639 0 -0.0019004459949352515 0.0087259022837581478 0 -0.0020439556069525456 0.0089670752904177382 0 -0.002050984320520431 0.0089312754845481731 0 -0.0020412715591975332 0.0088825942638792506 0 -0.00071751656184876323 0.01061765955733112 0 -6.711812351930995e-05 0.0096866407030565815 0 -0.0010913122316264807 0.0093891307657799454 0 -0.0020439556069525456 0.0089670752904177382 0 -0.002050984320520431 0.0089312754845481731 0 -0.0020872735953857708 0.0090275982117726927 0 -0.0014810612064455869 0.0098261988686308664 0 -0.0014750440551589826 0.0097606604325615621 0 -0.0014810612064455869 0.0098261988686308664 0 -0.0016280410476950298 0.0097053847611720794 0 -0.0020462190841994588 0.0089100224594960333 0 -0.0020894685236802096 0.0089328923103608737 0 -0.002050984320520431 0.0089312754845481731 0 -0.0020894685236802096 0.0089328923103608737 0 -0.002050984320520431 0.0089312754845481731 0 -0.0020412715591975332 0.0088825942638792506 0 -0.0021867913420949609 0.0089283685449928329 0 -0.0020894685236802096 0.0089328923103608737 0 -0.0021588697530968183 0.0088866888619295037 0 -0.0020894685236802096 0.0089328923103608737 0 -0.0020412715591975332 0.0088825942638792506 0 -0.0021588697530968183 0.0088866888619295037 0 -0.0021192721035976402 0.0087753819030740639 0 -0.0020412715591975332 0.0088825942638792506 0 -0.0021588697530968183 0.0088866888619295037 0 -0.0024220993327272624 0.010104115699128797 0 -0.0023719375199617644 0.0090988168341092305 0 -0.0033948011766252464 0.010305446956120307 0 -0.002209063317391298 0.00910631747532838 0 -0.0021996693670027524 0.0095055455699065601 0 -0.0017684310427936898 0.0097812082822571894 0 -0.002209063317391298 0.00910631747532838 0 -0.0023719375199617644 0.0090988168341092305 0 -0.0021996693670027524 0.0095055455699065601 0 -0.0024220993327272624 0.010104115699128797 0 -0.0023719375199617644 0.0090988168341092305 0 -0.0021996693670027524 0.0095055455699065601 0 -0.0024220993327272624 0.010104115699128797 0 -0.0021996693670027524 0.0095055455699065601 0 -0.0017684310427936898 0.0097812082822571894 0 -0.0013328766098330053 0.010144045196404406 0 -0.0017684310427936898 0.0097812082822571894 0 -0.0010913122316264807 0.0093891307657799454 0 -0.002209063317391298 0.00910631747532838 0 -0.0017684310427936898 0.0097812082822571894 0 -0.0010913122316264807 0.0093891307657799454 0 -0.0017219028532679424 0.0096546640827288848 0 -0.0016280410476950298 0.0097053847611720794 0 -0.0020462190841994588 0.0089100224594960333 0 -0.002050984320520431 0.0089312754845481731 0 -0.0020872735953857708 0.0090275982117726927 0 -0.0020462190841994588 0.0089100224594960333 0 -0.002209063317391298 0.00910631747532838 0 -0.0020872735953857708 0.0090275982117726927 0 -0.0020462190841994588 0.0089100224594960333 0 -0.002209063317391298 0.00910631747532838 0 -0.0023719375199617644 0.0090988168341092305 0 -0.00035014476744787704 0.014506064898949098 0 -0.00028705910251251393 0.015387932868690234 0 0.0016461451575030324 0.020079517826947068 0 0.0016621748046800264 0.020007601062844129 0 0.0016731507170299393 0.020050447381132104 0 0.0016621748046800264 0.020007601062844129 0 0.0016731507170299393 0.020050447381132104 0 0.0016985417276684023 0.020022175811947283 0 0.0016867875301342472 0.020065418210570288 0 0.0016731507170299393 0.020050447381132104 0 0.0016985417276684023 0.020022175811947283 0 0.0014768374602177989 0.020653791586205672 0 0.0016045089613162167 0.020852139541129917 0 0.0014198636007640578 0.020935262851863843 0 0.0014768374602177989 0.020653791586205672 0 0.0014198636007640578 0.020935262851863843 0 0.0012788519123470891 0.020779160077946009 0 0.0014198636007640578 0.020935262851863843 0 0.0015364717523728029 0.021176005968923699 0 0.0012626856639702953 0.021071553681732844 0 0.0014198636007640578 0.020935262851863843 0 0.0012626856639702953 0.021071553681732844 0 0.0012788519123470891 0.020779160077946009 0 -0.00028705910251251393 0.015387932868690234 0 -0.00052003907669866112 0.016865170495664498 0 0.0016045089613162167 0.020852139541129917 0 0.0014198636007640578 0.020935262851863843 0 0.0015364717523728029 0.021176005968923699 0 0.0016621748046800264 0.020007601062844129 0 0.0016985417276684023 0.020022175811947283 0 0.0017070256599023286 0.019935828001863894 0 -0.0023719375199617644 0.0090988168341092305 0 -0.0038179539499171634 0.010511142187290944 0 -0.0033948011766252464 0.010305446956120307 0 7.5386696451218093e-05 0.018997624650094958 0 -0.00052003907669866112 0.016865170495664498 0 -0.0027087556357146473 0.011380070463887481 0 -0.0027247711194235973 0.010661730593577787 0 -0.0033948011766252464 0.010305446956120307 0 -0.0023622896178298138 0.011929023024301769 0 -0.0033315893166820493 0.011421402825127974 0 -0.0033948011766252464 0.010305446956120307 0 -0.0030003192486310597 0.013440962711384109 0 -0.003244473606072198 0.012828448158167766 0 -0.00052003907669866112 0.016865170495664498 0 -0.00081321171977773816 0.015459546871213556 0 -0.0033315893166820493 0.011421402825127974 0 -0.0038179539499171634 0.010511142187290944 0 -0.0041478382640167365 0.011966145523815091 0 -0.0033315893166820493 0.011421402825127974 0 -0.0038179539499171634 0.010511142187290944 0 -0.0033948011766252464 0.010305446956120307 0 0.0015364717523728029 0.021176005968923699 0 0.0013117902142287842 0.021407328632664858 0 0.0012626856639702953 0.021071553681732844 0 -0.00052003907669866112 0.016865170495664498 0 -0.00096399419531488268 0.018880485486701949 0 -0.0040045885569707385 0.011785964304358 0 -0.004191620501405792 0.012606751255724333 0 -0.0049861666604487037 0.0127369782022846 0 -0.0043632698169036328 0.013436729526628284 0 -0.004191620501405792 0.012606751255724333 0 -0.0049861666604487037 0.0127369782022846 0 -0.0039434785273467525 0.013008675141158086 0 -0.0043632698169036328 0.013436729526628284 0 -0.0041478382640167365 0.011966145523815091 0 -0.00093446541287086553 0.015135247226728623 0 -0.00081321171977773816 0.015459546871213556 0 -0.0039434785273467525 0.013008675141158086 0 -0.0041478382640167365 0.011966145523815091 0 -0.0034754512228514873 0.012646811294693347 0 -0.0023622896178298138 0.011929023024301769 0 -0.0034754512228514873 0.012646811294693347 0 -0.0027737364456109953 0.012781485419052893 0 -0.0023622896178298138 0.011929023024301769 0 -0.0033315893166820493 0.011421402825127974 0 -0.0034754512228514873 0.012646811294693347 0 -0.0033315893166820493 0.011421402825127974 0 -0.0041478382640167365 0.011966145523815091 0 -0.0034754512228514873 0.012646811294693347 0 0.0010907434366977968 0.021636913635189638 0 0.00092873916177785656 0.021462392200113079 0 0.0013117902142287842 0.021407328632664858 0 0.00092873916177785656 0.021462392200113079 0 0.0013117902142287842 0.021407328632664858 0 0.0010062079244859013 0.021224653253501667 0 0.0013117902142287842 0.021407328632664858 0 0.0010062079244859013 0.021224653253501667 0 0.0012626856639702953 0.021071553681732844 0 0.0010062079244859013 0.021224653253501667 0 0.0010278643612408689 0.020904234927295817 0 0.00086508037442127041 0.021054482016504575 0 0.0010062079244859013 0.021224653253501667 0 0.0012626856639702953 0.021071553681732844 0 0.0010278643612408689 0.020904234927295817 0 0.0012626856639702953 0.021071553681732844 0 0.0012788519123470891 0.020779160077946009 0 0.0010278643612408689 0.020904234927295817 0 0.0011052540788255155 0.02068893774346818 0 0.0012788519123470891 0.020779160077946009 0 0.0010278643612408689 0.020904234927295817 0 0.00090944025462182533 0.020600400133563845 0 0.0011052540788255155 0.02068893774346818 0 0.0010278643612408689 0.020904234927295817 0 0.00090944025462182533 0.020600400133563845 0 0.0010278643612408689 0.020904234927295817 0 0.00073300507313071991 0.020888709222879678 0 0.00073300507313071991 0.020888709222879678 0 0.00086508037442127041 0.021054482016504575 0 0.00069452071746264996 0.021201074632946494 0 0.0010278643612408689 0.020904234927295817 0 0.00073300507313071991 0.020888709222879678 0 0.00086508037442127041 0.021054482016504575 0 0.00073300507313071991 0.020888709222879678 0 0.00048328605533080096 0.021023387156515541 0 0.00069452071746264996 0.021201074632946494 0 0.00073300507313071991 0.020888709222879678 0 0.00050091338109929347 0.020773895702618991 0 0.00048328605533080096 0.021023387156515541 0 0.00065649839182525154 0.020627517966980726 0 0.00073300507313071991 0.020888709222879678 0 0.00050091338109929347 0.020773895702618991 0 0.00048969529708321432 0.021338553727404844 0 0.00042020465700377661 0.021456189124019323 0 0.00050091338109929347 0.020773895702618991 0 0.00022431241231956706 0.020938915476629901 0 0.00048328605533080096 0.021023387156515541 0 0.00026345617424284185 0.02059971893383488 0 0.00050091338109929347 0.020773895702618991 0 0.00028311988319148113 0.020947695651029823 0 0.00022431241231956706 0.020938915476629901 0 0.0003134721775867891 0.021304646777526141 0 -4.9639282993813926e-05 0.021115359146219637 0 0.00022431241231956706 0.020938915476629901 0 0.00048328605533080096 0.021023387156515541 0 0.0003134721775867891 0.021304646777526141 0 0.00048328605533080096 0.021023387156515541 0 0.0003134721775867891 0.021304646777526141 0 0.00069452071746264996 0.021201074632946494 0 0.0003134721775867891 0.021304646777526141 0 0.00063487476214065376 0.021455017776314523 0 0.00045463795513314698 0.021646307496356692 0 0.00092873916177785656 0.021462392200113079 0 0.00063487476214065376 0.021455017776314523 0 0.00069452071746264996 0.021201074632946494 0 0.0010062079244859013 0.021224653253501667 0 0.00086508037442127041 0.021054482016504575 0 0.00069452071746264996 0.021201074632946494 0 0.00092873916177785656 0.021462392200113079 0 0.0010062079244859013 0.021224653253501667 0 0.00069452071746264996 0.021201074632946494 0 0.0003134721775867891 0.021304646777526141 0 0.00063487476214065376 0.021455017776314523 0 0.00069452071746264996 0.021201074632946494 0 -0.00044298054235337227 0.021265734573670043 0 -0.00014225548019633141 0.021142379574694128 0 -0.00037722271728402376 0.021530887262908215 0 -0.00044298054235337227 0.021265734573670043 0 -0.00046219052723607741 0.021032000027469175 0 -0.00014225548019633141 0.021142379574694128 0 -0.00023971070363327832 0.020818370072840747 0 -0.00044305304691495537 0.020793435108375495 0 -0.00046219052723607741 0.021032000027469175 0 3.7857957228422748e-05 0.020754713348294394 0 -0.00023971070363327832 0.020818370072840747 0 -0.00014225548019633141 0.021142379574694128 0 -0.00023971070363327832 0.020818370072840747 0 -0.00046219052723607741 0.021032000027469175 0 -0.00014225548019633141 0.021142379574694128 0 3.7857957228422748e-05 0.020754713348294394 0 0.00028311988319148113 0.020947695651029823 0 7.2294643406543277e-05 0.021106462426960515 0 3.7857957228422748e-05 0.020754713348294394 0 -0.00017002712656898918 0.021000885039870756 0 7.2294643406543277e-05 0.021106462426960515 0 -0.00017002712656898918 0.021000885039870756 0 7.2294643406543277e-05 0.021106462426960515 0 -0.00016135666662624388 0.021283174500068107 0 0.00028122116890651969 0.021459009950160805 0 0.00022670318712344608 0.02172087653117459 0 0.00042020465700377661 0.021456189124019323 0 0.00029495196645118877 0.02177317156865384 0 0.0003134721775867891 0.021304646777526141 0 -4.9639282993813926e-05 0.021115359146219637 0 -8.2772419479081421e-05 0.02142322931756075 0 0.0003134721775867891 0.021304646777526141 0 -8.2772419479081421e-05 0.02142322931756075 0 0.00012913271745281215 0.021655038489751654 0 -8.2772419479081421e-05 0.02142322931756075 0 -0.00032716773874387928 0.021296035915099345 0 -0.00036914828650291132 0.021506197057262737 0 -8.2772419479081421e-05 0.02142322931756075 0 -0.00036914828650291132 0.021506197057262737 0 -0.00020484373819486737 0.021663730379960548 0 -4.9639282993813926e-05 0.021115359146219637 0 -8.2772419479081421e-05 0.02142322931756075 0 -0.00032716773874387928 0.021296035915099345 0 0.00029495196645118877 0.02177317156865384 0 0.00015990201844185917 0.022319339101013257 0 0.00022670318712344608 0.02172087653117459 0 0.00010049913914665938 0.02251799714627838 0 -0.00017002712656898918 0.021000885039870756 0 -0.00016135666662624388 0.021283174500068107 0 -0.0004076773635312496 0.021290864742327671 0 0.00015990201844185917 0.022319339101013257 0 -3.1209571279501961e-05 0.02324198063217281 0 -0.00032716773874387928 0.021296035915099345 0 -0.00036914828650291132 0.021506197057262737 0 -0.00060905821720897552 0.021483259079116898 0 -0.00036914828650291132 0.021506197057262737 0 -0.00060905821720897552 0.021483259079116898 0 -0.0005464023651783243 0.021671027315020529 0 -0.00016135666662624388 0.021283174500068107 0 -0.00042667540808088143 0.021473911023790721 0 -0.0004076773635312496 0.021290864742327671 0 -0.00065558039794115454 0.021627338707625864 0 -0.00042667540808088143 0.021473911023790721 0 -0.0004076773635312496 0.021290864742327671 0 -0.00063101293582799997 0.021421838039816298 0 -0.00044298054235337227 0.021265734573670043 0 -0.00037722271728402376 0.021530887262908215 0 -0.00019102748614639083 0.033323347793980669 0 -0.00021397312636415146 0.033328893294205936 0 -0.00023411694515041687 0.033284264772389056 0 -0.00083739468959441541 0.021638325866041828 0 -0.00060905821720897552 0.021483259079116898 0 -0.0005464023651783243 0.021671027315020529 0 -0.00021397312636415146 0.033328893294205936 0 -0.00025541691613693764 0.033282248928142771 0 -0.00025865625065991487 0.033298256243201041 0 -0.00036914828650291132 0.021506197057262737 0 -0.0005464023651783243 0.021671027315020529 0 -0.00020484373819486737 0.021663730379960548 0 -0.00041122699115148689 0.025916623401703393 0 -0.00024787288065385008 0.026103653887142971 0 -0.00021397312636415146 0.033328893294205936 0 -0.00025541691613693764 0.033282248928142771 0 -0.00023411694515041687 0.033284264772389056 0 -0.00025541691613693764 0.033282248928142771 0 -0.00025865625065991487 0.033298256243201041 0 -0.00029629721362869145 0.033263569133293078 0 -8.2772419479081421e-05 0.02142322931756075 0 -0.00020484373819486737 0.021663730379960548 0 0.00012913271745281215 0.021655038489751654 0 -0.00024787288065385008 0.026103653887142971 0 -0.0001360198934438549 0.025904423126765191 0 -0.00025541691613693764 0.033282248928142771 0 -0.00029629721362869145 0.033263569133293078 0 -0.00029829904248880238 0.033246114807740611 0 -0.00027274147387346955 0.033254419320558684 0 -0.00029829904248880238 0.033246114807740611 0 -0.00030551931848054464 0.033224497184663644 0 -0.00025541691613693764 0.033282248928142771 0 -0.00027274147387346955 0.033254419320558684 0 -0.00029829904248880238 0.033246114807740611 0 -0.00030551931848054464 0.033224497184663644 0 -0.00030820236308799569 0.033207677519637845 0 -0.00028338961101993527 0.033207647612144377 0 -0.00027274147387346955 0.033254419320558684 0 -0.00030551931848054464 0.033224497184663644 0 -0.00028338961101993527 0.033207647612144377 0 -0.00027274147387346955 0.033254419320558684 0 -0.00025264676743047651 0.033246419062358229 0 -0.00028338961101993527 0.033207647612144377 0 -0.00025264676743047651 0.033246419062358229 0 -0.00024137466076596718 0.033233553889653489 0 -0.00028338961101993527 0.033207647612144377 0 -0.00025541691613693764 0.033282248928142771 0 -0.00027274147387346955 0.033254419320558684 0 -0.00023411694515041687 0.033284264772389056 0 -0.00027274147387346955 0.033254419320558684 0 -0.00023411694515041687 0.033284264772389056 0 -0.00025264676743047651 0.033246419062358229 0 -0.00023411694515041687 0.033284264772389056 0 -0.00025264676743047651 0.033246419062358229 0 -0.00023690959938134728 0.033261587088529034 0 -0.00023411694515041687 0.033284264772389056 0 -0.00023690959938134728 0.033261587088529034 0 -0.00022164448171577169 0.033273299218063344 0 -0.00025264676743047651 0.033246419062358229 0 -0.00024137466076596718 0.033233553889653489 0 -0.00023690959938134728 0.033261587088529034 0 -0.00024137466076596718 0.033233553889653489 0 -0.00023690959938134728 0.033261587088529034 0 -0.00022164448171577169 0.033273299218063344 0 -0.00024137466076596718 0.033233553889653489 0 -0.00022164448171577169 0.033273299218063344 0 -0.00019794108387016652 0.033281927190262128 0 -0.00025031748108801091 0.031113469305213939 0 0.00016290618570140319 0.032229278032763251 0 -0.00019102748614639083 0.033323347793980669 0 -0.00023411694515041687 0.033284264772389056 0 -0.00022164448171577169 0.033273299218063344 0 -0.00019102748614639083 0.033323347793980669 0 -0.00022164448171577169 0.033273299218063344 0 -0.00019794108387016652 0.033281927190262128 0 -0.00032520328752626379 0.033210287996824413 0 -0.0003194625827785083 0.033194201909730554 0 -0.00032654659577444447 0.033208550975978128 0 -0.00032520328752626379 0.033210287996824413 0 -0.0003194625827785083 0.033194201909730554 0 -0.00032451666803096633 0.033189248251214318 0 -0.00030739951076978284 0.033159998347778635 0 -0.0003194625827785083 0.033194201909730554 0 -0.00032451666803096633 0.033189248251214318 0 0.00092873916177785656 0.021462392200113079 0 0.00063487476214065376 0.021455017776314523 0 0.00077301836006067116 0.021639063357906642 0 -0.00032520328752626379 0.033210287996824413 0 -0.00032451666803096633 0.033189248251214318 0 -0.00032120667760971957 0.033227410793763408 0 -0.00041870492981100206 0.024021524994993351 0 -0.00012738250301969116 0.025268473718354344 0 0.00063487476214065376 0.021455017776314523 0 0.00077301836006067116 0.021639063357906642 0 0.00045463795513314698 0.021646307496356692 0 0.0003134721775867891 0.021304646777526141 0 0.00012913271745281215 0.021655038489751654 0 0.00045463795513314698 0.021646307496356692 0 -0.0001360198934438549 0.025904423126765191 0 -0.00012738250301969116 0.025268473718354344 0 -0.00029629721362869145 0.033263569133293078 0 -0.00032120667760971957 0.033227410793763408 0 -0.00029829904248880238 0.033246114807740611 0 -0.00032120667760971957 0.033227410793763408 0 -0.00029829904248880238 0.033246114807740611 0 -0.00031904930914949345 0.033222188756828468 0 -0.00032520328752626379 0.033210287996824413 0 -0.00032120667760971957 0.033227410793763408 0 -0.00031904930914949345 0.033222188756828468 0 -0.00029829904248880238 0.033246114807740611 0 -0.00031904930914949345 0.033222188756828468 0 -0.00030551931848054464 0.033224497184663644 0 -0.00030551931848054464 0.033224497184663644 0 -0.00032437388412131341 0.033206534711077047 0 -0.00030820236308799569 0.033207677519637845 0 -0.00031904930914949345 0.033222188756828468 0 -0.00030551931848054464 0.033224497184663644 0 -0.00032437388412131341 0.033206534711077047 0 -0.0028124415615767627 0.027186860480251419 0 -0.002793106993730806 0.026309569793809225 0 -0.0045413837240637842 0.022474127444820517 0 -0.0041062387732273145 0.022079768987218258 0 -0.0042086298045453958 0.022664532280493463 0 -0.00032520328752626379 0.033210287996824413 0 -0.00031904930914949345 0.033222188756828468 0 -0.00032654659577444447 0.033208550975978128 0 -0.00031904930914949345 0.033222188756828468 0 -0.00032437388412131341 0.033206534711077047 0 -0.00032654659577444447 0.033208550975978128 0 -0.00374190876576788 0.021828103100083006 0 -0.0041062387732273145 0.022079768987218258 0 -0.0037146353637636767 0.022118828471905636 0 -0.0025797374941798302 0.024805449018639271 0 -0.002793106993730806 0.026309569793809225 0 -0.0041062387732273145 0.022079768987218258 0 -0.0038579771812933396 0.022473313489458559 0 -0.0042086298045453958 0.022664532280493463 0 -0.0041062387732273145 0.022079768987218258 0 -0.0037146353637636767 0.022118828471905636 0 -0.0038579771812933396 0.022473313489458559 0 -0.0038579771812933396 0.022473313489458559 0 -0.0039832779195428138 0.022852765022771043 0 -0.0036719114328142731 0.02301704560928991 0 -0.0038579771812933396 0.022473313489458559 0 -0.0039832779195428138 0.022852765022771043 0 -0.0042086298045453958 0.022664532280493463 0 -0.0035617035661658744 0.022469875811890885 0 -0.0036994352398019683 0.022713922585261018 0 -0.0035474465599619411 0.022565004785326533 0 -0.0036719114328142731 0.02301704560928991 0 -0.0040181130724088812 0.023212705091946301 0 -0.0040025649545714741 0.023813408162173047 0 -0.0038224673997793407 0.022855344332582159 0 -0.0040584236416713109 0.023206841248119402 0 -0.0039832779195428138 0.022852765022771043 0 -0.0036719114328142731 0.02301704560928991 0 -0.0040181130724088812 0.023212705091946301 0 -0.0039832779195428138 0.022852765022771043 0 -0.0040181130724088812 0.023212705091946301 0 -0.0042181956189922473 0.023000856028064176 0 -0.004529812183547699 0.023428812440884152 0 -0.0042063260073868262 0.023414224994778788 0 -0.0042181956189922473 0.023000856028064176 0 -0.0040181130724088812 0.023212705091946301 0 -0.0042063260073868262 0.023414224994778788 0 -0.0042181956189922473 0.023000856028064176 0 -0.0045413837240637842 0.022474127444820517 0 -0.0042086298045453958 0.022664532280493463 0 -0.0045247923338365692 0.02302413353461967 0 -0.0042181956189922473 0.023000856028064176 0 -0.0042086298045453958 0.022664532280493463 0 -0.0045247923338365692 0.02302413353461967 0 -0.0039832779195428138 0.022852765022771043 0 -0.0042181956189922473 0.023000856028064176 0 -0.0042086298045453958 0.022664532280493463 0 -0.00032437388412131341 0.033206534711077047 0 -0.00030820236308799569 0.033207677519637845 0 -0.00031386182384233904 0.033191052572774549 0 -0.0028049048821747816 0.027803796676053073 0 -0.0033811910942081304 0.027380447425811465 0 -0.0028124415615767627 0.027186860480251419 0 -0.0028049048821747816 0.027803796676053073 0 -0.0045413837240637842 0.022474127444820517 0 -0.0049616594149442901 0.022906177055880852 0 -0.0045247923338365692 0.02302413353461967 0 -0.00030820236308799569 0.033207677519637845 0 -0.00031386182384233904 0.033191052572774549 0 -0.00028338961101993527 0.033207647612144377 0 -0.0049091379003452593 0.02293990648751263 0 -0.0047493829140534466 0.023158473420526196 0 -0.0052745240113264424 0.02332890506729406 0 -0.0035367788114835639 0.026937751506155679 0 -0.0029017184527643687 0.028286229332955527 0 -0.0028049048821747816 0.027803796676053073 0 -0.0029017184527643687 0.028286229332955527 0 -0.0049340067916897505 0.023197186707299207 0 -0.0052795893062077496 0.023475126480627058 0 -0.0056714316465293164 0.023423167245598564 0 -0.0049340067916897505 0.023197186707299207 0 -0.0049134703013564108 0.023573453824666746 0 -0.0052795893062077496 0.023475126480627058 0 -0.004529812183547699 0.023428812440884152 0 -0.0042181956189922473 0.023000856028064176 0 -0.0049340067916897505 0.023197186707299207 0 -0.0042181956189922473 0.023000856028064176 0 -0.0045247923338365692 0.02302413353461967 0 -0.0047493829140534466 0.023158473420526196 0 -0.0049091379003452593 0.02293990648751263 0 -0.0045247923338365692 0.02302413353461967 0 -0.0047493829140534466 0.023158473420526196 0 -0.0036101283819516706 0.026523633347368781 0 -0.0035367788114835639 0.026937751506155679 0 -0.004529812183547699 0.023428812440884152 0 -0.0049340067916897505 0.023197186707299207 0 -0.0049134703013564108 0.023573453824666746 0 -0.004529812183547699 0.023428812440884152 0 -0.0049134703013564108 0.023573453824666746 0 -0.00463718605747867 0.023734221310607116 0 -0.0049134703013564108 0.023573453824666746 0 -0.0048350239823953403 0.023884390774039813 0 -0.00463718605747867 0.023734221310607116 0 -0.0049134703013564108 0.023573453824666746 0 -0.0048350239823953403 0.023884390774039813 0 -0.0052225888605117472 0.023845692118170964 0 -0.0048350239823953403 0.023884390774039813 0 -0.00463718605747867 0.023734221310607116 0 -0.0046331179411944869 0.024042590590740522 0 -0.0048647640916111351 0.024282950294840313 0 -0.0048633170235356923 0.024300660154480406 0 -0.0048683234604631337 0.024294152231259938 0 -0.0042831583546091602 0.026539876014512385 0 -0.0029017184527643687 0.028286229332955527 0 -0.0052795893062077496 0.023475126480627058 0 -0.0052225888605117472 0.023845692118170964 0 -0.0056714316465293164 0.023423167245598564 0 -0.0049134703013564108 0.023573453824666746 0 -0.0052795893062077496 0.023475126480627058 0 -0.0052225888605117472 0.023845692118170964 0 -0.0050036657293479805 0.024385952059425259 0 -0.0048323168646256728 0.024304734126148454 0 -0.0051162246630366255 0.024314157457766911 0 -0.0048647640916111351 0.024282950294840313 0 -0.0048323168646256728 0.024304734126148454 0 -0.0048683234604631337 0.024294152231259938 0 -0.0043279583096964992 0.027433327004318026 0 -0.0039746915277940765 0.027754293324656065 0 -0.0050036657293479805 0.024385952059425259 0 -0.0048323168646256728 0.024304734126148454 0 -0.0048636168035115666 0.024418216276641268 0 -0.00463718605747867 0.023734221310607116 0 -0.0046331179411944869 0.024042590590740522 0 -0.0043853205148958185 0.024044244754357222 0 -0.0048350239823953403 0.023884390774039813 0 -0.0046331179411944869 0.024042590590740522 0 -0.0047487492762562158 0.024289778163601661 0 -0.0048647640916111351 0.024282950294840313 0 -0.0048323168646256728 0.024304734126148454 0 -0.0047487492762562158 0.024289778163601661 0 -0.0048350239823953403 0.023884390774039813 0 -0.0052225888605117472 0.023845692118170964 0 -0.0047487492762562158 0.024289778163601661 0 -0.0042831583546091602 0.026539876014512385 0 -0.0046039931866071557 0.02609590643863173 0 -0.0048323168646256728 0.024304734126148454 0 -0.0047491143499004832 0.02440116647847914 0 -0.0048636168035115666 0.024418216276641268 0 -0.0048323168646256728 0.024304734126148454 0 -0.0047487492762562158 0.024289778163601661 0 -0.0047491143499004832 0.02440116647847914 0 -0.0047487492762562158 0.024289778163601661 0 -0.0045924195521810001 0.024274222441756737 0 -0.0047491143499004832 0.02440116647847914 0 -0.0046331179411944869 0.024042590590740522 0 -0.0047487492762562158 0.024289778163601661 0 -0.0045924195521810001 0.024274222441756737 0 -0.0040584236416713109 0.023206841248119402 0 -0.0043801346903843755 0.023580094329030146 0 -0.0045924195521810001 0.024274222441756737 0 -0.0043853205148958185 0.024044244754357222 0 -0.0044160853569723182 0.024542548118402726 0 -0.0043853205148958185 0.024044244754357222 0 -0.0040025649545714741 0.023813408162173047 0 -0.0044160853569723182 0.024542548118402726 0 -0.0036994352398019683 0.022713922585261018 0 -0.0036597582726379031 0.022943261769036827 0 -0.0038369934158707501 0.022981133202526271 0 -0.0046331179411944869 0.024042590590740522 0 -0.0045924195521810001 0.024274222441756737 0 -0.0043853205148958185 0.024044244754357222 0 -0.0035904486258234538 0.022823862920835863 0 -0.0036994352398019683 0.022713922585261018 0 -0.0035172134519630186 0.02273307212712743 0 -0.0035904486258234538 0.022823862920835863 0 -0.0036994352398019683 0.022713922585261018 0 -0.0036597582726379031 0.022943261769036827 0 -0.0035904486258234538 0.022823862920835863 0 -0.0036597582726379031 0.022943261769036827 0 -0.0034857743547168658 0.022905794416220187 0 -0.0036994352398019683 0.022713922585261018 0 -0.0035172134519630186 0.02273307212712743 0 -0.0035474465599619411 0.022565004785326533 0 -0.0040181130724088812 0.023212705091946301 0 -0.0042063260073868262 0.023414224994778788 0 -0.0040025649545714741 0.023813408162173047 0 -0.0042063260073868262 0.023414224994778788 0 -0.0040025649545714741 0.023813408162173047 0 -0.0043259373016806268 0.023705150539130537 0 -0.004529812183547699 0.023428812440884152 0 -0.00463718605747867 0.023734221310607116 0 -0.0043259373016806268 0.023705150539130537 0 -0.004529812183547699 0.023428812440884152 0 -0.0042063260073868262 0.023414224994778788 0 -0.0043259373016806268 0.023705150539130537 0 -0.00463718605747867 0.023734221310607116 0 -0.0043853205148958185 0.024044244754357222 0 -0.0043259373016806268 0.023705150539130537 0 -0.0043853205148958185 0.024044244754357222 0 -0.0040025649545714741 0.023813408162173047 0 -0.0043259373016806268 0.023705150539130537 0 0.00064048938652649229 0.034602787776825329 0 0.00070633688647730682 0.034515094993405535 0 0.0007183580720927184 0.034638379648140642 0 0.00053915088883140525 0.03465363011223431 0 0.00062489079183719164 0.034691008425390905 0 0.00064048938652649229 0.034602787776825329 0 0.00062489079183719164 0.034691008425390905 0 0.00064048938652649229 0.034602787776825329 0 0.0007183580720927184 0.034638379648140642 0 0.00053756675896362899 0.034501264068652032 0 0.00064048938652649229 0.034602787776825329 0 0.00070633688647730682 0.034515094993405535 0 0.00053756675896362899 0.034501264068652032 0 0.0006041749430111522 0.034359500603759016 0 0.00070633688647730682 0.034515094993405535 0 0.00078619458063239681 0.034436822410681744 0 0.0006041749430111522 0.034359500603759016 0 0.00070633688647730682 0.034515094993405535 0 0.00070633688647730682 0.034515094993405535 0 0.00079234283539212963 0.034509845585704413 0 0.00080807816059516645 0.034554813478502082 0 0.00078619458063239681 0.034436822410681744 0 0.00079234283539212963 0.034509845585704413 0 0.00082984778110634951 0.0345355889782916 0 0.00078619458063239681 0.034436822410681744 0 0.00070633688647730682 0.034515094993405535 0 0.00079234283539212963 0.034509845585704413 0 0.00070633688647730682 0.034515094993405535 0 0.00080807816059516645 0.034554813478502082 0 0.0007183580720927184 0.034638379648140642 0 0.00080807816059516645 0.034554813478502082 0 0.0007183580720927184 0.034638379648140642 0 0.00085970298447641668 0.034703537997197179 0 -0.0012937574511903058 0.031043172228905923 0 -0.0016755971502336012 0.030051500257938853 0 0.00081903171942415069 0.034539337891868076 0 0.00080195694586349727 0.034526729137350019 0 0.00082062489524903056 0.034529811834505174 0 0.00080807816059516645 0.034554813478502082 0 0.00081903171942415069 0.034539337891868076 0 0.00082062489524903056 0.034529811834505174 0 0.00081903171942415069 0.034539337891868076 0 0.00082984778110634951 0.0345355889782916 0 0.00080195694586349727 0.034526729137350019 0 0.00080807816059516645 0.034554813478502082 0 0.00081903171942415069 0.034539337891868076 0 0.00082984778110634951 0.0345355889782916 0 -0.00025031748108801091 0.031113469305213939 0 -0.0012118809946894138 0.029773849638689707 0 -0.00077010180340023884 0.029949055546799129 0 -0.0014588835849123946 0.029298915253291747 0 -0.0018333997214919323 0.029646207125352285 0 -0.00025031748108801091 0.031113469305213939 0 -0.0010331361184100268 0.030313750932598867 0 0.00079234283539212963 0.034509845585704413 0 0.00080807816059516645 0.034554813478502082 0 0.00082984778110634951 0.0345355889782916 0 -0.0028049048821747816 0.027803796676053073 0 -0.0012118809946894138 0.029773849638689707 0 -0.0014588835849123946 0.029298915253291747 0 -0.0018333997214919323 0.029646207125352285 0 -0.0021099930744910046 0.029123935749893991 0 -0.0028886218945241996 0.029345478659361945 0 -0.0018333997214919323 0.029646207125352285 0 -0.0021099930744910046 0.029123935749893991 0 -0.0010331361184100268 0.030313750932598867 0 -0.0029017184527643687 0.028286229332955527 0 -0.0014588835849123946 0.029298915253291747 0 -0.0021099930744910046 0.029123935749893991 0 -0.0021749534345321315 0.028625834769359645 0 -0.0028886218945241996 0.029345478659361945 0 -0.0021099930744910046 0.029123935749893991 0 -0.0021749534345321315 0.028625834769359645 0 -0.0029017184527643687 0.028286229332955527 0 -0.0025741082103345084 0.02882371157239139 0 -0.0048633170235356923 0.024300660154480406 0 -0.0048683234604631337 0.024294152231259938 0 -0.004856299123846922 0.024302308905673319 0 -0.0021572874223122077 0.028467447083045442 0 -0.0031768431912681861 0.029500287368452303 0 -0.0028788018708999466 0.028927866801022602 0 -0.0039746915277940765 0.027754293324656065 0 -0.0025741082103345084 0.02882371157239139 0 -0.0051162246630366255 0.024314157457766911 0 -0.0051373011847468397 0.024368227942715502 0 -0.0051341606580729525 0.024363725547764913 0 -0.0050036657293479805 0.024385952059425259 0 -0.0051162246630366255 0.024314157457766911 0 -0.0051542416254781098 0.024382619887033514 0 -0.0051162246630366255 0.024314157457766911 0 -0.0051542416254781098 0.024382619887033514 0 -0.0051341606580729525 0.024363725547764913 0 -0.0051542416254781098 0.024382619887033514 0 -0.0051341606580729525 0.024363725547764913 0 -0.0051019562312871443 0.024349176454148479 0 -0.0051341606580729525 0.024363725547764913 0 -0.0051358902594318299 0.024369979382788391 0 -0.0051019562312871443 0.024349176454148479 0 -0.0023887997038283563 0.029557527179719118 0 -0.0024702933211753109 0.029641089180178735 0 -0.0023568848282866446 0.029657900096815831 0 -0.0024514116502349745 0.028888962251257807 0 -0.002908075120695644 0.028928168104378121 0 -0.0051373011847468397 0.024368227942715502 0 -0.0051341606580729525 0.024363725547764913 0 -0.0051358902594318299 0.024369979382788391 0 -0.0018804506867453649 0.030474624159760037 0 -0.0018701916604489193 0.030506209757105576 0 -0.0016672695736317472 0.0302618969943724 0 -0.0024514116502349745 0.028888962251257807 0 -0.0023476998063982233 0.029011064118781047 0 -0.0013388584030228747 0.02793861779477529 0 -0.0029927693407652625 0.029610528673693272 0 -0.0036887933826390564 0.027465281737943846 0 -0.0025741082103345084 0.02882371157239139 0 -0.0023476998063982233 0.029011064118781047 0 -0.0025741082103345084 0.02882371157239139 0 -0.0024514116502349745 0.028888962251257807 0 -0.0023476998063982233 0.029011064118781047 0 -0.0016755971502336012 0.030051500257938853 0 -0.0033170814957569506 0.029472128115601456 0 -0.0028788018708999466 0.028927866801022602 0 -0.003544149011344905 0.028771211085043314 0 -0.0021572874223122077 0.028467447083045442 0 -0.0028788018708999466 0.028927866801022602 0 -0.003544149011344905 0.028771211085043314 0 -0.0029017184527643687 0.028286229332955527 0 -0.0016755971502336012 0.030051500257938853 0 -0.0031768431912681861 0.029500287368452303 0 -0.0033170814957569506 0.029472128115601456 0 -0.0028788018708999466 0.028927866801022602 0 -0.0023476998063982233 0.029011064118781047 0 -0.00098739973986243339 0.030568900321367876 0 -0.0016755971502336012 0.030051500257938853 0 -0.00098739973986243339 0.030568900321367876 0 -0.0011166076473519242 0.030255500592414677 0 -0.001203333463532406 0.029987267163487246 0 -0.0017543321045902982 0.030129413571819766 0 0.0007183580720927184 0.034638379648140642 0 0.00085970298447641668 0.034703537997197179 0 0.00065965419517651544 0.034777117957690881 0 -0.0018701916604489193 0.030506209757105576 0 -0.0014562249270822813 0.030593509041766595 0 -0.0016672695736317472 0.0302618969943724 0 -0.0024514116502349745 0.028888962251257807 0 -0.0022517937125160928 0.029888050002927245 0 -0.0013536650474442772 0.030313138513656895 0 -0.0014562249270822813 0.030593509041766595 0 -0.0016672695736317472 0.0302618969943724 0 -0.00070556251057749637 0.030763963246769069 0 -0.00098739973986243339 0.030568900321367876 0 0.00062489079183719164 0.034691008425390905 0 0.0007183580720927184 0.034638379648140642 0 0.00065965419517651544 0.034777117957690881 0 0.00055496872090990228 0.03478238903386769 0 0.00062489079183719164 0.034691008425390905 0 0.00065965419517651544 0.034777117957690881 0 -0.00071275692582362105 0.034703387735051272 0 -0.0010090745431937409 0.034780487973183137 0 -0.00086481148098399704 0.034952368638570243 0 -0.0010090745431937409 0.034780487973183137 0 -0.00086481148098399704 0.034952368638570243 0 -0.0011161079173311785 0.034964399650217665 0 -0.00078703028425926942 0.035198864076860258 0 -0.00086481148098399704 0.034952368638570243 0 -0.0010645347731430906 0.035120310234252147 0 -0.00078703028425926942 0.035198864076860258 0 -0.0010645347731430906 0.035120310234252147 0 -0.001140119583693899 0.035196200937133264 0 -0.0013522109518854942 0.030816037770282197 0 -0.0022517937125160928 0.029888050002927245 0 -0.00086481148098399704 0.034952368638570243 0 -0.0010645347731430906 0.035120310234252147 0 -0.0011161079173311785 0.034964399650217665 0 -0.0010645347731430906 0.035120310234252147 0 -0.0012467453810559048 0.035104912340975084 0 -0.0011161079173311785 0.034964399650217665 0 -0.0010645347731430906 0.035120310234252147 0 -0.0011608953149093563 0.035230881669279249 0 -0.0012467453810559048 0.035104912340975084 0 -0.0022989220110428026 0.029997639658864636 0 -0.0022517937125160928 0.029888050002927245 0 -0.0012467453810559048 0.035104912340975084 0 -0.0011161079173311785 0.034964399650217665 0 -0.0013343693581595486 0.035007927258531982 0 -0.0011161079173311785 0.034964399650217665 0 -0.0012423959874354638 0.034829837892717139 0 -0.0013343693581595486 0.035007927258531982 0 -0.0010090745431937409 0.034780487973183137 0 -0.0011161079173311785 0.034964399650217665 0 -0.0012423959874354638 0.034829837892717139 0 -0.0010090745431937409 0.034780487973183137 0 -0.0012423959874354638 0.034829837892717139 0 -0.0012615913201331809 0.034638726451618383 0 -0.0012423959874354638 0.034829837892717139 0 -0.0013343693581595486 0.035007927258531982 0 -0.0017630661952616376 0.034781595973554451 0 -0.0013343693581595486 0.035007927258531982 0 -0.0015471907465913922 0.035195420146323902 0 -0.0017630661952616376 0.034781595973554451 0 -0.0011608953149093563 0.035230881669279249 0 -0.0012467453810559048 0.035104912340975084 0 -0.0015471907465913922 0.035195420146323902 0 -0.0022517937125160928 0.029888050002927245 0 -0.002908075120695644 0.028928168104378121 0 -0.0012467453810559048 0.035104912340975084 0 -0.0013343693581595486 0.035007927258531982 0 -0.0015471907465913922 0.035195420146323902 0 -0.0051542416254781098 0.024382619887033514 0 -0.0051019562312871443 0.024349176454148479 0 -0.0052305563593425253 0.024273742373444058 0 -0.0061862886557113956 0.024147415915718225 0 -0.0058797687688786019 0.024189153888588697 0 -0.0060414175137717043 0.024639015368041504 0 -0.002908075120695644 0.028928168104378121 0 -0.0041413679045375898 0.028126496762763121 0 -0.0058797687688786019 0.024189153888588697 0 -0.0060414175137717043 0.024639015368041504 0 -0.0057733435885253381 0.024477042756717322 0 -0.002908075120695644 0.028928168104378121 0 -0.003404029718063686 0.029318815881970179 0 -0.003404029718063686 0.029318815881970179 0 -0.0037973670826540805 0.029400089590064321 0 -0.0060414175137717043 0.024639015368041504 0 -0.0059279714748644175 0.025150983796428984 0 -0.0056327487696488055 0.024761550900309719 0 -0.0017630661952616376 0.034781595973554451 0 -0.0021391850654844586 0.034303091303951989 0 -0.001572915142348933 0.034338861424521576 0 -0.0021391850654844586 0.034303091303951989 0 -0.001572915142348933 0.034338861424521576 0 -0.0015045119975635331 0.033839385214635372 0 -0.001572915142348933 0.034338861424521576 0 -0.00090573052527443191 0.034018781306360393 0 -0.0015045119975635331 0.033839385214635372 0 -0.0012423959874354638 0.034829837892717139 0 -0.0017630661952616376 0.034781595973554451 0 -0.0012615913201331809 0.034638726451618383 0 -0.0017630661952616376 0.034781595973554451 0 -0.001572915142348933 0.034338861424521576 0 -0.0012615913201331809 0.034638726451618383 0 -0.0010090745431937409 0.034780487973183137 0 -0.0012615913201331809 0.034638726451618383 0 -0.00092011323856792146 0.034558082705727806 0 -0.001037368426898444 0.034289191665669738 0 -0.00094470974780385948 0.034118361841037136 0 -0.0012615913201331809 0.034638726451618383 0 -0.00092011323856792146 0.034558082705727806 0 -0.0009772565624736908 0.034270230008497771 0 -0.001572915142348933 0.034338861424521576 0 -0.0012615913201331809 0.034638726451618383 0 -0.00090573052527443191 0.034018781306360393 0 -0.0006781837031817915 0.034414562780749947 0 -0.0009772565624736908 0.034270230008497771 0 -0.00066449673267841662 0.0341988940330284 0 -0.0006781837031817915 0.034414562780749947 0 -0.00092011323856792146 0.034558082705727806 0 -0.0009772565624736908 0.034270230008497771 0 -0.00071275692582362105 0.034703387735051272 0 -0.0010090745431937409 0.034780487973183137 0 -0.00092011323856792146 0.034558082705727806 0 -0.00071275692582362105 0.034703387735051272 0 -0.0006781837031817915 0.034414562780749947 0 -0.00092011323856792146 0.034558082705727806 0 -0.0050906506295328004 0.024355528159358757 0 -0.005285013574353385 0.02446176704211233 0 -0.0050449261869743361 0.024670879532185681 0 -0.0050906506295328004 0.024355528159358757 0 -0.0047032134457975754 0.024497724283866564 0 -0.0050449261869743361 0.024670879532185681 0 -0.0044187294134508106 0.024041427155309127 0 -0.0045895136479640478 0.024153974057520313 0 -0.0046093545826096536 0.023920033886244071 0 -0.0044187294134508106 0.024041427155309127 0 -0.0044033642533446091 0.023718534093903926 0 -0.0043952977348167719 0.023720546487735767 0 -0.0043984955706276073 0.023716496644760169 0 -0.0043952977348167719 0.023720546487735767 0 -0.0043984955706276073 0.023716496644760169 0 -0.0043949066922266914 0.023715813721099443 0 -0.0043984955706276073 0.023716496644760169 0 -0.0043977560443161593 0.023712424379347365 0 -0.0044024124230415528 0.023715671309706157 0 -0.0043949066922266914 0.023715813721099443 0 -0.0043977560443161593 0.023712424379347365 0 -0.004392043096580419 0.023711251024615673 0 -0.0041306154683058141 0.023439110209273993 0 -0.0039376037852887624 0.023320384699680934 0 -0.0043984955706276073 0.023716496644760169 0 -0.0043949066922266914 0.023715813721099443 0 -0.0043977560443161593 0.023712424379347365 0 -0.0043977560443161593 0.023712424379347365 0 -0.0044024124230415528 0.023715671309706157 0 -0.0044046059530963941 0.023713588534870256 0 -0.0041306154683058141 0.023439110209273993 0 -0.0043801346903843755 0.023580094329030146 0 -0.0044033642533446091 0.023718534093903926 0 -0.0043984955706276073 0.023716496644760169 0 -0.0044024124230415528 0.023715671309706157 0 -0.0044033642533446091 0.023718534093903926 0 -0.0044024124230415528 0.023715671309706157 0 -0.0044056570421746244 0.023715210791009352 0 -0.0044024124230415528 0.023715671309706157 0 -0.0044056570421746244 0.023715210791009352 0 -0.0044046059530963941 0.023713588534870256 0 -0.0043808928317293615 0.023581918773059062 0 -0.0043801346903843755 0.023580094329030146 0 -0.0044160853569723182 0.024542548118402726 0 -0.0047491143499004832 0.02440116647847914 0 -0.0048362892550425944 0.024560757700653871 0 -0.0044056570421746244 0.023715210791009352 0 -0.0044046769239761878 0.02371334060713743 0 -0.0044139791523809336 0.023715776466043607 0 -0.0044033642533446091 0.023718534093903926 0 -0.0044056570421746244 0.023715210791009352 0 -0.0044139791523809336 0.023715776466043607 0 -0.0046093545826096536 0.023920033886244071 0 -0.0047125919901592431 0.023794896062545045 0 -0.0043801346903843755 0.023580094329030146 0 -0.0047125919901592431 0.023794896062545045 0 -0.0045924195521810001 0.024274222441756737 0 -0.0044160853569723182 0.024542548118402726 0 -0.0047491143499004832 0.02440116647847914 0 -0.0047491143499004832 0.02440116647847914 0 -0.0048362892550425944 0.024560757700653871 0 -0.0048636168035115666 0.024418216276641268 0 -0.0054979100403926137 0.024229520836858223 0 -0.0055199718239046219 0.024326125930684492 0 -0.005285013574353385 0.02446176704211233 0 -0.005552464765884316 0.02424467680649333 0 -0.0054979100403926137 0.024229520836858223 0 -0.0055199718239046219 0.024326125930684492 0 -0.004715952927554886 0.023795868080558384 0 -0.0047125919901592431 0.023794896062545045 0 -0.0058797687688786019 0.024189153888588697 0 -0.0055251078262684369 0.024239417045070724 0 -0.0056452164502836175 0.02434580511492488 0 -0.0051542416254781098 0.024382619887033514 0 -0.0052305563593425253 0.024273742373444058 0 -0.0055251078262684369 0.024239417045070724 0 -0.0051542416254781098 0.024382619887033514 0 -0.005552464765884316 0.02424467680649333 0 -0.0055251078262684369 0.024239417045070724 0 -0.0050036657293479805 0.024385952059425259 0 -0.0051542416254781098 0.024382619887033514 0 -0.0048362892550425944 0.024560757700653871 0 -0.0051542416254781098 0.024382619887033514 0 -0.005552464765884316 0.02424467680649333 0 -0.0055891221763436734 0.02425415305124503 0 -0.0041413679045375898 0.028126496762763121 0 -0.004486432515848942 0.027876778970044341 0 -0.0048326247161564508 0.023853996432100864 0 -0.0047125919901592431 0.023794896062545045 0 -0.0050036657293479805 0.024385952059425259 0 -0.0048362892550425944 0.024560757700653871 0 -0.0048636168035115666 0.024418216276641268 0 -0.005552464765884316 0.02424467680649333 0 -0.0055199718239046219 0.024326125930684492 0 -0.0055251078262684369 0.024239417045070724 0 -0.0055199718239046219 0.024326125930684492 0 -0.0055251078262684369 0.024239417045070724 0 -0.0056452164502836175 0.02434580511492488 0 -0.0058797687688786019 0.024189153888588697 0 -0.0056452164502836175 0.02434580511492488 0 -0.0057733435885253381 0.024477042756717322 0 -0.0060414175137717043 0.024639015368041504 0 -0.0057733435885253381 0.024477042756717322 0 -0.0056327487696488055 0.024761550900309719 0 -0.0056452164502836175 0.02434580511492488 0 -0.0057733435885253381 0.024477042756717322 0 -0.0055654895516878992 0.024479534739155099 0 -0.0055199718239046219 0.024326125930684492 0 -0.0056452164502836175 0.02434580511492488 0 -0.0055654895516878992 0.024479534739155099 0 -0.0055654895516878992 0.024479534739155099 0 -0.0054503425115132609 0.024614077880155415 0 -0.0056327487696488055 0.024761550900309719 0 -0.0057733435885253381 0.024477042756717322 0 -0.0055654895516878992 0.024479534739155099 0 -0.0056327487696488055 0.024761550900309719 0 -0.0050906506295328004 0.024355528159358757 0 -0.0054979100403926137 0.024229520836858223 0 -0.005285013574353385 0.02446176704211233 0 -0.005285013574353385 0.02446176704211233 0 -0.0054503425115132609 0.024614077880155415 0 -0.0052921540984954499 0.024776337627488803 0 -0.0055199718239046219 0.024326125930684492 0 -0.0055654895516878992 0.024479534739155099 0 -0.005285013574353385 0.02446176704211233 0 -0.0055654895516878992 0.024479534739155099 0 -0.005285013574353385 0.02446176704211233 0 -0.0054503425115132609 0.024614077880155415 0 -0.0054503425115132609 0.024614077880155415 0 -0.0052921540984954499 0.024776337627488803 0 -0.0056327487696488055 0.024761550900309719 0 -0.0052921540984954499 0.024776337627488803 0 -0.0056327487696488055 0.024761550900309719 0 -0.0053512041173555559 0.025166181655320693 0 -0.0059279714748644175 0.025150983796428984 0 -0.0056327487696488055 0.024761550900309719 0 -0.0053512041173555559 0.025166181655320693 0 -0.0053512041173555559 0.025166181655320693 0 -0.0049855419608662412 0.02501903438911017 0 -0.004781866064943077 0.025497373919838823 0 -0.0052921540984954499 0.024776337627488803 0 -0.0053512041173555559 0.025166181655320693 0 -0.0049855419608662412 0.02501903438911017 0 -0.005285013574353385 0.02446176704211233 0 -0.0052921540984954499 0.024776337627488803 0 -0.0050449261869743361 0.024670879532185681 0 -0.0052921540984954499 0.024776337627488803 0 -0.0049855419608662412 0.02501903438911017 0 -0.0050449261869743361 0.024670879532185681 0 -0.0046570652396496276 0.024435038095428463 0 -0.0047258467611827702 0.024831721591825714 0 -0.0045173559439657309 0.02467281651613688 0 -0.0049855419608662412 0.02501903438911017 0 -0.0050449261869743361 0.024670879532185681 0 -0.0047258467611827702 0.024831721591825714 0 -0.0046570652396496276 0.024435038095428463 0 -0.0050449261869743361 0.024670879532185681 0 -0.0047258467611827702 0.024831721591825714 0 -0.0047303466893127959 0.025104611730265236 0 -0.0044342644544623812 0.025069679313375462 0 -0.004781866064943077 0.025497373919838823 0 -0.0049855419608662412 0.02501903438911017 0 -0.0047303466893127959 0.025104611730265236 0 -0.004781866064943077 0.025497373919838823 0 -0.0047258467611827702 0.024831721591825714 0 -0.0047303466893127959 0.025104611730265236 0 -0.0044342644544623812 0.025069679313375462 0 -0.0049855419608662412 0.02501903438911017 0 -0.0047258467611827702 0.024831721591825714 0 -0.0047303466893127959 0.025104611730265236 0 -0.0042118903237676709 0.025128175285705209 0 -0.0037835955708733645 0.025203775363900126 0 -0.0037190141942234833 0.024983137938283675 0 -0.0042118903237676709 0.025128175285705209 0 -0.0037835955708733645 0.025203775363900126 0 -0.0040007871046502811 0.025355778183204246 0 -0.0042118903237676709 0.025128175285705209 0 -0.0037190141942234833 0.024983137938283675 0 -0.0037677600340207543 0.024714863737692966 0 -0.0040852804131003726 0.024392878257347345 0 -0.0043426278610689973 0.024693441568595497 0 -0.0041251010026363702 0.024094691778240265 0 -0.0042707526804645233 0.025073978565459558 0 -0.0038364425274049875 0.024662521316862158 0 -0.0044342644544623812 0.025069679313375462 0 -0.0039698200476328983 0.024552999515127429 0 -0.0041143217571291604 0.02459324913598919 0 -0.0039260640152647183 0.02452049814255013 0 -0.0040852804131003726 0.024392878257347345 0 -0.0039154107988516214 0.024173888785102106 0 -0.0039260640152647183 0.02452049814255013 0 -0.0040852804131003726 0.024392878257347345 0 -0.0041143217571291604 0.02459324913598919 0 -0.0038364425274049875 0.024662521316862158 0 -0.0038429517166589304 0.02466300029287976 0 -0.0040852804131003726 0.024392878257347345 0 -0.0041143217571291604 0.02459324913598919 0 -0.0043426278610689973 0.024693441568595497 0 -0.0045173559439657309 0.02467281651613688 0 -0.0043426278610689973 0.024693441568595497 0 -0.0044003519523436209 0.024524274621022798 0 -0.0044342644544623812 0.025069679313375462 0 -0.0041143217571291604 0.02459324913598919 0 -0.0043426278610689973 0.024693441568595497 0 -0.0047258467611827702 0.024831721591825714 0 -0.0044342644544623812 0.025069679313375462 0 -0.0045173559439657309 0.02467281651613688 0 -0.0044342644544623812 0.025069679313375462 0 -0.0045173559439657309 0.02467281651613688 0 -0.0043426278610689973 0.024693441568595497 0 -0.0043075108947392502 0.025048190226308612 0 -0.0035909886602575997 0.024673137530861304 0 -0.0037839941057302125 0.025102109557788806 0 -0.0039794941857406417 0.025324048730691127 0 -0.0043075108947392502 0.025048190226308612 0 -0.0041606801389511552 0.025675844882243299 0 -0.0039794941857406417 0.025324048730691127 0 -0.0037839941057302125 0.025102109557788806 0 -0.0036557792808532773 0.025471050382282923 0 -0.0039794941857406417 0.025324048730691127 0 -0.0043075108947392502 0.025048190226308612 0 -0.0037839941057302125 0.025102109557788806 0 -0.0037835955708733645 0.025203775363900126 0 -0.0033050538948183879 0.025040341345353895 0 -0.0036876422654744286 0.025564577941566441 0 -0.0037835955708733645 0.025203775363900126 0 -0.0037190141942234833 0.024983137938283675 0 -0.0033050538948183879 0.025040341345353895 0 -0.0037190141942234833 0.024983137938283675 0 -0.0033050538948183879 0.025040341345353895 0 -0.0035338958632440743 0.024826792773334948 0 -0.0037677600340207543 0.024714863737692966 0 -0.0035338958632440743 0.024826792773334948 0 -0.0033442580358927238 0.024622255782253386 0 -0.0038556686817229594 0.02431038294361109 0 -0.003441517817138483 0.024211776690235658 0 -0.0035978627251625882 0.024065672437712377 0 -0.0033050538948183879 0.025040341345353895 0 -0.0035338958632440743 0.024826792773334948 0 -0.0033442580358927238 0.024622255782253386 0 -0.0038364425274049875 0.024662521316862158 0 -0.0035083649425776309 0.024579685392206039 0 -0.0037190141942234833 0.024983137938283675 0 -0.0037677600340207543 0.024714863737692966 0 -0.0035338958632440743 0.024826792773334948 0 -0.0038364425274049875 0.024662521316862158 0 -0.0037936502539220188 0.024603765623209869 0 -0.0037024956150398533 0.025075699120699242 0 -0.0032696411614226966 0.02453833962755228 0 -0.0033050538948183879 0.025040341345353895 0 -0.0033442580358927238 0.024622255782253386 0 -0.0029249053586531751 0.024527859339569736 0 -0.0043075108947392502 0.025048190226308612 0 -0.0036434804884187149 0.024090471691991903 0 -0.0035909886602575997 0.024673137530861304 0 -0.0035083649425776309 0.024579685392206039 0 -0.0032696411614226966 0.02453833962755228 0 -0.003441517817138483 0.024211776690235658 0 -0.0031660261082610869 0.024007141116182504 0 -0.0029655945689920434 0.024070233210950517 0 -0.0030885170332981249 0.02383311290442694 0 -0.0031660261082610869 0.024007141116182504 0 -0.0033172574450761874 0.023979560413141369 0 -0.0030885170332981249 0.02383311290442694 0 -0.0033172574450761874 0.023979560413141369 0 -0.0032569122830872314 0.023761561322028918 0 -0.0030885170332981249 0.02383311290442694 0 -0.0031660261082610869 0.024007141116182504 0 -0.0030148553332077443 0.023935983162810742 0 -0.003441517817138483 0.024211776690235658 0 -0.0031660261082610869 0.024007141116182504 0 -0.0033172574450761874 0.023979560413141369 0 -0.0033172574450761874 0.023979560413141369 0 -0.0032569122830872314 0.023761561322028918 0 -0.0034334542578210586 0.02384938211614851 0 -0.0033172574450761874 0.023979560413141369 0 -0.0034334542578210586 0.02384938211614851 0 -0.0035978627251625882 0.024065672437712377 0 -0.0034334542578210586 0.02384938211614851 0 -0.0035978627251625882 0.024065672437712377 0 -0.0036045353013040024 0.023767784298993941 0 -0.003441517817138483 0.024211776690235658 0 -0.0033172574450761874 0.023979560413141369 0 -0.0035978627251625882 0.024065672437712377 0 -0.0039260640152647183 0.02452049814255013 0 -0.0035978627251625882 0.024065672437712377 0 -0.0039154107988516214 0.024173888785102106 0 -0.0035978627251625882 0.024065672437712377 0 -0.0038695147584085184 0.023877542559157489 0 -0.0039154107988516214 0.024173888785102106 0 -0.0035978627251625882 0.024065672437712377 0 -0.0038695147584085184 0.023877542559157489 0 -0.0036045353013040024 0.023767784298993941 0 -0.0038695147584085184 0.023877542559157489 0 -0.0037123099297041904 0.023476456235333367 0 -0.0036045353013040024 0.023767784298993941 0 -0.0037123099297041904 0.023476456235333367 0 -0.0036045353013040024 0.023767784298993941 0 -0.0034250192124294291 0.023570092636825968 0 -0.0034334542578210586 0.02384938211614851 0 -0.0036045353013040024 0.023767784298993941 0 -0.0034250192124294291 0.023570092636825968 0 -0.0034250192124294291 0.023570092636825968 0 -0.0030552889233934066 0.02308341357724419 0 -0.003047604016170232 0.0233722622618069 0 -0.0037123099297041904 0.023476456235333367 0 -0.0034250192124294291 0.023570092636825968 0 -0.0030552889233934066 0.02308341357724419 0 -0.0032569122830872314 0.023761561322028918 0 -0.0034334542578210586 0.02384938211614851 0 -0.0034250192124294291 0.023570092636825968 0 -0.0032569122830872314 0.023761561322028918 0 -0.0034250192124294291 0.023570092636825968 0 -0.0032233808160120553 0.023580905665313057 0 -0.0034250192124294291 0.023570092636825968 0 -0.0032233808160120553 0.023580905665313057 0 -0.003047604016170232 0.0233722622618069 0 -0.0032233808160120553 0.023580905665313057 0 -0.0030565252626464914 0.023581549118007663 0 -0.003047604016170232 0.0233722622618069 0 -0.0032569122830872314 0.023761561322028918 0 -0.0032233808160120553 0.023580905665313057 0 -0.0030565252626464914 0.023581549118007663 0 -0.0030885170332981249 0.02383311290442694 0 -0.0032569122830872314 0.023761561322028918 0 -0.0030565252626464914 0.023581549118007663 0 -0.0040850208907020963 0.024019337313577065 0 -0.0040798010518658719 0.023813874877290208 0 -0.0043426278610689973 0.024693441568595497 0 -0.004417197854541405 0.024350025302245882 0 -0.0044003519523436209 0.024524274621022798 0 -0.0043952977348167719 0.023720546487735767 0 -0.0043949066922266914 0.023715813721099443 0 -0.0043911557186435708 0.02371821503568651 0 -0.0044187294134508106 0.024041427155309127 0 -0.0040798010518658719 0.023813874877290208 0 -0.0044187294134508106 0.024041427155309127 0 -0.0044098975706259669 0.024063862784531199 0 -0.0046071925587307435 0.024447065170388086 0 -0.004417197854541405 0.024350025302245882 0 -0.0044003519523436209 0.024524274621022798 0 -0.0046570652396496276 0.024435038095428463 0 -0.0045173559439657309 0.02467281651613688 0 -0.0044003519523436209 0.024524274621022798 0 -0.0043426278610689973 0.024693441568595497 0 -0.0045250842613412104 0.02389558645955165 0 -0.0041251010026363702 0.024094691778240265 0 -0.0038695147584085184 0.023877542559157489 0 -0.0045250842613412104 0.02389558645955165 0 -0.0041251010026363702 0.024094691778240265 0 -0.0038695147584085184 0.023877542559157489 0 -0.0041251010026363702 0.024094691778240265 0 -0.0039154107988516214 0.024173888785102106 0 -0.0040852804131003726 0.024392878257347345 0 -0.0041251010026363702 0.024094691778240265 0 -0.0039154107988516214 0.024173888785102106 0 -0.0038695147584085184 0.023877542559157489 0 -0.0037123099297041904 0.023476456235333367 0 -0.0045250842613412104 0.02389558645955165 0 -0.0037095745887836462 0.023559209227999145 0 -0.0040798010518658719 0.023813874877290208 0 -0.0036453230966854836 0.023372348045401097 0 -0.004206741565307765 0.023652744700256682 0 -0.0039869950864510287 0.023391549105239978 0 -0.0039869950864510287 0.023391549105239978 0 -0.0039096135912724175 0.023271713470875088 0 -0.0042839886374970515 0.023222996844934899 0 -0.0036453230966854836 0.023372348045401097 0 -0.0039869950864510287 0.023391549105239978 0 -0.0039096135912724175 0.023271713470875088 0 -0.0040798010518658719 0.023813874877290208 0 -0.0039376037852887624 0.023320384699680934 0 -0.0043949066922266914 0.023715813721099443 0 -0.0043911557186435708 0.02371821503568651 0 -0.004392043096580419 0.023711251024615673 0 -0.004206741565307765 0.023652744700256682 0 -0.0039869950864510287 0.023391549105239978 0 -0.0042839886374970515 0.023222996844934899 0 -0.0035904486258234538 0.022823862920835863 0 -0.0034857743547168658 0.022905794416220187 0 -0.0035172134519630186 0.02273307212712743 0 -0.0034999206255727357 0.022847189076052606 0 -0.003524536517949985 0.022702423753233621 0 -0.0033914448576085588 0.022747002638773918 0 -0.0039376037852887624 0.023320384699680934 0 -0.0039038345392989303 0.02309057179139096 0 -0.0039038345392989303 0.02309057179139096 0 -0.0038941928245148473 0.023009923876743537 0 -0.003524536517949985 0.022702423753233621 0 -0.0034490615130671818 0.022595201865839108 0 -0.0035474465599619411 0.022565004785326533 0 -0.003524536517949985 0.022702423753233621 0 -0.003429376590805929 0.022670445216528584 0 -0.0034490615130671818 0.022595201865839108 0 -0.003524536517949985 0.022702423753233621 0 -0.003429376590805929 0.022670445216528584 0 -0.0033914448576085588 0.022747002638773918 0 -0.0033512251407973757 0.022637229903722942 0 -0.0032864804488201027 0.022686018842544686 0 -0.0032592917014376043 0.022591532663299278 0 -0.003429376590805929 0.022670445216528584 0 -0.0034490615130671818 0.022595201865839108 0 -0.0033512251407973757 0.022637229903722942 0 -0.003429376590805929 0.022670445216528584 0 -0.0033512251407973757 0.022637229903722942 0 -0.0033914448576085588 0.022747002638773918 0 -0.0033512251407973757 0.022637229903722942 0 -0.0032864804488201027 0.022686018842544686 0 -0.0033914448576085588 0.022747002638773918 0 -0.0039376037852887624 0.023320384699680934 0 -0.0034970153854746097 0.023124006651776892 0 -0.0032864804488201027 0.022686018842544686 0 -0.0033914448576085588 0.022747002638773918 0 -0.0032642688457141904 0.022799342847065369 0 -0.0034999206255727357 0.022847189076052606 0 -0.0033914448576085588 0.022747002638773918 0 -0.0032642688457141904 0.022799342847065369 0 -0.0039096135912724175 0.023271713470875088 0 -0.0042839886374970515 0.023222996844934899 0 -0.0037213525285560629 0.023101401891658681 0 -0.0036453230966854836 0.023372348045401097 0 -0.0039096135912724175 0.023271713470875088 0 -0.0037213525285560629 0.023101401891658681 0 -0.0034970153854746097 0.023124006651776892 0 -0.0031151511181516903 0.022993370320456664 0 -0.0036453230966854836 0.023372348045401097 0 -0.0037213525285560629 0.023101401891658681 0 -0.0033913294760167549 0.023131721294562351 0 -0.0037213525285560629 0.023101401891658681 0 -0.0033913294760167549 0.023131721294562351 0 -0.0031398640244518685 0.022970943902193629 0 -0.0036453230966854836 0.023372348045401097 0 -0.0033913294760167549 0.023131721294562351 0 -0.0030552889233934066 0.02308341357724419 0 -0.0032642688457141904 0.022799342847065369 0 -0.003022838445970533 0.022775407584824735 0 -0.0030960094249119201 0.022703787182877473 0 -0.0037095745887836462 0.023559209227999145 0 -0.0034684915970868493 0.023416049512573762 0 -0.0033913294760167549 0.023131721294562351 0 -0.0031398640244518685 0.022970943902193629 0 -0.0030552889233934066 0.02308341357724419 0 -0.0030240422077181515 0.02258845321402982 0 -0.0031740901143907769 0.022650277942054316 0 -0.003179831036454341 0.022479507621376717 0 -0.0030960094249119201 0.022703787182877473 0 -0.0030240422077181515 0.02258845321402982 0 -0.0029341551138278355 0.022654755721938435 0 -0.003022838445970533 0.022775407584824735 0 -0.0030960094249119201 0.022703787182877473 0 -0.0029341551138278355 0.022654755721938435 0 -0.0030960094249119201 0.022703787182877473 0 -0.0030240422077181515 0.02258845321402982 0 -0.0031740901143907769 0.022650277942054316 0 -0.0032642688457141904 0.022799342847065369 0 -0.0030960094249119201 0.022703787182877473 0 -0.0031740901143907769 0.022650277942054316 0 -0.0032864804488201027 0.022686018842544686 0 -0.0032642688457141904 0.022799342847065369 0 -0.0031740901143907769 0.022650277942054316 0 -0.0032864804488201027 0.022686018842544686 0 -0.0031740901143907769 0.022650277942054316 0 -0.0032592917014376043 0.022591532663299278 0 -0.0032592917014376043 0.022591532663299278 0 -0.003179831036454341 0.022479507621376717 0 -0.0033519873463286158 0.022485028953102532 0 -0.0031740901143907769 0.022650277942054316 0 -0.0032592917014376043 0.022591532663299278 0 -0.003179831036454341 0.022479507621376717 0 -0.003179831036454341 0.022479507621376717 0 -0.0032894876856415529 0.022347785910142404 0 -0.0033519873463286158 0.022485028953102532 0 -0.0030240422077181515 0.02258845321402982 0 -0.003179831036454341 0.022479507621376717 0 -0.0029794639919238828 0.022421108978482322 0 -0.0031110864845701183 0.022271348575181184 0 -0.003179831036454341 0.022479507621376717 0 -0.0029794639919238828 0.022421108978482322 0 -0.0031110864845701183 0.022271348575181184 0 -0.0029794639919238828 0.022421108978482322 0 -0.0029195872634158217 0.022260517261114852 0 -0.0031110864845701183 0.022271348575181184 0 -0.003179831036454341 0.022479507621376717 0 -0.0032894876856415529 0.022347785910142404 0 -0.0034763984830874731 0.02229487490903706 0 -0.0032894876856415529 0.022347785910142404 0 -0.0033519873463286158 0.022485028953102532 0 -0.0034763984830874731 0.02229487490903706 0 -0.0038579771812933396 0.022473313489458559 0 -0.0036719114328142731 0.02301704560928991 0 -0.0034763984830874731 0.02229487490903706 0 -0.0035617035661658744 0.022469875811890885 0 -0.0034758677569688592 0.022474830853783243 0 -0.0034763984830874731 0.02229487490903706 0 -0.0034758677569688592 0.022474830853783243 0 -0.0033519873463286158 0.022485028953102532 0 -0.0037219172090816985 0.022681514320908421 0 -0.0038224673997793407 0.022855344332582159 0 -0.0035617035661658744 0.022469875811890885 0 -0.0034758677569688592 0.022474830853783243 0 -0.0035474465599619411 0.022565004785326533 0 -0.0034490615130671818 0.022595201865839108 0 -0.0034758677569688592 0.022474830853783243 0 -0.0035474465599619411 0.022565004785326533 0 -0.0034490615130671818 0.022595201865839108 0 -0.0034758677569688592 0.022474830853783243 0 -0.0033519873463286158 0.022485028953102532 0 -0.0034490615130671818 0.022595201865839108 0 -0.0033512251407973757 0.022637229903722942 0 -0.0033519873463286158 0.022485028953102532 0 -0.0033512251407973757 0.022637229903722942 0 -0.0032592917014376043 0.022591532663299278 0 -0.0033519873463286158 0.022485028953102532 0 -0.0019163390338336527 0.022043949504840257 0 -0.0023858101365711319 0.022224881284600848 0 -0.0020217700568949926 0.022562360927440416 0 -0.0019163390338336527 0.022043949504840257 0 -0.0020217700568949926 0.022562360927440416 0 -0.0015207812347748882 0.02239077061475301 0 -0.0019163390338336527 0.022043949504840257 0 -0.0022493419979032433 0.021595002587313568 0 -0.0023858101365711319 0.022224881284600848 0 -0.0019163390338336527 0.022043949504840257 0 -0.0015393342064140966 0.021878988003377606 0 -0.0015207812347748882 0.02239077061475301 0 -0.0010752102781302528 0.022052191382070051 0 -0.0015393342064140966 0.021878988003377606 0 -0.0015207812347748882 0.02239077061475301 0 -0.0019163390338336527 0.022043949504840257 0 -0.0015393342064140966 0.021878988003377606 0 -0.0018199008017602447 0.021581209866079101 0 -0.0010752102781302528 0.022052191382070051 0 -0.001396870621329068 0.02129234843999802 0 -0.0015393342064140966 0.021878988003377606 0 -0.001396870621329068 0.02129234843999802 0 -0.0015393342064140966 0.021878988003377606 0 -0.0018199008017602447 0.021581209866079101 0 -0.0019980411594694575 0.021065107959075017 0 -0.0018199008017602447 0.021581209866079101 0 -0.0022493419979032433 0.021595002587313568 0 -0.0019163390338336527 0.022043949504840257 0 -0.0018199008017602447 0.021581209866079101 0 -0.0022493419979032433 0.021595002587313568 0 -0.0022493419979032433 0.021595002587313568 0 -0.0027777421637430254 0.021772397059968092 0 -0.0023858101365711319 0.022224881284600848 0 -0.0025058654074846518 0.020292040909918669 0 -0.0027143870305154825 0.021369897481064742 0 -0.0026350577102263327 0.021000163825838337 0 -0.0022493419979032433 0.021595002587313568 0 -0.0027777421637430254 0.021772397059968092 0 -0.0027299338467289369 0.022135774257251637 0 -0.0028108281185435114 0.02237475856726993 0 -0.0029195872634158217 0.022260517261114852 0 -0.0029794639919238828 0.022421108978482322 0 -0.0028108281185435114 0.02237475856726993 0 -0.0029195872634158217 0.022260517261114852 0 -0.0027143870305154825 0.021369897481064742 0 -0.002779736425373153 0.021715953197616801 0 -0.0030240422077181515 0.02258845321402982 0 -0.0029794639919238828 0.022421108978482322 0 -0.0028472181531226438 0.022546207159029899 0 -0.0029794639919238828 0.022421108978482322 0 -0.0028108281185435114 0.02237475856726993 0 -0.0028472181531226438 0.022546207159029899 0 -0.0027777421637430254 0.021772397059968092 0 -0.0023858101365711319 0.022224881284600848 0 -0.0028472181531226438 0.022546207159029899 0 -0.0023858101365711319 0.022224881284600848 0 -0.0024865182647077566 0.022751124162573341 0 -0.0020217700568949926 0.022562360927440416 0 -0.0023858101365711319 0.022224881284600848 0 -0.0024865182647077566 0.022751124162573341 0 -0.0028472181531226438 0.022546207159029899 0 -0.0024865182647077566 0.022751124162573341 0 -0.0028472181531226438 0.022546207159029899 0 -0.0029341551138278355 0.022654755721938435 0 -0.003022838445970533 0.022775407584824735 0 -0.0024865182647077566 0.022751124162573341 0 -0.0029341551138278355 0.022654755721938435 0 -0.0030240422077181515 0.02258845321402982 0 -0.0028472181531226438 0.022546207159029899 0 -0.0029341551138278355 0.022654755721938435 0 -0.0031398640244518685 0.022970943902193629 0 -0.0024865182647077566 0.022751124162573341 0 -0.0028416875425239809 0.023044047684958973 0 -0.0031151511181516903 0.022993370320456664 0 -0.0029029124870073738 0.022933903343744507 0 -0.0031398640244518685 0.022970943902193629 0 -0.0030552889233934066 0.02308341357724419 0 -0.0028416875425239809 0.023044047684958973 0 -0.0028416875425239809 0.023044047684958973 0 -0.0028825354498465969 0.023224409306792447 0 -0.0026366925266562611 0.02319548948313975 0 -0.0030552889233934066 0.02308341357724419 0 -0.0028416875425239809 0.023044047684958973 0 -0.0028825354498465969 0.023224409306792447 0 -0.0030552889233934066 0.02308341357724419 0 -0.0028825354498465969 0.023224409306792447 0 -0.003047604016170232 0.0233722622618069 0 -0.0024865182647077566 0.022751124162573341 0 -0.0026366925266562611 0.02319548948313975 0 -0.0022572246933695436 0.023240037745751799 0 -0.0024865182647077566 0.022751124162573341 0 -0.0022572246933695436 0.023240037745751799 0 -0.0020691728773124091 0.022941023969457092 0 -0.0024865182647077566 0.022751124162573341 0 -0.0028416875425239809 0.023044047684958973 0 -0.0026366925266562611 0.02319548948313975 0 -0.0022572246933695436 0.023240037745751799 0 -0.0020691728773124091 0.022941023969457092 0 -0.0018798921411100485 0.023268663079531536 0 -0.0020691728773124091 0.022941023969457092 0 -0.0016795870045714194 0.022828444836980072 0 -0.0018798921411100485 0.023268663079531536 0 -0.0024865182647077566 0.022751124162573341 0 -0.0020691728773124091 0.022941023969457092 0 -0.0020217700568949926 0.022562360927440416 0 -0.0020691728773124091 0.022941023969457092 0 -0.0020217700568949926 0.022562360927440416 0 -0.0016795870045714194 0.022828444836980072 0 -0.0020217700568949926 0.022562360927440416 0 -0.0015207812347748882 0.02239077061475301 0 -0.0016795870045714194 0.022828444836980072 0 -0.0015207812347748882 0.02239077061475301 0 -0.0013660436544821355 0.02275515278836461 0 -0.0016795870045714194 0.022828444836980072 0 -0.0011689220855997959 0.022544049795731401 0 -0.0015207812347748882 0.02239077061475301 0 -0.0013660436544821355 0.02275515278836461 0 -0.0013660436544821355 0.02275515278836461 0 -0.0016795870045714194 0.022828444836980072 0 -0.0014270074797070602 0.023054157668849412 0 -0.0014270074797070602 0.023054157668849412 0 -0.0015432637102658162 0.023356244318297841 0 -0.0018798921411100485 0.023268663079531536 0 -0.0016795870045714194 0.022828444836980072 0 -0.0014270074797070602 0.023054157668849412 0 -0.0018798921411100485 0.023268663079531536 0 -0.0015432637102658162 0.023356244318297841 0 -0.0018798921411100485 0.023268663079531536 0 -0.0019782215004133402 0.023784850576929972 0 -0.0015432637102658162 0.023356244318297841 0 -0.0019782215004133402 0.023784850576929972 0 -0.0015054826431221695 0.023739821828059011 0 -0.0022572246933695436 0.023240037745751799 0 -0.0019782215004133402 0.023784850576929972 0 -0.0024789235760766895 0.023557506601644403 0 -0.0022572246933695436 0.023240037745751799 0 -0.0018798921411100485 0.023268663079531536 0 -0.0019782215004133402 0.023784850576929972 0 -0.0026851492075514608 0.024282085502485194 0 -0.0028757064564248784 0.024354470309324555 0 -0.0019782215004133402 0.023784850576929972 0 -0.002821041604681719 0.023911174545077084 0 -0.0024455040561533687 0.024345206565245168 0 -0.0019782215004133402 0.023784850576929972 0 -0.0019764746136426408 0.024315963507926874 0 -0.0024455040561533687 0.024345206565245168 0 -0.0019782215004133402 0.023784850576929972 0 -0.0016316329379602397 0.02413652496606828 0 -0.0019764746136426408 0.024315963507926874 0 -0.0016316329379602397 0.02413652496606828 0 -0.0013957764531509318 0.024005645167154192 0 -0.0015054826431221695 0.023739821828059011 0 -0.0013220178688814039 0.024251610554277964 0 -0.0016316329379602397 0.02413652496606828 0 -0.0013957764531509318 0.024005645167154192 0 -0.0019782215004133402 0.023784850576929972 0 -0.0016316329379602397 0.02413652496606828 0 -0.0015054826431221695 0.023739821828059011 0 -0.0030885170332981249 0.02383311290442694 0 -0.0029110822697867573 0.023685414725596418 0 -0.0030565252626464914 0.023581549118007663 0 -0.0029110822697867573 0.023685414725596418 0 -0.0030565252626464914 0.023581549118007663 0 -0.0027983301695320593 0.023467378634436178 0 -0.0028825354498465969 0.023224409306792447 0 -0.003047604016170232 0.0233722622618069 0 -0.0027983301695320593 0.023467378634436178 0 -0.0030565252626464914 0.023581549118007663 0 -0.003047604016170232 0.0233722622618069 0 -0.0027983301695320593 0.023467378634436178 0 -0.0028825354498465969 0.023224409306792447 0 -0.0026366925266562611 0.02319548948313975 0 -0.0027983301695320593 0.023467378634436178 0 -0.0029110822697867573 0.023685414725596418 0 -0.0027983301695320593 0.023467378634436178 0 -0.0027503756440982814 0.023719938449777433 0 -0.0027983301695320593 0.023467378634436178 0 -0.0024789235760766895 0.023557506601644403 0 -0.0027503756440982814 0.023719938449777433 0 -0.0026366925266562611 0.02319548948313975 0 -0.0027983301695320593 0.023467378634436178 0 -0.0024789235760766895 0.023557506601644403 0 -0.0026366925266562611 0.02319548948313975 0 -0.0022572246933695436 0.023240037745751799 0 -0.0024789235760766895 0.023557506601644403 0 -0.0019782215004133402 0.023784850576929972 0 -0.0024789235760766895 0.023557506601644403 0 -0.0024691964978009961 0.023915676912349398 0 -0.0024789235760766895 0.023557506601644403 0 -0.0024691964978009961 0.023915676912349398 0 -0.0027503756440982814 0.023719938449777433 0 -0.0028757064564248784 0.024354470309324555 0 -0.0032696411614226966 0.02453833962755228 0 -0.0024691964978009961 0.023915676912349398 0 -0.0028781923451383887 0.02393363036940608 0 -0.0029666019292623729 0.024056599507458098 0 -0.0024691964978009961 0.023915676912349398 0 -0.0027503756440982814 0.023719938449777433 0 -0.0028781923451383887 0.02393363036940608 0 -0.002821041604681719 0.023911174545077084 0 -0.0036434804884187149 0.024090471691991903 0 -0.003279767565013152 0.024296008497468439 0 -0.0027503756440982814 0.023719938449777433 0 -0.0028781923451383887 0.02393363036940608 0 -0.0029395670068290782 0.023823002859310705 0 -0.0031660261082610869 0.024007141116182504 0 -0.0029655945689920434 0.024070233210950517 0 -0.0030148553332077443 0.023935983162810742 0 -0.0032591897819898414 0.024523838063491947 0 -0.0032696411614226966 0.02453833962755228 0 -0.0028781923451383887 0.02393363036940608 0 -0.0029655945689920434 0.024070233210950517 0 -0.0030148553332077443 0.023935983162810742 0 -0.0030885170332981249 0.02383311290442694 0 -0.0030148553332077443 0.023935983162810742 0 -0.0029395670068290782 0.023823002859310705 0 -0.0028781923451383887 0.02393363036940608 0 -0.0030148553332077443 0.023935983162810742 0 -0.0029395670068290782 0.023823002859310705 0 -0.0029110822697867573 0.023685414725596418 0 -0.0027503756440982814 0.023719938449777433 0 -0.0029395670068290782 0.023823002859310705 0 -0.0030885170332981249 0.02383311290442694 0 -0.0029110822697867573 0.023685414725596418 0 -0.0029395670068290782 0.023823002859310705 0 -0.0036434804884187149 0.024090471691991903 0 -0.0035909886602575997 0.024673137530861304 0 -0.003279767565013152 0.024296008497468439 0 -0.0035909886602575997 0.024673137530861304 0 -0.003279767565013152 0.024296008497468439 0 -0.0030631351374509237 0.024510227189170054 0 -0.0035909886602575997 0.024673137530861304 0 -0.0030631351374509237 0.024510227189170054 0 -0.0033034965556968787 0.024963289258452183 0 -0.0030631351374509237 0.024510227189170054 0 -0.0027067929319773976 0.024851922504178486 0 -0.0033034965556968787 0.024963289258452183 0 -0.002821041604681719 0.023911174545077084 0 -0.003279767565013152 0.024296008497468439 0 -0.0030631351374509237 0.024510227189170054 0 -0.002821041604681719 0.023911174545077084 0 -0.0030631351374509237 0.024510227189170054 0 -0.0024455040561533687 0.024345206565245168 0 -0.0030631351374509237 0.024510227189170054 0 -0.0027067929319773976 0.024851922504178486 0 -0.0024455040561533687 0.024345206565245168 0 -0.0027067929319773976 0.024851922504178486 0 -0.0031065124979413011 0.025348229443795587 0 -0.0024240955072419856 0.025476520060809742 0 -0.0027067929319773976 0.024851922504178486 0 -0.0031065124979413011 0.025348229443795587 0 -0.0033034965556968787 0.024963289258452183 0 -0.0031065124979413011 0.025348229443795587 0 -0.0033034965556968787 0.024963289258452183 0 -0.0036557792808532773 0.025471050382282923 0 -0.0033034965556968787 0.024963289258452183 0 -0.0037839941057302125 0.025102109557788806 0 -0.0036557792808532773 0.025471050382282923 0 -0.0035909886602575997 0.024673137530861304 0 -0.0033034965556968787 0.024963289258452183 0 -0.0037839941057302125 0.025102109557788806 0 -0.0017290822193276047 0.024547339171988331 0 -0.0014502597191044168 0.024579726042027288 0 -0.0017769153196672213 0.025041989303368629 0 -0.0017290822193276047 0.024547339171988331 0 -0.0020933211891025929 0.024758040012090875 0 -0.0017769153196672213 0.025041989303368629 0 -0.0017290822193276047 0.024547339171988331 0 -0.0014502597191044168 0.024579726042027288 0 -0.0015267022840967427 0.024379872275734394 0 -0.0013220178688814039 0.024251610554277964 0 -0.0014502597191044168 0.024579726042027288 0 -0.0015267022840967427 0.024379872275734394 0 -0.0013220178688814039 0.024251610554277964 0 -0.0016316329379602397 0.02413652496606828 0 -0.0015267022840967427 0.024379872275734394 0 -0.0016316329379602397 0.02413652496606828 0 -0.0017290822193276047 0.024547339171988331 0 -0.0015267022840967427 0.024379872275734394 0 -0.0016316329379602397 0.02413652496606828 0 -0.0017290822193276047 0.024547339171988331 0 -0.0019764746136426408 0.024315963507926874 0 -0.0019764746136426408 0.024315963507926874 0 -0.0024455040561533687 0.024345206565245168 0 -0.0020933211891025929 0.024758040012090875 0 -0.0027067929319773976 0.024851922504178486 0 -0.0024455040561533687 0.024345206565245168 0 -0.0020933211891025929 0.024758040012090875 0 -0.0017290822193276047 0.024547339171988331 0 -0.0019764746136426408 0.024315963507926874 0 -0.0020933211891025929 0.024758040012090875 0 -0.0027854889558841288 0.023178932534891457 0 -0.0026874157133287445 0.022722913627157983 0 -0.00092070155164180711 0.017095014731555561 0 -0.00096038093729726133 0.017720382860456258 0 -0.0016910448120016608 0.017476655360093407 0 -0.0027067929319773976 0.024851922504178486 0 -0.0020933211891025929 0.024758040012090875 0 -0.0024240955072419856 0.025476520060809742 0 -0.0020335689117033646 0.021245411194769387 0 -0.0026874157133287445 0.022722913627157983 0 -0.0020933211891025929 0.024758040012090875 0 -0.0017769153196672213 0.025041989303368629 0 -0.002357467070211762 0.025347520869257671 0 -0.00024008190285730683 0.017153925014430419 0 -0.00092070155164180711 0.017095014731555561 0 -0.00036572466282854221 0.017506063669876604 0 -0.00024008190285730683 0.017153925014430419 0 -0.00031839499043875819 0.016892000241879507 0 -0.00092070155164180711 0.017095014731555561 0 -0.0017785973683942505 0.019954668419173063 0 -0.0020335689117033646 0.021245411194769387 0 -0.00019472087392930959 0.016739298918262778 0 -0.00031839499043875819 0.016892000241879507 0 -0.00092070155164180711 0.017095014731555561 0 -0.00092070155164180711 0.017095014731555561 0 -0.00096038093729726133 0.017720382860456258 0 -0.00036572466282854221 0.017506063669876604 0 -0.0011769820844542706 0.024729586029844743 0 -0.0014502597191044168 0.024579726042027288 0 -0.0017769153196672213 0.025041989303368629 0 -0.00096038093729726133 0.017720382860456258 0 -0.00036572466282854221 0.017506063669876604 0 5.1077403064735504e-05 0.017979699816165085 0 -0.00096038093729726133 0.017720382860456258 0 -0.001024217186807348 0.018367076960693663 0 5.1077403064735504e-05 0.017979699816165085 0 -0.0016910448120016608 0.017476655360093407 0 -0.001481163206252141 0.01816177303096091 0 -0.0021902501809455718 0.018480469053604585 0 -0.00096038093729726133 0.017720382860456258 0 -0.0016910448120016608 0.017476655360093407 0 -0.001481163206252141 0.01816177303096091 0 -0.00096038093729726133 0.017720382860456258 0 -0.001481163206252141 0.01816177303096091 0 -0.001024217186807348 0.018367076960693663 0 -0.001481163206252141 0.01816177303096091 0 -0.001561575903122148 0.01879444488739649 0 -0.001024217186807348 0.018367076960693663 0 -0.001481163206252141 0.01816177303096091 0 -0.001561575903122148 0.01879444488739649 0 -0.0021902501809455718 0.018480469053604585 0 -0.001024217186807348 0.018367076960693663 0 -0.00063677790570398289 0.019041688622636922 0 5.1077403064735504e-05 0.017979699816165085 0 -0.001561575903122148 0.01879444488739649 0 -0.001024217186807348 0.018367076960693663 0 -0.00063677790570398289 0.019041688622636922 0 -0.0036557792808532773 0.025471050382282923 0 -0.0034271820288142647 0.025967251740582696 0 -0.0041606801389511552 0.025675844882243299 0 -0.0031065124979413011 0.025348229443795587 0 -0.0036557792808532773 0.025471050382282923 0 -0.0034271820288142647 0.025967251740582696 0 -0.0050358090327571924 0.026901026420168096 0 -0.0045320915643620703 0.02660011061008306 0 -0.0048678907085918386 0.026500528765819546 0 -0.0026874157133287445 0.022722913627157983 0 -0.003041433573589145 0.022613877598944069 0 -0.0031065124979413011 0.025348229443795587 0 -0.0024240955072419856 0.025476520060809742 0 -0.0034271820288142647 0.025967251740582696 0 -0.0026874157133287445 0.022722913627157983 0 -0.0040106137990090652 0.02431130192425663 0 -0.001561575903122148 0.01879444488739649 0 -0.0021902501809455718 0.018480469053604585 0 -0.0019606432938863031 0.019235432792423231 0 -0.0045320915643620703 0.02660011061008306 0 -0.0048678907085918386 0.026500528765819546 0 -0.0044944681774714982 0.026374243773542513 0 -0.0048678907085918386 0.026500528765819546 0 -0.0044944681774714982 0.026374243773542513 0 -0.0045177357735882674 0.026132611174305511 0 -0.0044944681774714982 0.026374243773542513 0 -0.0044555365339165364 0.026271648153098234 0 -0.0044157128609102446 0.026336805995437283 0 -0.0045320915643620703 0.02660011061008306 0 -0.0044944681774714982 0.026374243773542513 0 -0.0044157128609102446 0.026336805995437283 0 -0.0045177357735882674 0.026132611174305511 0 -0.0047567953012191532 0.025492071618574925 0 -0.0038807548070818724 0.024205034121443637 0 -0.0045177357735882674 0.026132611174305511 0 -0.0044196372962161138 0.026500688763035886 0 -0.0044690255011384742 0.026327575599081682 0 -0.0044555365339165364 0.026271648153098234 0 -0.0045177357735882674 0.026132611174305511 0 -0.0044690255011384742 0.026327575599081682 0 -0.0044944681774714982 0.026374243773542513 0 -0.0044555365339165364 0.026271648153098234 0 -0.0045177357735882674 0.026132611174305511 0 -0.003041433573589145 0.022613877598944069 0 -0.003274466160439003 0.022545436263627087 0 -0.0048678907085918386 0.026500528765819546 0 -0.0045177357735882674 0.026132611174305511 0 -0.0047567953012191532 0.025492071618574925 0 -0.0021902501809455718 0.018480469053604585 0 -0.0027408963115283314 0.019594482316537831 0 -0.0019606432938863031 0.019235432792423231 0 -0.0027408963115283314 0.019594482316537831 0 -0.0019606432938863031 0.019235432792423231 0 -0.0019862573986985095 0.01980680311012737 0 -0.0019862573986985095 0.01980680311012737 0 -0.0021836222338632921 0.020508009176471182 0 -0.0024411735059993358 0.020007581176424798 0 -0.0019862573986985095 0.01980680311012737 0 -0.0021836222338632921 0.020508009176471182 0 -0.0014290969684006964 0.020285381763982417 0 -0.0021836222338632921 0.020508009176471182 0 -0.0024411735059993358 0.020007581176424798 0 -0.0027051472444924647 0.020461449678711514 0 -0.0027408963115283314 0.019594482316537831 0 -0.0024411735059993358 0.020007581176424798 0 -0.0027051472444924647 0.020461449678711514 0 -0.0027408963115283314 0.019594482316537831 0 -0.0019862573986985095 0.01980680311012737 0 -0.0024411735059993358 0.020007581176424798 0 -0.0047567953012191532 0.025492071618574925 0 -0.004234259808349506 0.023755376956722019 0 -0.0038807548070818724 0.024205034121443637 0 -0.0044846314548303637 0.025650119504425393 0 -0.0044048220406283081 0.025405792392764859 0 -0.003274466160439003 0.022545436263627087 0 -0.0033901431232470974 0.022468597372246976 0 -0.0027408963115283314 0.019594482316537831 0 -0.0027051472444924647 0.020461449678711514 0 -0.0033337120253542061 0.020867925918058909 0 -0.00063677790570398289 0.019041688622636922 0 -0.00073455765870039332 0.019974138203414253 0 0.00017411616729443624 0.019334234852096312 0 -0.00063677790570398289 0.019041688622636922 0 -0.0013518453509640462 0.019522294684862905 0 -0.00073455765870039332 0.019974138203414253 0 -0.001561575903122148 0.01879444488739649 0 -0.00063677790570398289 0.019041688622636922 0 -0.0013518453509640462 0.019522294684862905 0 -0.001561575903122148 0.01879444488739649 0 -0.0019606432938863031 0.019235432792423231 0 -0.0013518453509640462 0.019522294684862905 0 -0.0019606432938863031 0.019235432792423231 0 -0.0019862573986985095 0.01980680311012737 0 -0.0013518453509640462 0.019522294684862905 0 -0.0014290969684006964 0.020285381763982417 0 -0.00073455765870039332 0.019974138203414253 0 -0.0010626164121747405 0.021046791028968524 0 -0.0013518453509640462 0.019522294684862905 0 -0.0014290969684006964 0.020285381763982417 0 -0.00073455765870039332 0.019974138203414253 0 -0.0019862573986985095 0.01980680311012737 0 -0.0013518453509640462 0.019522294684862905 0 -0.0014290969684006964 0.020285381763982417 0 -0.00073455765870039332 0.019974138203414253 0 -0.0010626164121747405 0.021046791028968524 0 -0.00017658738138540559 0.020700346258331403 0 -0.00049154507665124668 0.021682857929922323 0 -0.0010626164121747405 0.021046791028968524 0 -0.00017658738138540559 0.020700346258331403 0 -0.00049154507665124668 0.021682857929922323 0 -0.000270654172318342 0.022490457116000284 0 -0.0012464755043275063 0.022414088190207244 0 -0.00049154507665124668 0.021682857929922323 0 -0.0010626164121747405 0.021046791028968524 0 -0.0012464755043275063 0.022414088190207244 0 -0.0010626164121747405 0.021046791028968524 0 -0.0018646600531297306 0.021299589939347035 0 -0.0012464755043275063 0.022414088190207244 0 -0.0018646600531297306 0.021299589939347035 0 -0.0021323705380351804 0.02209696855159787 0 -0.0012464755043275063 0.022414088190207244 0 -0.0014290969684006964 0.020285381763982417 0 -0.0010626164121747405 0.021046791028968524 0 -0.0018646600531297306 0.021299589939347035 0 -0.0021836222338632921 0.020508009176471182 0 -0.0014290969684006964 0.020285381763982417 0 -0.0018646600531297306 0.021299589939347035 0 -0.0021836222338632921 0.020508009176471182 0 -0.0025478395567533271 0.021037777534769767 0 -0.0018646600531297306 0.021299589939347035 0 -0.0021836222338632921 0.020508009176471182 0 -0.0027051472444924647 0.020461449678711514 0 -0.0025478395567533271 0.021037777534769767 0 -0.0025478395567533271 0.021037777534769767 0 -0.0018646600531297306 0.021299589939347035 0 -0.0025264103020968044 0.021695402065156532 0 -0.0027051472444924647 0.020461449678711514 0 -0.0025478395567533271 0.021037777534769767 0 -0.0028730208178954376 0.020934912372850348 0 -0.0027051472444924647 0.020461449678711514 0 -0.0033337120253542061 0.020867925918058909 0 -0.0028730208178954376 0.020934912372850348 0 -0.0033337120253542061 0.020867925918058909 0 -0.0028730208178954376 0.020934912372850348 0 -0.0029201328566748133 0.02139268060165854 0 -0.0025478395567533271 0.021037777534769767 0 -0.0028730208178954376 0.020934912372850348 0 -0.0029201328566748133 0.02139268060165854 0 -0.0025478395567533271 0.021037777534769767 0 -0.0029201328566748133 0.02139268060165854 0 -0.0025264103020968044 0.021695402065156532 0 -0.0033337120253542061 0.020867925918058909 0 -0.0029201328566748133 0.02139268060165854 0 -0.003280911179504944 0.021854331224010037 0 -0.0033337120253542061 0.020867925918058909 0 -0.003280911179504944 0.021854331224010037 0 -0.0037978164170203183 0.022500896213171407 0 -0.003280911179504944 0.021854331224010037 0 -0.0030010550519641191 0.021995457778357864 0 -0.0032528941717911933 0.022484237267704366 0 -0.0029201328566748133 0.02139268060165854 0 -0.0030010550519641191 0.021995457778357864 0 -0.0025264103020968044 0.021695402065156532 0 -0.0030010550519641191 0.021995457778357864 0 -0.0027304172388190576 0.022348274926172904 0 -0.0025264103020968044 0.021695402065156532 0 -0.0029201328566748133 0.02139268060165854 0 -0.003280911179504944 0.021854331224010037 0 -0.0030010550519641191 0.021995457778357864 0 -0.0030010550519641191 0.021995457778357864 0 -0.0027304172388190576 0.022348274926172904 0 -0.0032528941717911933 0.022484237267704366 0 -0.0027304172388190576 0.022348274926172904 0 -0.0032528941717911933 0.022484237267704366 0 -0.0030841762945020331 0.022972833968081158 0 -0.003280911179504944 0.021854331224010037 0 -0.0032528941717911933 0.022484237267704366 0 -0.0037978164170203183 0.022500896213171407 0 -0.0021323705380351804 0.02209696855159787 0 -0.0023513600852597223 0.022831866629295993 0 -0.0012464755043275063 0.022414088190207244 0 -0.0018646600531297306 0.021299589939347035 0 -0.0025264103020968044 0.021695402065156532 0 -0.0021323705380351804 0.02209696855159787 0 -0.0027304172388190576 0.022348274926172904 0 -0.0025264103020968044 0.021695402065156532 0 -0.0021323705380351804 0.02209696855159787 0 -0.0027304172388190576 0.022348274926172904 0 -0.0021323705380351804 0.02209696855159787 0 -0.0023513600852597223 0.022831866629295993 0 -0.0018610064955638993 0.023344346481223782 0 -0.0023513600852597223 0.022831866629295993 0 -0.0029697167985336457 0.023917576150258957 0 -0.0018610064955638993 0.023344346481223782 0 -0.0023513600852597223 0.022831866629295993 0 -0.0012464755043275063 0.022414088190207244 0 -0.0023513600852597223 0.022831866629295993 0 -0.0030841762945020331 0.022972833968081158 0 -0.0029697167985336457 0.023917576150258957 0 -0.0030841762945020331 0.022972833968081158 0 -0.0029697167985336457 0.023917576150258957 0 -0.0037567325223799917 0.023397613120019246 0 -0.0032528941717911933 0.022484237267704366 0 -0.0030841762945020331 0.022972833968081158 0 -0.0036020447951118748 0.022827635310834867 0 -0.0027304172388190576 0.022348274926172904 0 -0.0023513600852597223 0.022831866629295993 0 -0.0030841762945020331 0.022972833968081158 0 -0.0018610064955638993 0.023344346481223782 0 -0.0012575436375320333 0.023883973317549118 0 -0.0021625863226625661 0.024656273710272084 0 -0.0018610064955638993 0.023344346481223782 0 -0.0029697167985336457 0.023917576150258957 0 -0.0021625863226625661 0.024656273710272084 0 -0.0012575436375320333 0.023883973317549118 0 -0.00030005400703828061 0.023458983889578251 0 -0.0012464755043275063 0.022414088190207244 0 -0.0012575436375320333 0.023883973317549118 0 -0.00030005400703828061 0.023458983889578251 0 -0.0011285864454392137 0.025174840152573277 0 -0.00030005400703828061 0.023458983889578251 0 -0.000270654172318342 0.022490457116000284 0 -0.0012464755043275063 0.022414088190207244 0 -0.0018610064955638993 0.023344346481223782 0 -0.0012575436375320333 0.023883973317549118 0 -0.0012464755043275063 0.022414088190207244 0 -0.004641744944675545 0.026619219930543708 0 -0.0046545681718226997 0.026550433219304861 0 -0.0047850294751437946 0.026589404571342946 0 -0.0045887137389497073 0.026612369625450577 0 -0.0045897778364769274 0.026547977814439228 0 -0.0046545681718226997 0.026550433219304861 0 -0.004641744944675545 0.026619219930543708 0 -0.0045887137389497073 0.026612369625450577 0 -0.0046545681718226997 0.026550433219304861 0 -0.004641744944675545 0.026619219930543708 0 -0.0045887137389497073 0.026612369625450577 0 -0.0045804097283158153 0.026634765200151584 0 -0.0045887137389497073 0.026612369625450577 0 -0.0045360435539162185 0.026628843153507678 0 -0.0045804097283158153 0.026634765200151584 0 -0.0045887137389497073 0.026612369625450577 0 -0.0045360435539162185 0.026628843153507678 0 -0.0045336900575030968 0.026599283926106485 0 -0.0045360435539162185 0.026628843153507678 0 -0.0045336900575030968 0.026599283926106485 0 -0.0044852494763751314 0.026633429324845952 0 -0.0045887137389497073 0.026612369625450577 0 -0.0045336900575030968 0.026599283926106485 0 -0.0045897778364769274 0.026547977814439228 0 -0.0045336900575030968 0.026599283926106485 0 -0.0045897778364769274 0.026547977814439228 0 -0.0045542143262415112 0.026514276768119825 0 -0.0045897778364769274 0.026547977814439228 0 -0.0045542143262415112 0.026514276768119825 0 -0.0046176818133891505 0.026448935059825745 0 -0.0045336900575030968 0.026599283926106485 0 -0.0045542143262415112 0.026514276768119825 0 -0.0045051456661940291 0.026586734106390324 0 -0.0045542143262415112 0.026514276768119825 0 -0.0045627984859104732 0.026449326561872304 0 -0.004596302954760486 0.026398209985039119 0 -0.0045542143262415112 0.026514276768119825 0 -0.0045230754012884327 0.026538016355079328 0 -0.0045627984859104732 0.026449326561872304 0 -0.0045542143262415112 0.026514276768119825 0 -0.0045230754012884327 0.026538016355079328 0 -0.0045051456661940291 0.026586734106390324 0 -0.0045542143262415112 0.026514276768119825 0 -0.0046176818133891505 0.026448935059825745 0 -0.004596302954760486 0.026398209985039119 0 -0.004687561970775145 0.026380581221895443 0 -0.0046545681718226997 0.026550433219304861 0 -0.0047850294751437946 0.026589404571342946 0 -0.0046176818133891505 0.026448935059825745 0 -0.004687561970775145 0.026380581221895443 0 -0.004665193554460741 0.026250999897737194 0 -0.004687561970775145 0.026380581221895443 0 -0.0047850294751437946 0.026589404571342946 0 -0.0048743951464819022 0.025917361635751202 0 -0.0046176818133891505 0.026448935059825745 0 -0.004687561970775145 0.026380581221895443 0 -0.0046545681718226997 0.026550433219304861 0 -0.0045897778364769274 0.026547977814439228 0 -0.0046176818133891505 0.026448935059825745 0 -0.0046545681718226997 0.026550433219304861 0 -0.0046234971515268022 0.023787702207331063 0 -0.003915862160931329 0.024400979749853464 0 -0.004347029503277239 0.025150271372823448 0 -0.0044522753417486731 0.02515294212681014 0 -0.0045252150704858836 0.025271803228792768 0 -0.0046234971515268022 0.023787702207331063 0 -0.003915862160931329 0.024400979749853464 0 -0.0037567325223799917 0.023397613120019246 0 -0.0029697167985336457 0.023917576150258957 0 -0.003915862160931329 0.024400979749853464 0 -0.0036379584210505141 0.02506677938430044 0 -0.0029697167985336457 0.023917576150258957 0 -0.003915862160931329 0.024400979749853464 0 -0.0037567325223799917 0.023397613120019246 0 -0.0046234971515268022 0.023787702207331063 0 -0.0037567325223799917 0.023397613120019246 0 -0.0037623758012398953 0.022475325638554068 0 -0.0037567325223799917 0.023397613120019246 0 -0.0036020447951118748 0.022827635310834867 0 -0.0037623758012398953 0.022475325638554068 0 -0.0030841762945020331 0.022972833968081158 0 -0.0037567325223799917 0.023397613120019246 0 -0.0036020447951118748 0.022827635310834867 0 -0.0044522753417486731 0.02515294212681014 0 -0.0043534491347002819 0.025101165350358279 0 -0.0047850294751437946 0.026589404571342946 0 -0.0046395898126962553 0.026624764678251912 0 -0.0045675141081920881 0.026633594361320442 0 -0.004641744944675545 0.026619219930543708 0 -0.0047850294751437946 0.026589404571342946 0 -0.0046395898126962553 0.026624764678251912 0 -0.004641744944675545 0.026619219930543708 0 -0.0046395898126962553 0.026624764678251912 0 -0.0046052608011108226 0.02661632698669197 0 -0.0046395898126962553 0.026624764678251912 0 -0.0045869933633996352 0.026604060565698976 0 -0.0045675141081920881 0.026633594361320442 0 -0.0046395898126962553 0.026624764678251912 0 -0.0045869933633996352 0.026604060565698976 0 -0.0046052608011108226 0.02661632698669197 0 -0.004234259808349506 0.023755376956722019 0 -0.0037978164170203183 0.022500896213171407 0 -0.0037623758012398953 0.022475325638554068 0 -0.0036020447951118748 0.022827635310834867 0 -0.0037978164170203183 0.022500896213171407 0 -0.0037623758012398953 0.022475325638554068 0 -0.0032528941717911933 0.022484237267704366 0 -0.0036020447951118748 0.022827635310834867 0 -0.0037978164170203183 0.022500896213171407 0 -0.004234259808349506 0.023755376956722019 0 -0.0037623758012398953 0.022475325638554068 0 -0.0038807548070818724 0.024205034121443637 0 -0.0033901431232470974 0.022468597372246976 0 -0.0034289152029680797 0.022453945813563421 0 -0.0045675141081920881 0.026633594361320442 0 -0.004538665004536366 0.026556098924221696 0 -0.0044196372962161138 0.026500688763035886 0 -0.0043534491347002819 0.025101165350358279 0 -0.0044048220406283081 0.025405792392764859 0 -0.0045869933633996352 0.026604060565698976 0 -0.0045675141081920881 0.026633594361320442 0 -0.004538665004536366 0.026556098924221696 0 -0.0046052608011108226 0.02661632698669197 0 -0.004571894234332647 0.026575456908354902 0 -0.0045779229033003502 0.026586062787816656 0 -0.0045869933633996352 0.026604060565698976 0 -0.0046052608011108226 0.02661632698669197 0 -0.004571894234332647 0.026575456908354902 0 -0.0045869933633996352 0.026604060565698976 0 -0.004538665004536366 0.026556098924221696 0 -0.004571894234332647 0.026575456908354902 0 -0.004538665004536366 0.026556098924221696 0 -0.004571894234332647 0.026575456908354902 0 -0.0045440574314798976 0.026522883811454508 0 -0.004571894234332647 0.026575456908354902 0 -0.0045652113179947733 0.026555160074451967 0 -0.0045440574314798976 0.026522883811454508 0 -0.004571894234332647 0.026575456908354902 0 -0.0045779229033003502 0.026586062787816656 0 -0.0045652113179947733 0.026555160074451967 0 -0.0045779229033003502 0.026586062787816656 0 -0.0045811864762414726 0.026608851266645007 0 -0.0045694421232649026 0.026581306269497826 0 -0.0045779229033003502 0.026586062787816656 0 -0.0045694421232649026 0.026581306269497826 0 -0.0045652113179947733 0.026555160074451967 0 -0.0045811864762414726 0.026608851266645007 0 -0.0045678632974158325 0.026626691502263006 0 -0.0045632173424568654 0.026610288285629374 0 -0.0045811864762414726 0.026608851266645007 0 -0.0045632173424568654 0.026610288285629374 0 -0.0045694421232649026 0.026581306269497826 0 -0.0045811864762414726 0.026608851266645007 0 -0.0045804097283158153 0.026634765200151584 0 -0.0045678632974158325 0.026626691502263006 0 -0.0046052608011108226 0.02661632698669197 0 -0.0045779229033003502 0.026586062787816656 0 -0.0045811864762414726 0.026608851266645007 0 -0.004641744944675545 0.026619219930543708 0 -0.0046052608011108226 0.02661632698669197 0 -0.0045804097283158153 0.026634765200151584 0 -0.0046052608011108226 0.02661632698669197 0 -0.0045811864762414726 0.026608851266645007 0 -0.0045804097283158153 0.026634765200151584 0 -0.0045804097283158153 0.026634765200151584 0 -0.0045492295005421192 0.026649576315737632 0 -0.0045227508173221595 0.026642776851157679 0 -0.0045360435539162185 0.026628843153507678 0 -0.0045804097283158153 0.026634765200151584 0 -0.0045227508173221595 0.026642776851157679 0 -0.0045804097283158153 0.026634765200151584 0 -0.0045492295005421192 0.026649576315737632 0 -0.0045678632974158325 0.026626691502263006 0 -0.0045492295005421192 0.026649576315737632 0 -0.0045678632974158325 0.026626691502263006 0 -0.0045632173424568654 0.026610288285629374 0 -0.0045492295005421192 0.026649576315737632 0 -0.0045632173424568654 0.026610288285629374 0 -0.0045406217117754605 0.02663726627831875 0 -0.0045492295005421192 0.026649576315737632 0 -0.0045406217117754605 0.02663726627831875 0 -0.0045244113549752557 0.026702176272376317 0 -0.0045406217117754605 0.02663726627831875 0 -0.004528242711164825 0.026587224373542412 0 -0.0045514343702990779 0.026581845169547629 0 -0.0045406217117754605 0.02663726627831875 0 -0.004528242711164825 0.026587224373542412 0 -0.0045244113549752557 0.026702176272376317 0 -0.004528242711164825 0.026587224373542412 0 -0.0045514343702990779 0.026581845169547629 0 -0.0045635783473323152 0.026534508530279496 0 -0.0045632173424568654 0.026610288285629374 0 -0.0045406217117754605 0.02663726627831875 0 -0.0045514343702990779 0.026581845169547629 0 -0.0045632173424568654 0.026610288285629374 0 -0.0045694421232649026 0.026581306269497826 0 -0.0045625395049621294 0.026548644593842742 0 -0.0045632173424568654 0.026610288285629374 0 -0.0045514343702990779 0.026581845169547629 0 -0.0045625395049621294 0.026548644593842742 0 -0.0045652113179947733 0.026555160074451967 0 -0.0045625395049621294 0.026548644593842742 0 -0.0045476631279250468 0.026498679455680678 0 -0.0045694421232649026 0.026581306269497826 0 -0.0045652113179947733 0.026555160074451967 0 -0.0045625395049621294 0.026548644593842742 0 -0.0045625395049621294 0.026548644593842742 0 -0.0045529713505516115 0.026482795515031975 0 -0.0045476631279250468 0.026498679455680678 0 -0.0045625395049621294 0.026548644593842742 0 -0.0045635783473323152 0.026534508530279496 0 -0.0045529713505516115 0.026482795515031975 0 -0.0045514343702990779 0.026581845169547629 0 -0.0045625395049621294 0.026548644593842742 0 -0.0045635783473323152 0.026534508530279496 0 -0.0045635783473323152 0.026534508530279496 0 -0.0045529713505516115 0.026482795515031975 0 -0.0045810329537372329 0.02648745914656038 0 -0.0045529713505516115 0.026482795515031975 0 -0.0045810329537372329 0.02648745914656038 0 -0.0045295966351367239 0.026394177549786572 0 -0.0044368556515682368 0.026110583089393919 0 -0.0044927406495446198 0.026173474796428668 0 -0.004528242711164825 0.026587224373542412 0 -0.0045635783473323152 0.026534508530279496 0 -0.0045810329537372329 0.02648745914656038 0 -0.0040788690535093113 0.02610548183817683 0 -0.0043926319203780604 0.025889232632528132 0 -0.0044852831946876033 0.026186694332642386 0 -0.004528242711164825 0.026587224373542412 0 -0.0042393380743649487 0.02622766684206889 0 -0.0045713925023372513 0.026285132093675608 0 -0.0044368556515682368 0.026110583089393919 0 -0.0045248988161294967 0.026142126435058536 0 -0.0044816812202592296 0.026203089758163715 0 -0.0044368556515682368 0.026110583089393919 0 -0.0044196372962161138 0.026500688763035886 0 -0.0044833863926151268 0.026424748624601632 0 -0.0044690255011384742 0.026327575599081682 0 -0.0044833863926151268 0.026424748624601632 0 -0.004481269391316745 0.026384552703394428 0 -0.0044690255011384742 0.026327575599081682 0 -0.0044196372962161138 0.026500688763035886 0 -0.0045043221754015629 0.026488493027170722 0 -0.0044833863926151268 0.026424748624601632 0 -0.004538665004536366 0.026556098924221696 0 -0.0044196372962161138 0.026500688763035886 0 -0.0045043221754015629 0.026488493027170722 0 -0.0044833863926151268 0.026424748624601632 0 -0.0045123539933926114 0.026444887546999522 0 -0.004481269391316745 0.026384552703394428 0 -0.0045043221754015629 0.026488493027170722 0 -0.0044833863926151268 0.026424748624601632 0 -0.0045123539933926114 0.026444887546999522 0 -0.0045123539933926114 0.026444887546999522 0 -0.0045476631279250468 0.026498679455680678 0 -0.0045232158405201272 0.026433700932245646 0 -0.0045123539933926114 0.026444887546999522 0 -0.0045440574314798976 0.026522883811454508 0 -0.0045476631279250468 0.026498679455680678 0 -0.004538665004536366 0.026556098924221696 0 -0.0045043221754015629 0.026488493027170722 0 -0.0045440574314798976 0.026522883811454508 0 -0.0045043221754015629 0.026488493027170722 0 -0.0045123539933926114 0.026444887546999522 0 -0.0045440574314798976 0.026522883811454508 0 -0.0045652113179947733 0.026555160074451967 0 -0.0045440574314798976 0.026522883811454508 0 -0.0045476631279250468 0.026498679455680678 0 -0.0045529713505516115 0.026482795515031975 0 -0.0045476631279250468 0.026498679455680678 0 -0.0045232158405201272 0.026433700932245646 0 -0.0045529713505516115 0.026482795515031975 0 -0.0045232158405201272 0.026433700932245646 0 -0.0045295966351367239 0.026394177549786572 0 -0.0045232158405201272 0.026433700932245646 0 -0.0044719432829495509 0.026369901973179077 0 -0.0045295966351367239 0.026394177549786572 0 -0.0045123539933926114 0.026444887546999522 0 -0.0045232158405201272 0.026433700932245646 0 -0.0044719432829495509 0.026369901973179077 0 -0.0044719432829495509 0.026369901973179077 0 -0.0044157128609102446 0.026336805995437283 0 -0.0045295966351367239 0.026394177549786572 0 -0.0045123539933926114 0.026444887546999522 0 -0.004481269391316745 0.026384552703394428 0 -0.0044719432829495509 0.026369901973179077 0 -0.004481269391316745 0.026384552703394428 0 -0.0044719432829495509 0.026369901973179077 0 -0.0044593833517108539 0.026328009164744388 0 -0.0044555365339165364 0.026271648153098234 0 -0.0044593833517108539 0.026328009164744388 0 -0.0044157128609102446 0.026336805995437283 0 -0.0044719432829495509 0.026369901973179077 0 -0.0044593833517108539 0.026328009164744388 0 -0.0044157128609102446 0.026336805995437283 0 -0.0044555365339165364 0.026271648153098234 0 -0.0044593833517108539 0.026328009164744388 0 -0.0044690255011384742 0.026327575599081682 0 -0.004481269391316745 0.026384552703394428 0 -0.0044593833517108539 0.026328009164744388 0 -0.0044690255011384742 0.026327575599081682 0 -0.0044816010201531829 0.026187567309123812 0 -0.0044927406495446198 0.026173474796428668 0 -0.0040106137990090652 0.02431130192425663 0 -0.004355031194644734 0.02474960656184285 0 -0.0045320915643620703 0.02660011061008306 0 -0.0044157128609102446 0.026336805995437283 0 -0.0044280171185781649 0.026307628864801518 0 -0.0044157128609102446 0.026336805995437283 0 -0.0044280171185781649 0.026307628864801518 0 -0.0045630772262016811 0.026338093772417595 0 -0.0034271820288142647 0.025967251740582696 0 -0.0044280171185781649 0.026307628864801518 0 -0.0041342753929896935 0.026000521187602037 0 -0.0044280171185781649 0.026307628864801518 0 -0.0041342753929896935 0.026000521187602037 0 -0.0044483279417711985 0.026054459388940746 0 -0.0044483279417711985 0.026054459388940746 0 -0.0045630772262016811 0.026338093772417595 0 -0.0047607593494509706 0.025876114527722843 0 -0.0044280171185781649 0.026307628864801518 0 -0.0044483279417711985 0.026054459388940746 0 -0.0045630772262016811 0.026338093772417595 0 -0.0044483279417711985 0.026054459388940746 0 -0.0047607593494509706 0.025876114527722843 0 -0.0041606801389511552 0.025675844882243299 0 -0.0043075108947392502 0.025048190226308612 0 -0.0047607593494509706 0.025876114527722843 0 -0.0041606801389511552 0.025675844882243299 0 -0.0037024956150398533 0.025075699120699242 0 -0.0041158851895334754 0.025641661293201837 0 -0.0034271820288142647 0.025967251740582696 0 -0.0041342753929896935 0.026000521187602037 0 -0.0041606801389511552 0.025675844882243299 0 -0.0041342753929896935 0.026000521187602037 0 -0.0044483279417711985 0.026054459388940746 0 -0.0041606801389511552 0.025675844882243299 0 -0.0039794941857406417 0.025324048730691127 0 -0.0036557792808532773 0.025471050382282923 0 -0.0041606801389511552 0.025675844882243299 0 -0.0040788690535093113 0.02610548183817683 0 -0.0043926319203780604 0.025889232632528132 0 -0.0041691200154442372 0.025611333754368637 0 -0.0043926319203780604 0.025889232632528132 0 -0.0041691200154442372 0.025611333754368637 0 -0.004670020051503237 0.025546715755891326 0 -0.0040788690535093113 0.02610548183817683 0 -0.0036876422654744286 0.025564577941566441 0 -0.0041691200154442372 0.025611333754368637 0 -0.0044368556515682368 0.026110583089393919 0 -0.0041158851895334754 0.025641661293201837 0 -0.0051019386317997118 0.026431101992234512 0 -0.0045630772262016811 0.026338093772417595 0 -0.0047607593494509706 0.025876114527722843 0 -0.0037835955708733645 0.025203775363900126 0 -0.0036876422654744286 0.025564577941566441 0 -0.0040007871046502811 0.025355778183204246 0 -0.0036876422654744286 0.025564577941566441 0 -0.0040007871046502811 0.025355778183204246 0 -0.0041691200154442372 0.025611333754368637 0 -0.0042118903237676709 0.025128175285705209 0 -0.0040007871046502811 0.025355778183204246 0 -0.0041691200154442372 0.025611333754368637 0 -0.0042118903237676709 0.025128175285705209 0 -0.0041691200154442372 0.025611333754368637 0 -0.004670020051503237 0.025546715755891326 0 -0.0042707526804645233 0.025073978565459558 0 -0.004631504282789062 0.025422746476897483 0 -0.0043926319203780604 0.025889232632528132 0 -0.004670020051503237 0.025546715755891326 0 -0.0047062888489446449 0.025976443517349047 0 -0.0043926319203780604 0.025889232632528132 0 -0.0047062888489446449 0.025976443517349047 0 -0.0044852831946876033 0.026186694332642386 0 -0.004781866064943077 0.025497373919838823 0 -0.0051716604258628656 0.025976089272409179 0 -0.0054004819838757226 0.025581697426849907 0 -0.004670020051503237 0.025546715755891326 0 -0.0047062888489446449 0.025976443517349047 0 -0.0051716604258628656 0.025976089272409179 0 -0.004631504282789062 0.025422746476897483 0 -0.0048098633703776966 0.025595993988773196 0 -0.0053512041173555559 0.025166181655320693 0 -0.004781866064943077 0.025497373919838823 0 -0.0054004819838757226 0.025581697426849907 0 -0.0059279714748644175 0.025150983796428984 0 -0.0053512041173555559 0.025166181655320693 0 -0.0054004819838757226 0.025581697426849907 0 -0.0059279714748644175 0.025150983796428984 0 -0.0054004819838757226 0.025581697426849907 0 -0.0058019056165702354 0.025740867707302096 0 -0.0037973670826540805 0.029400089590064321 0 -0.0041487281915981488 0.029257812682367088 0 -0.0051716604258628656 0.025976089272409179 0 -0.0054004819838757226 0.025581697426849907 0 -0.0058019056165702354 0.025740867707302096 0 -0.0051716604258628656 0.025976089272409179 0 -0.0056398094927564589 0.026405719375920764 0 -0.0051588831151871571 0.026479753583011863 0 -0.0051716604258628656 0.025976089272409179 0 -0.0058019056165702354 0.025740867707302096 0 -0.0056398094927564589 0.026405719375920764 0 -0.0041487281915981488 0.029257812682367088 0 -0.0044711205103822871 0.028918546905215631 0 -0.0028186628404181621 0.033543515275095595 0 -0.003861527843133386 0.031943174506710879 0 -0.0023718528686613245 0.032291692150272673 0 -0.003861527843133386 0.031943174506710879 0 -0.0034661407932639627 0.030649038299188084 0 -0.0023718528686613245 0.032291692150272673 0 -0.0044711205103822871 0.028918546905215631 0 -0.0047118774193119859 0.028511416773612758 0 -0.003861527843133386 0.031943174506710879 0 -0.0034661407932639627 0.030649038299188084 0 -0.0047397472069089482 0.029563189880191718 0 -0.0056398094927564589 0.026405719375920764 0 -0.0052626516007961898 0.02679722395047782 0 -0.0051588831151871571 0.026479753583011863 0 -0.0056398094927564589 0.026405719375920764 0 -0.0052626516007961898 0.02679722395047782 0 -0.0054361828650505914 0.027162244628012869 0 -0.0052626516007961898 0.02679722395047782 0 -0.0051588831151871571 0.026479753583011863 0 -0.0049744130843795082 0.026800801221489132 0 -0.0051588831151871571 0.026479753583011863 0 -0.0049480673303385087 0.026532767487941946 0 -0.0049744130843795082 0.026800801221489132 0 -0.0049480673303385087 0.026532767487941946 0 -0.0049744130843795082 0.026800801221489132 0 -0.0047547338208177581 0.02657180911502148 0 -0.0049480673303385087 0.026532767487941946 0 -0.0047547338208177581 0.02657180911502148 0 -0.0049116577571548777 0.026286267664382124 0 -0.0049744130843795082 0.026800801221489132 0 -0.0047386172380620541 0.026806802046887068 0 -0.0047547338208177581 0.02657180911502148 0 -0.0047386172380620541 0.026806802046887068 0 -0.0046129879567623384 0.0266155503783242 0 -0.0047547338208177581 0.02657180911502148 0 -0.004528242711164825 0.026587224373542412 0 -0.0046129879567623384 0.0266155503783242 0 -0.0045244113549752557 0.026702176272376317 0 -0.0047386172380620541 0.026806802046887068 0 -0.0046129879567623384 0.0266155503783242 0 -0.0045244113549752557 0.026702176272376317 0 -0.004528242711164825 0.026587224373542412 0 -0.0046129879567623384 0.0266155503783242 0 -0.0046402637515638853 0.026456490663358659 0 -0.0046129879567623384 0.0266155503783242 0 -0.0047547338208177581 0.02657180911502148 0 -0.0046402637515638853 0.026456490663358659 0 -0.0045248988161294967 0.026142126435058536 0 -0.0045910561949591431 0.026158489203517682 0 -0.0046402637515638853 0.026456490663358659 0 -0.0045713925023372513 0.026285132093675608 0 -0.0049116577571548777 0.026286267664382124 0 -0.0047062888489446449 0.025976443517349047 0 -0.0044852831946876033 0.026186694332642386 0 -0.0049116577571548777 0.026286267664382124 0 -0.0047547338208177581 0.02657180911502148 0 -0.0046402637515638853 0.026456490663358659 0 -0.0049116577571548777 0.026286267664382124 0 -0.004528242711164825 0.026587224373542412 0 -0.0046402637515638853 0.026456490663358659 0 -0.0045713925023372513 0.026285132093675608 0 -0.0047062888489446449 0.025976443517349047 0 -0.0051716604258628656 0.025976089272409179 0 -0.0049116577571548777 0.026286267664382124 0 -0.0051716604258628656 0.025976089272409179 0 -0.0051588831151871571 0.026479753583011863 0 -0.0049116577571548777 0.026286267664382124 0 -0.0051588831151871571 0.026479753583011863 0 -0.0049480673303385087 0.026532767487941946 0 -0.0049116577571548777 0.026286267664382124 0 -0.00073715099030816035 0.033453870796221495 0 -0.00090573052527443191 0.034018781306360393 0 -0.0010630784120182041 0.033474887540285631 0 -0.00079391265757306829 0.033835430807412289 0 -0.00094470974780385948 0.034118361841037136 0 -0.00077333244927184255 0.033991110356262115 0 -0.0009772565624736908 0.034270230008497771 0 -0.00066449673267841662 0.0341988940330284 0 -0.00090573052527443191 0.034018781306360393 0 -0.0010630784120182041 0.033474887540285631 0 -0.0015045119975635331 0.033839385214635372 0 -0.00073715099030816035 0.033453870796221495 0 -0.0010630784120182041 0.033474887540285631 0 -0.0010312359738700384 0.03321838591478022 0 -0.0010630784120182041 0.033474887540285631 0 -0.0015045119975635331 0.033839385214635372 0 -0.0012849550397281337 0.033018476449299075 0 -0.0015045119975635331 0.033839385214635372 0 -0.0019300083384891722 0.033469788787094064 0 -0.0012849550397281337 0.033018476449299075 0 -0.0021391850654844586 0.034303091303951989 0 -0.0015045119975635331 0.033839385214635372 0 -0.0019300083384891722 0.033469788787094064 0 -0.0021391850654844586 0.034303091303951989 0 -0.0028186628404181621 0.033543515275095595 0 -0.0019300083384891722 0.033469788787094064 0 -0.0028186628404181621 0.033543515275095595 0 -0.0019300083384891722 0.033469788787094064 0 -0.0023718528686613245 0.032291692150272673 0 -0.0019300083384891722 0.033469788787094064 0 -0.0023718528686613245 0.032291692150272673 0 -0.0012849550397281337 0.033018476449299075 0 -0.0023718528686613245 0.032291692150272673 0 -0.0020284428378223463 0.030911647421869113 0 -0.0010867612821878836 0.031601707314584164 0 -0.0034661407932639627 0.030649038299188084 0 -0.0023718528686613245 0.032291692150272673 0 -0.0020284428378223463 0.030911647421869113 0 -0.002017701527906382 0.031927801137871338 0 -0.0021557356086906419 0.031619224616959589 0 -0.0020284428378223463 0.030911647421869113 0 -0.0010867612821878836 0.031601707314584164 0 -0.0010388396913982025 0.030223675685578287 0 -0.001220195596289422 0.033073076752339517 0 -0.00099707688795997698 0.033041391339013973 0 -0.0012158686299970493 0.03294551473174949 0 -0.001220195596289422 0.033073076752339517 0 -0.0012849550397281337 0.033018476449299075 0 -0.0010312359738700384 0.03321838591478022 0 -0.002017701527906382 0.031927801137871338 0 -0.0019750205925745459 0.03207547897316556 0 -0.0023718528686613245 0.032291692150272673 0 -0.0010867612821878836 0.031601707314584164 0 -0.0012849550397281337 0.033018476449299075 0 -0.0010630784120182041 0.033474887540285631 0 -0.0012849550397281337 0.033018476449299075 0 -0.0010312359738700384 0.03321838591478022 0 -0.0010312359738700384 0.03321838591478022 0 -0.00099707688795997698 0.033041391339013973 0 -0.00080250582137893244 0.033325612372386043 0 -0.001220195596289422 0.033073076752339517 0 -0.0010312359738700384 0.03321838591478022 0 -0.00099707688795997698 0.033041391339013973 0 -0.0015391873912655458 0.032329901710614291 0 -0.0011347579244852693 0.032714740723722109 0 -0.001879551690454421 0.034212268108902245 0 -0.00082911238102609459 0.034167794356818854 0 -0.00082019648848828414 0.033789739655706259 0 -0.00099707688795997698 0.033041391339013973 0 -0.00080250582137893244 0.033325612372386043 0 -0.00070381550180864682 0.033260879965434302 0 -0.00073715099030816035 0.033453870796221495 0 -0.0010312359738700384 0.03321838591478022 0 -0.00080250582137893244 0.033325612372386043 0 -0.0013956667990555399 0.03286043527621571 0 -0.0011239669415448836 0.033454449561398376 0 -0.00061061476881348693 0.032950671063322862 0 -0.0013956667990555399 0.03286043527621571 0 -0.0011239669415448836 0.033454449561398376 0 -0.0022027246021474223 0.033326223060770863 0 -0.001879551690454421 0.034212268108902245 0 -0.0011239669415448836 0.033454449561398376 0 -0.00082019648848828414 0.033789739655706259 0 -0.001879551690454421 0.034212268108902245 0 -0.0011239669415448836 0.033454449561398376 0 -0.0022027246021474223 0.033326223060770863 0 -0.001879551690454421 0.034212268108902245 0 -0.0022027246021474223 0.033326223060770863 0 -0.0030239947051828794 0.034040359686342232 0 -0.0015391873912655458 0.032329901710614291 0 -0.0021557356086906419 0.031619224616959589 0 -0.0022027246021474223 0.033326223060770863 0 -0.0031861904257131403 0.03281250518450058 0 -0.0030239947051828794 0.034040359686342232 0 -0.0025862395981351132 0.030583507577052856 0 -0.0021557356086906419 0.031619224616959589 0 -0.0029535655872392126 0.028411072111228782 0 -0.0028866871141499449 0.029365716586699737 0 -0.003515379422751519 0.029216317737562721 0 -0.0034661407932639627 0.030649038299188084 0 -0.0020284428378223463 0.030911647421869113 0 -0.0024684010918025034 0.02977644643270666 0 -0.0021557356086906419 0.031619224616959589 0 -0.0028113339370439473 0.031127636121581686 0 -0.0020284428378223463 0.030911647421869113 0 -0.0010388396913982025 0.030223675685578287 0 -0.0024684010918025034 0.02977644643270666 0 -0.0029535655872392126 0.028411072111228782 0 -0.003515379422751519 0.029216317737562721 0 -0.0036778319487634158 0.028656849002662008 0 -0.0029535655872392126 0.028411072111228782 0 -0.0036778319487634158 0.028656849002662008 0 -0.0036899473674683694 0.028015613650475779 0 -0.0029535655872392126 0.028411072111228782 0 -0.0031620043127296737 0.027499045635148406 0 -0.0036899473674683694 0.028015613650475779 0 -0.0031620043127296737 0.027499045635148406 0 -0.0036899473674683694 0.028015613650475779 0 -0.0037372684869987757 0.027242792439314146 0 -0.0025862395981351132 0.030583507577052856 0 -0.0028772923100688825 0.029571443263661356 0 -0.0031861904257131403 0.03281250518450058 0 -0.003454295158236234 0.031373303597840109 0 -0.0020743032291643147 0.031969576538994092 0 -0.0013956667990555399 0.03286043527621571 0 -0.0022027246021474223 0.033326223060770863 0 -0.0020743032291643147 0.031969576538994092 0 -0.0022027246021474223 0.033326223060770863 0 -0.0031861904257131403 0.03281250518450058 0 -0.0020743032291643147 0.031969576538994092 0 -0.003454295158236234 0.031373303597840109 0 -0.0020743032291643147 0.031969576538994092 0 -0.0022755776009623753 0.029977477338192813 0 -0.0020743032291643147 0.031969576538994092 0 -0.0012547711740261984 0.030798931450519786 0 -0.00080648964213915876 0.032123236353318499 0 -0.0013956667990555399 0.03286043527621571 0 -0.0020743032291643147 0.031969576538994092 0 -0.00080648964213915876 0.032123236353318499 0 -0.0050511653197221305 0.027461821642767555 0 -0.0047471334911797225 0.027574893524439356 0 -0.0049736205416623051 0.027938742993325674 0 -0.0050511653197221305 0.027461821642767555 0 -0.0047471334911797225 0.027574893524439356 0 -0.0050747683294505436 0.027146042384930888 0 -0.0045492295005421192 0.026649576315737632 0 -0.0045227508173221595 0.026642776851157679 0 -0.0044858837256360846 0.026647622552949866 0 -0.0045227508173221595 0.026642776851157679 0 -0.0044858837256360846 0.026647622552949866 0 -0.0044772620621735485 0.02664865107585656 0 -0.0047386172380620541 0.026806802046887068 0 -0.0045244113549752557 0.026702176272376317 0 -0.0047471334911797225 0.027574893524439356 0 -0.0045492295005421192 0.026649576315737632 0 -0.0045244113549752557 0.026702176272376317 0 -0.0044858837256360846 0.026647622552949866 0 -0.0045657477600376398 0.027028545526928342 0 -0.0045862605342088577 0.027089387876167992 0 -0.0047386172380620541 0.026806802046887068 0 -0.0047471334911797225 0.027574893524439356 0 -0.0048881571300727353 0.027073591936647278 0 -0.0049744130843795082 0.026800801221489132 0 -0.0047386172380620541 0.026806802046887068 0 -0.0048881571300727353 0.027073591936647278 0 -0.0049744130843795082 0.026800801221489132 0 -0.0048881571300727353 0.027073591936647278 0 -0.0050747683294505436 0.027146042384930888 0 -0.0047471334911797225 0.027574893524439356 0 -0.0048881571300727353 0.027073591936647278 0 -0.0050747683294505436 0.027146042384930888 0 -0.0052626516007961898 0.02679722395047782 0 -0.0049744130843795082 0.026800801221489132 0 -0.0050747683294505436 0.027146042384930888 0 -0.0052626516007961898 0.02679722395047782 0 -0.0050747683294505436 0.027146042384930888 0 -0.0054361828650505914 0.027162244628012869 0 -0.0050511653197221305 0.027461821642767555 0 -0.0050747683294505436 0.027146042384930888 0 -0.0054361828650505914 0.027162244628012869 0 -0.003515379422751519 0.029216317737562721 0 -0.0041015891620057223 0.029243086083829035 0 -0.0036778319487634158 0.028656849002662008 0 -0.0034661407932639627 0.030649038299188084 0 -0.0024684010918025034 0.02977644643270666 0 -0.0041015891620057223 0.029243086083829035 0 -0.0028113339370439473 0.031127636121581686 0 -0.0031201751111765712 0.03094641140993629 0 -0.0034661407932639627 0.030649038299188084 0 -0.0047397472069089482 0.029563189880191718 0 -0.0041015891620057223 0.029243086083829035 0 -0.0036778319487634158 0.028656849002662008 0 -0.0042352225683621476 0.028440789945868246 0 -0.0036899473674683694 0.028015613650475779 0 -0.0041015891620057223 0.029243086083829035 0 -0.0036778319487634158 0.028656849002662008 0 -0.0042352225683621476 0.028440789945868246 0 -0.0050511653197221305 0.027461821642767555 0 -0.0054361828650505914 0.027162244628012869 0 -0.0049736205416623051 0.027938742993325674 0 -0.0047397472069089482 0.029563189880191718 0 -0.0042352225683621476 0.028440789945868246 0 -0.0049736205416623051 0.027938742993325674 0 -0.0047397472069089482 0.029563189880191718 0 -0.0041015891620057223 0.029243086083829035 0 -0.0042352225683621476 0.028440789945868246 0 -0.0047118774193119859 0.028511416773612758 0 -0.0047950333529443636 0.028322598584595588 0 -0.0042352225683621476 0.028440789945868246 0 -0.004359447019932591 0.027831308497410157 0 -0.0049736205416623051 0.027938742993325674 0 -0.004359447019932591 0.027831308497410157 0 -0.0049555114497761505 0.027907294549940575 0 -0.0049736205416623051 0.027938742993325674 0 -0.0042352225683621476 0.028440789945868246 0 -0.004359447019932591 0.027831308497410157 0 -0.0036899473674683694 0.028015613650475779 0 -0.004359447019932591 0.027831308497410157 0 -0.0042627591696783101 0.027004611171466575 0 -0.0037372684869987757 0.027242792439314146 0 -0.004359447019932591 0.027831308497410157 0 -0.0036899473674683694 0.028015613650475779 0 -0.0037372684869987757 0.027242792439314146 0 -0.004359447019932591 0.027831308497410157 0 -0.0049555114497761505 0.027907294549940575 0 -0.0042627591696783101 0.027004611171466575 0 -0.0044449821178183628 0.026678782667898592 0 -0.0043612193094659706 0.026827107191746108 0 -0.0042627591696783101 0.027004611171466575 0 -0.0045769312343829638 0.027118613420768743 0 -0.0045285500118425661 0.027070832618269484 0 -0.0044168766332094321 0.026712866797323112 0 -0.0044449821178183628 0.026678782667898592 0 -0.0043612193094659706 0.026827107191746108 0 -0.0044317622026320679 0.026688417520943988 0 -0.0044168766332094321 0.026712866797323112 0 -0.0043612193094659706 0.026827107191746108 0 -0.0044317622026320679 0.026688417520943988 0 -0.0044566456689368508 0.026652186844290621 0 -0.0043612193094659706 0.026827107191746108 0 -0.0044168766332094321 0.026712866797323112 0 -0.0044449821178183628 0.026678782667898592 0 -0.0044466409139546506 0.026668749155900843 0 -0.0044317622026320679 0.026688417520943988 0 -0.0044168766332094321 0.026712866797323112 0 -0.0044466409139546506 0.026668749155900843 0 -0.0045862605342088577 0.027089387876167992 0 -0.0045769312343829638 0.027118613420768743 0 -0.0044449821178183628 0.026678782667898592 0 -0.0044466409139546506 0.026668749155900843 0 -0.0044772620621735485 0.02664865107585656 0 -0.0044858837256360846 0.026647622552949866 0 -0.0044449821178183628 0.026678782667898592 0 -0.0044772620621735485 0.02664865107585656 0 -0.0047471334911797225 0.027574893524439356 0 -0.0049555114497761505 0.027907294549940575 0 -0.0049736205416623051 0.027938742993325674 0 -0.0045360435539162185 0.026628843153507678 0 -0.0044772620621735485 0.02664865107585656 0 -0.0044852494763751314 0.026633429324845952 0 -0.0045360435539162185 0.026628843153507678 0 -0.0045227508173221595 0.026642776851157679 0 -0.0044772620621735485 0.02664865107585656 0 -0.0044466409139546506 0.026668749155900843 0 -0.0044772620621735485 0.02664865107585656 0 -0.0044852494763751314 0.026633429324845952 0 -0.0044466409139546506 0.026668749155900843 0 -0.0044852494763751314 0.026633429324845952 0 -0.004462899355698248 0.026642992053419731 0 -0.0045336900575030968 0.026599283926106485 0 -0.0044852494763751314 0.026633429324845952 0 -0.0045051456661940291 0.026586734106390324 0 -0.0044852494763751314 0.026633429324845952 0 -0.0045051456661940291 0.026586734106390324 0 -0.004462899355698248 0.026642992053419731 0 -0.0045051456661940291 0.026586734106390324 0 -0.004462899355698248 0.026642992053419731 0 -0.0044768392392969562 0.026614254493348359 0 -0.0044317622026320679 0.026688417520943988 0 -0.0044466409139546506 0.026668749155900843 0 -0.004462899355698248 0.026642992053419731 0 -0.0044317622026320679 0.026688417520943988 0 -0.0044768392392969562 0.026614254493348359 0 -0.0044566456689368508 0.026652186844290621 0 -0.0044317622026320679 0.026688417520943988 0 -0.004462899355698248 0.026642992053419731 0 -0.0044768392392969562 0.026614254493348359 0 -0.0045230754012884327 0.026538016355079328 0 -0.0045051456661940291 0.026586734106390324 0 -0.0044768392392969562 0.026614254493348359 0 -0.0045230754012884327 0.026538016355079328 0 -0.0044768392392969562 0.026614254493348359 0 -0.0045136665877438869 0.026547001328403666 0 -0.0045136665877438869 0.026547001328403666 0 -0.0045533450995570712 0.026475420279193071 0 -0.0045627984859104732 0.026449326561872304 0 -0.0045136665877438869 0.026547001328403666 0 -0.0045091740098601053 0.026562757022002444 0 -0.0045533450995570712 0.026475420279193071 0 -0.0045136665877438869 0.026547001328403666 0 -0.0044566456689368508 0.026652186844290621 0 -0.0045091740098601053 0.026562757022002444 0 -0.0044768392392969562 0.026614254493348359 0 -0.0045136665877438869 0.026547001328403666 0 -0.0044566456689368508 0.026652186844290621 0 -0.0045091740098601053 0.026562757022002444 0 -0.0045787256893923137 0.026471423319915786 0 -0.0044484848500805016 0.026651457778463467 0 -0.0044566456689368508 0.026652186844290621 0 -0.0045091740098601053 0.026562757022002444 0 -0.0044484848500805016 0.026651457778463467 0 -0.0045091740098601053 0.026562757022002444 0 -0.0045533450995570712 0.026475420279193071 0 -0.0045787256893923137 0.026471423319915786 0 -0.0045787256893923137 0.026471423319915786 0 -0.0044997733566535568 0.026545763628782953 0 -0.0046590278403271252 0.026407175288544967 0 -0.0045787256893923137 0.026471423319915786 0 -0.0044484848500805016 0.026651457778463467 0 -0.0044997733566535568 0.026545763628782953 0 -0.0044484848500805016 0.026651457778463467 0 -0.0042994595094696351 0.02678868969608645 0 -0.0044997733566535568 0.026545763628782953 0 -0.0042994595094696351 0.02678868969608645 0 -0.0042070928932327291 0.026653062421111123 0 -0.0044997733566535568 0.026545763628782953 0 -0.0044484848500805016 0.026651457778463467 0 -0.0043612193094659706 0.026827107191746108 0 -0.0042994595094696351 0.02678868969608645 0 -0.0044566456689368508 0.026652186844290621 0 -0.0044484848500805016 0.026651457778463467 0 -0.0043612193094659706 0.026827107191746108 0 -0.0043612193094659706 0.026827107191746108 0 -0.0042627591696783101 0.027004611171466575 0 -0.0042994595094696351 0.02678868969608645 0 -0.0042627591696783101 0.027004611171466575 0 -0.0037372684869987757 0.027242792439314146 0 -0.0037920681975933579 0.026894411067121298 0 -0.0042627591696783101 0.027004611171466575 0 -0.0037920681975933579 0.026894411067121298 0 -0.0042994595094696351 0.02678868969608645 0 -0.0037920681975933579 0.026894411067121298 0 -0.0042994595094696351 0.02678868969608645 0 -0.0042070928932327291 0.026653062421111123 0 -0.0042070928932327291 0.026653062421111123 0 -0.0039603919867302372 0.026572922172811739 0 -0.0044164058188808433 0.026435587766214453 0 -0.0037920681975933579 0.026894411067121298 0 -0.0042070928932327291 0.026653062421111123 0 -0.0039603919867302372 0.026572922172811739 0 -0.0037920681975933579 0.026894411067121298 0 -0.0039603919867302372 0.026572922172811739 0 -0.0036008770632092674 0.026542078090358804 0 -0.0039603919867302372 0.026572922172811739 0 -0.0036008770632092674 0.026542078090358804 0 -0.0040626625067110836 0.02621625482869655 0 -0.0039603919867302372 0.026572922172811739 0 -0.0044164058188808433 0.026435587766214453 0 -0.0040626625067110836 0.02621625482869655 0 -0.0044164058188808433 0.026435587766214453 0 -0.0045297016555803519 0.026131276001660014 0 -0.0040626625067110836 0.02621625482869655 0 -0.0044164058188808433 0.026435587766214453 0 -0.0047195703782095056 0.026275415790355861 0 -0.0045297016555803519 0.026131276001660014 0 -0.0044164058188808433 0.026435587766214453 0 -0.0047195703782095056 0.026275415790355861 0 -0.0046845364393621686 0.026439269647786697 0 -0.0044997733566535568 0.026545763628782953 0 -0.0046845364393621686 0.026439269647786697 0 -0.0046590278403271252 0.026407175288544967 0 -0.0044164058188808433 0.026435587766214453 0 -0.0044997733566535568 0.026545763628782953 0 -0.0046845364393621686 0.026439269647786697 0 -0.0042070928932327291 0.026653062421111123 0 -0.0044164058188808433 0.026435587766214453 0 -0.0044997733566535568 0.026545763628782953 0 -0.0010488183420019077 0.029425429780084635 0 -0.0022755776009623753 0.029977477338192813 0 -0.0020637293547752706 0.028431591919578079 0 -0.0010488183420019077 0.029425429780084635 0 -0.0012547711740261984 0.030798931450519786 0 -0.0022755776009623753 0.029977477338192813 0 -0.0020743032291643147 0.031969576538994092 0 -0.0012547711740261984 0.030798931450519786 0 -0.0022755776009623753 0.029977477338192813 0 -0.0022755776009623753 0.029977477338192813 0 -0.0036101138399338415 0.02954063182022304 0 -0.0020637293547752706 0.028431591919578079 0 -0.0030484878424400798 0.028716656126317852 0 -0.0030999458867757438 0.028307840379972849 0 -0.003454295158236234 0.031373303597840109 0 -0.0022755776009623753 0.029977477338192813 0 -0.0036101138399338415 0.02954063182022304 0 -0.0028772923100688825 0.029571443263661356 0 -0.0030484878424400798 0.028716656126317852 0 -0.0031620043127296737 0.027499045635148406 0 -0.0037372684869987757 0.027242792439314146 0 -0.0034129167182614731 0.027052678264870605 0 -0.0037920681975933579 0.026894411067121298 0 -0.0034129167182614731 0.027052678264870605 0 -0.0033757529237404414 0.027229171502771425 0 -0.0037372684869987757 0.027242792439314146 0 -0.0037920681975933579 0.026894411067121298 0 -0.0034129167182614731 0.027052678264870605 0 -0.0037920681975933579 0.026894411067121298 0 -0.0036008770632092674 0.026542078090358804 0 -0.0033757529237404414 0.027229171502771425 0 -0.0036008770632092674 0.026542078090358804 0 -0.0033757529237404414 0.027229171502771425 0 -0.0030918502445701651 0.026524831220006439 0 -0.0033757529237404414 0.027229171502771425 0 -0.0020643025150371011 0.027177304295593716 0 -0.0030918502445701651 0.026524831220006439 0 -0.0036101138399338415 0.02954063182022304 0 -0.0033757529237404414 0.027229171502771425 0 -0.0020637293547752706 0.028431591919578079 0 -0.0033757529237404414 0.027229171502771425 0 -0.0020637293547752706 0.028431591919578079 0 -0.0020643025150371011 0.027177304295593716 0 -0.0020643025150371011 0.027177304295593716 0 -0.0023747955751276073 0.026374741036300439 0 -0.0030918502445701651 0.026524831220006439 0 -0.0020643025150371011 0.027177304295593716 0 -0.0012299816212090291 0.026792282573625273 0 -0.0018295329244352593 0.026401560044859808 0 -0.0020643025150371011 0.027177304295593716 0 -0.0012299816212090291 0.026792282573625273 0 -0.0011427434510046719 0.027963876464301773 0 -0.0020637293547752706 0.028431591919578079 0 -0.0020643025150371011 0.027177304295593716 0 -0.0011427434510046719 0.027963876464301773 0 -0.0010488183420019077 0.029425429780084635 0 -0.0020637293547752706 0.028431591919578079 0 -0.0011427434510046719 0.027963876464301773 0 -0.00133281515759208 0.025357026305256134 0 -0.0014456668186018545 0.025994423414036426 0 -0.0019181790006913614 0.024628775164877117 0 -0.0010073548555627363 0.025457316185419021 0 -0.00090250976749604481 0.025422742324730331 0 -0.00133281515759208 0.025357026305256134 0 -0.0014456668186018545 0.025994423414036426 0 -0.00072960909944340532 0.02608742812265245 0 -0.0012299816212090291 0.026792282573625273 0 -0.0014456668186018545 0.025994423414036426 0 -0.00072960909944340532 0.02608742812265245 0 -0.0012299816212090291 0.026792282573625273 0 -0.0018295329244352593 0.026401560044859808 0 -0.0014456668186018545 0.025994423414036426 0 -0.0020643025150371011 0.027177304295593716 0 -0.0018295329244352593 0.026401560044859808 0 -0.0023747955751276073 0.026374741036300439 0 -0.0018295329244352593 0.026401560044859808 0 -0.0014456668186018545 0.025994423414036426 0 -0.0022158610301926873 0.025765366154469505 0 -0.0018295329244352593 0.026401560044859808 0 -0.0023747955751276073 0.026374741036300439 0 -0.0022158610301926873 0.025765366154469505 0 -0.0014456668186018545 0.025994423414036426 0 -0.0022158610301926873 0.025765366154469505 0 -0.001941329084234069 0.025062968200966821 0 -0.0023747955751276073 0.026374741036300439 0 -0.0022158610301926873 0.025765366154469505 0 -0.0028992348291151898 0.025832838029634445 0 -0.0022158610301926873 0.025765366154469505 0 -0.0028992348291151898 0.025832838029634445 0 -0.0026798463027412202 0.025154292527362 0 -0.0023747955751276073 0.026374741036300439 0 -0.0028992348291151898 0.025832838029634445 0 -0.0030918502445701651 0.026524831220006439 0 -0.0036008770632092674 0.026542078090358804 0 -0.0030918502445701651 0.026524831220006439 0 -0.0034621509828140413 0.025955029699215208 0 -0.0028992348291151898 0.025832838029634445 0 -0.0030918502445701651 0.026524831220006439 0 -0.0034621509828140413 0.025955029699215208 0 -0.0028992348291151898 0.025832838029634445 0 -0.0034621509828140413 0.025955029699215208 0 -0.0033529779102169617 0.025377884504454731 0 -0.0028992348291151898 0.025832838029634445 0 -0.0026798463027412202 0.025154292527362 0 -0.0033529779102169617 0.025377884504454731 0 -0.0030311795765142779 0.02466525744936713 0 -0.0026798463027412202 0.025154292527362 0 -0.0033529779102169617 0.025377884504454731 0 -0.0019283761722174054 0.024981132489178083 0 -0.0015022056150741376 0.024946648623626621 0 -0.0030311795765142779 0.02466525744936713 0 -0.0026798463027412202 0.025154292527362 0 -0.0024930898009029642 0.024484419523055662 0 -0.0022158610301926873 0.025765366154469505 0 -0.0026798463027412202 0.025154292527362 0 -0.001941329084234069 0.025062968200966821 0 -0.00090250976749604481 0.025422742324730331 0 -0.0015022056150741376 0.024946648623626621 0 -0.0010784294409110647 0.025096257415937552 0 -0.0010131115146939491 0.025284676046771065 0 -0.00094325610628926489 0.025264331966837965 0 -0.00090250976749604481 0.025422742324730331 0 -0.0010379869696440821 0.024999334859043505 0 0.0008764404298711733 0.02624258943739486 0 0.0009063918915403487 0.026175261478562133 0 0.00083690279398657857 0.026133846814816689 0 -0.0026798463027412202 0.025154292527362 0 -0.001941329084234069 0.025062968200966821 0 -0.0024930898009029642 0.024484419523055662 0 0.0009063918915403487 0.026175261478562133 0 0.00097598822391821904 0.026217055610796014 0 0.00094141002907654559 0.026104151998997627 0 0.0008764404298711733 0.02624258943739486 0 0.0009063918915403487 0.026175261478562133 0 0.00097598822391821904 0.026217055610796014 0 0.00092816832972614661 0.0263055155076348 0 0.0008764404298711733 0.02624258943739486 0 0.00097598822391821904 0.026217055610796014 0 -0.00029171571886300255 0.025852707458143248 0 -0.00090250976749604481 0.025422742324730331 0 -0.0044147857647149945 0.025710080725513767 0 -0.0049515201038349927 0.025308664651267326 0 -0.0049728184877677961 0.025924574034517776 0 -0.0047195703782095056 0.026275415790355861 0 -0.0045297016555803519 0.026131276001660014 0 -0.0049728184877677961 0.025924574034517776 0 -0.0044147857647149945 0.025710080725513767 0 -0.0045297016555803519 0.026131276001660014 0 -0.0049728184877677961 0.025924574034517776 0 -0.0044147857647149945 0.025710080725513767 0 -0.0045297016555803519 0.026131276001660014 0 -0.0040626625067110836 0.02621625482869655 0 -0.0036008770632092674 0.026542078090358804 0 -0.0034621509828140413 0.025955029699215208 0 -0.0040626625067110836 0.02621625482869655 0 -0.0034621509828140413 0.025955029699215208 0 -0.0040626625067110836 0.02621625482869655 0 -0.0038497990676953225 0.025745658752321206 0 -0.0034621509828140413 0.025955029699215208 0 -0.0038497990676953225 0.025745658752321206 0 -0.0033529779102169617 0.025377884504454731 0 -0.0044147857647149945 0.025710080725513767 0 -0.0038497990676953225 0.025745658752321206 0 -0.0039595771671399388 0.025292749215926714 0 -0.0044147857647149945 0.025710080725513767 0 -0.0040626625067110836 0.02621625482869655 0 -0.0038497990676953225 0.025745658752321206 0 -0.0038497990676953225 0.025745658752321206 0 -0.0039595771671399388 0.025292749215926714 0 -0.0033529779102169617 0.025377884504454731 0 -0.0039595771671399388 0.025292749215926714 0 -0.0033529779102169617 0.025377884504454731 0 -0.0035599431269858969 0.024923552947839826 0 -0.0030311795765142779 0.02466525744936713 0 -0.0033529779102169617 0.025377884504454731 0 -0.0035599431269858969 0.024923552947839826 0 -0.0030311795765142779 0.02466525744936713 0 -0.0035599431269858969 0.024923552947839826 0 -0.0034442679864674667 0.024356849343170242 0 -0.0039595771671399388 0.025292749215926714 0 -0.0039480808855920846 0.024620872826104288 0 -0.0044705420522829567 0.024952695420163904 0 -0.0035599431269858969 0.024923552947839826 0 -0.0039480808855920846 0.024620872826104288 0 -0.0034442679864674667 0.024356849343170242 0 -0.0039595771671399388 0.025292749215926714 0 -0.0035599431269858969 0.024923552947839826 0 -0.0039480808855920846 0.024620872826104288 0 -0.0039480808855920846 0.024620872826104288 0 -0.0043345942088839151 0.024524113810662388 0 -0.0044705420522829567 0.024952695420163904 0 -0.0043345942088839151 0.024524113810662388 0 -0.0044705420522829567 0.024952695420163904 0 -0.0046773960593129169 0.024533350531480508 0 -0.0044147857647149945 0.025710080725513767 0 -0.0039595771671399388 0.025292749215926714 0 -0.0044705420522829567 0.024952695420163904 0 -0.0044147857647149945 0.025710080725513767 0 -0.0044705420522829567 0.024952695420163904 0 -0.0049515201038349927 0.025308664651267326 0 -0.0046047858580346903 0.022251365146415181 0 -0.0054552486067835524 0.021645147802286744 0 -0.0044705420522829567 0.024952695420163904 0 -0.0049515201038349927 0.025308664651267326 0 -0.0048656899619700369 0.024537760936090478 0 -0.0044705420522829567 0.024952695420163904 0 -0.0046773960593129169 0.024533350531480508 0 -0.0048656899619700369 0.024537760936090478 0 -0.0031767755550817459 0.019413864478565687 0 -0.0031885083539826258 0.019399496785663248 0 -0.0031754494016742497 0.019389751187440116 0 -0.0031885083539826258 0.019399496785663248 0 -0.0031893077502483961 0.019385664725545832 0 -0.0031754494016742497 0.019389751187440116 0 -0.0031885083539826258 0.019399496785663248 0 -0.0032067124051844004 0.019379408913789978 0 -0.0031893077502483961 0.019385664725545832 0 -0.0031885083539826258 0.019399496785663248 0 -0.0032030823278603364 0.019402983479437093 0 -0.0032067124051844004 0.019379408913789978 0 -0.0032030823278603364 0.019402983479437093 0 -0.0031902711341463582 0.01942049693923327 0 -0.0032091787835751965 0.01941861753048656 0 -0.0031885083539826258 0.019399496785663248 0 -0.0032030823278603364 0.019402983479437093 0 -0.0031902711341463582 0.01942049693923327 0 -0.0031767755550817459 0.019413864478565687 0 -0.0031885083539826258 0.019399496785663248 0 -0.0031902711341463582 0.01942049693923327 0 -0.0031902711341463582 0.01942049693923327 0 -0.0031909792834449026 0.019444892670611055 0 -0.0031761501335713996 0.019443774334253726 0 -0.0031767755550817459 0.019413864478565687 0 -0.0031902711341463582 0.01942049693923327 0 -0.0031761501335713996 0.019443774334253726 0 -0.0046047858580346903 0.022251365146415181 0 -0.0039533526383963334 0.022957188054468752 0 -0.0031909792834449026 0.019444892670611055 0 -0.0032012067473062215 0.019428639553644985 0 -0.0031960619279636079 0.019402147181650543 0 -0.0019828031278549237 0.017850618802908291 0 -0.0019960466821717883 0.017386604141590378 0 -0.0031902711341463582 0.01942049693923327 0 -0.0031909792834449026 0.019444892670611055 0 -0.0032091787835751965 0.01941861753048656 0 -0.0031909792834449026 0.019444892670611055 0 -0.0032056490384766282 0.019450820752143008 0 -0.0031808079941787067 0.019480669638346274 0 -0.0039533526383963334 0.022957188054468752 0 -0.0033607323716605703 0.024060068986122545 0 -0.0031909792834449026 0.019444892670611055 0 -0.0031761501335713996 0.019443774334253726 0 -0.0031808079941787067 0.019480669638346274 0 -0.0028631243285630538 0.022275996190319426 0 -0.0021024995374058662 0.02001662835403659 0 -0.0034540655373463502 0.027729205021542351 0 -0.0044200617578832582 0.027741522553240073 0 -0.0034771792468460383 0.028462643451871224 0 -0.0032056490384766282 0.019450820752143008 0 -0.0032116057271822152 0.019414870937886197 0 -0.0032012067473062215 0.019428639553644985 0 -0.0031909792834449026 0.019444892670611055 0 -0.0032056490384766282 0.019450820752143008 0 -0.0032012067473062215 0.019428639553644985 0 -0.0032056490384766282 0.019450820752143008 0 -0.0032116057271822152 0.019414870937886197 0 -0.0032348617577819911 0.019419497324431313 0 -0.0032116057271822152 0.019414870937886197 0 -0.0032012067473062215 0.019428639553644985 0 -0.0031960619279636079 0.019402147181650543 0 -0.0032116057271822152 0.019414870937886197 0 -0.0031960619279636079 0.019402147181650543 0 -0.0032094916784316807 0.019387720309935994 0 -0.0032116057271822152 0.019414870937886197 0 -0.0032348617577819911 0.019419497324431313 0 -0.0032094916784316807 0.019387720309935994 0 -0.0021024995374058662 0.02001662835403659 0 -0.0022062431269288911 0.019972638835749734 0 -0.0031701964265719246 0.01931859171618695 0 -0.0031899947429671191 0.019386907953192339 0 -0.0031345362666363678 0.019342065339525021 0 -0.0014488630535355741 0.0159912757661544 0 -0.0018759890763748544 0.017517549911319933 0 -0.0031701964265719246 0.01931859171618695 0 -0.0031899947429671191 0.019386907953192339 0 -0.0032094916784316807 0.019387720309935994 0 0.0039087160015301749 0.00708707431775494 0 0.002618055416858639 0.0072716137083117518 0 0.0020161262445346113 0.0088779001997785593 0 -0.0031899947429671191 0.019386907953192339 0 -0.0032094916784316807 0.019387720309935994 0 -0.0032121613978502743 0.019384269597456271 0 0.0039087160015301749 0.00708707431775494 0 0.0056765028011508496 0.0054187356525289719 0 0.003858576833741148 0.005329140635805492 0 -0.0014488630535355741 0.0159912757661544 0 -0.0021633961341461427 0.015632531709873526 0 0.0039087160015301749 0.00708707431775494 0 0.003051612192284107 0.0060384896377790919 0 0.002618055416858639 0.0072716137083117518 0 0.0039087160015301749 0.00708707431775494 0 0.003051612192284107 0.0060384896377790919 0 0.003858576833741148 0.005329140635805492 0 -0.0032030823278603364 0.019402983479437093 0 -0.0032091787835751965 0.01941861753048656 0 -0.003222466480980945 0.019390978270255332 0 -0.0031960619279636079 0.019402147181650543 0 -0.0032094916784316807 0.019387720309935994 0 -0.0032121613978502743 0.019384269597456271 0 -0.0019960466821717883 0.017386604141590378 0 -0.0021633961341461427 0.015632531709873526 0 -0.0021633961341461427 0.015632531709873526 0 -0.0047334891556751902 0.018267692602595045 0 -0.0022312918805406879 0.016581148743422005 0 -0.0024540379232627129 0.016106212260732961 0 -0.0017406762501352036 0.016137167852795002 0 -0.0032030823278603364 0.019402983479437093 0 -0.003222466480980945 0.019390978270255332 0 -0.0032067124051844004 0.019379408913789978 0 -0.0021633961341461427 0.015632531709873526 0 -0.0019512094662715114 0.014737486714381133 0 0.0030819374011916323 0.0051145765384634318 0 0.003858576833741148 0.005329140635805492 0 0.0032774443935218904 0.0043160619359352784 0 0.003051612192284107 0.0060384896377790919 0 0.0030819374011916323 0.0051145765384634318 0 0.0024182582120844611 0.0053623667133283742 0 0.003051612192284107 0.0060384896377790919 0 0.0030819374011916323 0.0051145765384634318 0 0.003858576833741148 0.005329140635805492 0 0.0056765028011508496 0.0054187356525289719 0 0.003858576833741148 0.005329140635805492 0 0.0041978666028696862 0.004439008846598134 0 0.0041978666028696862 0.004439008846598134 0 0.0036771776304563393 0.0038634855185931808 0 0.0046430368212140045 0.0033030728949037893 0 0.0056765028011508496 0.0054187356525289719 0 0.0041978666028696862 0.004439008846598134 0 0.0046430368212140045 0.0033030728949037893 0 0.0036771776304563393 0.0038634855185931808 0 0.0029640774707419908 0.0038338762064846692 0 0.003437260750582709 0.003295926514579607 0 0.003858576833741148 0.005329140635805492 0 0.0041978666028696862 0.004439008846598134 0 0.0032774443935218904 0.0043160619359352784 0 0.0041978666028696862 0.004439008846598134 0 0.0036771776304563393 0.0038634855185931808 0 0.0032774443935218904 0.0043160619359352784 0 0.0030819374011916323 0.0051145765384634318 0 0.0032774443935218904 0.0043160619359352784 0 0.0027846090215357527 0.0045566102700769513 0 0.0032774443935218904 0.0043160619359352784 0 0.0028671109111866704 0.0041427664526037132 0 0.0027846090215357527 0.0045566102700769513 0 0.0032774443935218904 0.0043160619359352784 0 0.0028671109111866704 0.0041427664526037132 0 0.0029640774707419908 0.0038338762064846692 0 0.0036771776304563393 0.0038634855185931808 0 0.0032774443935218904 0.0043160619359352784 0 0.0029640774707419908 0.0038338762064846692 0 0.0024494025650777548 0.003878886207193683 0 0.0027846090215357527 0.0045566102700769513 0 0.0024182582120844611 0.0053623667133283742 0 0.0024494025650777548 0.003878886207193683 0 0.0019725888552030476 0.0039632270466773527 0 0.0021185785139691353 0.0045898485777062653 0 0.0024494025650777548 0.003878886207193683 0 0.0024182582120844611 0.0053623667133283742 0 0.0013502810575381535 0.0063496876469618987 0 0.0012385952963200116 0.0072312440632204787 0 0.00094301027113024899 0.0080028310991566726 0 0.0029640774707419908 0.0038338762064846692 0 0.0024494025650777548 0.003878886207193683 0 0.0025091013640279199 0.0034232842571633349 0 0.0028671109111866704 0.0041427664526037132 0 0.0029640774707419908 0.0038338762064846692 0 0.0024494025650777548 0.003878886207193683 0 0.0028671109111866704 0.0041427664526037132 0 0.0024494025650777548 0.003878886207193683 0 0.0027846090215357527 0.0045566102700769513 0 0.0030819374011916323 0.0051145765384634318 0 0.0027846090215357527 0.0045566102700769513 0 0.0024182582120844611 0.0053623667133283742 0 0.0019725888552030476 0.0039632270466773527 0 0.0014888001111789256 0.0041828914576446082 0 0.0021185785139691353 0.0045898485777062653 0 0.0024494025650777548 0.003878886207193683 0 0.0019725888552030476 0.0039632270466773527 0 0.0021281811862492775 0.0035973866452415487 0 0.0019725888552030476 0.0039632270466773527 0 0.0017000504371730942 0.0035482050600363713 0 0.0021281811862492775 0.0035973866452415487 0 0.0014888001111789256 0.0041828914576446082 0 0.00054765845991300429 0.0045337718549293094 0 0.0011322083085482193 0.003605227394549747 0 0.0014888001111789256 0.0041828914576446082 0 0.0011322083085482193 0.003605227394549747 0 0.0017000504371730942 0.0035482050600363713 0 0.0019725888552030476 0.0039632270466773527 0 0.0014888001111789256 0.0041828914576446082 0 0.0017000504371730942 0.0035482050600363713 0 0.0014299282523971438 0.0048266045399301127 0 0.00054765845991300429 0.0045337718549293094 0 0.0014496995751971319 0.0056426754262978674 0 0.0014888001111789256 0.0041828914576446082 0 0.0014299282523971438 0.0048266045399301127 0 0.00054765845991300429 0.0045337718549293094 0 0.0014299282523971438 0.0048266045399301127 0 0.0021185785139691353 0.0045898485777062653 0 0.0018002650303989827 0.0054001161572855526 0 0.0014888001111789256 0.0041828914576446082 0 0.0014299282523971438 0.0048266045399301127 0 0.0021185785139691353 0.0045898485777062653 0 0.00094301027113024899 0.0080028310991566726 0 0.00012848342021976243 0.010152131540131341 0 0.002618055416858639 0.0072716137083117518 0 0.0013502810575381535 0.0063496876469618987 0 0.00037652812815485955 0.0088164832039419952 0 0.00061676805902606319 0.0097414495896575998 0 0.00012848342021976243 0.010152131540131341 0 0.003051612192284107 0.0060384896377790919 0 0.002618055416858639 0.0072716137083117518 0 0.0023183269628975663 0.006276776403349533 0 0.002618055416858639 0.0072716137083117518 0 0.0023183269628975663 0.006276776403349533 0 0.0013502810575381535 0.0063496876469618987 0 0.003051612192284107 0.0060384896377790919 0 0.0024182582120844611 0.0053623667133283742 0 0.0023183269628975663 0.006276776403349533 0 0.0024182582120844611 0.0053623667133283742 0 0.0023183269628975663 0.006276776403349533 0 0.0013502810575381535 0.0063496876469618987 0 -0.010565383954862331 -0.0052698788468634452 0 -0.0087463509086159411 -0.005494144645944065 0 -0.0086445201861558019 -0.0029056803941515355 0 0.00054765845991300429 0.0045337718549293094 0 0.00047953796011645654 0.0031046488603488948 0 -0.00037601361078103612 0.0033891346663450076 0 -0.0087463509086159411 -0.005494144645944065 0 -0.0086445201861558019 -0.0029056803941515355 0 -0.0076933635087181084 -0.0042908521866046557 0 -0.0037426563751593598 0.0029708734807447792 0 -0.0030488728359319966 0.00081024459102153759 0 0.00054765845991300429 0.0045337718549293094 0 0.00047953796011645654 0.0031046488603488948 0 0.0011322083085482193 0.003605227394549747 0 -0.0037426563751593598 0.0029708734807447792 0 -0.00097613638802212426 0.010027017762020876 0 -0.0087463509086159411 -0.005494144645944065 0 -0.0093623515422588729 -0.0072427292321194285 0 -0.00813084981583608 -0.0072436400167730742 0 -0.010565383954862331 -0.0052698788468634452 0 -0.0087463509086159411 -0.005494144645944065 0 -0.0093623515422588729 -0.0072427292321194285 0 -0.0093623515422588729 -0.0072427292321194285 0 -0.0087062055076222358 -0.0086860407791627819 0 -0.00813084981583608 -0.0072436400167730742 0 -0.0093623515422588729 -0.0072427292321194285 0 -0.009692381800549427 -0.0082602949171250491 0 -0.01069859137416947 -0.0077702295846779302 0 -0.0093623515422588729 -0.0072427292321194285 0 -0.009692381800549427 -0.0082602949171250491 0 -0.0087062055076222358 -0.0086860407791627819 0 -0.010565383954862331 -0.0052698788468634452 0 -0.01069859137416947 -0.0077702295846779302 0 -0.012465599437270375 -0.0076060704928457871 0 -0.010565383954862331 -0.0052698788468634452 0 -0.0093623515422588729 -0.0072427292321194285 0 -0.01069859137416947 -0.0077702295846779302 0 -0.01069859137416947 -0.0077702295846779302 0 -0.010000282659882736 -0.0093402268970396093 0 -0.012465599437270375 -0.0076060704928457871 0 -0.00033723661939915803 0.025559299874511415 0 -0.00082292733797442806 0.025623218351156395 0 -0.00043629645977476451 0.025287363358237325 0 -0.0010294702689679412 0.016195160247304 0 -0.0022570511134253133 0.018655085006657704 0 -0.0027701877221546732 0.0093758748033382321 0 -0.00097613638802212426 0.010027017762020876 0 -0.009692381800549427 -0.0082602949171250491 0 -0.01069859137416947 -0.0077702295846779302 0 -0.010000282659882736 -0.0093402268970396093 0 -0.010000282659882736 -0.0093402268970396093 0 -0.0087062055076222358 -0.0086860407791627819 0 -0.0075277671527689462 -0.011083206775969315 0 -0.009692381800549427 -0.0082602949171250491 0 -0.010000282659882736 -0.0093402268970396093 0 -0.0087062055076222358 -0.0086860407791627819 0 -0.0018759890763748544 0.017517549911319933 0 -0.00018990675749962346 0.014933932266762581 0 -0.00045105392344510758 0.024112689806304217 0 -0.00062631008519219264 0.024283295902186256 0 -0.00050692363752683064 0.024296472626421744 0 0.0020161262445346113 0.0088779001997785593 0 0.00031442789326579981 0.0088772524696138413 0 4.8844016479186487e-05 0.010682348059286802 0 -0.00033105942548449727 0.024205923170497766 0 -0.00045105392344510758 0.024112689806304217 0 -0.00050692363752683064 0.024296472626421744 0 0.002618055416858639 0.0072716137083117518 0 0.0020161262445346113 0.0088779001997785593 0 0.00031442789326579981 0.0088772524696138413 0 -0.0021024995374058662 0.02001662835403659 0 -0.0018759890763748544 0.017517549911319933 0 0.0014299282523971438 0.0048266045399301127 0 0.0018002650303989827 0.0054001161572855526 0 0.0014496995751971319 0.0056426754262978674 0 0.00012848342021976243 0.010152131540131341 0 -0.00097613638802212426 0.010027017762020876 0 0.00031442789326579981 0.0088772524696138413 0 -0.00024820382915327757 0.010317166547387565 0 4.8844016479186487e-05 0.010682348059286802 0 -0.00080601385809018491 0.025809995542159198 0 -0.00087002450816762414 0.025732512909215591 0 -0.00082292733797442806 0.025623218351156395 0 0.00012848342021976243 0.010152131540131341 0 -0.00038119613249377457 0.013522550398635693 0 -0.0040349729514524198 0.0136616791976998 0 0.0036856796894750251 0.0083658623727168053 0 -0.00010181582957782951 0.0037149388058634902 0 -0.00097613638802212426 0.010027017762020876 0 -0.00038119613249377457 0.013522550398635693 0 -0.00038119613249377457 0.013522550398635693 0 -0.00018990675749962346 0.014933932266762581 0 -0.0010294702689679412 0.016195160247304 0 -0.0018891259901623698 0.020721893552429701 0 -0.00061506632310477378 0.024299277851592999 0 -0.00066594102265438518 0.024356546939669169 0 -0.00058536624591972656 0.024335683238738165 0 -0.00066594102265438518 0.024356546939669169 0 -0.00060865170160401304 0.024449528670978795 0 -0.00058536624591972656 0.024335683238738165 0 -0.00018990675749962346 0.014933932266762581 0 -0.00014451417554852363 0.015024818547065081 0 -0.00033723661939915803 0.025559299874511415 0 -0.00080601385809018491 0.025809995542159198 0 -0.00082292733797442806 0.025623218351156395 0 -0.00066594102265438518 0.024356546939669169 0 -0.00060865170160401304 0.024449528670978795 0 -0.00063614328818302338 0.024548522688371828 0 -0.0004449318734895889 0.020624466309490629 0 -0.0030958657410945474 0.017369205522527811 0 0.0030278025600726836 0.011838676507895558 0 -0.00038119613249377457 0.013522550398635693 0 -0.0010294702689679412 0.016195160247304 0 -0.00018990675749962346 0.014933932266762581 0 -0.0010294702689679412 0.016195160247304 0 -0.0021024995374058662 0.02001662835403659 0 -0.0025158429685367615 0.023424338504074483 0 -0.00050692363752683064 0.024296472626421744 0 -0.00058536624591972656 0.024335683238738165 0 -0.00054749237000815639 0.024531458908667092 0 -0.00033105942548449727 0.024205923170497766 0 -0.00050692363752683064 0.024296472626421744 0 -0.00054749237000815639 0.024531458908667092 0 -0.0034540655373463502 0.027729205021542351 0 -0.0034771792468460383 0.028462643451871224 0 -0.0028210812278988053 0.027515531371449752 0 -0.00060865170160401304 0.024449528670978795 0 -0.00058536624591972656 0.024335683238738165 0 -0.00054749237000815639 0.024531458908667092 0 -0.00062631008519219264 0.024283295902186256 0 -0.00050692363752683064 0.024296472626421744 0 -0.00058536624591972656 0.024335683238738165 0 -0.0032454293831485023 0.027168023221291748 0 -0.0028210812278988053 0.027515531371449752 0 -0.0028747643840884886 0.026719571922309403 0 -0.0034540655373463502 0.027729205021542351 0 -0.0032454293831485023 0.027168023221291748 0 -0.0028210812278988053 0.027515531371449752 0 -0.00063614328818302338 0.024548522688371828 0 -0.00070199682760195971 0.024613250307975926 0 -0.00068989857143112257 0.02466560655932605 0 -0.00060865170160401304 0.024449528670978795 0 -0.00054749237000815639 0.024531458908667092 0 -0.00063614328818302338 0.024548522688371828 0 -0.00054749237000815639 0.024531458908667092 0 -0.00063614328818302338 0.024548522688371828 0 -0.00068989857143112257 0.02466560655932605 0 -0.00066594102265438518 0.024356546939669169 0 -0.00063614328818302338 0.024548522688371828 0 -0.00070199682760195971 0.024613250307975926 0 -0.0025158429685367615 0.023424338504074483 0 -0.0020982905401486459 0.024278625191918247 0 -0.0020279870865189116 0.026493076839788018 0 -0.0028747643840884886 0.026719571922309403 0 -0.0025652428104166094 0.026144407001547309 0 -0.0028210812278988053 0.027515531371449752 0 -0.0020279870865189116 0.026493076839788018 0 -0.0028747643840884886 0.026719571922309403 0 -0.0028747643840884886 0.026719571922309403 0 -0.0031185779980844007 0.026155512774444032 0 -0.0025652428104166094 0.026144407001547309 0 -0.0028747643840884886 0.026719571922309403 0 -0.0031185779980844007 0.026155512774444032 0 -0.0035652871201909413 0.026647729872540066 0 -0.0032454293831485023 0.027168023221291748 0 -0.0028747643840884886 0.026719571922309403 0 -0.0035652871201909413 0.026647729872540066 0 -0.00043629645977476451 0.025287363358237325 0 -0.00013576586802042714 0.024936388012697923 0 0.00033082898216773231 0.025307847654646016 0 -0.0027701877221546732 0.0093758748033382321 0 -0.0023643013064195105 0.0082492363845013631 0 -0.00033723661939915803 0.025559299874511415 0 -0.00043629645977476451 0.025287363358237325 0 0.00033082898216773231 0.025307847654646016 0 -0.00093985218676987921 0.025681972576137104 0 -0.00073704320370963298 0.025209053957583862 0 -0.00043629645977476451 0.025287363358237325 0 -0.00073704320370963298 0.025209053957583862 0 -0.00043629645977476451 0.025287363358237325 0 -0.00045891656400932315 0.024999071605056468 0 -0.0018891259901623698 0.020721893552429701 0 -0.0020314743987539683 0.021815950702580411 0 -0.00070199682760195971 0.024613250307975926 0 -0.00068989857143112257 0.02466560655932605 0 -0.00055619793689984647 0.024606189097716304 0 -0.00073704320370963298 0.025209053957583862 0 -0.00045891656400932315 0.024999071605056468 0 -0.00055619793689984647 0.024606189097716304 0 -0.00045891656400932315 0.024999071605056468 0 -0.00013576586802042714 0.024936388012697923 0 -0.00055619793689984647 0.024606189097716304 0 -0.00043629645977476451 0.025287363358237325 0 -0.00045891656400932315 0.024999071605056468 0 -0.00013576586802042714 0.024936388012697923 0 -0.00013576586802042714 0.024936388012697923 0 -0.00025794232444223555 0.024468707283898588 0 0.00013249445392025504 0.024662077631617638 0 -0.00013576586802042714 0.024936388012697923 0 -0.00025794232444223555 0.024468707283898588 0 -0.00055619793689984647 0.024606189097716304 0 -0.00025794232444223555 0.024468707283898588 0 -1.8805575097123496e-06 0.024057194711837343 0 0.00013249445392025504 0.024662077631617638 0 -0.00025794232444223555 0.024468707283898588 0 -0.0005627910663319937 0.024235488502825687 0 -1.8805575097123496e-06 0.024057194711837343 0 -0.0020982905401486459 0.024278625191918247 0 -0.0015658722305459485 0.02416721736447594 0 -0.00025794232444223555 0.024468707283898588 0 -0.00055619793689984647 0.024606189097716304 0 -0.0005627910663319937 0.024235488502825687 0 -0.00068989857143112257 0.02466560655932605 0 -0.00055619793689984647 0.024606189097716304 0 -0.0005627910663319937 0.024235488502825687 0 -0.0012575436375320333 0.023883973317549118 0 -0.0011285864454392137 0.025174840152573277 0 -0.0021625863226625661 0.024656273710272084 0 -0.001282679736793909 0.02392206726964468 0 -0.0015658722305459485 0.02416721736447594 0 -0.00030005400703828061 0.023458983889578251 0 -0.0005627910663319937 0.024235488502825687 0 -1.8805575097123496e-06 0.024057194711837343 0 -0.0026448678714249044 0.025473323719934694 0 -0.0033211149865931557 0.025561098760350301 0 -0.0031185779980844007 0.026155512774444032 0 -0.0026448678714249044 0.025473323719934694 0 -0.0031185779980844007 0.026155512774444032 0 -0.0025652428104166094 0.026144407001547309 0 -0.0020279870865189116 0.026493076839788018 0 -0.0011285864454392137 0.025174840152573277 0 -0.0021120321411228732 0.025602061282899425 0 -0.0020279870865189116 0.026493076839788018 0 -0.0025652428104166094 0.026144407001547309 0 -0.0021120321411228732 0.025602061282899425 0 -0.0026448678714249044 0.025473323719934694 0 -0.0025652428104166094 0.026144407001547309 0 -0.0021120321411228732 0.025602061282899425 0 -0.0026448678714249044 0.025473323719934694 0 -0.0021120321411228732 0.025602061282899425 0 -0.0021625863226625661 0.024656273710272084 0 -0.0011285864454392137 0.025174840152573277 0 -0.0021120321411228732 0.025602061282899425 0 -0.0021625863226625661 0.024656273710272084 0 -0.0029697167985336457 0.023917576150258957 0 -0.0021625863226625661 0.024656273710272084 0 -0.0029557918135705141 0.024943127446041179 0 -0.0029697167985336457 0.023917576150258957 0 -0.0029557918135705141 0.024943127446041179 0 -0.0036379584210505141 0.02506677938430044 0 -0.0026448678714249044 0.025473323719934694 0 -0.0021625863226625661 0.024656273710272084 0 -0.0029557918135705141 0.024943127446041179 0 -0.0026448678714249044 0.025473323719934694 0 -0.0033211149865931557 0.025561098760350301 0 -0.0029557918135705141 0.024943127446041179 0 -0.0033211149865931557 0.025561098760350301 0 -0.0029557918135705141 0.024943127446041179 0 -0.0036379584210505141 0.02506677938430044 0 -0.003915862160931329 0.024400979749853464 0 -0.0036379584210505141 0.02506677938430044 0 -0.0040496943633710238 0.025368698660354225 0 -0.0036379584210505141 0.02506677938430044 0 -0.0040496943633710238 0.025368698660354225 0 -0.0038402177879974407 0.025670068813591601 0 -0.0033211149865931557 0.025561098760350301 0 -0.0036379584210505141 0.02506677938430044 0 -0.0038402177879974407 0.025670068813591601 0 -0.0033211149865931557 0.025561098760350301 0 -0.0038402177879974407 0.025670068813591601 0 -0.0036553633726540817 0.026087177649541902 0 -0.0038402177879974407 0.025670068813591601 0 -0.0039917612264315141 0.026004678070375997 0 -0.0042842549398981857 0.025899616779392627 0 -0.0040496943633710238 0.025368698660354225 0 -0.0038402177879974407 0.025670068813591601 0 -0.0042842549398981857 0.025899616779392627 0 -0.0038402177879974407 0.025670068813591601 0 -0.0039917612264315141 0.026004678070375997 0 -0.0036553633726540817 0.026087177649541902 0 -0.0039917612264315141 0.026004678070375997 0 -0.0036553633726540817 0.026087177649541902 0 -0.0041364805615128333 0.026310643965782803 0 -0.0033211149865931557 0.025561098760350301 0 -0.0031185779980844007 0.026155512774444032 0 -0.0036553633726540817 0.026087177649541902 0 -0.004476696652159458 0.026124655754970791 0 -0.0047258222008131874 0.026111522971915262 0 -0.0046076758602989131 0.0263754894971257 0 -0.004476696652159458 0.026124655754970791 0 -0.0041364805615128333 0.026310643965782803 0 -0.0046076758602989131 0.0263754894971257 0 -0.0039917612264315141 0.026004678070375997 0 -0.0042842549398981857 0.025899616779392627 0 -0.0041364805615128333 0.026310643965782803 0 -0.004476696652159458 0.026124655754970791 0 -0.0042842549398981857 0.025899616779392627 0 -0.0041364805615128333 0.026310643965782803 0 -0.0042842549398981857 0.025899616779392627 0 -0.0045651191862614987 0.025945468821078756 0 -0.0045023986593985951 0.025706820562443663 0 -0.004476696652159458 0.026124655754970791 0 -0.0042842549398981857 0.025899616779392627 0 -0.0045651191862614987 0.025945468821078756 0 -0.0045651191862614987 0.025945468821078756 0 -0.0047142000974900117 0.025949517750836173 0 -0.0047258222008131874 0.026111522971915262 0 -0.004476696652159458 0.026124655754970791 0 -0.0045651191862614987 0.025945468821078756 0 -0.0047258222008131874 0.026111522971915262 0 -0.0045651191862614987 0.025945468821078756 0 -0.0045023986593985951 0.025706820562443663 0 -0.0047142000974900117 0.025949517750836173 0 -0.0045023986593985951 0.025706820562443663 0 -0.0048743951464819022 0.025917361635751202 0 -0.0047142000974900117 0.025949517750836173 0 -0.0045023986593985951 0.025706820562443663 0 -0.004347029503277239 0.025150271372823448 0 -0.0048743951464819022 0.025917361635751202 0 -0.0046234971515268022 0.023787702207331063 0 -0.004347029503277239 0.025150271372823448 0 -0.0048743951464819022 0.025917361635751202 0 -0.0040496943633710238 0.025368698660354225 0 -0.0045023986593985951 0.025706820562443663 0 -0.004347029503277239 0.025150271372823448 0 -0.0040496943633710238 0.025368698660354225 0 -0.0042842549398981857 0.025899616779392627 0 -0.0045023986593985951 0.025706820562443663 0 -0.003915862160931329 0.024400979749853464 0 -0.0040496943633710238 0.025368698660354225 0 -0.004347029503277239 0.025150271372823448 0 -0.004687561970775145 0.026380581221895443 0 -0.004665193554460741 0.026250999897737194 0 -0.0048743951464819022 0.025917361635751202 0 -0.004665193554460741 0.026250999897737194 0 -0.0047462008892791901 0.026086404258806997 0 -0.0048743951464819022 0.025917361635751202 0 -0.004665193554460741 0.026250999897737194 0 -0.0046808839915678073 0.026193804110753283 0 -0.0047462008892791901 0.026086404258806997 0 -0.0046808839915678073 0.026193804110753283 0 -0.0047462008892791901 0.026086404258806997 0 -0.0047068879832875875 0.026163943868458137 0 -0.0047462008892791901 0.026086404258806997 0 -0.0048743951464819022 0.025917361635751202 0 -0.0047807301244780142 0.026026865898251834 0 -0.0048743951464819022 0.025917361635751202 0 -0.0047142000974900117 0.025949517750836173 0 -0.0047807301244780142 0.026026865898251834 0 -0.0045627984859104732 0.026449326561872304 0 -0.0046256783522591735 0.026313780235589303 0 -0.0046096547959035596 0.026364924627091915 0 -0.0045230754012884327 0.026538016355079328 0 -0.0045136665877438869 0.026547001328403666 0 -0.0045627984859104732 0.026449326561872304 0 -0.0046176818133891505 0.026448935059825745 0 -0.004665193554460741 0.026250999897737194 0 -0.004596302954760486 0.026398209985039119 0 -0.0045627984859104732 0.026449326561872304 0 -0.004596302954760486 0.026398209985039119 0 -0.0046256783522591735 0.026313780235589303 0 -0.004665193554460741 0.026250999897737194 0 -0.004596302954760486 0.026398209985039119 0 -0.0046256783522591735 0.026313780235589303 0 -0.0046604839765337714 0.026254214842988954 0 -0.0046096547959035596 0.026364924627091915 0 -0.0046674809313987809 0.026295252815292571 0 -0.0046808839915678073 0.026193804110753283 0 -0.0046256783522591735 0.026313780235589303 0 -0.0046604839765337714 0.026254214842988954 0 -0.004665193554460741 0.026250999897737194 0 -0.0046808839915678073 0.026193804110753283 0 -0.0046256783522591735 0.026313780235589303 0 -0.0046808839915678073 0.026193804110753283 0 -0.0046604839765337714 0.026254214842988954 0 -0.0047068879832875875 0.026163943868458137 0 -0.0046256783522591735 0.026313780235589303 0 -0.0046604839765337714 0.026254214842988954 0 -0.0046096547959035596 0.026364924627091915 0 -0.0045533450995570712 0.026475420279193071 0 -0.0045787256893923137 0.026471423319915786 0 -0.0046096547959035596 0.026364924627091915 0 -0.0045533450995570712 0.026475420279193071 0 -0.0045627984859104732 0.026449326561872304 0 -0.0046096547959035596 0.026364924627091915 0 -0.0046674809313987809 0.026295252815292571 0 -0.0046590278403271252 0.026407175288544967 0 -0.0046365841763454695 0.0263525765957459 0 -0.0045787256893923137 0.026471423319915786 0 -0.0046096547959035596 0.026364924627091915 0 -0.0046674809313987809 0.026295252815292571 0 -0.0045787256893923137 0.026471423319915786 0 -0.0046674809313987809 0.026295252815292571 0 -0.0046590278403271252 0.026407175288544967 0 -0.0046604839765337714 0.026254214842988954 0 -0.0046674809313987809 0.026295252815292571 0 -0.0047068879832875875 0.026163943868458137 0 -0.0046674809313987809 0.026295252815292571 0 -0.0047068879832875875 0.026163943868458137 0 -0.0046365841763454695 0.0263525765957459 0 -0.0039344087131250706 0.025417111531182736 0 -0.0038094043735137587 0.025136848450959395 0 -0.0047807301244780142 0.026026865898251834 0 -0.0047068879832875875 0.026163943868458137 0 -0.0046365841763454695 0.0263525765957459 0 -0.0047807301244780142 0.026026865898251834 0 -0.0047258222008131874 0.026111522971915262 0 -0.0050433159556324816 0.026378691129275683 0 -0.0047142000974900117 0.025949517750836173 0 -0.0047807301244780142 0.026026865898251834 0 -0.0047258222008131874 0.026111522971915262 0 -0.0047462008892791901 0.026086404258806997 0 -0.0047807301244780142 0.026026865898251834 0 -0.0047068879832875875 0.026163943868458137 0 -0.0047258222008131874 0.026111522971915262 0 -0.0050433159556324816 0.026378691129275683 0 -0.0046076758602989131 0.0263754894971257 0 -0.0038094043735137587 0.025136848450959395 0 -0.0033607323716605703 0.024060068986122545 0 -0.0050433159556324816 0.026378691129275683 0 -0.0047182179884917835 0.026860777252318776 0 -0.0046076758602989131 0.0263754894971257 0 -0.0050433159556324816 0.026378691129275683 0 -0.0047182179884917835 0.026860777252318776 0 -0.0052889203167464753 0.027033839353052994 0 -0.0046845364393621686 0.026439269647786697 0 -0.0046365841763454695 0.0263525765957459 0 -0.0046433644606405653 0.026437711224439664 0 -0.0046845364393621686 0.026439269647786697 0 -0.0046590278403271252 0.026407175288544967 0 -0.0046365841763454695 0.0263525765957459 0 -0.0034160802166671501 0.024236280201668431 0 -0.0033607323716605703 0.024060068986122545 0 -0.0047195703782095056 0.026275415790355861 0 -0.0046845364393621686 0.026439269647786697 0 -0.0049610432960798378 0.026338391936558975 0 -0.0047195703782095056 0.026275415790355861 0 -0.0049728184877677961 0.025924574034517776 0 -0.0049610432960798378 0.026338391936558975 0 -0.0044200617578832582 0.027741522553240073 0 -0.0047182179884917835 0.026860777252318776 0 -0.0052889203167464753 0.027033839353052994 0 -0.0028631243285630538 0.022275996190319426 0 -0.0033607323716605703 0.024060068986122545 0 -0.0044200617578832582 0.027741522553240073 0 -0.0037128534439826561 0.027245151214232256 0 -0.0042100107273356346 0.026840406114226258 0 -0.0044200617578832582 0.027741522553240073 0 -0.0047182179884917835 0.026860777252318776 0 -0.0042100107273356346 0.026840406114226258 0 -0.0034540655373463502 0.027729205021542351 0 -0.0044200617578832582 0.027741522553240073 0 -0.0037128534439826561 0.027245151214232256 0 -0.0034540655373463502 0.027729205021542351 0 -0.0032454293831485023 0.027168023221291748 0 -0.0037128534439826561 0.027245151214232256 0 -0.0032454293831485023 0.027168023221291748 0 -0.0037128534439826561 0.027245151214232256 0 -0.0035652871201909413 0.026647729872540066 0 -0.0037128534439826561 0.027245151214232256 0 -0.0035652871201909413 0.026647729872540066 0 -0.0042100107273356346 0.026840406114226258 0 -0.0031185779980844007 0.026155512774444032 0 -0.0036553633726540817 0.026087177649541902 0 -0.0035652871201909413 0.026647729872540066 0 -0.0036553633726540817 0.026087177649541902 0 -0.0035652871201909413 0.026647729872540066 0 -0.0041364805615128333 0.026310643965782803 0 -0.0035652871201909413 0.026647729872540066 0 -0.0041364805615128333 0.026310643965782803 0 -0.0042100107273356346 0.026840406114226258 0 -0.0041364805615128333 0.026310643965782803 0 -0.0046076758602989131 0.0263754894971257 0 -0.0042100107273356346 0.026840406114226258 0 -0.0047182179884917835 0.026860777252318776 0 -0.0046076758602989131 0.0263754894971257 0 -0.0042100107273356346 0.026840406114226258 0 3.2985420176488489e-05 0.034835970308944517 0 4.0328208907248262e-05 0.034843393017913282 0 4.2717240457328715e-05 0.034698188280272227 0 3.2985420176488489e-05 0.034835970308944517 0 4.2717240457328715e-05 0.034698188280272227 0 5.5120216274276097e-05 0.034700800432805406 0 3.2985420176488489e-05 0.034835970308944517 0 1.4541776473613042e-07 0.034999749614039136 0 -2.0124189580962719e-07 0.034999299956571583 0 3.2985420176488489e-05 0.034835970308944517 0 1.4541776473613042e-07 0.034999749614039136 0 4.0328208907248262e-05 0.034843393017913282 0 1.4541776473613042e-07 0.034999749614039136 0 5.6597624398101346e-05 0.034921833936461963 0 4.0328208907248262e-05 0.034843393017913282 0 5.6597624398101346e-05 0.034921833936461963 0 4.0328208907248262e-05 0.034843393017913282 0 3.7917001125747332e-05 0.034726516389632249 0 1.4541776473613042e-07 0.034999749614039136 0 5.6597624398101346e-05 0.034921833936461963 0 3.2603036600838059e-08 0.034999852901376818 0 4.0328208907248262e-05 0.034843393017913282 0 4.2717240457328715e-05 0.034698188280272227 0 3.7917001125747332e-05 0.034726516389632249 0 4.2717240457328715e-05 0.034698188280272227 0 3.1589493988997947e-05 0.034619842513943053 0 3.7917001125747332e-05 0.034726516389632249 0 4.2717240457328715e-05 0.034698188280272227 0 3.5848397260512632e-05 0.034541310065250339 0 6.5179900503083268e-05 0.034571033147614783 0 4.2717240457328715e-05 0.034698188280272227 0 3.5848397260512632e-05 0.034541310065250339 0 3.1589493988997947e-05 0.034619842513943053 0 3.5848397260512632e-05 0.034541310065250339 0 6.5179900503083268e-05 0.034571033147614783 0 3.6327623984999385e-05 0.034390491030230112 0 6.5179900503083268e-05 0.034571033147614783 0 5.5120216274276097e-05 0.034700800432805406 0 8.3364819452239256e-05 0.034621392909021789 0 4.2717240457328715e-05 0.034698188280272227 0 6.5179900503083268e-05 0.034571033147614783 0 5.5120216274276097e-05 0.034700800432805406 0 8.3364819452239256e-05 0.034621392909021789 0 6.9641760948173877e-05 0.034619502080647874 0 4.1768984882187914e-05 0.034761172605386845 0 5.5120216274276097e-05 0.034700800432805406 0 8.3364819452239256e-05 0.034621392909021789 0 4.1768984882187914e-05 0.034761172605386845 0 8.3364819452239256e-05 0.034621392909021789 0 0.00012747195402922724 0.034494412659877439 0 0.00011760502438928048 0.034522336822328345 0 6.5179900503083268e-05 0.034571033147614783 0 8.3364819452239256e-05 0.034621392909021789 0 0.00012747195402922724 0.034494412659877439 0 6.5179900503083268e-05 0.034571033147614783 0 0.00012747195402922724 0.034494412659877439 0 0.00018231458841241088 0.034459461830109915 0 0.00011760502438928048 0.034522336822328345 0 0.00014795564241418737 0.034437913014743457 0 0.00015760356557851458 0.034425870888831568 0 0.00012747195402922724 0.034494412659877439 0 0.00011760502438928048 0.034522336822328345 0 0.00015760356557851458 0.034425870888831568 0 0.00011760502438928048 0.034522336822328345 0 6.9641760948173877e-05 0.034619502080647874 0 0.00010381564417637367 0.034503804172159348 0 8.3364819452239256e-05 0.034621392909021789 0 0.00011760502438928048 0.034522336822328345 0 6.9641760948173877e-05 0.034619502080647874 0 6.9641760948173877e-05 0.034619502080647874 0 4.1768984882187914e-05 0.034761172605386845 0 2.3042213119536335e-06 0.034624285522926179 0 6.9641760948173877e-05 0.034619502080647874 0 2.3042213119536335e-06 0.034624285522926179 0 0.00010381564417637367 0.034503804172159348 0 3.2985420176488489e-05 0.034835970308944517 0 5.5120216274276097e-05 0.034700800432805406 0 4.1768984882187914e-05 0.034761172605386845 0 3.2985420176488489e-05 0.034835970308944517 0 4.1768984882187914e-05 0.034761172605386845 0 -2.0124189580962719e-07 0.034999299956571583 0 -3.1755626519035468e-10 0.035000001305856059 0 1.7706673798217518e-09 0.034999999887037225 0 1.1793791721517668e-06 0.035000521038738047 0 4.1768984882187914e-05 0.034761172605386845 0 -2.0124189580962719e-07 0.034999299956571583 0 2.3042213119536335e-06 0.034624285522926179 0 1.0294378038740925e-07 0.034999739593069276 0 6.6774819990173264e-05 0.034885253141661077 0 1.7706673798217518e-09 0.034999999887037225 0 1.1793791721517668e-06 0.035000521038738047 0 1.8448918161904563e-06 0.034999663131164586 0 2.3042213119536335e-06 0.034624285522926179 0 7.1290617755307578e-05 0.034429276432091094 0 0.00010381564417637367 0.034503804172159348 0 6.6774819990173264e-05 0.034885253141661077 0 9.7535354190690104e-05 0.03483423990537611 0 1.1793791721517668e-06 0.035000521038738047 0 1.8448918161904563e-06 0.034999663131164586 0 3.8765161082720099e-06 0.035000081108905574 0 1.8448918161904563e-06 0.034999663131164586 0 3.9863067679934315e-06 0.034998632732337442 0 3.8765161082720099e-06 0.035000081108905574 0 1.7706673798217518e-09 0.034999999887037225 0 1.8448918161904563e-06 0.034999663131164586 0 -2.5644901010028248e-10 0.035000000871808039 0 1.8448918161904563e-06 0.034999663131164586 0 -2.5644901010028248e-10 0.035000000871808039 0 2.9076100688142062e-06 0.034998182045959753 0 1.8448918161904563e-06 0.034999663131164586 0 3.9863067679934315e-06 0.034998632732337442 0 2.9076100688142062e-06 0.034998182045959753 0 3.9863067679934315e-06 0.034998632732337442 0 2.9076100688142062e-06 0.034998182045959753 0 4.8886263578054062e-06 0.034996980269553363 0 2.9076100688142062e-06 0.034998182045959753 0 3.7393322713985127e-06 0.03499370182500975 0 4.8886263578054062e-06 0.034996980269553363 0 8.3020717074987782e-05 0.034888451067553859 0 9.0018865133168125e-05 0.034878646351013731 0 1.0663799372222383e-05 0.034992703081391387 0 3.7393322713985127e-06 0.03499370182500975 0 1.7201163764639653e-05 0.035000281329509927 0 1.7383566447972698e-06 0.034991648046840303 0 1.0663799372222383e-05 0.034992703081391387 0 3.7393322713985127e-06 0.03499370182500975 0 -2.5644901010028248e-10 0.035000000871808039 0 2.9076100688142062e-06 0.034998182045959753 0 3.7393322713985127e-06 0.03499370182500975 0 -2.1116208854915191e-10 0.03499997100717947 0 1.7383566447972698e-06 0.034991648046840303 0 -2.5644901010028248e-10 0.035000000871808039 0 1.7383566447972698e-06 0.034991648046840303 0 -2.5644901010028248e-10 0.035000000871808039 0 3.7393322713985127e-06 0.03499370182500975 0 4.1849280201760549e-05 0.034983359829055739 0 2.058772544951217e-05 0.034986086449293685 0 2.9421294814980098e-05 0.03499543785511209 0 4.1849280201760549e-05 0.034983359829055739 0 2.9421294814980098e-05 0.03499543785511209 0 3.9964452678574488e-05 0.035000707143483217 0 2.058772544951217e-05 0.034986086449293685 0 2.9421294814980098e-05 0.03499543785511209 0 1.7201163764639653e-05 0.035000281329509927 0 2.058772544951217e-05 0.034986086449293685 0 1.0663799372222383e-05 0.034992703081391387 0 1.7201163764639653e-05 0.035000281329509927 0 2.9421294814980098e-05 0.03499543785511209 0 1.7201163764639653e-05 0.035000281329509927 0 3.1118376832767277e-05 0.035009668713230087 0 3.9863067679934315e-06 0.034998632732337442 0 4.8886263578054062e-06 0.034996980269553363 0 6.4577988404737272e-06 0.034998267477443584 0 9.0018865133168125e-05 0.034878646351013731 0 0.00010775802258520478 0.034844098630343212 0 2.9421294814980098e-05 0.03499543785511209 0 3.1118376832767277e-05 0.035009668713230087 0 3.9964452678574488e-05 0.035000707143483217 0 3.2539296820362086e-05 0.035008146853084947 0 3.9964452678574488e-05 0.035000707143483217 0 4.2506540777313509e-05 0.035015507871155281 0 0.00010775802258520478 0.034844098630343212 0 9.1730628860800122e-05 0.034863719206474901 0 0.00013883642647228195 0.034353073017095101 0 0.00014282055829393362 0.034413534528240843 0 0.00017434293239747465 0.034384611838089746 0 0.00010775802258520478 0.034844098630343212 0 9.6168270910224502e-05 0.034717211686174525 0 0.00014282055829393362 0.034413534528240843 0 0.00017261461724828303 0.034390597221384087 0 0.00017434293239747465 0.034384611838089746 0 3.9863067679934315e-06 0.034998632732337442 0 6.4577988404737272e-06 0.034998267477443584 0 3.8765161082720099e-06 0.035000081108905574 0 0.00013883642647228195 0.034353073017095101 0 0.00014282055829393362 0.034413534528240843 0 7.1290617755307578e-05 0.034429276432091094 0 0.00010775802258520478 0.034844098630343212 0 9.7535354190690104e-05 0.03483423990537611 0 0.00014282055829393362 0.034413534528240843 0 7.1290617755307578e-05 0.034429276432091094 0 0.00010381564417637367 0.034503804172159348 0 0.00014282055829393362 0.034413534528240843 0 0.00014795564241418737 0.034437913014743457 0 0.00017261461724828303 0.034390597221384087 0 0.00014282055829393362 0.034413534528240843 0 0.00010381564417637367 0.034503804172159348 0 0.00014795564241418737 0.034437913014743457 0 0.00011760502438928048 0.034522336822328345 0 0.00010381564417637367 0.034503804172159348 0 0.00014795564241418737 0.034437913014743457 0 0.00014795564241418737 0.034437913014743457 0 0.00016659763905102761 0.03439482437699317 0 0.00015760356557851458 0.034425870888831568 0 0.00014795564241418737 0.034437913014743457 0 0.00016659763905102761 0.03439482437699317 0 0.00017261461724828303 0.034390597221384087 0 0.00016659763905102761 0.03439482437699317 0 0.00017866043009022846 0.034351045219867503 0 0.00019364393746559153 0.034346495893397964 0 0.00017866043009022846 0.034351045219867503 0 0.0001728600596214784 0.034374015023725238 0 0.00017261461724828303 0.034390597221384087 0 9.1473906532293741e-05 0.034582466227214025 0 8.4670397865427318e-05 0.034593488386003485 0 0.00016659763905102761 0.03439482437699317 0 0.00017866043009022846 0.034351045219867503 0 0.00017261461724828303 0.034390597221384087 0 0.00021223954164602813 0.034220997466115906 0 0.00023435633421285313 0.034261503541123388 0 0.00026914148575152291 0.034201062653481613 0 0.00023435633421285313 0.034261503541123388 0 0.00026169974189922066 0.034210859955715489 0 0.00024115157582879502 0.034266923096879225 0 0.00017866043009022846 0.034351045219867503 0 0.00023435633421285313 0.034261503541123388 0 0.00019364393746559153 0.034346495893397964 0 8.4670397865427318e-05 0.034593488386003485 0 8.8142039774930349e-05 0.034582409348289045 0 0.00017866043009022846 0.034351045219867503 0 0.00019520165071171004 0.034305920266110436 0 0.00023435633421285313 0.034261503541123388 0 0.00023435633421285313 0.034261503541123388 0 0.00026914148575152291 0.034201062653481613 0 0.00026169974189922066 0.034210859955715489 0 0.00021223954164602813 0.034220997466115906 0 0.00027931519902927004 0.034190018708439122 0 0.00026914148575152291 0.034201062653481613 0 5.2832641046311532e-05 0.035022973344752066 0 5.1919654248777403e-05 0.035013762238965934 0 6.2889767655509323e-05 0.035009692189878691 0 8.4670397865427318e-05 0.034593488386003485 0 0.00012437605820723446 0.034622949403573307 0 0.0001728600596214784 0.034374015023725238 0 0.00017261461724828303 0.034390597221384087 0 0.00017434293239747465 0.034384611838089746 0 8.4670397865427318e-05 0.034593488386003485 0 9.6168270910224502e-05 0.034717211686174525 0 5.2832641046311532e-05 0.035022973344752066 0 5.1919654248777403e-05 0.035013762238965934 0 4.2506540777313509e-05 0.035015507871155281 0 5.1919654248777403e-05 0.035013762238965934 0 4.2506540777313509e-05 0.035015507871155281 0 4.9672224965488093e-05 0.035006826635442502 0 3.9964452678574488e-05 0.035000707143483217 0 4.9672224965488093e-05 0.035006826635442502 0 5.524768312617521e-05 0.034996335950223556 0 3.9964452678574488e-05 0.035000707143483217 0 4.2506540777313509e-05 0.035015507871155281 0 4.9672224965488093e-05 0.035006826635442502 0 6.2889767655509323e-05 0.035009692189878691 0 5.524768312617521e-05 0.034996335950223556 0 7.359949288089682e-05 0.034995466486952571 0 4.9672224965488093e-05 0.035006826635442502 0 6.2889767655509323e-05 0.035009692189878691 0 5.524768312617521e-05 0.034996335950223556 0 5.1919654248777403e-05 0.035013762238965934 0 4.9672224965488093e-05 0.035006826635442502 0 6.2889767655509323e-05 0.035009692189878691 0 6.2723460466028956e-05 0.034981561886843413 0 5.524768312617521e-05 0.034996335950223556 0 7.359949288089682e-05 0.034995466486952571 0 4.1849280201760549e-05 0.034983359829055739 0 3.9964452678574488e-05 0.035000707143483217 0 5.524768312617521e-05 0.034996335950223556 0 4.1849280201760549e-05 0.034983359829055739 0 6.2723460466028956e-05 0.034981561886843413 0 5.524768312617521e-05 0.034996335950223556 0 0.00030826928023277981 0.034362329739404923 0 0.00032314994756187229 0.034247600513623626 0 0.00024610124374937055 0.03429873953249396 0 0.00032314994756187229 0.034247600513623626 0 0.00026692142988340734 0.034199824874569351 0 0.00024610124374937055 0.03429873953249396 0 0.00016279750284355608 0.034717211344402088 0 0.00015145082407962479 0.034661231481961291 0 8.4382840349283398e-05 0.034980238251646416 0 6.2723460466028956e-05 0.034981561886843413 0 7.359949288089682e-05 0.034995466486952571 0 0.00012437605820723446 0.034622949403573307 0 0.00015145082407962479 0.034661231481961291 0 0.00027931519902927004 0.034190018708439122 0 0.00032314994756187229 0.034247600513623626 0 0.00028885814208448607 0.034196290520871718 0 0.00032314994756187229 0.034247600513623626 0 0.00028885814208448607 0.034196290520871718 0 0.00026692142988340734 0.034199824874569351 0 0.00026692142988340734 0.034199824874569351 0 0.00027519106994466723 0.034176222345436741 0 0.00024845229902797775 0.03411808332446082 0 0.00028885814208448607 0.034196290520871718 0 0.00026692142988340734 0.034199824874569351 0 0.00027519106994466723 0.034176222345436741 0 0.00027931519902927004 0.034190018708439122 0 0.00028885814208448607 0.034196290520871718 0 0.00026914148575152291 0.034201062653481613 0 0.00028885814208448607 0.034196290520871718 0 0.00027519106994466723 0.034176222345436741 0 0.00026914148575152291 0.034201062653481613 0 0.00027519106994466723 0.034176222345436741 0 0.00026169974189922066 0.034210859955715489 0 0.00025801860156737219 0.034164664662287035 0 0.00027519106994466723 0.034176222345436741 0 0.00026914148575152291 0.034201062653481613 0 0.00026169974189922066 0.034210859955715489 0 0.00027519106994466723 0.034176222345436741 0 0.00025801860156737219 0.034164664662287035 0 0.00024845229902797775 0.03411808332446082 0 0.00025801860156737219 0.034164664662287035 0 0.00021325479642408447 0.034014746774722028 0 0.00024845229902797775 0.03411808332446082 0 0.00025801860156737219 0.034164664662287035 0 0.00019875184045239908 0.034041724962807392 0 0.00021325479642408447 0.034014746774722028 0 9.8591333822810694e-05 0.034146740378479236 0 0.00014035289141824637 0.034103716244315192 0 0.00019875184045239908 0.034041724962807392 0 0.00025801860156737219 0.034164664662287035 0 0.00025142102202894165 0.034261715408340034 0 0.00019875184045239908 0.034041724962807392 0 0.00014763371498668443 0.034281040584951912 0 0.00015433891526271581 0.034258389692604765 0 0.00025801860156737219 0.034164664662287035 0 0.00025142102202894165 0.034261715408340034 0 0.00024115157582879502 0.034266923096879225 0 0.00026169974189922066 0.034210859955715489 0 0.00025801860156737219 0.034164664662287035 0 0.00024115157582879502 0.034266923096879225 0 0.00023435633421285313 0.034261503541123388 0 0.00024115157582879502 0.034266923096879225 0 0.00019364393746559153 0.034346495893397964 0 0.00024115157582879502 0.034266923096879225 0 0.00019845858387417355 0.034371562716276831 0 0.00019364393746559153 0.034346495893397964 0 0.00012747195402922724 0.034494412659877439 0 0.00019845858387417355 0.034371562716276831 0 0.00015760356557851458 0.034425870888831568 0 0.00016659763905102761 0.03439482437699317 0 0.00015760356557851458 0.034425870888831568 0 0.00019364393746559153 0.034346495893397964 0 0.00019845858387417355 0.034371562716276831 0 0.00015760356557851458 0.034425870888831568 0 0.00019364393746559153 0.034346495893397964 0 0.00012747195402922724 0.034494412659877439 0 0.00019845858387417355 0.034371562716276831 0 0.00018231458841241088 0.034459461830109915 0 0.00025142102202894165 0.034261715408340034 0 0.00024115157582879502 0.034266923096879225 0 0.00019845858387417355 0.034371562716276831 0 0.00014763371498668443 0.034281040584951912 0 0.00013386265212955565 0.034323662289627584 0 0.00025142102202894165 0.034261715408340034 0 0.00019845858387417355 0.034371562716276831 0 0.00018231458841241088 0.034459461830109915 0 9.8591333822810694e-05 0.034146740378479236 0 4.5462993983495135e-05 0.034334239345446077 0 8.3187047819614969e-05 0.034227800343799845 0 6.5179900503083268e-05 0.034571033147614783 0 4.5462993983495135e-05 0.034334239345446077 0 3.6327623984999385e-05 0.034390491030230112 0 0.0001243900297079476 0.034347119631033783 0 0.00013386265212955565 0.034323662289627584 0 4.5462993983495135e-05 0.034334239345446077 0 3.6327623984999385e-05 0.034390491030230112 0 8.3187047819614969e-05 0.034227800343799845 0 8.3187047819614969e-05 0.034227800343799845 0 0.00011764124039832104 0.034117282798051048 0 9.7259994815190889e-05 0.034180320290775432 0 0.00011764124039832104 0.034117282798051048 0 0.00014035289141824637 0.034103716244315192 0 0.00015146854290451625 0.033989547285101777 0 8.3187047819614969e-05 0.034227800343799845 0 0.00011764124039832104 0.034117282798051048 0 0.00014035289141824637 0.034103716244315192 0 0.00014035289141824637 0.034103716244315192 0 0.00015146854290451625 0.033989547285101777 0 0.00019875184045239908 0.034041724962807392 0 9.8591333822810694e-05 0.034146740378479236 0 8.3187047819614969e-05 0.034227800343799845 0 0.00014035289141824637 0.034103716244315192 0 0.00015146854290451625 0.033989547285101777 0 0.000138249547398155 0.033832560751217669 0 0.00017923619022094779 0.033851074609212037 0 0.00015146854290451625 0.033989547285101777 0 0.00017923619022094779 0.033851074609212037 0 0.00019875184045239908 0.034041724962807392 0 0.00011764124039832104 0.034117282798051048 0 0.00015146854290451625 0.033989547285101777 0 0.00011428500858901274 0.03403966352221955 0 0.00015146854290451625 0.033989547285101777 0 0.000138249547398155 0.033832560751217669 0 0.00011428500858901274 0.03403966352221955 0 0.000138249547398155 0.033832560751217669 0 0.00019567666261287994 0.033493379591703142 0 0.00016543550541026823 0.033867177374892775 0 0.000138249547398155 0.033832560751217669 0 0.00018162755539034256 0.033701966610300282 0 0.00019567666261287994 0.033493379591703142 0 0.00018162755539034256 0.033701966610300282 0 0.00018171415388088186 0.033686792348516167 0 0.00019567666261287994 0.033493379591703142 0 0.000138249547398155 0.033832560751217669 0 0.00018162755539034256 0.033701966610300282 0 0.00017923619022094779 0.033851074609212037 0 0.00018171415388088186 0.033686792348516167 0 0.00018445674261879407 0.033861485648299147 0 0.00017923619022094779 0.033851074609212037 0 0.00018162755539034256 0.033701966610300282 0 0.00018171415388088186 0.033686792348516167 0 0.00017923619022094779 0.033851074609212037 0 0.00018171415388088186 0.033686792348516167 0 0.00015114198964495464 0.033829536044990456 0 0.00013076096345328544 0.033672419433794072 0 0.00018171415388088186 0.033686792348516167 0 0.00015114198964495464 0.033829536044990456 0 0.00018445674261879407 0.033861485648299147 0 0.00015114198964495464 0.033829536044990456 0 0.00018445674261879407 0.033861485648299147 0 0.00017699974397157933 0.033969047567990955 0 0.00018445674261879407 0.033861485648299147 0 0.00021325479642408447 0.034014746774722028 0 0.00017699974397157933 0.033969047567990955 0 0.00018445674261879407 0.033861485648299147 0 0.00017923619022094779 0.033851074609212037 0 0.00021325479642408447 0.034014746774722028 0 0.00017923619022094779 0.033851074609212037 0 0.00019875184045239908 0.034041724962807392 0 0.00021325479642408447 0.034014746774722028 0 0.00021325479642408447 0.034014746774722028 0 0.00019567111449305262 0.034065142291063298 0 0.00024845229902797775 0.03411808332446082 0 0.00021325479642408447 0.034014746774722028 0 0.00019567111449305262 0.034065142291063298 0 0.00017699974397157933 0.033969047567990955 0 0.00019567111449305262 0.034065142291063298 0 0.00018327274599217938 0.034193419511498305 0 0.00013886198068147583 0.034077286806964951 0 0.00019567111449305262 0.034065142291063298 0 0.00013886198068147583 0.034077286806964951 0 0.00017699974397157933 0.033969047567990955 0 0.00019567111449305262 0.034065142291063298 0 0.00024845229902797775 0.03411808332446082 0 0.00018327274599217938 0.034193419511498305 0 0.00026692142988340734 0.034199824874569351 0 0.00018327274599217938 0.034193419511498305 0 0.00024610124374937055 0.03429873953249396 0 0.00026692142988340734 0.034199824874569351 0 0.00024845229902797775 0.03411808332446082 0 0.00018327274599217938 0.034193419511498305 0 0.00018327274599217938 0.034193419511498305 0 7.3792668574963391e-05 0.034204622492312625 0 0.00013886198068147583 0.034077286806964951 0 0.00018327274599217938 0.034193419511498305 0 9.3031378463320644e-05 0.034288441161906137 0 7.3792668574963391e-05 0.034204622492312625 0 0.00018327274599217938 0.034193419511498305 0 9.3031378463320644e-05 0.034288441161906137 0 0.00013766304737522064 0.034327572652178097 0 6.7544517141830852e-05 0.034445899593393045 0 9.3031378463320644e-05 0.034288441161906137 0 0.00013766304737522064 0.034327572652178097 0 0.00018327274599217938 0.034193419511498305 0 0.00013766304737522064 0.034327572652178097 0 0.00024610124374937055 0.03429873953249396 0 0.00015818189332626457 0.034452124047519177 0 0.00013766304737522064 0.034327572652178097 0 0.00024610124374937055 0.03429873953249396 0 3.4461285033405591e-05 0.034283122793864557 0 -6.3949220183947579e-05 0.03415830893280241 0 4.6207983976448105e-05 0.034243449391144237 0 0.0002202771459395774 0.034215387064016313 0 -9.4985919718538801e-06 0.03406905592469079 0 0.00011774521097934523 0.034347572089916255 0 4.6207983976448105e-05 0.034243449391144237 0 0.0002202771459395774 0.034215387064016313 0 3.436719994863344e-05 0.034283314357196761 0 3.4461285033405591e-05 0.034283122793864557 0 6.7544517141830852e-05 0.034445899593393045 0 9.3031378463320644e-05 0.034288441161906137 0 4.0881432158117028e-06 0.034320481694839422 0 9.3031378463320644e-05 0.034288441161906137 0 4.0881432158117028e-06 0.034320481694839422 0 7.3792668574963391e-05 0.034204622492312625 0 4.0881432158117028e-06 0.034320481694839422 0 -2.1623963577366212e-05 0.034291314810801346 0 7.3792668574963391e-05 0.034204622492312625 0 -2.1623963577366212e-05 0.034291314810801346 0 8.0257964362345758e-05 0.034115959877291775 0 7.3792668574963391e-05 0.034204622492312625 0 3.4461285033405591e-05 0.034283122793864557 0 3.5902243381783961e-05 0.034267689573806791 0 8.0257964362345758e-05 0.034115959877291775 0 7.3792668574963391e-05 0.034204622492312625 0 0.00013886198068147583 0.034077286806964951 0 8.0067420636701175e-05 0.034141273274012875 0 8.0257964362345758e-05 0.034115959877291775 0 3.9385809336534921e-05 0.034106274921605333 0 8.0257964362345758e-05 0.034115959877291775 0 4.3762247929743208e-05 0.03399487790587731 0 3.9385809336534921e-05 0.034106274921605333 0 8.0257964362345758e-05 0.034115959877291775 0 0.00011456408226832889 0.033969577654430226 0 4.3762247929743208e-05 0.03399487790587731 0 8.0257964362345758e-05 0.034115959877291775 0 0.00011456408226832889 0.033969577654430226 0 0.00013886198068147583 0.034077286806964951 0 0.00011456408226832889 0.033969577654430226 0 0.00013886198068147583 0.034077286806964951 0 0.00017699974397157933 0.033969047567990955 0 0.00015114198964495464 0.033829536044990456 0 0.00011456408226832889 0.033969577654430226 0 0.00017699974397157933 0.033969047567990955 0 0.00015114198964495464 0.033829536044990456 0 0.00011456408226832889 0.033969577654430226 0 7.4217759199849889e-05 0.033846131992980415 0 7.4217759199849889e-05 0.033846131992980415 0 -7.3748408719737267e-05 0.033879199443798594 0 4.3762247929743208e-05 0.03399487790587731 0 7.4217759199849889e-05 0.033846131992980415 0 -7.3748408719737267e-05 0.033879199443798594 0 -6.1481482430121597e-05 0.03369606647623459 0 -7.3748408719737267e-05 0.033879199443798594 0 -0.00028078151830481928 0.033803023036966307 0 -6.1481482430121597e-05 0.03369606647623459 0 -7.3748408719737267e-05 0.033879199443798594 0 -0.00012261490111395142 0.034033742572673095 0 4.3762247929743208e-05 0.03399487790587731 0 -7.3748408719737267e-05 0.033879199443798594 0 -0.00012261490111395142 0.034033742572673095 0 -0.00028078151830481928 0.033803023036966307 0 0.00011456408226832889 0.033969577654430226 0 7.4217759199849889e-05 0.033846131992980415 0 4.3762247929743208e-05 0.03399487790587731 0 -0.00012261490111395142 0.034033742572673095 0 4.3762247929743208e-05 0.03399487790587731 0 3.9385809336534921e-05 0.034106274921605333 0 -0.00019144471908850595 0.034047932593989756 0 -6.3949220183947579e-05 0.03415830893280241 0 -0.00024838293769633519 0.033904691823062556 0 -9.4985919718538801e-06 0.03406905592469079 0 -0.00017247197419197947 0.03420128041132188 0 -0.00024838293769633519 0.033904691823062556 0 -0.00017247197419197947 0.03420128041132188 0 -0.0004620006846809627 0.03402891147635137 0 1.0312174987145278e-05 0.034409172722753491 0 4.6207983976448105e-05 0.034243449391144237 0 -0.00017247197419197947 0.03420128041132188 0 4.6207983976448105e-05 0.034243449391144237 0 -9.4985919718538801e-06 0.03406905592469079 0 -0.00017247197419197947 0.03420128041132188 0 -0.00066449673267841662 0.0341988940330284 0 -0.00042972946301793433 0.034292910585571462 0 -0.0004620006846809627 0.03402891147635137 0 -0.00017247197419197947 0.03420128041132188 0 -0.00042972946301793433 0.034292910585571462 0 -0.0004620006846809627 0.03402891147635137 0 -0.00077333244927184255 0.033991110356262115 0 -0.00066449673267841662 0.0341988940330284 0 -0.0004620006846809627 0.03402891147635137 0 -0.00077333244927184255 0.033991110356262115 0 -0.0004620006846809627 0.03402891147635137 0 -0.00047277952578127143 0.03371905656019214 0 -0.00073715099030816035 0.033453870796221495 0 -0.00080250582137893244 0.033325612372386043 0 -0.00057406566738082076 0.033515147203370163 0 -0.00079391265757306829 0.033835430807412289 0 -0.00071451427718985351 0.033691089159761746 0 -0.00077333244927184255 0.033991110356262115 0 -0.00047277952578127143 0.03371905656019214 0 -0.00057406566738082076 0.033515147203370163 0 -0.00019144471908850595 0.034047932593989756 0 -0.0002718903246966443 0.033988103971673018 0 -0.00024838293769633519 0.033904691823062556 0 -0.0004620006846809627 0.03402891147635137 0 -0.00047277952578127143 0.03371905656019214 0 -0.00012261490111395142 0.034033742572673095 0 -0.00047277952578127143 0.03371905656019214 0 -0.00028078151830481928 0.033803023036966307 0 -0.00028078151830481928 0.033803023036966307 0 -0.00037318354951316053 0.03378709155663763 0 -6.1481482430121597e-05 0.03369606647623459 0 -0.00047277952578127143 0.03371905656019214 0 -0.00028078151830481928 0.033803023036966307 0 -0.00057406566738082076 0.033515147203370163 0 -0.00028078151830481928 0.033803023036966307 0 -0.00082911238102609459 0.034167794356818854 0 -0.00037318354951316053 0.03378709155663763 0 -0.00028078151830481928 0.033803023036966307 0 -0.00057406566738082076 0.033515147203370163 0 -0.00070381550180864682 0.033260879965434302 0 -0.00080250582137893244 0.033325612372386043 0 -0.00057406566738082076 0.033515147203370163 0 -0.00070381550180864682 0.033260879965434302 0 -0.00097302243055014668 0.032841398103840042 0 -0.0011347579244852693 0.032714740723722109 0 -0.0011239669415448836 0.033454449561398376 0 -0.00082019648848828414 0.033789739655706259 0 -0.0002226547281467798 0.033451066048217633 0 -0.00082019648848828414 0.033789739655706259 0 -0.0002226547281467798 0.033451066048217633 0 -0.00037318354951316053 0.03378709155663763 0 -0.00082911238102609459 0.034167794356818854 0 -0.00082019648848828414 0.033789739655706259 0 -0.00037318354951316053 0.03378709155663763 0 -0.0011239669415448836 0.033454449561398376 0 -0.0002226547281467798 0.033451066048217633 0 -0.00061061476881348693 0.032950671063322862 0 -0.0002226547281467798 0.033451066048217633 0 -0.00037318354951316053 0.03378709155663763 0 -6.1481482430121597e-05 0.03369606647623459 0 -0.0002226547281467798 0.033451066048217633 0 -6.1481482430121597e-05 0.03369606647623459 0 0.00021415226986092999 0.033419060916012495 0 -6.1481482430121597e-05 0.03369606647623459 0 0.00013076096345328544 0.033672419433794072 0 0.00021415226986092999 0.033419060916012495 0 7.4217759199849889e-05 0.033846131992980415 0 -6.1481482430121597e-05 0.03369606647623459 0 0.00013076096345328544 0.033672419433794072 0 0.00015114198964495464 0.033829536044990456 0 7.4217759199849889e-05 0.033846131992980415 0 0.00013076096345328544 0.033672419433794072 0 0.00018171415388088186 0.033686792348516167 0 0.00021415226986092999 0.033419060916012495 0 0.00019567666261287994 0.033493379591703142 0 0.00018171415388088186 0.033686792348516167 0 0.00013076096345328544 0.033672419433794072 0 0.00021415226986092999 0.033419060916012495 0 -0.0002226547281467798 0.033451066048217633 0 0.00021415226986092999 0.033419060916012495 0 0.00037026657793769055 0.032763169827659012 0 0.00021415226986092999 0.033419060916012495 0 0.00019567666261287994 0.033493379591703142 0 0.00037026657793769055 0.032763169827659012 0 0.00019567666261287994 0.033493379591703142 0 0.00037026657793769055 0.032763169827659012 0 0.00036904392196333553 0.03364037369008651 0 0.00078190783445142536 0.032284772977483514 0 0.00096952915828124782 0.031965147305405214 0 -0.00080648964213915876 0.032123236353318499 0 0.00037026657793769055 0.032763169827659012 0 -8.3131565020273239e-06 0.030498706252587701 0 -0.0012547711740261984 0.030798931450519786 0 -0.00080648964213915876 0.032123236353318499 0 -8.3131565020273239e-06 0.030498706252587701 0 -0.0013956667990555399 0.03286043527621571 0 -0.00080648964213915876 0.032123236353318499 0 -0.00061061476881348693 0.032950671063322862 0 -0.00080648964213915876 0.032123236353318499 0 -0.00061061476881348693 0.032950671063322862 0 0.00037026657793769055 0.032763169827659012 0 -0.0002226547281467798 0.033451066048217633 0 -0.00061061476881348693 0.032950671063322862 0 0.00037026657793769055 0.032763169827659012 0 -8.3131565020273239e-06 0.030498706252587701 0 0.0013627981129573294 0.02889002880246487 0 -8.4679232739475716e-05 0.028613382761659707 0 -0.0010488183420019077 0.029425429780084635 0 -8.3131565020273239e-06 0.030498706252587701 0 -8.4679232739475716e-05 0.028613382761659707 0 -0.0010488183420019077 0.029425429780084635 0 -0.0012547711740261984 0.030798931450519786 0 -8.3131565020273239e-06 0.030498706252587701 0 0.00037026657793769055 0.032763169827659012 0 -8.3131565020273239e-06 0.030498706252587701 0 0.0018194276215294073 0.030471346862909986 0 0.00019567666261287994 0.033493379591703142 0 0.00036904392196333553 0.03364037369008651 0 0.00016543550541026823 0.033867177374892775 0 0.00036904392196333553 0.03364037369008651 0 0.00027477767933984737 0.033997595568803725 0 0.00016543550541026823 0.033867177374892775 0 0.00096952915828124782 0.031965147305405214 0 0.0012376472738245814 0.031425594270114772 0 0.0018194276215294073 0.030471346862909986 0 0.0013627981129573294 0.02889002880246487 0 0.0026924261304270263 0.028555151316541343 0 -8.3131565020273239e-06 0.030498706252587701 0 0.0018194276215294073 0.030471346862909986 0 0.0013627981129573294 0.02889002880246487 0 0.0013627981129573294 0.02889002880246487 0 0.001479267922479511 0.02799855997377608 0 0.0026924261304270263 0.028555151316541343 0 0.0013627981129573294 0.02889002880246487 0 0.001479267922479511 0.02799855997377608 0 0.00066119241378861417 0.027737255215999193 0 0.001479267922479511 0.02799855997377608 0 0.0026924261304270263 0.028555151316541343 0 0.0021497848397711251 0.02765444634048192 0 0.0026924261304270263 0.028555151316541343 0 0.0021497848397711251 0.02765444634048192 0 0.0029781996144472539 0.027178341945732844 0 0.0021497848397711251 0.02765444634048192 0 0.0023029637120609062 0.027085921881183136 0 0.0016195272377829812 0.0267736920592378 0 0.0021497848397711251 0.02765444634048192 0 0.0023029637120609062 0.027085921881183136 0 0.0029781996144472539 0.027178341945732844 0 0.001479267922479511 0.02799855997377608 0 0.0013259483551766374 0.027385559942885378 0 0.00066119241378861417 0.027737255215999193 0 0.001479267922479511 0.02799855997377608 0 0.0021497848397711251 0.02765444634048192 0 0.0013259483551766374 0.027385559942885378 0 0.0021497848397711251 0.02765444634048192 0 0.0013259483551766374 0.027385559942885378 0 0.0016195272377829812 0.0267736920592378 0 0.0013259483551766374 0.027385559942885378 0 0.00071008924719088496 0.026776442426830496 0 0.0016195272377829812 0.0267736920592378 0 0.00024265112720456644 0.027174569758938769 0 0.00066119241378861417 0.027737255215999193 0 0.00071008924719088496 0.026776442426830496 0 0.0013259483551766374 0.027385559942885378 0 0.00066119241378861417 0.027737255215999193 0 0.00071008924719088496 0.026776442426830496 0 0.00024265112720456644 0.027174569758938769 0 0.00066119241378861417 0.027737255215999193 0 -0.00032002609419209396 0.027476826004405711 0 0.00066119241378861417 0.027737255215999193 0 -8.4679232739475716e-05 0.028613382761659707 0 -0.00032002609419209396 0.027476826004405711 0 0.0013627981129573294 0.02889002880246487 0 0.00066119241378861417 0.027737255215999193 0 -8.4679232739475716e-05 0.028613382761659707 0 -0.0011427434510046719 0.027963876464301773 0 -8.4679232739475716e-05 0.028613382761659707 0 -0.00032002609419209396 0.027476826004405711 0 -0.0010488183420019077 0.029425429780084635 0 -0.0011427434510046719 0.027963876464301773 0 -8.4679232739475716e-05 0.028613382761659707 0 -0.0012299816212090291 0.026792282573625273 0 -0.0011427434510046719 0.027963876464301773 0 -0.00032002609419209396 0.027476826004405711 0 -0.0012299816212090291 0.026792282573625273 0 -0.00032002609419209396 0.027476826004405711 0 -2.5998645227501078e-05 0.02655431123908638 0 0.00024265112720456644 0.027174569758938769 0 -0.00032002609419209396 0.027476826004405711 0 -2.5998645227501078e-05 0.02655431123908638 0 -0.0012299816212090291 0.026792282573625273 0 -2.5998645227501078e-05 0.02655431123908638 0 -0.00047863737266682006 0.02597742433370728 0 9.4422162823395973e-05 0.026429557675719226 0 0.00029297228213861956 0.026269751729143049 0 -2.5998645227501078e-05 0.02655431123908638 0 -0.00040101658804902763 0.026092618895553171 0 0.00032606059460782064 0.026107952145340632 0 0.00027232387877148807 0.026260964309090681 0 0.00029297228213861956 0.026269751729143049 0 -2.5998645227501078e-05 0.02655431123908638 0 0.00071008924719088496 0.026776442426830496 0 0.00032606059460782064 0.026107952145340632 0 0.00024265112720456644 0.027174569758938769 0 -2.5998645227501078e-05 0.02655431123908638 0 0.00071008924719088496 0.026776442426830496 0 0.00071008924719088496 0.026776442426830496 0 0.00032606059460782064 0.026107952145340632 0 0.0010157005706833199 0.025980579311626284 0 0.00032606059460782064 0.026107952145340632 0 0.00037219784002266661 0.025138857982792057 0 0.0010157005706833199 0.025980579311626284 0 0.00037219784002266661 0.025138857982792057 0 0.0010157005706833199 0.025980579311626284 0 0.0015086958043056026 0.025213607067347248 0 0.00092816832972614661 0.0263055155076348 0 0.00097865075313476458 0.026367870882427834 0 0.0010377008426452358 0.026297007397469097 0 0.00029297228213861956 0.026269751729143049 0 0.00095561350186494675 0.026227736940145609 0 -0.00040101658804902763 0.026092618895553171 0 0.00032606059460782064 0.026107952145340632 0 0.00037219784002266661 0.025138857982792057 0 -0.00029171571886300255 0.025852707458143248 0 0.00029297228213861956 0.026269751729143049 0 0.00092816832972614661 0.0263055155076348 0 0.0010377008426452358 0.026297007397469097 0 0.00097598822391821904 0.026217055610796014 0 0.0010377008426452358 0.026297007397469097 0 0.00097598822391821904 0.026217055610796014 0 0.0010981159192723368 0.026226090093729015 0 0.00037219784002266661 0.025138857982792057 0 0.0011774833924907387 0.024146228525921673 0 0.0015086958043056026 0.025213607067347248 0 0.00095561350186494675 0.026227736940145609 0 0.0015656900036991534 0.026410261992488575 0 0.00097598822391821904 0.026217055610796014 0 0.0010981159192723368 0.026226090093729015 0 0.0010321299197683334 0.026153854320920732 0 0.0010981159192723368 0.026226090093729015 0 0.0010965016574791184 0.026117865809707756 0 0.0010321299197683334 0.026153854320920732 0 0.00097598822391821904 0.026217055610796014 0 0.0010321299197683334 0.026153854320920732 0 0.00094141002907654559 0.026104151998997627 0 0.0022570310258085424 0.026991631771094468 0 0.0019749596329894079 0.0271832561132501 0 0.0031783430099939385 0.02947226340464253 0 0.0035249615210254993 0.028942803418271757 0 0.0029895515791613621 0.029250244406341577 0 0.0031783430099939385 0.02947226340464253 0 0.0035249615210254993 0.028942803418271757 0 0.0034777364358297819 0.029522595028087319 0 0.0011774833924907387 0.024146228525921673 0 0.0023151346451978114 0.024426701413749627 0 0.0019775474683084706 0.023157820664988477 0 0.0015656900036991534 0.026410261992488575 0 0.0019749596329894079 0.0271832561132501 0 0.0010981159192723368 0.026226090093729015 0 0.0010965016574791184 0.026117865809707756 0 0.0011584894336168093 0.02615479318757355 0 0.0011774833924907387 0.024146228525921673 0 0.0023151346451978114 0.024426701413749627 0 0.0015086958043056026 0.025213607067347248 0 0.0022570310258085424 0.026991631771094468 0 0.0024464519336830468 0.027034204806159839 0 0.0035249615210254993 0.028942803418271757 0 0.0034381338811121133 0.028017856231905038 0 0.0030090939361101391 0.028521215329929732 0 0.0026750184616658799 0.02572376682366341 0 0.0015086958043056026 0.025213607067347248 0 0.0018137029516945913 0.026054400257306452 0 0.0023151346451978114 0.024426701413749627 0 0.0026750184616658799 0.02572376682366341 0 0.0015086958043056026 0.025213607067347248 0 0.0010157005706833199 0.025980579311626284 0 0.0015086958043056026 0.025213607067347248 0 0.0018137029516945913 0.026054400257306452 0 0.0010157005706833199 0.025980579311626284 0 0.0018137029516945913 0.026054400257306452 0 0.0016195272377829812 0.0267736920592378 0 0.0018137029516945913 0.026054400257306452 0 0.0016195272377829812 0.0267736920592378 0 0.0022820965183243014 0.026571089387890885 0 0.00071008924719088496 0.026776442426830496 0 0.0010157005706833199 0.025980579311626284 0 0.0016195272377829812 0.0267736920592378 0 0.0024464519336830468 0.027034204806159839 0 0.0025140831148677606 0.027096429579583154 0 0.0026750184616658799 0.02572376682366341 0 0.0022820965183243014 0.026571089387890885 0 0.0029781996144472539 0.027178341945732844 0 0.0026750184616658799 0.02572376682366341 0 0.0018137029516945913 0.026054400257306452 0 0.0022820965183243014 0.026571089387890885 0 0.0023029637120609062 0.027085921881183136 0 0.0016195272377829812 0.0267736920592378 0 0.0022820965183243014 0.026571089387890885 0 0.0023029637120609062 0.027085921881183136 0 0.0022820965183243014 0.026571089387890885 0 0.0029781996144472539 0.027178341945732844 0 0.0030119623179498374 0.027711279385186499 0 0.0029781996144472539 0.027178341945732844 0 0.0030810577595699776 0.027193319862535991 0 0.0034381338811121133 0.028017856231905038 0 0.0030119623179498374 0.027711279385186499 0 0.0029781996144472539 0.027178341945732844 0 0.0030119623179498374 0.027711279385186499 0 0.002347890513446495 0.028134437895493285 0 0.0030810577595699776 0.027193319862535991 0 0.0012238444401174958 0.031117328364593133 0 0.0013490363775947845 0.031071692649335281 0 5.2682107580719474e-05 0.034133964231533809 0 -6.2138023363120758e-05 0.034074695867397024 0 0.00012098398384841077 0.034141786991050103 0 0.0034381338811121133 0.028017856231905038 0 0.0030119623179498374 0.027711279385186499 0 0.0030090939361101391 0.028521215329929732 0 0.0030119623179498374 0.027711279385186499 0 0.002347890513446495 0.028134437895493285 0 0.0030090939361101391 0.028521215329929732 0 0.0030090939361101391 0.028521215329929732 0 0.0026415817046351957 0.028932591283877287 0 0.0029895515791613621 0.029250244406341577 0 0.0035249615210254993 0.028942803418271757 0 0.0030090939361101391 0.028521215329929732 0 0.0029895515791613621 0.029250244406341577 0 0.002347890513446495 0.028134437895493285 0 0.0030090939361101391 0.028521215329929732 0 0.0026415817046351957 0.028932591283877287 0 0.002347890513446495 0.028134437895493285 0 0.0022870834208558533 0.02901960389155659 0 0.0026415817046351957 0.028932591283877287 0 0.002347890513446495 0.028134437895493285 0 0.0022870834208558533 0.02901960389155659 0 0.0015543844232066783 0.029434695863953152 0 0.0022870834208558533 0.02901960389155659 0 0.0026415817046351957 0.028932591283877287 0 0.0026022510689100269 0.029561663179770992 0 0.0022870834208558533 0.02901960389155659 0 0.0026022510689100269 0.029561663179770992 0 0.0015543844232066783 0.029434695863953152 0 0.0031783430099939385 0.02947226340464253 0 0.0029895515791613621 0.029250244406341577 0 0.0029063475103840841 0.029616203910482416 0 0.0026022510689100269 0.029561663179770992 0 0.0029895515791613621 0.029250244406341577 0 0.0029063475103840841 0.029616203910482416 0 0.0026415817046351957 0.028932591283877287 0 0.0026022510689100269 0.029561663179770992 0 0.0029895515791613621 0.029250244406341577 0 0.00049457442217881958 0.033475603712261416 0 0.00065240410519359687 0.033440514683554988 0 0.00052282492744190558 0.032945844372659017 0 0.00012001677757074785 0.033598202391551209 0 0.0015881299341977081 0.032980215019604464 0 0.00095712153541149055 0.032437627572164784 0 0.00052282492744190558 0.032945844372659017 0 0.0015881299341977081 0.032980215019604464 0 0.00095712153541149055 0.032437627572164784 0 0.0015881299341977081 0.032980215019604464 0 0.0015632088579070505 0.032099666905219121 0 0.00052282492744190558 0.032945844372659017 0 -9.1848404783958121e-05 0.033433588225531267 0 0.0011391474130534446 0.031312895269203889 0 0.0026022510689100269 0.029561663179770992 0 0.0015543844232066783 0.029434695863953152 0 0.0012527505385252513 0.031170583811015978 0 0.00052282492744190558 0.032945844372659017 0 -9.1848404783958121e-05 0.033433588225531267 0 0.00012001677757074785 0.033598202391551209 0 -6.2138023363120758e-05 0.034074695867397024 0 -9.1848404783958121e-05 0.033433588225531267 0 9.094350845425411e-05 0.03395725221430692 0 -9.1848404783958121e-05 0.033433588225531267 0 0.00012001677757074785 0.033598202391551209 0 9.094350845425411e-05 0.03395725221430692 0 0.0012238444401174958 0.031117328364593133 0 0.001090830561574231 0.031238969783134205 0 0.00012001677757074785 0.033598202391551209 0 0.00019009189872415492 0.033897612713167186 0 0.00021399116798043085 0.033840706958271467 0 0.00012001677757074785 0.033598202391551209 0 0.00019009189872415492 0.033897612713167186 0 9.094350845425411e-05 0.03395725221430692 0 0.00019009189872415492 0.033897612713167186 0 0.00016052839249644093 0.034082337765594731 0 0.00022139513587460477 0.034036498274753413 0 0.00019009189872415492 0.033897612713167186 0 0.00016052839249644093 0.034082337765594731 0 9.094350845425411e-05 0.03395725221430692 0 0.00016052839249644093 0.034082337765594731 0 9.094350845425411e-05 0.03395725221430692 0 8.225678755826881e-05 0.034114684166645877 0 -6.2138023363120758e-05 0.034074695867397024 0 9.094350845425411e-05 0.03395725221430692 0 8.225678755826881e-05 0.034114684166645877 0 5.2682107580719474e-05 0.034133964231533809 0 8.225678755826881e-05 0.034114684166645877 0 9.7538485657330879e-05 0.034155256402591191 0 5.2682107580719474e-05 0.034133964231533809 0 -6.2138023363120758e-05 0.034074695867397024 0 8.225678755826881e-05 0.034114684166645877 0 0.00016052839249644093 0.034082337765594731 0 8.225678755826881e-05 0.034114684166645877 0 0.0001401098941801825 0.034173223794087555 0 0.00016052839249644093 0.034082337765594731 0 0.0001401098941801825 0.034173223794087555 0 0.00020482949063871939 0.034186884665994427 0 8.225678755826881e-05 0.034114684166645877 0 0.0001401098941801825 0.034173223794087555 0 9.7538485657330879e-05 0.034155256402591191 0 0.0001401098941801825 0.034173223794087555 0 0.00011464448421709453 0.034174481969694186 0 9.7538485657330879e-05 0.034155256402591191 0 0.00011464448421709453 0.034174481969694186 0 9.9046528042737018e-05 0.034116160470780255 0 9.7538485657330879e-05 0.034155256402591191 0 0.00011464448421709453 0.034174481969694186 0 9.9046528042737018e-05 0.034116160470780255 0 0.00010517800035789778 0.034073012982930743 0 0.00011464448421709453 0.034174481969694186 0 0.00010517800035789778 0.034073012982930743 0 0.00010524655043593125 0.034155470735640292 0 9.9046528042737018e-05 0.034116160470780255 0 0.00011243994127704039 0.034038917999478252 0 0.00010517800035789778 0.034073012982930743 0 9.9046528042737018e-05 0.034116160470780255 0 9.7538485657330879e-05 0.034155256402591191 0 8.6762553200594458e-05 0.034119953088012703 0 5.2682107580719474e-05 0.034133964231533809 0 9.7538485657330879e-05 0.034155256402591191 0 8.6762553200594458e-05 0.034119953088012703 0 8.6762553200594458e-05 0.034119953088012703 0 0.00012098398384841077 0.034141786991050103 0 0.0001450402634434754 0.034055779956916984 0 5.2682107580719474e-05 0.034133964231533809 0 8.6762553200594458e-05 0.034119953088012703 0 0.00012098398384841077 0.034141786991050103 0 0.0012376472738245814 0.031425594270114772 0 0.0013490363775947845 0.031071692649335281 0 0.0026924261304270263 0.028555151316541343 0 0.0029781996144472539 0.027178341945732844 0 0.0030810577595699776 0.027193319862535991 0 0.00027477767933984737 0.033997595568803725 0 0.00012098398384841077 0.034141786991050103 0 0.0001450402634434754 0.034055779956916984 0 8.6762553200594458e-05 0.034119953088012703 0 0.0001450402634434754 0.034055779956916984 0 0.00011243994127704039 0.034038917999478252 0 9.9046528042737018e-05 0.034116160470780255 0 8.6762553200594458e-05 0.034119953088012703 0 0.00011243994127704039 0.034038917999478252 0 0.0001450402634434754 0.034055779956916984 0 0.00011243994127704039 0.034038917999478252 0 0.00016543550541026823 0.033867177374892775 0 0.00011243994127704039 0.034038917999478252 0 0.00016543550541026823 0.033867177374892775 0 0.00012165285672532032 0.033963716275504492 0 0.00027477767933984737 0.033997595568803725 0 0.0001450402634434754 0.034055779956916984 0 0.00016543550541026823 0.033867177374892775 0 0.000138249547398155 0.033832560751217669 0 0.00016543550541026823 0.033867177374892775 0 0.00012165285672532032 0.033963716275504492 0 0.000138249547398155 0.033832560751217669 0 0.00012165285672532032 0.033963716275504492 0 0.00011428500858901274 0.03403966352221955 0 0.00011428500858901274 0.03403966352221955 0 0.00010517800035789778 0.034073012982930743 0 0.00010524655043593125 0.034155470735640292 0 0.00012165285672532032 0.033963716275504492 0 0.00011428500858901274 0.03403966352221955 0 0.00010517800035789778 0.034073012982930743 0 0.00011243994127704039 0.034038917999478252 0 0.00012165285672532032 0.033963716275504492 0 0.00010517800035789778 0.034073012982930743 0 9.2909904013687355e-05 0.034246275785401577 0 9.7259994815190889e-05 0.034180320290775432 0 7.162745119471398e-05 0.034274053901168493 0 9.2909904013687355e-05 0.034246275785401577 0 0.00010524655043593125 0.034155470735640292 0 9.7259994815190889e-05 0.034180320290775432 0 0.00011428500858901274 0.03403966352221955 0 0.00010524655043593125 0.034155470735640292 0 9.7259994815190889e-05 0.034180320290775432 0 0.00011764124039832104 0.034117282798051048 0 0.00011428500858901274 0.03403966352221955 0 9.7259994815190889e-05 0.034180320290775432 0 8.3187047819614969e-05 0.034227800343799845 0 9.7259994815190889e-05 0.034180320290775432 0 7.162745119471398e-05 0.034274053901168493 0 3.6327623984999385e-05 0.034390491030230112 0 7.162745119471398e-05 0.034274053901168493 0 4.3783990710695024e-05 0.034358966102565114 0 3.6327623984999385e-05 0.034390491030230112 0 8.3187047819614969e-05 0.034227800343799845 0 7.162745119471398e-05 0.034274053901168493 0 3.6327623984999385e-05 0.034390491030230112 0 4.3783990710695024e-05 0.034358966102565114 0 2.647909851544809e-05 0.034443837657410631 0 4.3783990710695024e-05 0.034358966102565114 0 5.0662253719330875e-05 0.034344348033236473 0 1.9747797667191379e-05 0.034415167463260149 0 4.3783990710695024e-05 0.034358966102565114 0 7.0617746535308267e-05 0.034302392333169521 0 5.0662253719330875e-05 0.034344348033236473 0 4.3783990710695024e-05 0.034358966102565114 0 1.9747797667191379e-05 0.034415167463260149 0 2.647909851544809e-05 0.034443837657410631 0 7.162745119471398e-05 0.034274053901168493 0 4.3783990710695024e-05 0.034358966102565114 0 7.0617746535308267e-05 0.034302392333169521 0 9.2909904013687355e-05 0.034246275785401577 0 7.162745119471398e-05 0.034274053901168493 0 7.0617746535308267e-05 0.034302392333169521 0 7.0617746535308267e-05 0.034302392333169521 0 0.00010158605499202265 0.034288936684734483 0 5.0662253719330875e-05 0.034344348033236473 0 9.2909904013687355e-05 0.034246275785401577 0 7.0617746535308267e-05 0.034302392333169521 0 0.00010158605499202265 0.034288936684734483 0 5.0662253719330875e-05 0.034344348033236473 0 3.5159325120868406e-05 0.03438326565167435 0 2.2224249738913051e-05 0.034383491343109224 0 5.0662253719330875e-05 0.034344348033236473 0 9.1306096633229192e-05 0.034333064215851271 0 3.5159325120868406e-05 0.03438326565167435 0 0.00010158605499202265 0.034288936684734483 0 5.0662253719330875e-05 0.034344348033236473 0 9.1306096633229192e-05 0.034333064215851271 0 0.00010158605499202265 0.034288936684734483 0 9.1306096633229192e-05 0.034333064215851271 0 0.0001495303385551127 0.034265351417789622 0 0.00010158605499202265 0.034288936684734483 0 0.0001495303385551127 0.034265351417789622 0 0.00012335710033817586 0.034230167877674758 0 0.0001495303385551127 0.034265351417789622 0 0.00012335710033817586 0.034230167877674758 0 0.00015953182120932702 0.034222369758805236 0 9.2909904013687355e-05 0.034246275785401577 0 0.00010158605499202265 0.034288936684734483 0 0.00012335710033817586 0.034230167877674758 0 9.2909904013687355e-05 0.034246275785401577 0 0.00010524655043593125 0.034155470735640292 0 0.00012335710033817586 0.034230167877674758 0 0.00011464448421709453 0.034174481969694186 0 0.00010524655043593125 0.034155470735640292 0 0.00012335710033817586 0.034230167877674758 0 0.00011464448421709453 0.034174481969694186 0 0.00012335710033817586 0.034230167877674758 0 0.00015953182120932702 0.034222369758805236 0 0.0001401098941801825 0.034173223794087555 0 0.00011464448421709453 0.034174481969694186 0 0.00015953182120932702 0.034222369758805236 0 0.00015953182120932702 0.034222369758805236 0 0.00020482949063871939 0.034186884665994427 0 0.00020222306113470433 0.034247362112545067 0 0.0001401098941801825 0.034173223794087555 0 0.00015953182120932702 0.034222369758805236 0 0.00020482949063871939 0.034186884665994427 0 0.00020222306113470433 0.034247362112545067 0 0.00029274245172754965 0.034240465176537192 0 0.00015486903273468478 0.034313683028413297 0 0.0001495303385551127 0.034265351417789622 0 0.00020222306113470433 0.034247362112545067 0 0.00015486903273468478 0.034313683028413297 0 0.0001495303385551127 0.034265351417789622 0 0.00015953182120932702 0.034222369758805236 0 0.00020222306113470433 0.034247362112545067 0 0.00020482949063871939 0.034186884665994427 0 0.00020222306113470433 0.034247362112545067 0 0.00029274245172754965 0.034240465176537192 0 0.00016052839249644093 0.034082337765594731 0 0.00020482949063871939 0.034186884665994427 0 0.00022139513587460477 0.034036498274753413 0 0.00020482949063871939 0.034186884665994427 0 0.00029274245172754965 0.034240465176537192 0 0.00022139513587460477 0.034036498274753413 0 0.00019009189872415492 0.033897612713167186 0 0.00022139513587460477 0.034036498274753413 0 0.00021399116798043085 0.033840706958271467 0 0.00022139513587460477 0.034036498274753413 0 0.00030623906614939708 0.033977829285701026 0 0.00021399116798043085 0.033840706958271467 0 0.00029274245172754965 0.034240465176537192 0 0.00022139513587460477 0.034036498274753413 0 0.00030623906614939708 0.033977829285701026 0 0.00029274245172754965 0.034240465176537192 0 0.00030623906614939708 0.033977829285701026 0 0.0005062148726976295 0.033970096768652445 0 0.00014293564036092551 0.033912904755762446 0 0.00017132384691304306 0.033822664664983695 0 0.00030623906614939708 0.033977829285701026 0 0.00037656190953178867 0.03382170586282577 0 0.0005062148726976295 0.033970096768652445 0 0.00076242173387244079 0.033412896714432129 0 0.00065240410519359687 0.033440514683554988 0 0.00030623906614939708 0.033977829285701026 0 0.00037656190953178867 0.03382170586282577 0 0.00021399116798043085 0.033840706958271467 0 0.0024658485944619164 0.032613307224924247 0 0.0015881299341977081 0.032980215019604464 0 0.0020730061267924074 0.032136808185648257 0 0.0015881299341977081 0.032980215019604464 0 0.0015632088579070505 0.032099666905219121 0 0.0020730061267924074 0.032136808185648257 0 0.00027633901624117774 0.033503929305092182 0 0.00029615835387065476 0.03371327530369498 0 -0.00033147443629069921 0.034595593506384928 0 -0.00042502863982585385 0.034624854657598812 0 -0.00010938783024239552 0.034675948874450371 0 9.0693628824147234e-05 0.034777493030478002 0 6.0965690390114337e-05 0.034601195348009983 0 -0.00010938783024239552 0.034675948874450371 0 0.0002037342342024168 0.0335460454465175 0 0.00027633901624117774 0.033503929305092182 0 0.00076242173387244079 0.033412896714432129 0 0.00027633901624117774 0.033503929305092182 0 9.0693628824147234e-05 0.034777493030478002 0 0.00020274529457548263 0.034593631866660438 0 6.0965690390114337e-05 0.034601195348009983 0 0.00027633901624117774 0.033503929305092182 0 0.00017132384691304306 0.033822664664983695 0 0.00037656190953178867 0.03382170586282577 0 0.00064670711720796724 0.033774706779866548 0 0.0005062148726976295 0.033970096768652445 0 0.00029274245172754965 0.034240465176537192 0 0.00020274529457548263 0.034593631866660438 0 0.00011430849215356145 0.034426691684633595 0 0.00020274529457548263 0.034593631866660438 0 6.0965690390114337e-05 0.034601195348009983 0 0.00011430849215356145 0.034426691684633595 0 6.0965690390114337e-05 0.034601195348009983 0 1.1481293316123823e-05 0.034532046563440805 0 -0.00010938783024239552 0.034675948874450371 0 6.0965690390114337e-05 0.034601195348009983 0 1.1481293316123823e-05 0.034532046563440805 0 0.00011430849215356145 0.034426691684633595 0 1.1481293316123823e-05 0.034532046563440805 0 4.658263530292549e-05 0.034420729726408875 0 -2.8478019057330506e-05 0.03454711109834499 0 1.1481293316123823e-05 0.034532046563440805 0 0.00011430849215356145 0.034426691684633595 0 4.658263530292549e-05 0.034420729726408875 0 0.00011430849215356145 0.034426691684633595 0 0.00015486903273468478 0.034313683028413297 0 4.658263530292549e-05 0.034420729726408875 0 0.00029274245172754965 0.034240465176537192 0 0.00011430849215356145 0.034426691684633595 0 0.00015486903273468478 0.034313683028413297 0 9.1306096633229192e-05 0.034333064215851271 0 0.00015486903273468478 0.034313683028413297 0 4.658263530292549e-05 0.034420729726408875 0 9.1306096633229192e-05 0.034333064215851271 0 0.0001495303385551127 0.034265351417789622 0 0.00015486903273468478 0.034313683028413297 0 9.1306096633229192e-05 0.034333064215851271 0 4.658263530292549e-05 0.034420729726408875 0 3.5159325120868406e-05 0.03438326565167435 0 4.658263530292549e-05 0.034420729726408875 0 -2.1839587843202103e-05 0.034484464721270966 0 -2.8478019057330506e-05 0.03454711109834499 0 4.658263530292549e-05 0.034420729726408875 0 -2.1839587843202103e-05 0.034484464721270966 0 3.5159325120868406e-05 0.03438326565167435 0 -2.1839587843202103e-05 0.034484464721270966 0 -5.3464654341818409e-05 0.034633115183457706 0 -0.00011510414176758666 0.034522347109557636 0 -2.1839587843202103e-05 0.034484464721270966 0 -0.00011510414176758666 0.034522347109557636 0 -4.8369028044716415e-05 0.034449995068297878 0 -5.3464654341818409e-05 0.034633115183457706 0 -2.8478019057330506e-05 0.03454711109834499 0 -0.00010938783024239552 0.034675948874450371 0 -2.1839587843202103e-05 0.034484464721270966 0 -5.3464654341818409e-05 0.034633115183457706 0 -2.8478019057330506e-05 0.03454711109834499 0 1.1481293316123823e-05 0.034532046563440805 0 -2.8478019057330506e-05 0.03454711109834499 0 -0.00010938783024239552 0.034675948874450371 0 -0.00010938783024239552 0.034675948874450371 0 -6.4243347133403377e-05 0.034721411457843257 0 -9.9065384973414381e-05 0.034696957259885433 0 -5.3464654341818409e-05 0.034633115183457706 0 -6.4243347133403377e-05 0.034721411457843257 0 -5.9988978378041657e-05 0.034739285504173489 0 -5.3464654341818409e-05 0.034633115183457706 0 -0.00010938783024239552 0.034675948874450371 0 -6.4243347133403377e-05 0.034721411457843257 0 -9.9065384973414381e-05 0.034696957259885433 0 -3.0885204965944452e-05 0.034797852744632735 0 -2.43325025440514e-05 0.034723650213952489 0 -6.4243347133403377e-05 0.034721411457843257 0 -9.9065384973414381e-05 0.034696957259885433 0 -3.0885204965944452e-05 0.034797852744632735 0 -9.9065384973414381e-05 0.034696957259885433 0 -2.43325025440514e-05 0.034723650213952489 0 -9.9736878467641046e-05 0.034613326203991053 0 -9.9065384973414381e-05 0.034696957259885433 0 -0.00018487337797873496 0.034593437625512063 0 -9.9736878467641046e-05 0.034613326203991053 0 -0.00010938783024239552 0.034675948874450371 0 -9.9065384973414381e-05 0.034696957259885433 0 -0.0001985316173743909 0.034633026131759448 0 -0.00033147443629069921 0.034595593506384928 0 -0.00010938783024239552 0.034675948874450371 0 -0.0001985316173743909 0.034633026131759448 0 -9.9065384973414381e-05 0.034696957259885433 0 -0.0001985316173743909 0.034633026131759448 0 -0.00018487337797873496 0.034593437625512063 0 1.2566462899159497e-05 0.034858659627405433 0 -3.0885204965944452e-05 0.034797852744632735 0 -2.4164496571584639e-07 0.034999448479068544 0 1.2566462899159497e-05 0.034858659627405433 0 -2.4164496571584639e-07 0.034999448479068544 0 7.3890543377462796e-08 0.034999937905759518 0 1.2566462899159497e-05 0.034858659627405433 0 -3.0885204965944452e-05 0.034797852744632735 0 -2.43325025440514e-05 0.034723650213952489 0 -3.0885204965944452e-05 0.034797852744632735 0 -5.9988978378041657e-05 0.034739285504173489 0 -2.4164496571584639e-07 0.034999448479068544 0 -6.4243347133403377e-05 0.034721411457843257 0 -3.0885204965944452e-05 0.034797852744632735 0 -5.9988978378041657e-05 0.034739285504173489 0 -1.134055246058253e-09 0.034999998894980233 0 1.0641032558850338e-06 0.035000489322064572 0 1.4287005378219176e-09 0.035000002956079392 0 4.8098036646700354e-08 0.034999770535765105 0 3.6487671186627027e-05 0.034892849934281829 0 -5.9988978378041657e-05 0.034739285504173489 0 -2.4164496571584639e-07 0.034999448479068544 0 -0.00011395459304394161 0.034702833277004845 0 1.0641032558850338e-06 0.035000489322064572 0 1.4287005378219176e-09 0.035000002956079392 0 1.6979269496767528e-10 0.03499999363005793 0 -5.3464654341818409e-05 0.034633115183457706 0 -5.9988978378041657e-05 0.034739285504173489 0 -0.00011510414176758666 0.034522347109557636 0 -5.9988978378041657e-05 0.034739285504173489 0 -0.00011395459304394161 0.034702833277004845 0 -0.00011510414176758666 0.034522347109557636 0 3.6487671186627027e-05 0.034892849934281829 0 6.6106997477838859e-05 0.034842616084627374 0 1.0641032558850338e-06 0.035000489322064572 0 1.6979269496767528e-10 0.03499999363005793 0 2.2981778971202745e-06 0.034997580905062421 0 1.0641032558850338e-06 0.035000489322064572 0 5.578457038193787e-06 0.034997184135708174 0 2.2981778971202745e-06 0.034997580905062421 0 4.4993459460094316e-06 0.035001610226517092 0 0.0011263104861718135 0.034984936168023964 0 1.6979269496767528e-10 0.03499999363005793 0 2.2981778971202745e-06 0.034997580905062421 0 3.94853693232612e-07 0.034994893945272193 0 5.578457038193787e-06 0.034997184135708174 0 2.2981778971202745e-06 0.034997580905062421 0 3.7681260512989164e-06 0.034993978520050865 0 3.94853693232612e-07 0.034994893945272193 0 3.7681260512989164e-06 0.034993978520050865 0 8.7030651391002675e-07 0.034990014058964736 0 0.0011263104861718135 0.034984936168023964 0 0.00023243395602817236 0.034991967282525079 0 -3.088552155133544e-09 0.034903042893129996 0 3.8855590455881578e-09 0.035000000409787735 0 -1.5330662633085654e-05 0.034997896015689943 0 2.2981778971202745e-06 0.034997580905062421 0 3.94853693232612e-07 0.034994893945272193 0 3.7681260512989164e-06 0.034993978520050865 0 3.7681260512989164e-06 0.034993978520050865 0 8.7030651391002675e-07 0.034990014058964736 0 4.9967310321959804e-06 0.034990457505800883 0 0.00019713347928434133 0.034417903585565464 0 0.00011647294508001406 0.034483601174898536 0 0.00019508184316773835 0.03457485305831199 0 0.00023243395602817236 0.034991967282525079 0 0.00020638435492105435 0.03488394231543774 0 -1.1990555129451574e-08 0.035000103339381985 0 -1.1273127394295949e-06 0.034999916351804383 0 2.3234474576789132e-06 0.035009864855638784 0 2.9307962125447957e-06 0.034999434393286857 0 0.00023243395602817236 0.034991967282525079 0 0.00023243395602817236 0.034991967282525079 0 0.00014724470977329996 0.034904987273229694 0 0.00019713347928434133 0.034417903585565464 0 0.00011647294508001406 0.034483601174898536 0 9.5777932547741056e-05 0.034413678252235964 0 5.599054180152818e-05 0.034442360006047751 0 3.4737920076809496e-05 0.034462979902642576 0 5.6565804604100832e-05 0.034507495281791416 0 0.00011647294508001406 0.034483601174898536 0 5.599054180152818e-05 0.034442360006047751 0 5.6565804604100832e-05 0.034507495281791416 0 0.00011647294508001406 0.034483601174898536 0 5.599054180152818e-05 0.034442360006047751 0 9.5777932547741056e-05 0.034413678252235964 0 0.00014724470977329996 0.034904987273229694 0 0.00010638430306513348 0.034842483680917406 0 5.599054180152818e-05 0.034442360006047751 0 9.5777932547741056e-05 0.034413678252235964 0 3.2577978155256943e-05 0.03441152440843756 0 3.7681260512989164e-06 0.034993978520050865 0 4.9967310321959804e-06 0.034990457505800883 0 9.5193391769854799e-06 0.034990902534058718 0 5.578457038193787e-06 0.034997184135708174 0 3.7681260512989164e-06 0.034993978520050865 0 9.5193391769854799e-06 0.034990902534058718 0 6.6106997477838859e-05 0.034842616084627374 0 0.00010638430306513348 0.034842483680917406 0 -2.1839587843202103e-05 0.034484464721270966 0 -4.8369028044716415e-05 0.034449995068297878 0 3.9959225013454577e-06 0.034392396263640122 0 -0.00011510414176758666 0.034522347109557636 0 -4.8369028044716415e-05 0.034449995068297878 0 -7.7105917972540187e-05 0.034385645890334694 0 -4.8369028044716415e-05 0.034449995068297878 0 3.9959225013454577e-06 0.034392396263640122 0 -7.7105917972540187e-05 0.034385645890334694 0 8.0293784422000173e-05 0.034819460318477352 0 0.00010638430306513348 0.034842483680917406 0 -2.1839587843202103e-05 0.034484464721270966 0 3.5159325120868406e-05 0.03438326565167435 0 3.9959225013454577e-06 0.034392396263640122 0 3.5159325120868406e-05 0.03438326565167435 0 3.9959225013454577e-06 0.034392396263640122 0 2.2224249738913051e-05 0.034383491343109224 0 3.9959225013454577e-06 0.034392396263640122 0 2.2224249738913051e-05 0.034383491343109224 0 1.5163878498020704e-05 0.034417549791106603 0 2.2224249738913051e-05 0.034383491343109224 0 1.5163878498020704e-05 0.034417549791106603 0 1.9747797667191379e-05 0.034415167463260149 0 5.0662253719330875e-05 0.034344348033236473 0 2.2224249738913051e-05 0.034383491343109224 0 1.9747797667191379e-05 0.034415167463260149 0 5.599054180152818e-05 0.034442360006047751 0 2.6935112536054655e-05 0.034429126590594591 0 3.2577978155256943e-05 0.03441152440843756 0 0.0001103222704530881 0.034829412296579182 0 0.00010638430306513348 0.034842483680917406 0 3.9959225013454577e-06 0.034392396263640122 0 2.6935112536054655e-05 0.034429126590594591 0 3.6813931221063376e-05 0.034411104216772424 0 3.9959225013454577e-06 0.034392396263640122 0 1.5163878498020704e-05 0.034417549791106603 0 2.6935112536054655e-05 0.034429126590594591 0 1.5163878498020704e-05 0.034417549791106603 0 2.6935112536054655e-05 0.034429126590594591 0 2.2976100019832946e-05 0.034446260694977901 0 5.599054180152818e-05 0.034442360006047751 0 2.6935112536054655e-05 0.034429126590594591 0 3.4737920076809496e-05 0.034462979902642576 0 2.6935112536054655e-05 0.034429126590594591 0 2.2976100019832946e-05 0.034446260694977901 0 3.4737920076809496e-05 0.034462979902642576 0 2.1939783557890695e-05 0.034491306695681179 0 1.9747797667191379e-05 0.034415167463260149 0 2.2570810891818264e-05 0.034519118087138763 0 2.2976100019832946e-05 0.034446260694977901 0 3.4737920076809496e-05 0.034462979902642576 0 2.1939783557890695e-05 0.034491306695681179 0 3.4737920076809496e-05 0.034462979902642576 0 2.1939783557890695e-05 0.034491306695681179 0 5.6565804604100832e-05 0.034507495281791416 0 1.5163878498020704e-05 0.034417549791106603 0 2.2976100019832946e-05 0.034446260694977901 0 2.1939783557890695e-05 0.034491306695681179 0 2.1939783557890695e-05 0.034491306695681179 0 2.2570810891818264e-05 0.034519118087138763 0 3.067666767938177e-05 0.034599382682443613 0 1.5163878498020704e-05 0.034417549791106603 0 2.1939783557890695e-05 0.034491306695681179 0 1.9747797667191379e-05 0.034415167463260149 0 1.9747797667191379e-05 0.034415167463260149 0 2.647909851544809e-05 0.034443837657410631 0 2.2570810891818264e-05 0.034519118087138763 0 3.5848397260512632e-05 0.034541310065250339 0 3.6327623984999385e-05 0.034390491030230112 0 2.647909851544809e-05 0.034443837657410631 0 3.5848397260512632e-05 0.034541310065250339 0 2.647909851544809e-05 0.034443837657410631 0 2.2570810891818264e-05 0.034519118087138763 0 2.2570810891818264e-05 0.034519118087138763 0 3.1589493988997947e-05 0.034619842513943053 0 3.067666767938177e-05 0.034599382682443613 0 3.5848397260512632e-05 0.034541310065250339 0 2.2570810891818264e-05 0.034519118087138763 0 3.1589493988997947e-05 0.034619842513943053 0 3.1589493988997947e-05 0.034619842513943053 0 3.7917001125747332e-05 0.034726516389632249 0 3.067666767938177e-05 0.034599382682443613 0 3.7917001125747332e-05 0.034726516389632249 0 3.067666767938177e-05 0.034599382682443613 0 5.7809654073114695e-05 0.034691328523761319 0 3.067666767938177e-05 0.034599382682443613 0 5.7809654073114695e-05 0.034691328523761319 0 4.7152960957135946e-05 0.034580230612861446 0 5.6597624398101346e-05 0.034921833936461963 0 5.7809654073114695e-05 0.034691328523761319 0 0.00019508184316773835 0.03457485305831199 0 0.00019605056612661013 0.034865797876288185 0 0.00020638435492105435 0.03488394231543774 0 5.6597624398101346e-05 0.034921833936461963 0 3.7917001125747332e-05 0.034726516389632249 0 5.7809654073114695e-05 0.034691328523761319 0 5.6597624398101346e-05 0.034921833936461963 0 3.2603036600838059e-08 0.034999852901376818 0 2.3234474576789132e-06 0.035009864855638784 0 5.7809654073114695e-05 0.034691328523761319 0 0.00019508184316773835 0.03457485305831199 0 8.8962461834475088e-05 0.034563462786710908 0 -1.1990555129451574e-08 0.035000103339381985 0 3.2603036600838059e-08 0.034999852901376818 0 2.3234474576789132e-06 0.035009864855638784 0 0.00011647294508001406 0.034483601174898536 0 0.00019508184316773835 0.03457485305831199 0 8.8962461834475088e-05 0.034563462786710908 0 0.00011647294508001406 0.034483601174898536 0 5.6565804604100832e-05 0.034507495281791416 0 8.8962461834475088e-05 0.034563462786710908 0 2.1939783557890695e-05 0.034491306695681179 0 5.6565804604100832e-05 0.034507495281791416 0 4.7152960957135946e-05 0.034580230612861446 0 2.1939783557890695e-05 0.034491306695681179 0 3.067666767938177e-05 0.034599382682443613 0 4.7152960957135946e-05 0.034580230612861446 0 5.7809654073114695e-05 0.034691328523761319 0 4.7152960957135946e-05 0.034580230612861446 0 8.8962461834475088e-05 0.034563462786710908 0 5.6565804604100832e-05 0.034507495281791416 0 4.7152960957135946e-05 0.034580230612861446 0 8.8962461834475088e-05 0.034563462786710908 0 9.726223335603371e-06 0.03497564897505976 0 -2.0105804952326837e-08 0.034985231196742288 0 7.7847119784897166e-06 0.034993624231937075 0 9.726223335603371e-06 0.03497564897505976 0 1.8807080097846278e-08 0.03499997046130842 0 7.7847119784897166e-06 0.034993624231937075 0 1.8807080097846278e-08 0.03499997046130842 0 7.8466863761565278e-06 0.034971492350556868 0 -3.8288011977737081e-09 0.034999955379087865 0 9.726223335603371e-06 0.03497564897505976 0 1.8807080097846278e-08 0.03499997046130842 0 7.8466863761565278e-06 0.034971492350556868 0 9.726223335603371e-06 0.03497564897505976 0 1.5380956658890372e-05 0.034926071623461168 0 7.8466863761565278e-06 0.034971492350556868 0 1.5380956658890372e-05 0.034926071623461168 0 7.7817040724352429e-05 0.034776179276266049 0 0.00011288548878075281 0.034882222016540614 0 9.726223335603371e-06 0.03497564897505976 0 1.5380956658890372e-05 0.034926071623461168 0 -2.0105804952326837e-08 0.034985231196742288 0 1.5380956658890372e-05 0.034926071623461168 0 7.7817040724352429e-05 0.034776179276266049 0 -2.7299299021814441e-05 0.034785461211274619 0 0.00012883538709215867 0.034795585284186921 0 0.00013481859399651461 0.034739406759096716 0 -2.7299299021814441e-05 0.034785461211274619 0 2.3838853113107638e-05 0.034710910262533125 0 -5.5423012125169197e-05 0.034662007899593936 0 7.7817040724352429e-05 0.034776179276266049 0 -2.7299299021814441e-05 0.034785461211274619 0 2.3838853113107638e-05 0.034710910262533125 0 0.00013481859399651461 0.034739406759096716 0 0.00015519392991611241 0.034550368652721972 0 7.7817040724352429e-05 0.034776179276266049 0 2.3838853113107638e-05 0.034710910262533125 0 9.3002083507505423e-05 0.034677145779037681 0 7.7817040724352429e-05 0.034776179276266049 0 9.3002083507505423e-05 0.034677145779037681 0 0.000134479434748982 0.034727260320925643 0 0.0002379948622709467 0.033331038291945753 0 0.00066656925091721322 0.032557871697594686 0 2.3838853113107638e-05 0.034710910262533125 0 9.3002083507505423e-05 0.034677145779037681 0 4.5465264535786538e-05 0.034602217540508275 0 9.3002083507505423e-05 0.034677145779037681 0 4.5465264535786538e-05 0.034602217540508275 0 0.00017800658947955279 0.034663444123969211 0 2.3838853113107638e-05 0.034710910262533125 0 -5.5423012125169197e-05 0.034662007899593936 0 4.5465264535786538e-05 0.034602217540508275 0 7.2279771298341204e-06 0.034997360704296217 0 7.7847119784897166e-06 0.034993624231937075 0 1.1185867047277521e-05 0.034998327749524903 0 -2.0105804952326837e-08 0.034985231196742288 0 7.2279771298341204e-06 0.034997360704296217 0 7.7847119784897166e-06 0.034993624231937075 0 1.8807080097846278e-08 0.03499997046130842 0 7.7847119784897166e-06 0.034993624231937075 0 -2.3824754849755923e-09 0.034999970646575174 0 -2.3824754849755923e-09 0.034999970646575174 0 1.1185867047277521e-05 0.034998327749524903 0 5.4451461934011571e-08 0.035000106253117849 0 7.7847119784897166e-06 0.034993624231937075 0 -2.3824754849755923e-09 0.034999970646575174 0 1.1185867047277521e-05 0.034998327749524903 0 1.1185867047277521e-05 0.034998327749524903 0 2.06167721133672e-05 0.03499345970734135 0 5.4451461934011571e-08 0.035000106253117849 0 1.1185867047277521e-05 0.034998327749524903 0 2.06167721133672e-05 0.03499345970734135 0 1.727784740506643e-05 0.034995278980371226 0 2.06167721133672e-05 0.03499345970734135 0 5.4451461934011571e-08 0.035000106253117849 0 4.3613327908824914e-05 0.034970393467784348 0 0.00015519392991611241 0.034550368652721972 0 0.00017488084048048028 0.034091708457365234 0 7.2279771298341204e-06 0.034997360704296217 0 1.1185867047277521e-05 0.034998327749524903 0 1.727784740506643e-05 0.034995278980371226 0 0.00063270111724905763 0.035129601643767695 0 0.00051041886653975456 0.034605468767840382 0 4.3613327908824914e-05 0.034970393467784348 0 0.00061105549855085359 0.033586467544489816 0 0.00030809974425302801 0.034065256519254551 0 3.8370970013390107e-05 0.033517716064006893 0 0.00061105549855085359 0.033586467544489816 0 0.00030809974425302801 0.034065256519254551 0 0.00051041886653975456 0.034605468767840382 0 0.00017488084048048028 0.034091708457365234 0 0.0001984106705942894 0.034140325752915555 0 0.00030809974425302801 0.034065256519254551 0 0.00051041886653975456 0.034605468767840382 0 0.00049752650309430079 0.034627132865286799 0 0.00051041886653975456 0.034605468767840382 0 4.3613327908824914e-05 0.034970393467784348 0 1.8824487224767234e-07 0.03499919764579483 0 5.4451461934011571e-08 0.035000106253117849 0 4.3613327908824914e-05 0.034970393467784348 0 1.8824487224767234e-07 0.03499919764579483 0 2.06167721133672e-05 0.03499345970734135 0 1.727784740506643e-05 0.034995278980371226 0 4.3613327908824914e-05 0.034970393467784348 0 0.00017488084048048028 0.034091708457365234 0 0.00022147186550308226 0.034191215659245801 0 0.00051041886653975456 0.034605468767840382 0 1.8824487224767234e-07 0.03499919764579483 0 0.00049752650309430079 0.034627132865286799 0 1.4813081829226675e-07 0.034999439641497716 0 6.4079281016635412e-05 0.03469523166456779 0 3.4470863722777267e-05 0.034869720544753194 0 1.4813081829226675e-07 0.034999439641497716 0 0.00010878043790963217 0.034451761216571522 0 6.4079281016635412e-05 0.03469523166456779 0 1.5205275634683692e-07 0.034999491754049893 0 8.1090807574458116e-06 0.034824601774006085 0 0.00010878043790963217 0.034451761216571522 0 6.5649621919016294e-05 0.034528173547284137 0 6.4079281016635412e-05 0.03469523166456779 0 0.00010878043790963217 0.034451761216571522 0 6.5649621919016294e-05 0.034528173547284137 0 -2.9120671857126494e-06 0.034326360683382448 0 3.419356064716721e-05 0.03456392969107884 0 6.5649621919016294e-05 0.034528173547284137 0 -2.9120671857126494e-06 0.034326360683382448 0 3.419356064716721e-05 0.03456392969107884 0 6.4079281016635412e-05 0.03469523166456779 0 3.2049835857536883e-05 0.034729122870058915 0 3.419356064716721e-05 0.03456392969107884 0 6.5649621919016294e-05 0.034528173547284137 0 6.4079281016635412e-05 0.03469523166456779 0 1.2566462899159497e-05 0.034858659627405433 0 3.2049835857536883e-05 0.034729122870058915 0 -2.43325025440514e-05 0.034723650213952489 0 3.419356064716721e-05 0.03456392969107884 0 3.2049835857536883e-05 0.034729122870058915 0 -3.1431830528640759e-05 0.034579360959171725 0 3.2049835857536883e-05 0.034729122870058915 0 -2.43325025440514e-05 0.034723650213952489 0 -3.1431830528640759e-05 0.034579360959171725 0 1.4813081829226675e-07 0.034999439641497716 0 7.3890543377462796e-08 0.034999937905759518 0 3.4470863722777267e-05 0.034869720544753194 0 1.2566462899159497e-05 0.034858659627405433 0 3.2049835857536883e-05 0.034729122870058915 0 3.4470863722777267e-05 0.034869720544753194 0 1.2566462899159497e-05 0.034858659627405433 0 7.3890543377462796e-08 0.034999937905759518 0 3.4470863722777267e-05 0.034869720544753194 0 6.4079281016635412e-05 0.03469523166456779 0 3.2049835857536883e-05 0.034729122870058915 0 3.4470863722777267e-05 0.034869720544753194 0 -0.00018584600817616218 0.034421591172943834 0 -0.00028543163305218072 0.034545320269372216 0 -0.00040839465886554916 0.034441035443150317 0 -0.00033147443629069921 0.034595593506384928 0 -0.0001985316173743909 0.034633026131759448 0 -0.00028543163305218072 0.034545320269372216 0 -0.0001985316173743909 0.034633026131759448 0 -0.00028543163305218072 0.034545320269372216 0 -0.00018487337797873496 0.034593437625512063 0 -0.00018584600817616218 0.034421591172943834 0 -0.00028543163305218072 0.034545320269372216 0 -0.00018487337797873496 0.034593437625512063 0 -0.00018584600817616218 0.034421591172943834 0 -0.00018487337797873496 0.034593437625512063 0 -9.9736878467641046e-05 0.034613326203991053 0 -2.43325025440514e-05 0.034723650213952489 0 -9.9736878467641046e-05 0.034613326203991053 0 -3.1431830528640759e-05 0.034579360959171725 0 -0.00018584600817616218 0.034421591172943834 0 -9.9736878467641046e-05 0.034613326203991053 0 -3.1431830528640759e-05 0.034579360959171725 0 -0.00018584600817616218 0.034421591172943834 0 -5.3751005073733589e-05 0.034365146064965837 0 -0.00013731989502656526 0.034149825133551505 0 -0.00018584600817616218 0.034421591172943834 0 -3.1431830528640759e-05 0.034579360959171725 0 -5.3751005073733589e-05 0.034365146064965837 0 3.419356064716721e-05 0.03456392969107884 0 -5.3751005073733589e-05 0.034365146064965837 0 -2.9120671857126494e-06 0.034326360683382448 0 3.419356064716721e-05 0.03456392969107884 0 -3.1431830528640759e-05 0.034579360959171725 0 -5.3751005073733589e-05 0.034365146064965837 0 -5.3751005073733589e-05 0.034365146064965837 0 -2.9120671857126494e-06 0.034326360683382448 0 -0.00013731989502656526 0.034149825133551505 0 -2.9120671857126494e-06 0.034326360683382448 0 -0.00013731989502656526 0.034149825133551505 0 -0.00012111645008125808 0.033820198124898782 0 -8.7683421960468242e-05 0.033916999765327603 0 -4.319723927148665e-05 0.03387920876679644 0 -0.00018584600817616218 0.034421591172943834 0 -0.0003525836077996522 0.033935404950842567 0 -0.00040839465886554916 0.034441035443150317 0 -0.00018584600817616218 0.034421591172943834 0 -0.00013731989502656526 0.034149825133551505 0 -0.0003525836077996522 0.033935404950842567 0 -0.0003525836077996522 0.033935404950842567 0 -0.00045499239068113798 0.033438674052628077 0 -0.00075666056170083291 0.03359720172857459 0 -0.00013731989502656526 0.034149825133551505 0 -0.0003525836077996522 0.033935404950842567 0 -0.00012111645008125808 0.033820198124898782 0 -0.0003525836077996522 0.033935404950842567 0 -0.00045499239068113798 0.033438674052628077 0 -0.00012111645008125808 0.033820198124898782 0 -0.00045499239068113798 0.033438674052628077 0 -0.00012111645008125808 0.033820198124898782 0 -0.00026403341612584911 0.033320706782123351 0 0.00010878043790963217 0.034451761216571522 0 -2.9120671857126494e-06 0.034326360683382448 0 -0.00012111645008125808 0.033820198124898782 0 0.00030809974425302801 0.034065256519254551 0 0.00049752650309430079 0.034627132865286799 0 -0.00012111645008125808 0.033820198124898782 0 8.1090807574458116e-06 0.034824601774006085 0 -5.2835433738457604e-05 0.034717039402633362 0 -0.00012111645008125808 0.033820198124898782 0 3.8370970013390107e-05 0.033517716064006893 0 -0.00026403341612584911 0.033320706782123351 0 0.00030809974425302801 0.034065256519254551 0 -0.00012111645008125808 0.033820198124898782 0 3.8370970013390107e-05 0.033517716064006893 0 0.00061105549855085359 0.033586467544489816 0 3.8370970013390107e-05 0.033517716064006893 0 -0.00025965271228207802 0.032792838291388779 0 0.00017488084048048028 0.034091708457365234 0 0.0002379948622709467 0.033331038291945753 0 -5.5423012125169197e-05 0.034662007899593936 0 -8.2662330942331552e-05 0.034539171060141045 0 4.5465264535786538e-05 0.034602217540508275 0 3.8370970013390107e-05 0.033517716064006893 0 -0.00026403341612584911 0.033320706782123351 0 -0.00025965271228207802 0.032792838291388779 0 -0.00050856056535153384 0.033052873552249729 0 -0.00025965271228207802 0.032792838291388779 0 -0.00073780284661322697 0.032699065735815776 0 -0.00045499239068113798 0.033438674052628077 0 -0.00050856056535153384 0.033052873552249729 0 -0.00076223066402575368 0.032979651264476863 0 -0.00045499239068113798 0.033438674052628077 0 -0.00050856056535153384 0.033052873552249729 0 -0.00026403341612584911 0.033320706782123351 0 -0.00050856056535153384 0.033052873552249729 0 -0.00026403341612584911 0.033320706782123351 0 -0.00025965271228207802 0.032792838291388779 0 -0.00073780284661322697 0.032699065735815776 0 -0.00076223066402575368 0.032979651264476863 0 -0.0010791164928722903 0.032426017749478023 0 -0.00076223066402575368 0.032979651264476863 0 -0.0010791164928722903 0.032426017749478023 0 -0.0010471859195377064 0.032816767003163619 0 -0.00050856056535153384 0.033052873552249729 0 -0.00073780284661322697 0.032699065735815776 0 -0.00076223066402575368 0.032979651264476863 0 -0.0010791164928722903 0.032426017749478023 0 -0.0012513255438349798 0.032053008744553232 0 -0.00096682529553997665 0.03245691904453879 0 -0.0010791164928722903 0.032426017749478023 0 -0.0012513255438349798 0.032053008744553232 0 -0.0010471859195377064 0.032816767003163619 0 -0.0012513255438349798 0.032053008744553232 0 -0.0014440461671503125 0.032959971103944316 0 -0.0010471859195377064 0.032816767003163619 0 -0.0014440461671503125 0.032959971103944316 0 -0.0010471859195377064 0.032816767003163619 0 -0.0012158957508674457 0.033396254587393967 0 -0.0010471859195377064 0.032816767003163619 0 -0.0012158957508674457 0.033396254587393967 0 -0.00075666056170083291 0.03359720172857459 0 -0.0014440461671503125 0.032959971103944316 0 -0.0012158957508674457 0.033396254587393967 0 -0.0017576211975949161 0.033493353645356716 0 -0.00076223066402575368 0.032979651264476863 0 -0.0010471859195377064 0.032816767003163619 0 -0.00075666056170083291 0.03359720172857459 0 -0.00045499239068113798 0.033438674052628077 0 -0.00076223066402575368 0.032979651264476863 0 -0.00075666056170083291 0.03359720172857459 0 -0.00075666056170083291 0.03359720172857459 0 -0.0011521051137224311 0.033920792710497139 0 -0.00060812258399022261 0.034186727158905791 0 -0.0003525836077996522 0.033935404950842567 0 -0.00075666056170083291 0.03359720172857459 0 -0.00060812258399022261 0.034186727158905791 0 -0.0011521051137224311 0.033920792710497139 0 -0.0018178717239880403 0.034194850877469048 0 -0.0017576211975949161 0.033493353645356716 0 -0.0012158957508674457 0.033396254587393967 0 -0.00075666056170083291 0.03359720172857459 0 -0.0011521051137224311 0.033920792710497139 0 -0.0012158957508674457 0.033396254587393967 0 -0.0011521051137224311 0.033920792710497139 0 -0.0017576211975949161 0.033493353645356716 0 -0.00099852913641909147 0.03478720242919852 0 -0.0010606010569553003 0.034488103066017788 0 -0.0018178717239880403 0.034194850877469048 0 -0.0011521051137224311 0.033920792710497139 0 -0.0010606010569553003 0.034488103066017788 0 -0.0018178717239880403 0.034194850877469048 0 0.00027633901624117774 0.033503929305092182 0 0.00058753687501808278 0.032662846449452686 0 0.0024658485944619164 0.032613307224924247 0 0.0034686727281343873 0.032452721182050732 0 0.0024768112978839022 0.031660033001526318 0 -0.00033147443629069921 0.034595593506384928 0 -0.00040386426744555982 0.034629056998396225 0 -0.00040839465886554916 0.034441035443150317 0 -0.00099852913641909147 0.03478720242919852 0 -0.0010606010569553003 0.034488103066017788 0 -0.00060812258399022261 0.034186727158905791 0 0.00027633901624117774 0.033503929305092182 0 -4.319723927148665e-05 0.03387920876679644 0 -0.0011521051137224311 0.033920792710497139 0 -0.0010606010569553003 0.034488103066017788 0 -0.00060812258399022261 0.034186727158905791 0 -0.00033147443629069921 0.034595593506384928 0 -0.00028543163305218072 0.034545320269372216 0 -0.00040839465886554916 0.034441035443150317 0 0.0015991274548707486 0.031627533507777299 0 0.0020730061267924074 0.032136808185648257 0 0.0024768112978839022 0.031660033001526318 0 0.0015991274548707486 0.031627533507777299 0 0.0015632088579070505 0.032099666905219121 0 0.001307228794046563 0.031866720485762626 0 0.0015991274548707486 0.031627533507777299 0 0.0015632088579070505 0.032099666905219121 0 0.0020730061267924074 0.032136808185648257 0 0.0024658485944619164 0.032613307224924247 0 0.0020730061267924074 0.032136808185648257 0 0.0024768112978839022 0.031660033001526318 0 -0.0018178717239880403 0.034194850877469048 0 -0.0017576211975949161 0.033493353645356716 0 -0.0028089696082108338 0.033463445493227599 0 0.0015991274548707486 0.031627533507777299 0 0.0014038460956093751 0.031224824037409091 0 0.0011391474130534446 0.031312895269203889 0 0.00058753687501808278 0.032662846449452686 0 0.00095266413691352206 0.031764566290395133 0 0.0015991274548707486 0.031627533507777299 0 0.0024768112978839022 0.031660033001526318 0 0.0014038460956093751 0.031224824037409091 0 0.00091099716978537313 0.029235133298610459 0 -0.00020794163049781762 0.030242878449872709 0 0.00097723633471154996 0.030591302246158372 0 0.00095266413691352206 0.031764566290395133 0 0.00035246319590848503 0.031962737177083207 0 -0.0017576211975949161 0.033493353645356716 0 -0.0028089696082108338 0.033463445493227599 0 -0.0021934524081099155 0.032899311971756315 0 -0.0014440461671503125 0.032959971103944316 0 -0.0017576211975949161 0.033493353645356716 0 -0.0021934524081099155 0.032899311971756315 0 -0.0012513255438349798 0.032053008744553232 0 -0.0014440461671503125 0.032959971103944316 0 -0.0021934524081099155 0.032899311971756315 0 -0.0012513255438349798 0.032053008744553232 0 -0.00014075508277016236 0.031554845176176592 0 -0.00096682529553997665 0.03245691904453879 0 0.00017542009627563858 0.032023347011798521 0 0.00035246319590848503 0.031962737177083207 0 -0.0012513255438349798 0.032053008744553232 0 -0.00020794163049781762 0.030242878449872709 0 -0.00014075508277016236 0.031554845176176592 0 -0.00014075508277016236 0.031554845176176592 0 0.00097723633471154996 0.030591302246158372 0 0.0009450620179703768 0.031951740469624269 0 -0.00020794163049781762 0.030242878449872709 0 -0.00014075508277016236 0.031554845176176592 0 0.00097723633471154996 0.030591302246158372 0 0.0032351466854412887 0.030313606538931812 0 0.0033612719261613701 0.030103875168678389 0 0.0035730571689975093 0.03024356717209541 0 0.0032351466854412887 0.030313606538931812 0 0.0033612719261613701 0.030103875168678389 0 0.0029815743846751575 0.029993581692936651 0 0.0033612719261613701 0.030103875168678389 0 0.0032825160446761968 0.029879021807607844 0 0.0029815743846751575 0.029993581692936651 0 0.0033612719261613701 0.030103875168678389 0 0.0032825160446761968 0.029879021807607844 0 0.0036115879732701649 0.030056534058688539 0 0.0015942399489387005 0.0323398380955165 0 0.0013556232840679072 0.03251091463907841 0 0.00029344785677994675 0.034747965440399917 0 0.00023188147160863975 0.034719227058072177 0 0.00022139380038589031 0.034766915710565886 0 0.0016388164602283962 0.031753850127082088 0 0.0012763255597256829 0.03205235112070124 0 0.0033612719261613701 0.030103875168678389 0 0.0036115879732701649 0.030056534058688539 0 0.0035730571689975093 0.03024356717209541 0 -0.00014075508277016236 0.031554845176176592 0 0.0009450620179703768 0.031951740469624269 0 -0.00096682529553997665 0.03245691904453879 0 0.0012763255597256829 0.03205235112070124 0 0.00066656925091721322 0.032557871697594686 0 -0.0010791164928722903 0.032426017749478023 0 -0.00096682529553997665 0.03245691904453879 0 -0.00098534663988318421 0.032337394651177936 0 0.0036115879732701649 0.030056534058688539 0 0.0035730571689975093 0.03024356717209541 0 0.0038912810973581995 0.030202854491380368 0 0.0013556232840679072 0.03251091463907841 0 0.00066656925091721322 0.032557871697594686 0 0.00052913956078895897 0.032679920481458243 0 0.00066656925091721322 0.032557871697594686 0 -0.00025965271228207802 0.032792838291388779 0 -0.00073780284661322697 0.032699065735815776 0 -0.00098534663988318421 0.032337394651177936 0 9.3002083507505423e-05 0.034677145779037681 0 0.00015855317533326218 0.034676224671592155 0 0.000134479434748982 0.034727260320925643 0 -0.00073780284661322697 0.032699065735815776 0 -0.0010791164928722903 0.032426017749478023 0 -0.00098534663988318421 0.032337394651177936 0 7.7817040724352429e-05 0.034776179276266049 0 0.000134479434748982 0.034727260320925643 0 0.00015827737859641308 0.034778763685534952 0 0.00015855317533326218 0.034676224671592155 0 0.000134479434748982 0.034727260320925643 0 0.00017995632797431727 0.03473233247758014 0 0.000134479434748982 0.034727260320925643 0 0.00017995632797431727 0.03473233247758014 0 0.00015827737859641308 0.034778763685534952 0 0.00023188147160863975 0.034719227058072177 0 0.00015855317533326218 0.034676224671592155 0 0.00017995632797431727 0.03473233247758014 0 0.00023188147160863975 0.034719227058072177 0 0.00017995632797431727 0.03473233247758014 0 0.00022139380038589031 0.034766915710565886 0 0.00017995632797431727 0.03473233247758014 0 0.00022139380038589031 0.034766915710565886 0 0.00015827737859641308 0.034778763685534952 0 0.00022139380038589031 0.034766915710565886 0 0.00015827737859641308 0.034778763685534952 0 0.00019923782655041327 0.034829757212698265 0 0.00022139380038589031 0.034766915710565886 0 0.00019923782655041327 0.034829757212698265 0 0.00024908725512648433 0.03479631224975923 0 7.7817040724352429e-05 0.034776179276266049 0 0.00015827737859641308 0.034778763685534952 0 0.00011288548878075281 0.034882222016540614 0 0.00015827737859641308 0.034778763685534952 0 0.00011288548878075281 0.034882222016540614 0 0.00019923782655041327 0.034829757212698265 0 0.00011288548878075281 0.034882222016540614 0 0.00019923782655041327 0.034829757212698265 0 0.00021358808516697145 0.034884216556469221 0 0.00019923782655041327 0.034829757212698265 0 0.00026201238311717736 0.034841495634772741 0 0.00021358808516697145 0.034884216556469221 0 0.00026201238311717736 0.034841495634772741 0 0.00029959928634331468 0.034795126688004725 0 0.00024908725512648433 0.03479631224975923 0 0.00019923782655041327 0.034829757212698265 0 0.00026201238311717736 0.034841495634772741 0 0.00024908725512648433 0.03479631224975923 0 0.00026201238311717736 0.034841495634772741 0 0.00029959928634331468 0.034795126688004725 0 0.00033215252907126813 0.034826009015159309 0 0.00029344785677994675 0.034747965440399917 0 0.00029959928634331468 0.034795126688004725 0 0.00024908725512648433 0.03479631224975923 0 0.00029344785677994675 0.034747965440399917 0 0.00029959928634331468 0.034795126688004725 0 0.00035087253698404248 0.034764352615907525 0 0.00029344785677994675 0.034747965440399917 0 0.00022139380038589031 0.034766915710565886 0 0.00024908725512648433 0.03479631224975923 0 0.0016648384506655505 0.032115072420980641 0 0.001665173316029787 0.031821224382534583 0 0.0028362587098467546 0.029790208263072535 0 0.0029479109018775841 0.029756664806730757 0 0.0027688983152965477 0.029753760256382652 0 0.0028362587098467546 0.029790208263072535 0 0.0027966928715508921 0.029786603116708648 0 0.0027688983152965477 0.029753760256382652 0 0.0028362587098467546 0.029790208263072535 0 0.0027966928715508921 0.029786603116708648 0 0.0027933163101634237 0.029844637968182899 0 0.0028362587098467546 0.029790208263072535 0 0.0029479109018775841 0.029756664806730757 0 0.0029815743846751575 0.029993581692936651 0 0.0015942399489387005 0.0323398380955165 0 0.0016648384506655505 0.032115072420980641 0 0.00029959928634331468 0.034795126688004725 0 0.00035087253698404248 0.034764352615907525 0 0.00033215252907126813 0.034826009015159309 0 0.00035087253698404248 0.034764352615907525 0 0.00033215252907126813 0.034826009015159309 0 0.00037215061806775818 0.034786159053613437 0 0.00033215252907126813 0.034826009015159309 0 0.00037557434940038552 0.034810411856624798 0 0.00037215061806775818 0.034786159053613437 0 0.00035087253698404248 0.034764352615907525 0 0.00037215061806775818 0.034786159053613437 0 0.00041344480463784556 0.034774486463235568 0 0.00037557434940038552 0.034810411856624798 0 0.00037215061806775818 0.034786159053613437 0 0.00040080712032428205 0.034793025057202095 0 0.00037215061806775818 0.034786159053613437 0 0.00040080712032428205 0.034793025057202095 0 0.00041344480463784556 0.034774486463235568 0 0.00040080712032428205 0.034793025057202095 0 0.00041344480463784556 0.034774486463235568 0 0.00041279147191267102 0.034783142250028383 0 0.00037557434940038552 0.034810411856624798 0 0.00040080712032428205 0.034793025057202095 0 0.00040015072028174765 0.034811702071130719 0 0.00040015072028174765 0.034811702071130719 0 0.00041301982838598631 0.03480180735708005 0 0.00041758206541039374 0.034813124542064172 0 0.00040080712032428205 0.034793025057202095 0 0.00040015072028174765 0.034811702071130719 0 0.00041301982838598631 0.03480180735708005 0 0.0027851671041136759 0.029775450404089934 0 0.0027688983152965477 0.029753760256382652 0 0.0028104321506126398 0.029811515046743241 0 0.00041301982838598631 0.03480180735708005 0 0.00041796194137947497 0.034790744713775371 0 0.000429280189947233 0.034800966466852358 0 0.00041301982838598631 0.03480180735708005 0 0.000429280189947233 0.034800966466852358 0 0.00041758206541039374 0.034813124542064172 0 0.001665173316029787 0.031821224382534583 0 0.0020303300732250986 0.030360640969393553 0 0.00043599892148522552 0.034781687640463056 0 0.00041344480463784556 0.034774486463235568 0 0.00050167264099427544 0.034777472628788449 0 0.00043599892148522552 0.034781687640463056 0 0.00044832263689984696 0.034784087411219182 0 0.00050167264099427544 0.034777472628788449 0 0.001665173316029787 0.031821224382534583 0 0.001570086374265599 0.032209289508762992 0 0.0027688983152965477 0.029753760256382652 0 0.0028401952358666285 0.029875989554988089 0 0.0028104321506126398 0.029811515046743241 0 0.00040080712032428205 0.034793025057202095 0 0.00041796194137947497 0.034790744713775371 0 0.00041279147191267102 0.034783142250028383 0 0.00040080712032428205 0.034793025057202095 0 0.00041301982838598631 0.03480180735708005 0 0.00041796194137947497 0.034790744713775371 0 0.00041796194137947497 0.034790744713775371 0 0.00041279147191267102 0.034783142250028383 0 0.00042291953201501864 0.034783665829504783 0 0.00041796194137947497 0.034790744713775371 0 0.00043246679717884822 0.034789504640743062 0 0.00042291953201501864 0.034783665829504783 0 0.00041796194137947497 0.034790744713775371 0 0.00043246679717884822 0.034789504640743062 0 0.000429280189947233 0.034800966466852358 0 0.00043599892148522552 0.034781687640463056 0 0.00043246679717884822 0.034789504640743062 0 0.00042291953201501864 0.034783665829504783 0 0.00043246679717884822 0.034789504640743062 0 0.000429280189947233 0.034800966466852358 0 0.00044412666487988784 0.034792633341606698 0 0.00044412666487988784 0.034792633341606698 0 0.00046293169803324175 0.034787391196362372 0 0.00044829540449407542 0.034800867488617042 0 0.000429280189947233 0.034800966466852358 0 0.00044412666487988784 0.034792633341606698 0 0.00044829540449407542 0.034800867488617042 0 0.00044412666487988784 0.034792633341606698 0 0.00046293169803324175 0.034787391196362372 0 0.00044832263689984696 0.034784087411219182 0 0.00046293169803324175 0.034787391196362372 0 0.00046795255756979908 0.034796839624808215 0 0.00044829540449407542 0.034800867488617042 0 0.00043246679717884822 0.034789504640743062 0 0.00044412666487988784 0.034792633341606698 0 0.00044832263689984696 0.034784087411219182 0 0.00043599892148522552 0.034781687640463056 0 0.00043246679717884822 0.034789504640743062 0 0.00044832263689984696 0.034784087411219182 0 0.0027951766326994466 0.029786843984553116 0 0.0027851671041136759 0.029775450404089934 0 0.0028104321506126398 0.029811515046743241 0 0.0028009800378817366 0.029792473301971125 0 0.0027951766326994466 0.029786843984553116 0 0.0028104321506126398 0.029811515046743241 0 0.0028009800378817366 0.029792473301971125 0 0.0028082311347210841 0.029788431632665355 0 0.0027949120788727513 0.029779215912997693 0 0.0027951766326994466 0.029786843984553116 0 0.0027858157108724257 0.029775395094972866 0 0.0027949120788727513 0.029779215912997693 0 0.0028009800378817366 0.029792473301971125 0 0.0027951766326994466 0.029786843984553116 0 0.0027949120788727513 0.029779215912997693 0 0.0027951766326994466 0.029786843984553116 0 0.0027851671041136759 0.029775450404089934 0 0.0027858157108724257 0.029775395094972866 0 0.0027851671041136759 0.029775450404089934 0 0.0027796664156006005 0.029768983283218139 0 0.0027858157108724257 0.029775395094972866 0 0.0027851671041136759 0.029775450404089934 0 0.0027796664156006005 0.029768983283218139 0 0.0027688983152965477 0.029753760256382652 0 0.0027796664156006005 0.029768983283218139 0 0.0027688983152965477 0.029753760256382652 0 0.0027791476596361838 0.029769208170233947 0 0.00041344480463784556 0.034774486463235568 0 0.00041279147191267102 0.034783142250028383 0 0.00042291953201501864 0.034783665829504783 0 0.00043599892148522552 0.034781687640463056 0 0.00041344480463784556 0.034774486463235568 0 0.00042291953201501864 0.034783665829504783 0 0.00038560057735816838 0.034688055665051384 0 0.00050167264099427544 0.034777472628788449 0 0.00051526944605336401 0.034758399749628126 0 0.0028401952358666285 0.029875989554988089 0 0.0028672083926398035 0.029840120810733173 0 0.0029124356354152644 0.029847293927336628 0 0.00051657364132059861 0.034780763912131918 0 0.00051526944605336401 0.034758399749628126 0 0.00053681293186761368 0.034786447345778113 0 0.00051657364132059861 0.034780763912131918 0 0.00050167264099427544 0.034777472628788449 0 0.00051526944605336401 0.034758399749628126 0 0.0028401952358666285 0.029875989554988089 0 0.0028316883674002558 0.029840118319040782 0 0.0028457701952245215 0.029837647022479985 0 0.0028401952358666285 0.029875989554988089 0 0.0028457701952245215 0.029837647022479985 0 0.0028672083926398035 0.029840120810733173 0 0.00046293169803324175 0.034787391196362372 0 0.00044832263689984696 0.034784087411219182 0 0.00050167264099427544 0.034777472628788449 0 0.00046293169803324175 0.034787391196362372 0 0.00050167264099427544 0.034777472628788449 0 0.00048004457258287369 0.034790540151686207 0 0.00046293169803324175 0.034787391196362372 0 0.00046795255756979908 0.034796839624808215 0 0.00048004457258287369 0.034790540151686207 0 0.0028401952358666285 0.029875989554988089 0 0.0028104321506126398 0.029811515046743241 0 0.0028316883674002558 0.029840118319040782 0 0.0028104321506126398 0.029811515046743241 0 0.0028082311347210841 0.029788431632665355 0 0.002821852692633243 0.029798390688118088 0 0.0028009800378817366 0.029792473301971125 0 0.0028104321506126398 0.029811515046743241 0 0.0028082311347210841 0.029788431632665355 0 0.002821852692633243 0.029798390688118088 0 0.002832234407698505 0.029815737673777307 0 0.0028432169111015414 0.029785823500615045 0 0.0028104321506126398 0.029811515046743241 0 0.002821852692633243 0.029798390688118088 0 0.002832234407698505 0.029815737673777307 0 0.0028104321506126398 0.029811515046743241 0 0.002832234407698505 0.029815737673777307 0 0.0028316883674002558 0.029840118319040782 0 0.002832234407698505 0.029815737673777307 0 0.0028316883674002558 0.029840118319040782 0 0.0028457701952245215 0.029837647022479985 0 0.0028457701952245215 0.029837647022479985 0 0.0028566750670086312 0.029816492459213473 0 0.0028672083926398035 0.029840120810733173 0 0.002832234407698505 0.029815737673777307 0 0.0028457701952245215 0.029837647022479985 0 0.0028566750670086312 0.029816492459213473 0 0.002832234407698505 0.029815737673777307 0 0.0028566750670086312 0.029816492459213473 0 0.0028432169111015414 0.029785823500615045 0 0.0028566750670086312 0.029816492459213473 0 0.0028432169111015414 0.029785823500615045 0 0.0028897075607950905 0.029772822362556343 0 0.0028566750670086312 0.029816492459213473 0 0.0028914732606027185 0.029815435671214977 0 0.0028897075607950905 0.029772822362556343 0 0.0028914732606027185 0.029815435671214977 0 0.0028672083926398035 0.029840120810733173 0 0.0029124356354152644 0.029847293927336628 0 0.0028566750670086312 0.029816492459213473 0 0.0028914732606027185 0.029815435671214977 0 0.0028672083926398035 0.029840120810733173 0 0.0028897075607950905 0.029772822362556343 0 0.0028565209748982368 0.029748597758243633 0 0.0029017489518198695 0.029693668853097672 0 0.0028565209748982368 0.029748597758243633 0 0.0028429928317040124 0.029721788976402933 0 0.0029017489518198695 0.029693668853097672 0 0.0028432169111015414 0.029785823500615045 0 0.0028897075607950905 0.029772822362556343 0 0.0028565209748982368 0.029748597758243633 0 0.0028432169111015414 0.029785823500615045 0 0.0028565209748982368 0.029748597758243633 0 0.0028247572299460668 0.02976956004315913 0 0.0028565209748982368 0.029748597758243633 0 0.0028247572299460668 0.02976956004315913 0 0.0028429928317040124 0.029721788976402933 0 0.0028247572299460668 0.02976956004315913 0 0.002809311604468154 0.029751746419339496 0 0.0028429928317040124 0.029721788976402933 0 0.0028082311347210841 0.029788431632665355 0 0.002821852692633243 0.029798390688118088 0 0.0028247572299460668 0.02976956004315913 0 0.002821852692633243 0.029798390688118088 0 0.0028432169111015414 0.029785823500615045 0 0.0028247572299460668 0.02976956004315913 0 0.0028082311347210841 0.029788431632665355 0 0.0028247572299460668 0.02976956004315913 0 0.0028053782090508936 0.029772826475524809 0 0.0028082311347210841 0.029788431632665355 0 0.0028053782090508936 0.029772826475524809 0 0.0027949120788727513 0.029779215912997693 0 0.0028053782090508936 0.029772826475524809 0 0.002809311604468154 0.029751746419339496 0 0.0027918217934649395 0.029770552029409012 0 0.0028247572299460668 0.02976956004315913 0 0.0028053782090508936 0.029772826475524809 0 0.002809311604468154 0.029751746419339496 0 0.002809311604468154 0.029751746419339496 0 0.0027992958805632849 0.02975908603648007 0 0.0028247559323440756 0.029720696084084435 0 0.002809311604468154 0.029751746419339496 0 0.0028429928317040124 0.029721788976402933 0 0.0028247559323440756 0.029720696084084435 0 0.0028429928317040124 0.029721788976402933 0 0.0028695013696767354 0.029671333338033252 0 0.0029017489518198695 0.029693668853097672 0 0.0028429928317040124 0.029721788976402933 0 0.0028695013696767354 0.029671333338033252 0 0.0028247559323440756 0.029720696084084435 0 0.0027966928715508921 0.029786603116708648 0 0.0027688983152965477 0.029753760256382652 0 0.0027818914988113541 0.029773838331036792 0 0.0027829636354071235 0.029775911879104767 0 0.0027818914988113541 0.029773838331036792 0 0.0027815527061015571 0.029772494281110042 0 0.0027847620309110078 0.029781877253543733 0 0.0027829636354071235 0.029775911879104767 0 0.0027818914988113541 0.029773838331036792 0 0.0027966928715508921 0.029786603116708648 0 0.0027847620309110078 0.029781877253543733 0 0.0027818914988113541 0.029773838331036792 0 0.0027688983152965477 0.029753760256382652 0 0.0027818914988113541 0.029773838331036792 0 0.0027791476596361838 0.029769208170233947 0 0.0027818914988113541 0.029773838331036792 0 0.0027791476596361838 0.029769208170233947 0 0.0027815527061015571 0.029772494281110042 0 0.0027796664156006005 0.029768983283218139 0 0.0027791476596361838 0.029769208170233947 0 0.0027815527061015571 0.029772494281110042 0 0.0027796664156006005 0.029768983283218139 0 0.0027815527061015571 0.029772494281110042 0 0.0027858157108724257 0.029775395094972866 0 0.0027858157108724257 0.029775395094972866 0 0.0027860671795591099 0.02977394390545534 0 0.0027949120788727513 0.029779215912997693 0 0.0027815527061015571 0.029772494281110042 0 0.0027858157108724257 0.029775395094972866 0 0.0027860671795591099 0.02977394390545534 0 0.0028053782090508936 0.029772826475524809 0 0.0027949120788727513 0.029779215912997693 0 0.0027918217934649395 0.029770552029409012 0 0.0027860671795591099 0.02977394390545534 0 0.0027949120788727513 0.029779215912997693 0 0.0027918217934649395 0.029770552029409012 0 0.0027829636354071235 0.029775911879104767 0 0.0027860671795591099 0.02977394390545534 0 0.0027918217934649395 0.029770552029409012 0 0.0027829636354071235 0.029775911879104767 0 0.0027918217934649395 0.029770552029409012 0 0.0027883209416831442 0.029772644046864048 0 0.0027829636354071235 0.029775911879104767 0 0.0027815527061015571 0.029772494281110042 0 0.0027860671795591099 0.02977394390545534 0 0.0027829636354071235 0.029775911879104767 0 0.0027883209416831442 0.029772644046864048 0 0.0027830445001858291 0.02979465300260517 0 0.002809311604468154 0.029751746419339496 0 0.0027883209416831442 0.029772644046864048 0 0.0027992958805632849 0.02975908603648007 0 0.002809311604468154 0.029751746419339496 0 0.0027918217934649395 0.029770552029409012 0 0.0027883209416831442 0.029772644046864048 0 0.0027883209416831442 0.029772644046864048 0 0.0027992958805632849 0.02975908603648007 0 0.0027864789153448336 0.029787981551385637 0 0.0027883209416831442 0.029772644046864048 0 0.0027864789153448336 0.029787981551385637 0 0.0027830445001858291 0.02979465300260517 0 0.0027864789153448336 0.029787981551385637 0 0.0027830445001858291 0.02979465300260517 0 0.0027828738986065216 0.029825646451803505 0 0.0027966928715508921 0.029786603116708648 0 0.0027830445001858291 0.02979465300260517 0 0.0027933163101634237 0.029844637968182899 0 0.0027847620309110078 0.029781877253543733 0 0.0027829636354071235 0.029775911879104767 0 0.0027830445001858291 0.02979465300260517 0 0.0027966928715508921 0.029786603116708648 0 0.0027847620309110078 0.029781877253543733 0 0.0027830445001858291 0.02979465300260517 0 0.0027828738986065216 0.029825646451803505 0 0.002777824515432732 0.029919885081631216 0 0.0027933163101634237 0.029844637968182899 0 0.0027830445001858291 0.02979465300260517 0 0.0027828738986065216 0.029825646451803505 0 0.0027933163101634237 0.029844637968182899 0 0.0027864789153448336 0.029787981551385637 0 0.0027828738986065216 0.029825646451803505 0 0.0027971511220100409 0.029779288817769711 0 0.0027992958805632849 0.02975908603648007 0 0.0027864789153448336 0.029787981551385637 0 0.0027971511220100409 0.029779288817769711 0 0.0027828738986065216 0.029825646451803505 0 0.0027971511220100409 0.029779288817769711 0 0.002791755740033246 0.029842565198048489 0 0.0027971511220100409 0.029779288817769711 0 0.002791755740033246 0.029842565198048489 0 0.0028245016235957134 0.029742698060741566 0 0.002791755740033246 0.029842565198048489 0 0.0028245016235957134 0.029742698060741566 0 0.002828484313624625 0.029818647229656187 0 0.0027828738986065216 0.029825646451803505 0 0.002791755740033246 0.029842565198048489 0 0.002777824515432732 0.029919885081631216 0 0.002791755740033246 0.029842565198048489 0 0.002777824515432732 0.029919885081631216 0 0.0027810508978398491 0.029953340403769707 0 0.0028695013696767354 0.029671333338033252 0 0.0028645909682900213 0.029659056570280687 0 0.0029394990628808714 0.029570805011116405 0 0.0028695013696767354 0.029671333338033252 0 0.0028645909682900213 0.029659056570280687 0 0.0028247559323440756 0.029720696084084435 0 0.0027971511220100409 0.029779288817769711 0 0.0028247559323440756 0.029720696084084435 0 0.0028245016235957134 0.029742698060741566 0 0.0028645909682900213 0.029659056570280687 0 0.0028247559323440756 0.029720696084084435 0 0.0028245016235957134 0.029742698060741566 0 0.0027992958805632849 0.02975908603648007 0 0.0027971511220100409 0.029779288817769711 0 0.0028247559323440756 0.029720696084084435 0 0.0028645909682900213 0.029659056570280687 0 0.0028245016235957134 0.029742698060741566 0 0.0028708462576526777 0.02967285259948672 0 0.0028245016235957134 0.029742698060741566 0 0.0028708462576526777 0.02967285259948672 0 0.002828484313624625 0.029818647229656187 0 0.0028645909682900213 0.029659056570280687 0 0.0028708462576526777 0.02967285259948672 0 0.0029447244398853201 0.029508376929246634 0 0.0029034590355033543 0.029676831875144905 0 0.0029810816101670974 0.029569271302017124 0 0.0029447244398853201 0.029508376929246634 0 0.0028708462576526777 0.02967285259948672 0 0.0029034590355033543 0.029676831875144905 0 0.0029447244398853201 0.029508376929246634 0 0.0029034590355033543 0.029676831875144905 0 0.0028787628636189936 0.029817955990904338 0 0.002828484313624625 0.029818647229656187 0 0.0028708462576526777 0.02967285259948672 0 0.0029034590355033543 0.029676831875144905 0 0.002828484313624625 0.029818647229656187 0 0.0029034590355033543 0.029676831875144905 0 0.0028787628636189936 0.029817955990904338 0 0.0029810816101670974 0.029569271302017124 0 0.0027810508978398491 0.029953340403769707 0 0.002828484313624625 0.029818647229656187 0 0.0027953713413505304 0.03000565866033026 0 0.0027810508978398491 0.029953340403769707 0 0.0027953713413505304 0.03000565866033026 0 0.0027456284334460329 0.030104062601606588 0 0.002791755740033246 0.029842565198048489 0 0.0027810508978398491 0.029953340403769707 0 0.002828484313624625 0.029818647229656187 0 0.0028787628636189936 0.029817955990904338 0 0.0027953713413505304 0.03000565866033026 0 0.0028246202710786577 0.030027409989926764 0 0.0028787628636189936 0.029817955990904338 0 0.002828484313624625 0.029818647229656187 0 0.0027953713413505304 0.03000565866033026 0 0.0027953713413505304 0.03000565866033026 0 0.0027612346767542247 0.030208335307263873 0 0.0027456284334460329 0.030104062601606588 0 0.0027612346767542247 0.030208335307263873 0 0.0026830026318726565 0.030513000389850206 0 0.0027456284334460329 0.030104062601606588 0 0.0027456284334460329 0.030104062601606588 0 0.002822254377195744 0.029954712275317871 0 0.0028657104761197864 0.030160179760291755 0 0.0026830026318726565 0.030513000389850206 0 0.0027456284334460329 0.030104062601606588 0 0.0028657104761197864 0.030160179760291755 0 0.002777824515432732 0.029919885081631216 0 0.0027810508978398491 0.029953340403769707 0 0.0027456284334460329 0.030104062601606588 0 0.0028362587098467546 0.029790208263072535 0 0.002822254377195744 0.029954712275317871 0 0.0029815743846751575 0.029993581692936651 0 0.002777824515432732 0.029919885081631216 0 0.0027456284334460329 0.030104062601606588 0 0.002822254377195744 0.029954712275317871 0 0.0028362587098467546 0.029790208263072535 0 0.002822254377195744 0.029954712275317871 0 0.0027933163101634237 0.029844637968182899 0 0.002777824515432732 0.029919885081631216 0 0.002822254377195744 0.029954712275317871 0 0.0027933163101634237 0.029844637968182899 0 0.0032825160446761968 0.029879021807607844 0 0.0029479109018775841 0.029756664806730757 0 0.0029815743846751575 0.029993581692936651 0 0.002822254377195744 0.029954712275317871 0 0.0029815743846751575 0.029993581692936651 0 0.0028657104761197864 0.030160179760291755 0 0.0032351466854412887 0.030313606538931812 0 0.0029815743846751575 0.029993581692936651 0 0.0028657104761197864 0.030160179760291755 0 0.0032351466854412887 0.030313606538931812 0 0.0026830026318726565 0.030513000389850206 0 0.0028657104761197864 0.030160179760291755 0 0.0016388164602283962 0.031753850127082088 0 0.0017955686104046747 0.031634353237232959 0 0.0009450620179703768 0.031951740469624269 0 0.0026830026318726565 0.030513000389850206 0 0.0019764042967232594 0.030620335449300689 0 0.00097723633471154996 0.030591302246158372 0 0.0009450620179703768 0.031951740469624269 0 0.0019764042967232594 0.030620335449300689 0 0.0019764042967232594 0.030620335449300689 0 0.0027183779349439527 0.030181776136384286 0 0.0019691590014999966 0.03001076901783498 0 0.00097723633471154996 0.030591302246158372 0 0.0019764042967232594 0.030620335449300689 0 0.0019691590014999966 0.03001076901783498 0 0.0027612346767542247 0.030208335307263873 0 0.0027183779349439527 0.030181776136384286 0 0.0028246202710786577 0.030027409989926764 0 0.0027612346767542247 0.030208335307263873 0 0.0026830026318726565 0.030513000389850206 0 0.0027183779349439527 0.030181776136384286 0 0.0026830026318726565 0.030513000389850206 0 0.0019764042967232594 0.030620335449300689 0 0.0027183779349439527 0.030181776136384286 0 0.0013753723539659212 0.031432223020458845 0 0.0012264317954969789 0.031477345768274323 0 0.0027183779349439527 0.030181776136384286 0 0.002796190439684332 0.029975999666409302 0 0.0026959905222749209 0.029892596595036545 0 0.0027183779349439527 0.030181776136384286 0 0.002796190439684332 0.029975999666409302 0 0.0028246202710786577 0.030027409989926764 0 0.002796190439684332 0.029975999666409302 0 0.0026959905222749209 0.029892596595036545 0 0.0028128650645683441 0.029862089651576173 0 0.0027183779349439527 0.030181776136384286 0 0.0026959905222749209 0.029892596595036545 0 0.0025156621068567232 0.029923006603467941 0 0.0026959905222749209 0.029892596595036545 0 0.0025156621068567232 0.029923006603467941 0 0.0026214443050410663 0.029781714042124482 0 0.0026959905222749209 0.029892596595036545 0 0.0026214443050410663 0.029781714042124482 0 0.0027800673338494882 0.029781159491286745 0 0.0026959905222749209 0.029892596595036545 0 0.0027800673338494882 0.029781159491286745 0 0.0028128650645683441 0.029862089651576173 0 0.0023896182546868316 0.029797520062302803 0 0.0025156621068567232 0.029923006603467941 0 0.0026214443050410663 0.029781714042124482 0 0.00091099716978537313 0.029235133298610459 0 0.00097723633471154996 0.030591302246158372 0 0.0019691590014999966 0.03001076901783498 0 0.00095266413691352206 0.031764566290395133 0 0.0012264317954969789 0.031477345768274323 0 0.0023896182546868316 0.029797520062302803 0 0.0026214443050410663 0.029781714042124482 0 0.0026374088351976271 0.029644777962615519 0 0.00095266413691352206 0.031764566290395133 0 0.0018267220594042417 0.030826602821015542 0 0.0014038460956093751 0.031224824037409091 0 0.0012527505385252513 0.031170583811015978 0 0.0011391474130534446 0.031312895269203889 0 0.0026214443050410663 0.029781714042124482 0 0.002705376310446803 0.029703103823394982 0 0.0026374088351976271 0.029644777962615519 0 0.0026214443050410663 0.029781714042124482 0 0.002705376310446803 0.029703103823394982 0 0.0027800673338494882 0.029781159491286745 0 0.002141985469752943 0.030484266640911591 0 0.0018267220594042417 0.030826602821015542 0 0.002705376310446803 0.029703103823394982 0 0.0026374088351976271 0.029644777962615519 0 0.0027332569557547161 0.029665081940717684 0 0.0015543844232066783 0.029434695863953152 0 0.0012527505385252513 0.031170583811015978 0 0.0011391474130534446 0.031312895269203889 0 0.001090830561574231 0.031238969783134205 0 0.0010917361389391719 0.031230819518516584 0 0.00095712153541149055 0.032437627572164784 0 0.00052282492744190558 0.032945844372659017 0 0.0011391474130534446 0.031312895269203889 0 0.00095712153541149055 0.032437627572164784 0 0.001307228794046563 0.031866720485762626 0 0.0011391474130534446 0.031312895269203889 0 0.00095712153541149055 0.032437627572164784 0 0.0015632088579070505 0.032099666905219121 0 0.001307228794046563 0.031866720485762626 0 0.0015991274548707486 0.031627533507777299 0 0.001307228794046563 0.031866720485762626 0 0.0011391474130534446 0.031312895269203889 0 0.0031783430099939385 0.02947226340464253 0 0.0029063475103840841 0.029616203910482416 0 0.0030517804938114371 0.029747033265255379 0 0.0029063475103840841 0.029616203910482416 0 0.0027332569557547161 0.029665081940717684 0 0.0029322075672682832 0.029711371655921564 0 0.0029063475103840841 0.029616203910482416 0 0.0029322075672682832 0.029711371655921564 0 0.0030517804938114371 0.029747033265255379 0 0.0026022510689100269 0.029561663179770992 0 0.0029063475103840841 0.029616203910482416 0 0.0027332569557547161 0.029665081940717684 0 0.0026022510689100269 0.029561663179770992 0 0.0026374088351976271 0.029644777962615519 0 0.0027332569557547161 0.029665081940717684 0 0.0027332569557547161 0.029665081940717684 0 0.0027725297909683929 0.029718824324902918 0 0.0028736248029613801 0.029736367630691363 0 0.0027332569557547161 0.029665081940717684 0 0.0028736248029613801 0.029736367630691363 0 0.0029322075672682832 0.029711371655921564 0 0.002705376310446803 0.029703103823394982 0 0.0027332569557547161 0.029665081940717684 0 0.0027725297909683929 0.029718824324902918 0 0.002705376310446803 0.029703103823394982 0 0.0027725297909683929 0.029718824324902918 0 0.0027800673338494882 0.029781159491286745 0 0.0027725297909683929 0.029718824324902918 0 0.0027800673338494882 0.029781159491286745 0 0.0028736248029613801 0.029736367630691363 0 0.0027800673338494882 0.029781159491286745 0 0.0028736248029613801 0.029736367630691363 0 0.0028850275365587164 0.029792422578126618 0 0.0028736248029613801 0.029736367630691363 0 0.0029322075672682832 0.029711371655921564 0 0.0030028769247524064 0.02974128757568803 0 0.0028736248029613801 0.029736367630691363 0 0.0030028769247524064 0.02974128757568803 0 0.0028850275365587164 0.029792422578126618 0 0.0029322075672682832 0.029711371655921564 0 0.0030028769247524064 0.02974128757568803 0 0.0030517804938114371 0.029747033265255379 0 0.0030028769247524064 0.02974128757568803 0 0.0029468560756726195 0.029774471060731281 0 0.0030175918386477398 0.029623475841827399 0 0.0030028769247524064 0.02974128757568803 0 0.0029468560756726195 0.029774471060731281 0 0.0028850275365587164 0.029792422578126618 0 0.0027800673338494882 0.029781159491286745 0 0.0028850275365587164 0.029792422578126618 0 0.0028128650645683441 0.029862089651576173 0 0.0029468560756726195 0.029774471060731281 0 0.0028850275365587164 0.029792422578126618 0 0.0028712221846973881 0.029878286786160446 0 0.002796190439684332 0.029975999666409302 0 0.0028712221846973881 0.029878286786160446 0 0.0028128650645683441 0.029862089651576173 0 0.0028850275365587164 0.029792422578126618 0 0.0028712221846973881 0.029878286786160446 0 0.0028128650645683441 0.029862089651576173 0 0.002796190439684332 0.029975999666409302 0 0.0028712221846973881 0.029878286786160446 0 0.0028246202710786577 0.030027409989926764 0 0.0028712221846973881 0.029878286786160446 0 0.0028246202710786577 0.030027409989926764 0 0.002929232923738033 0.029790894943293334 0 0.0029468560756726195 0.029774471060731281 0 0.0028712221846973881 0.029878286786160446 0 0.002929232923738033 0.029790894943293334 0 0.0028787628636189936 0.029817955990904338 0 0.0028246202710786577 0.030027409989926764 0 0.002929232923738033 0.029790894943293334 0 0.0027953713413505304 0.03000565866033026 0 0.0027612346767542247 0.030208335307263873 0 0.0028246202710786577 0.030027409989926764 0 0.002929232923738033 0.029790894943293334 0 0.0030175918386477398 0.029623475841827399 0 0.0029810816101670974 0.029569271302017124 0 0.0029468560756726195 0.029774471060731281 0 0.002929232923738033 0.029790894943293334 0 0.0030175918386477398 0.029623475841827399 0 0.0028787628636189936 0.029817955990904338 0 0.002929232923738033 0.029790894943293334 0 0.0029810816101670974 0.029569271302017124 0 0.0030471033368085691 0.029454458386079848 0 0.0030175918386477398 0.029623475841827399 0 0.0029810816101670974 0.029569271302017124 0 0.0030471033368085691 0.029454458386079848 0 0.0029524727466967728 0.029475572144002243 0 0.0030175918386477398 0.029623475841827399 0 0.0030471033368085691 0.029454458386079848 0 0.0029524727466967728 0.029475572144002243 0 0.0031092964279077987 0.029177588169664079 0 0.0029524727466967728 0.029475572144002243 0 0.0030175918386477398 0.029623475841827399 0 0.0029457295806907674 0.029694814001009665 0 0.0040003309077603416 0.027749694352564892 0 0.0044502338057847363 0.028566178658011955 0 0.0039212819813468783 0.028267517180922682 0 0.0027149931115011618 0.028575688778453495 0 0.0021047947169544582 0.027536813770583934 0 0.0030028769247524064 0.02974128757568803 0 0.0030175918386477398 0.029623475841827399 0 0.0029457295806907674 0.029694814001009665 0 0.0030028769247524064 0.02974128757568803 0 0.0030517804938114371 0.029747033265255379 0 0.0030798405532558026 0.029752555555535284 0 0.0023090803284515548 0.027808387016227114 0 0.0021047947169544582 0.027536813770583934 0 0.0021047947169544582 0.027536813770583934 0 0.0019749596329894079 0.0271832561132501 0 0.0011329606891717263 0.026054408049191537 0 0.0010965016574791184 0.026117865809707756 0 0.0011584894336168093 0.02615479318757355 0 0.0030517804938114371 0.029747033265255379 0 0.0030798405532558026 0.029752555555535284 0 0.0030708756828834857 0.029712967095569733 0 0.0019254380095952534 0.027611133828103814 0 0.0019749596329894079 0.0271832561132501 0 0.0031783430099939385 0.02947226340464253 0 0.0030517804938114371 0.029747033265255379 0 0.0034777364358297819 0.029522595028087319 0 0.0010321299197683334 0.026153854320920732 0 0.0010346945330079313 0.026080503703736713 0 0.00094141002907654559 0.026104151998997627 0 0.0017906688483629277 0.026637545215635865 0 0.0011224945801941995 0.025699414003148194 0 0.0010965016574791184 0.026117865809707756 0 0.0010321299197683334 0.026153854320920732 0 0.0010346945330079313 0.026080503703736713 0 0.0044502338057847363 0.028566178658011955 0 0.0038252045183943297 0.02887019925006758 0 0.0039212819813468783 0.028267517180922682 0 0.0011329606891717263 0.026054408049191537 0 0.0010965016574791184 0.026117865809707756 0 0.0010346945330079313 0.026080503703736713 0 0.0021047947169544582 0.027536813770583934 0 0.0017906688483629277 0.026637545215635865 0 0.0038252045183943297 0.02887019925006758 0 0.003384440032281587 0.028535447234601632 0 0.0031482141701575099 0.029201072809081741 0 0.0038252045183943297 0.02887019925006758 0 0.003384440032281587 0.028535447234601632 0 0.0039212819813468783 0.028267517180922682 0 0.003384440032281587 0.028535447234601632 0 0.0039212819813468783 0.028267517180922682 0 0.0038437451302565455 0.027850583207699096 0 0.003384440032281587 0.028535447234601632 0 0.0038437451302565455 0.027850583207699096 0 0.0030327439908714332 0.027653935428557243 0 0.0040003309077603416 0.027749694352564892 0 0.0039212819813468783 0.028267517180922682 0 0.0038437451302565455 0.027850583207699096 0 0.0040003309077603416 0.027749694352564892 0 0.0038437451302565455 0.027850583207699096 0 0.0042771869249082165 0.027308299065081785 0 0.0038437451302565455 0.027850583207699096 0 0.0042771869249082165 0.027308299065081785 0 0.0030327439908714332 0.027653935428557243 0 0.0042771869249082165 0.027308299065081785 0 0.00337554959829232 0.025164540665391165 0 0.0030720071764296164 0.026651001448272069 0 0.0042771869249082165 0.027308299065081785 0 0.0044370821568493878 0.024569166299601101 0 0.0060151568423981268 0.023906353082967256 0 0.0032905520847752931 0.026340290959954226 0 0.0031933456872903273 0.026173501846466753 0 0.0042771869249082165 0.027308299065081785 0 0.0044370821568493878 0.024569166299601101 0 0.00337554959829232 0.025164540665391165 0 0.0044370821568493878 0.024569166299601101 0 0.0060151568423981268 0.023906353082967256 0 0.0049058441593656677 0.02319159269740886 0 0.0044370821568493878 0.024569166299601101 0 0.0037903915090165097 0.023462151883681448 0 0.00337554959829232 0.025164540665391165 0 0.0044370821568493878 0.024569166299601101 0 0.0037903915090165097 0.023462151883681448 0 0.0049058441593656677 0.02319159269740886 0 0.0042771869249082165 0.027308299065081785 0 0.0039491546225229645 0.029237748703795568 0 0.0034229314409364919 0.02854609614354223 0 0.0039491546225229645 0.029237748703795568 0 0.0034229314409364919 0.02854609614354223 0 0.0033396309349148952 0.029307001544543073 0 0.0027149931115011618 0.028575688778453495 0 0.0028775244385203986 0.028818408771508489 0 0.0040003309077603416 0.027749694352564892 0 0.0042771869249082165 0.027308299065081785 0 0.0034229314409364919 0.02854609614354223 0 0.0034229314409364919 0.02854609614354223 0 0.0031092964279077987 0.029177588169664079 0 0.003172597475129641 0.029115862487234207 0 0.0029524727466967728 0.029475572144002243 0 0.0034229314409364919 0.02854609614354223 0 0.0031092964279077987 0.029177588169664079 0 0.0031092964279077987 0.029177588169664079 0 0.0029810816101670974 0.029569271302017124 0 0.0029447244398853201 0.029508376929246634 0 0.0030471033368085691 0.029454458386079848 0 0.0031092964279077987 0.029177588169664079 0 0.0029810816101670974 0.029569271302017124 0 0.0029447244398853201 0.029508376929246634 0 0.003051008111186377 0.029342999992848087 0 0.0029394990628808714 0.029570805011116405 0 0.0031092964279077987 0.029177588169664079 0 0.0029447244398853201 0.029508376929246634 0 0.003051008111186377 0.029342999992848087 0 0.003051008111186377 0.029342999992848087 0 0.0030311464871639678 0.029512131618795359 0 0.0029394990628808714 0.029570805011116405 0 0.0028645909682900213 0.029659056570280687 0 0.0029447244398853201 0.029508376929246634 0 0.0029394990628808714 0.029570805011116405 0 0.0034229314409364919 0.02854609614354223 0 0.003172597475129641 0.029115862487234207 0 0.0033396309349148952 0.029307001544543073 0 0.0031092964279077987 0.029177588169664079 0 0.003051008111186377 0.029342999992848087 0 0.003172597475129641 0.029115862487234207 0 0.003051008111186377 0.029342999992848087 0 0.003172597475129641 0.029115862487234207 0 0.0031215910013768513 0.029485876052590829 0 0.003051008111186377 0.029342999992848087 0 0.0030311464871639678 0.029512131618795359 0 0.0031215910013768513 0.029485876052590829 0 0.003172597475129641 0.029115862487234207 0 0.0033396309349148952 0.029307001544543073 0 0.0031215910013768513 0.029485876052590829 0 0.0033396309349148952 0.029307001544543073 0 0.0032362001429930365 0.029600015501228358 0 0.0031215910013768513 0.029485876052590829 0 0.0033396309349148952 0.029307001544543073 0 0.0032362001429930365 0.029600015501228358 0 0.0034198407038539733 0.029671012535071359 0 0.0031215910013768513 0.029485876052590829 0 0.0031203916734493663 0.029673859301010644 0 0.0030055302971330679 0.0296335792054035 0 0.0032362001429930365 0.029600015501228358 0 0.0031215910013768513 0.029485876052590829 0 0.0031203916734493663 0.029673859301010644 0 0.0032362001429930365 0.029600015501228358 0 0.0031203916734493663 0.029673859301010644 0 0.003227338908604366 0.029741262259092068 0 0.0031203916734493663 0.029673859301010644 0 0.0030367558581844917 0.029754200440467265 0 0.0031285384467266645 0.0297936491304845 0 0.0031203916734493663 0.029673859301010644 0 0.003227338908604366 0.029741262259092068 0 0.0031285384467266645 0.0297936491304845 0 0.0032362001429930365 0.029600015501228358 0 0.003227338908604366 0.029741262259092068 0 0.0034198407038539733 0.029671012535071359 0 0.003227338908604366 0.029741262259092068 0 0.0033137252268862667 0.029808467517138289 0 0.0034198407038539733 0.029671012535071359 0 0.0028695013696767354 0.029671333338033252 0 0.0029394990628808714 0.029570805011116405 0 0.0029017489518198695 0.029693668853097672 0 0.0029394990628808714 0.029570805011116405 0 0.0029017489518198695 0.029693668853097672 0 0.0030055302971330679 0.0296335792054035 0 0.0030311464871639678 0.029512131618795359 0 0.0031215910013768513 0.029485876052590829 0 0.0030055302971330679 0.0296335792054035 0 0.0030311464871639678 0.029512131618795359 0 0.0029394990628808714 0.029570805011116405 0 0.0030055302971330679 0.0296335792054035 0 0.0030055302971330679 0.0296335792054035 0 0.0030367558581844917 0.029754200440467265 0 0.0029555272523523741 0.029746982718429512 0 0.0031203916734493663 0.029673859301010644 0 0.0030055302971330679 0.0296335792054035 0 0.0030367558581844917 0.029754200440467265 0 0.0029017489518198695 0.029693668853097672 0 0.0030055302971330679 0.0296335792054035 0 0.0029555272523523741 0.029746982718429512 0 0.0028897075607950905 0.029772822362556343 0 0.0029017489518198695 0.029693668853097672 0 0.0029555272523523741 0.029746982718429512 0 0.0020303300732250986 0.030360640969393553 0 0.0022152420719130351 0.028214216866464428 0 0.0028401952358666285 0.029875989554988089 0 0.0030536445729042756 0.029929184802324975 0 0.0029753701626672726 0.029881874812998976 0 0.00051526944605336401 0.034758399749628126 0 0.00062231685726477288 0.034780573804151942 0 0.00053681293186761368 0.034786447345778113 0 0.0028401952358666285 0.029875989554988089 0 0.0030536445729042756 0.029929184802324975 0 0.003180381384879629 0.03004153167480654 0 0.0029124356354152644 0.029847293927336628 0 0.0029325752653029773 0.029805932790047746 0 0.0029654456277320726 0.02984406514828726 0 0.0028914732606027185 0.029815435671214977 0 0.0029124356354152644 0.029847293927336628 0 0.0029325752653029773 0.029805932790047746 0 0.0028914732606027185 0.029815435671214977 0 0.0028897075607950905 0.029772822362556343 0 0.0029325752653029773 0.029805932790047746 0 0.0028897075607950905 0.029772822362556343 0 0.0029555272523523741 0.029746982718429512 0 0.0029325752653029773 0.029805932790047746 0 0.0029555272523523741 0.029746982718429512 0 0.0029325752653029773 0.029805932790047746 0 0.002993322054562745 0.029812532440744183 0 0.0029124356354152644 0.029847293927336628 0 0.0029654456277320726 0.02984406514828726 0 0.0029753701626672726 0.029881874812998976 0 0.0029325752653029773 0.029805932790047746 0 0.0029654456277320726 0.02984406514828726 0 0.002993322054562745 0.029812532440744183 0 0.0029654456277320726 0.02984406514828726 0 0.0030041211664143691 0.029856455234901137 0 0.0029753701626672726 0.029881874812998976 0 0.0030041211664143691 0.029856455234901137 0 0.002993322054562745 0.029812532440744183 0 0.0030542985708329204 0.029854900440505698 0 0.0030041211664143691 0.029856455234901137 0 0.0030542985708329204 0.029854900440505698 0 0.0030349455019700205 0.02988826709176114 0 0.0029654456277320726 0.02984406514828726 0 0.0030041211664143691 0.029856455234901137 0 0.002993322054562745 0.029812532440744183 0 0.0030367558581844917 0.029754200440467265 0 0.0029555272523523741 0.029746982718429512 0 0.002993322054562745 0.029812532440744183 0 0.0030367558581844917 0.029754200440467265 0 0.002993322054562745 0.029812532440744183 0 0.0030542985708329204 0.029854900440505698 0 0.0030367558581844917 0.029754200440467265 0 0.0030542985708329204 0.029854900440505698 0 0.0031285384467266645 0.0297936491304845 0 0.0030785708539117895 0.029899783268684792 0 0.0030536445729042756 0.029929184802324975 0 0.0031132927214438241 0.029923393948980151 0 0.0030542985708329204 0.029854900440505698 0 0.0030785708539117895 0.029899783268684792 0 0.0031364149237317518 0.029885425056724584 0 0.0030542985708329204 0.029854900440505698 0 0.0030785708539117895 0.029899783268684792 0 0.0030349455019700205 0.02988826709176114 0 0.0030785708539117895 0.029899783268684792 0 0.0030536445729042756 0.029929184802324975 0 0.0030349455019700205 0.02988826709176114 0 0.0030536445729042756 0.029929184802324975 0 0.0030349455019700205 0.02988826709176114 0 0.0029753701626672726 0.029881874812998976 0 0.0030041211664143691 0.029856455234901137 0 0.0030349455019700205 0.02988826709176114 0 0.0029753701626672726 0.029881874812998976 0 0.0028401952358666285 0.029875989554988089 0 0.0029124356354152644 0.029847293927336628 0 0.0029753701626672726 0.029881874812998976 0 0.0032956361975410475 0.029902616958342721 0 0.0034312284348816807 0.029796322492792265 0 0.003293877733686403 0.030074092818728828 0 0.0033137252268862667 0.029808467517138289 0 0.0032956361975410475 0.029902616958342721 0 0.0034312284348816807 0.029796322492792265 0 0.0032107919163993099 0.029843573626481254 0 0.003202335590265685 0.029914162871031064 0 0.0032956361975410475 0.029902616958342721 0 0.0033137252268862667 0.029808467517138289 0 0.0032107919163993099 0.029843573626481254 0 0.0032956361975410475 0.029902616958342721 0 0.003227338908604366 0.029741262259092068 0 0.0033137252268862667 0.029808467517138289 0 0.0032107919163993099 0.029843573626481254 0 0.003227338908604366 0.029741262259092068 0 0.0031285384467266645 0.0297936491304845 0 0.0032107919163993099 0.029843573626481254 0 0.0030542985708329204 0.029854900440505698 0 0.0031285384467266645 0.0297936491304845 0 0.0031364149237317518 0.029885425056724584 0 0.0031285384467266645 0.0297936491304845 0 0.0032107919163993099 0.029843573626481254 0 0.0031364149237317518 0.029885425056724584 0 0.0032107919163993099 0.029843573626481254 0 0.003202335590265685 0.029914162871031064 0 0.0031364149237317518 0.029885425056724584 0 0.003202335590265685 0.029914162871031064 0 0.0031565718148788033 0.029928473859042501 0 0.0031364149237317518 0.029885425056724584 0 0.0030536445729042756 0.029929184802324975 0 0.003146073034828673 0.029969087681713101 0 0.003180381384879629 0.03004153167480654 0 0.003202335590265685 0.029914162871031064 0 0.0031565718148788033 0.029928473859042501 0 0.0031898381776459764 0.029961386495265311 0 0.0030785708539117895 0.029899783268684792 0 0.0031364149237317518 0.029885425056724584 0 0.0031132927214438241 0.029923393948980151 0 0.0031565718148788033 0.029928473859042501 0 0.0031364149237317518 0.029885425056724584 0 0.0031132927214438241 0.029923393948980151 0 0.0030536445729042756 0.029929184802324975 0 0.0031132927214438241 0.029923393948980151 0 0.003146073034828673 0.029969087681713101 0 0.0031565718148788033 0.029928473859042501 0 0.0031132927214438241 0.029923393948980151 0 0.003146073034828673 0.029969087681713101 0 0.003202335590265685 0.029914162871031064 0 0.0031898381776459764 0.029961386495265311 0 0.0032321152611695567 0.02997762292709014 0 0.003146073034828673 0.029969087681713101 0 0.0031898381776459764 0.029961386495265311 0 0.003180381384879629 0.03004153167480654 0 0.0031898381776459764 0.029961386495265311 0 0.0032321152611695567 0.02997762292709014 0 0.003180381384879629 0.03004153167480654 0 0.0031565718148788033 0.029928473859042501 0 0.003146073034828673 0.029969087681713101 0 0.0031898381776459764 0.029961386495265311 0 0.0032321152611695567 0.02997762292709014 0 0.0032956361975410475 0.029902616958342721 0 0.003293877733686403 0.030074092818728828 0 0.003202335590265685 0.029914162871031064 0 0.0032321152611695567 0.02997762292709014 0 0.0032956361975410475 0.029902616958342721 0 0.0026668844001124349 0.026076072827175341 0 0.0020729193871743315 0.027005049095842327 0 0.0067184858018674142 0.0213491455300674 0 0.0052989195994772396 0.020237461148021378 0 0.0055956231669790956 0.022162169532682421 0 0.0026668844001124349 0.026076072827175341 0 0.002081508499916914 0.025081385994463374 0 0.0067184858018674142 0.0213491455300674 0 0.0052989195994772396 0.020237461148021378 0 0.0051912269266215045 0.018475830717418658 0 0.0055956231669790956 0.022162169532682421 0 0.0046721034358140059 0.01864703673880614 0 0.0039222364041717221 0.019846210698713482 0 0.0052989195994772396 0.020237461148021378 0 0.0055956231669790956 0.022162169532682421 0 0.0036728912335898304 0.018914066459209199 0 0.0055956231669790956 0.022162169532682421 0 0.0039222364041717221 0.019846210698713482 0 0.0037858388665516001 0.021046183813339128 0 0.0040752291040660697 0.019509563181158388 0 0.0035495299239268205 0.018293514793704037 0 0.0055956231669790956 0.022162169532682421 0 0.0042314669327084128 0.022365411521470972 0 0.0037858388665516001 0.021046183813339128 0 0.0037903915090165097 0.023462151883681448 0 0.0042314669327084128 0.022365411521470972 0 0.0049058441593656677 0.02319159269740886 0 0.0060151568423981268 0.023906353082967256 0 0.0055956231669790956 0.022162169532682421 0 0.0049058441593656677 0.02319159269740886 0 0.0055956231669790956 0.022162169532682421 0 0.0042314669327084128 0.022365411521470972 0 0.0049058441593656677 0.02319159269740886 0 0.0031933456872903273 0.026173501846466753 0 0.0026668844001124349 0.026076072827175341 0 0.0060151568423981268 0.023906353082967256 0 0.0067184858018674142 0.0213491455300674 0 0.0055956231669790956 0.022162169532682421 0 0.0039491546225229645 0.029237748703795568 0 0.0035485183576924695 0.030016467244727521 0 0.0034198407038539733 0.029671012535071359 0 0.0039491546225229645 0.029237748703795568 0 0.0033396309349148952 0.029307001544543073 0 0.0034198407038539733 0.029671012535071359 0 0.0033137252268862667 0.029808467517138289 0 0.0034312284348816807 0.029796322492792265 0 0.0034198407038539733 0.029671012535071359 0 0.0026668844001124349 0.026076072827175341 0 0.0027539025789456895 0.026329851050794193 0 0.0013344438521002936 0.025699998921691381 0 0.0013467027698889559 0.025677086101539463 0 0.0013566145422000829 0.025708062596646569 0 0.0013344438521002936 0.025699998921691381 0 0.0013412767680028154 0.025712162362678731 0 0.0013566145422000829 0.025708062596646569 0 0.0013344438521002936 0.025699998921691381 0 0.0013467027698889559 0.025677086101539463 0 0.001332623692860354 0.025687012786501116 0 0.0013344438521002936 0.025699998921691381 0 0.001332623692860354 0.025687012786501116 0 0.0013221655569040081 0.025695448359792674 0 0.0013344438521002936 0.025699998921691381 0 0.001319755699198232 0.025708937451570928 0 0.0013251908117896866 0.025714550965771292 0 0.0013344438521002936 0.025699998921691381 0 0.0013412767680028154 0.025712162362678731 0 0.0013251908117896866 0.025714550965771292 0 0.0013344438521002936 0.025699998921691381 0 0.0013221655569040081 0.025695448359792674 0 0.001319755699198232 0.025708937451570928 0 0.0035314656542492964 0.018276766807440788 0 0.0036728912335898304 0.018914066459209199 0 0.0021232917872737751 0.016331881796529488 0 0.002081508499916914 0.025081385994463374 0 0.0011437192511080637 0.02275877062198986 0 0.0035314656542492964 0.018276766807440788 0 0.0033614723003395405 0.016442667311325338 0 0.0021232917872737751 0.016331881796529488 0 0.0035314656542492964 0.018276766807440788 0 0.0045717031894474671 0.01857932979658438 0 0.0033614723003395405 0.016442667311325338 0 0.0035495299239268205 0.018293514793704037 0 0.0025676308266580567 0.016226875557406747 0 0.0035314656542492964 0.018276766807440788 0 0.0036728912335898304 0.018914066459209199 0 0.0051912269266215045 0.018475830717418658 0 0.0021489915705504175 0.024905615124319332 0 0.002081508499916914 0.025081385994463374 0 0.0046721034358140059 0.01864703673880614 0 0.0039222364041717221 0.019846210698713482 0 0.0034468561751161198 0.018673791923491962 0 0.0052989195994772396 0.020237461148021378 0 0.0036728912335898304 0.018914066459209199 0 0.0051912269266215045 0.018475830717418658 0 0.0029596045564930476 0.02626153558283531 0 0.0028654065862197971 0.026025453363481974 0 0.0030334764785541306 0.026075345841351349 0 0.0013467027698889559 0.025677086101539463 0 0.001332623692860354 0.025687012786501116 0 0.0013188783040495573 0.025668972243240325 0 0.002081508499916914 0.025081385994463374 0 0.0020729193871743315 0.027005049095842327 0 0.001332623692860354 0.025687012786501116 0 0.0013188783040495573 0.025668972243240325 0 0.0013221655569040081 0.025695448359792674 0 0.0013006501573308226 0.025734751791001612 0 0.0013069157205574319 0.025736283098476687 0 0.0013039917906174524 0.025712204096538238 0 0.0022152420719130351 0.028214216866464428 0 0.00088041966764455955 0.028561968309361474 0 0.0020729193871743315 0.027005049095842327 0 0.0022152420719130351 0.028214216866464428 0 0.0032321152611695567 0.02997762292709014 0 0.003293877733686403 0.030074092818728828 0 0.003180381384879629 0.03004153167480654 0 0.00062231685726477288 0.034780573804151942 0 0.00053681293186761368 0.034786447345778113 0 0.00056543462954088955 0.034820134920258851 0 0.00062231685726477288 0.034780573804151942 0 0.00056543462954088955 0.034820134920258851 0 0.00057408246673366068 0.034884962834528292 0 0.00053681293186761368 0.034786447345778113 0 0.00056543462954088955 0.034820134920258851 0 0.00052900491922770764 0.03483092828760484 0 0.00056543462954088955 0.034820134920258851 0 0.00057408246673366068 0.034884962834528292 0 0.00052900491922770764 0.03483092828760484 0 0.00057408246673366068 0.034884962834528292 0 0.00049013328015144405 0.034865933805857223 0 0.00052900491922770764 0.03483092828760484 0 0.0020729193871743315 0.027005049095842327 0 0.0020737241874196843 0.026635370618713603 0 0.0013188783040495573 0.025668972243240325 0 0.0013221655569040081 0.025695448359792674 0 0.0013039917906174524 0.025712204096538238 0 0.0013069157205574319 0.025736283098476687 0 0.001302620921340773 0.025712859774920833 0 0.0013039917906174524 0.025712204096538238 0 0.001302620921340773 0.025712859774920833 0 0.0013039917906174524 0.025712204096538238 0 0.0013078176135582504 0.025719203623681616 0 0.0013039917906174524 0.025712204096538238 0 0.001319755699198232 0.025708937451570928 0 0.0013078176135582504 0.025719203623681616 0 0.0013221655569040081 0.025695448359792674 0 0.0013039917906174524 0.025712204096538238 0 0.001319755699198232 0.025708937451570928 0 0.001319755699198232 0.025708937451570928 0 0.0013078176135582504 0.025719203623681616 0 0.0013251908117896866 0.025714550965771292 0 0.0013078176135582504 0.025719203623681616 0 0.0012831778406023147 0.025737606329644253 0 0.0013184208146340415 0.025731241233754747 0 0.0013078176135582504 0.025719203623681616 0 0.0013184208146340415 0.025731241233754747 0 0.0013251908117896866 0.025714550965771292 0 0.001302620921340773 0.025712859774920833 0 0.0013078176135582504 0.025719203623681616 0 0.0012831778406023147 0.025737606329644253 0 0.00057408246673366068 0.034884962834528292 0 0.00053081998684837133 0.034976837445243852 0 0.00048987366834531111 0.034930228555273432 0 0.00088041966764455955 0.028561968309361474 0 0.0002720032971764082 0.026603981705285017 0 0.0002720032971764082 0.026603981705285017 0 0.00071920263607209078 0.024193287919925067 0 9.6903691628235847e-05 0.020570706641129848 0 0.00032494931903744121 0.020604497924813784 0 0.00032756353183134064 0.020696712961197513 0 0.00032494931903744121 0.020604497924813784 0 0.00030924333114925109 0.020621732544934362 0 0.00032756353183134064 0.020696712961197513 0 0.00032494931903744121 0.020604497924813784 0 0.00030924333114925109 0.020621732544934362 0 0.00030586577221767023 0.020714320429880851 0 0.00030924333114925109 0.020621732544934362 0 0.00025085682571404714 0.020627722779351629 0 0.00027671786244011319 0.020642867344395542 0 0.0013184208146340415 0.025731241233754747 0 0.0013412767680028154 0.025712162362678731 0 0.0013610580988731647 0.025719070681056437 0 0.00071920263607209078 0.024193287919925067 0 0.00079276050595674156 0.022220283779953165 0 0.0013184208146340415 0.025731241233754747 0 0.0013412767680028154 0.025712162362678731 0 0.0013251908117896866 0.025714550965771292 0 0.0033614723003395405 0.016442667311325338 0 0.0027838619887719475 0.015672832714580323 0 0.0021232917872737751 0.016331881796529488 0 0.0011437192511080637 0.02275877062198986 0 0.00079276050595674156 0.022220283779953165 0 0.0013412767680028154 0.025712162362678731 0 0.0013566145422000829 0.025708062596646569 0 0.0013610580988731647 0.025719070681056437 0 0.00032411837109537771 0.020580184748721624 0 0.00042469997526972089 0.018685790060120212 0 -2.0856690298245348e-05 0.020336147977293013 0 0.00030586577221767023 0.020714320429880851 0 0.00032411837109537771 0.020580184748721624 0 -2.0856690298245348e-05 0.020336147977293013 0 0.00030924333114925109 0.020621732544934362 0 0.00030586577221767023 0.020714320429880851 0 0.00032411837109537771 0.020580184748721624 0 0.00079276050595674156 0.022220283779953165 0 0.00042227043177337062 0.019903903865862712 0 0.00032411837109537771 0.020580184748721624 0 0.00025085682571404714 0.020627722779351629 0 0.00014077650207415881 0.020624576301229155 0 0.00030924333114925109 0.020621732544934362 0 0.00032411837109537771 0.020580184748721624 0 0.00025085682571404714 0.020627722779351629 0 0.00029086215800812641 0.019280785847962226 0 0.00023437992534090161 0.018908955840269994 0 0.00032411837109537771 0.020580184748721624 0 0.00014077650207415881 0.020624576301229155 0 -9.800089717476899e-05 0.020616105964435739 0 0.00025085682571404714 0.020627722779351629 0 0.00014077650207415881 0.020624576301229155 0 0.00027671786244011319 0.020642867344395542 0 0.00014077650207415881 0.020624576301229155 0 0.00027671786244011319 0.020642867344395542 0 0.00016502047128425835 0.020518322999491263 0 0.00014077650207415881 0.020624576301229155 0 -9.800089717476899e-05 0.020616105964435739 0 0.00016502047128425835 0.020518322999491263 0 0.00027671786244011319 0.020642867344395542 0 0.00031769880979950403 0.020616138511413133 0 0.00032756353183134064 0.020696712961197513 0 0.00030924333114925109 0.020621732544934362 0 0.00027671786244011319 0.020642867344395542 0 0.00032756353183134064 0.020696712961197513 0 0.00027671786244011319 0.020642867344395542 0 0.00031769880979950403 0.020616138511413133 0 0.00016502047128425835 0.020518322999491263 0 0.00031769880979950403 0.020616138511413133 0 0.00026222848913351064 0.020318665720204465 0 0.00037234096054524803 0.020772078917189334 0 0.00031769880979950403 0.020616138511413133 0 0.00026222848913351064 0.020318665720204465 0 0.00016502047128425835 0.020518322999491263 0 -9.800089717476899e-05 0.020616105964435739 0 -2.3139890304143346e-05 0.020118535236810529 0 -0.00060392062000346023 0.019581964279312181 0 -9.800089717476899e-05 0.020616105964435739 0 0.00016502047128425835 0.020518322999491263 0 -2.3139890304143346e-05 0.020118535236810529 0 0.00026222848913351064 0.020318665720204465 0 0.00016502047128425835 0.020518322999491263 0 -2.3139890304143346e-05 0.020118535236810529 0 0.00026222848913351064 0.020318665720204465 0 -2.3139890304143346e-05 0.020118535236810529 0 6.769249422647004e-05 0.019254140505668153 0 -2.3139890304143346e-05 0.020118535236810529 0 6.769249422647004e-05 0.019254140505668153 0 -0.00060392062000346023 0.019581964279312181 0 0.00026222848913351064 0.020318665720204465 0 6.769249422647004e-05 0.019254140505668153 0 0.00025705573239803004 0.020253263956695342 0 0.00026222848913351064 0.020318665720204465 0 0.00025705573239803004 0.020253263956695342 0 0.00037234096054524803 0.020772078917189334 0 9.9780787432518376e-07 0.018670072022809691 0 5.4129853397301807e-07 0.020595173026333125 0 0.00025705573239803004 0.020253263956695342 0 6.769249422647004e-05 0.019254140505668153 0 9.9780787432518376e-07 0.018670072022809691 0 0.00025705573239803004 0.020253263956695342 0 6.769249422647004e-05 0.019254140505668153 0 9.9780787432518376e-07 0.018670072022809691 0 -2.4124853652867884e-06 0.016748354651806071 0 5.4129853397301807e-07 0.020595173026333125 0 0.00025005109266029886 0.021587574884924174 0 -3.1387696389008445e-07 0.022519874591598134 0 5.4129853397301807e-07 0.020595173026333125 0 0.00025705573239803004 0.020253263956695342 0 0.00025005109266029886 0.021587574884924174 0 0.00025705573239803004 0.020253263956695342 0 0.00025005109266029886 0.021587574884924174 0 0.00037234096054524803 0.020772078917189334 0 0.00025005109266029886 0.021587574884924174 0 0.00021913882041896745 0.020883775152174718 0 -0.00019545745455252185 0.021075052004101841 0 0.00025005109266029886 0.021587574884924174 0 0.00037234096054524803 0.020772078917189334 0 0.00021913882041896745 0.020883775152174718 0 0.00037234096054524803 0.020772078917189334 0 0.00032756353183134064 0.020696712961197513 0 0.00021913882041896745 0.020883775152174718 0 0.00031769880979950403 0.020616138511413133 0 0.00037234096054524803 0.020772078917189334 0 0.00032756353183134064 0.020696712961197513 0 9.6903691628235847e-05 0.020570706641129848 0 0.00032756353183134064 0.020696712961197513 0 0.00021913882041896745 0.020883775152174718 0 -0.0016395326875450417 0.026661975563429363 0 -0.0011883212664294649 0.025514117680129209 0 -0.00041065086417374014 0.02640676032004869 0 9.6903691628235847e-05 0.020570706641129848 0 0.00021913882041896745 0.020883775152174718 0 -0.00019545745455252185 0.021075052004101841 0 0.0002720032971764082 0.026603981705285017 0 0.00037988880748736955 0.024581007294874255 0 -0.0011883212664294649 0.025514117680129209 0 4.3183360123752423e-05 0.025337429740953578 0 -0.00041065086417374014 0.02640676032004869 0 0.00037988880748736955 0.024581007294874255 0 0.00039077456900045784 0.024076142883533484 0 -0.0011883212664294649 0.025514117680129209 0 -0.00035302581242123031 0.023447815646808812 0 4.3183360123752423e-05 0.025337429740953578 0 0.00025005109266029886 0.021587574884924174 0 -0.00019545745455252185 0.021075052004101841 0 -0.00035302581242123031 0.023447815646808812 0 -0.00035302581242123031 0.023447815646808812 0 -3.1387696389008445e-07 0.022519874591598134 0 -4.443143812396487e-08 0.024444400668526389 0 0.00025005109266029886 0.021587574884924174 0 -0.00035302581242123031 0.023447815646808812 0 -3.1387696389008445e-07 0.022519874591598134 0 -4.443143812396487e-08 0.024444400668526389 0 0.00010825068761415145 0.02464419253426707 0 4.5825919195311568e-07 0.02636894884595558 0 -0.00035302581242123031 0.023447815646808812 0 -4.443143812396487e-08 0.024444400668526389 0 0.00010825068761415145 0.02464419253426707 0 0.00010825068761415145 0.02464419253426707 0 0.00035687304422458895 0.02555082352320889 0 4.3183360123752423e-05 0.025337429740953578 0 -0.00035302581242123031 0.023447815646808812 0 0.00010825068761415145 0.02464419253426707 0 4.3183360123752423e-05 0.025337429740953578 0 0.00010825068761415145 0.02464419253426707 0 0.00035687304422458895 0.02555082352320889 0 4.5825919195311568e-07 0.02636894884595558 0 0.00035687304422458895 0.02555082352320889 0 0.0004474240827187872 0.026083205283071894 0 0.00046699359728865773 0.026063038196966402 0 0.00035687304422458895 0.02555082352320889 0 4.3183360123752423e-05 0.025337429740953578 0 0.0004474240827187872 0.026083205283071894 0 4.3183360123752423e-05 0.025337429740953578 0 0.0004474240827187872 0.026083205283071894 0 -0.00041065086417374014 0.02640676032004869 0 0.00032145234492365492 0.035033731707698884 0 0.00034849946739479198 0.034953326995710368 0 0.00025743640668063941 0.034989518585751299 0 0.00028942623954026866 0.034941602258891313 0 0.00025650644562811578 0.034924983066918096 0 0.00034849946739479198 0.034953326995710368 0 0.00035492178602578083 0.034902623457433425 0 0.00028283289373128164 0.03490620736618346 0 0.00034849946739479198 0.034953326995710368 0 0.00042842639114762545 0.034918106403584621 0 0.00035492178602578083 0.034902623457433425 0 0.00034849946739479198 0.034953326995710368 0 0.00042761785142596763 0.035004802906972762 0 0.00042842639114762545 0.034918106403584621 0 0.00032145234492365492 0.035033731707698884 0 0.00034849946739479198 0.034953326995710368 0 0.00042761785142596763 0.035004802906972762 0 0.00013703377513985866 0.029933142978144634 0 -3.8158331359391473e-05 0.02864665127184041 0 0.0002720032971764082 0.026603981705285017 0 -3.8158331359391473e-05 0.02864665127184041 0 0.00053081998684837133 0.034976837445243852 0 0.00042761785142596763 0.035004802906972762 0 0.00048987366834531111 0.034930228555273432 0 0.00042761785142596763 0.035004802906972762 0 0.00048987366834531111 0.034930228555273432 0 0.00042842639114762545 0.034918106403584621 0 0.00042842639114762545 0.034918106403584621 0 0.00044005159397144528 0.034865149333286875 0 0.00039523949945079786 0.034865711901413216 0 0.00042842639114762545 0.034918106403584621 0 0.00044005159397144528 0.034865149333286875 0 0.00049013328015144405 0.034865933805857223 0 0.00044005159397144528 0.034865149333286875 0 0.00049013328015144405 0.034865933805857223 0 0.00046297035485817165 0.034826116996390752 0 0.00044005159397144528 0.034865149333286875 0 0.00042813317994927074 0.034841897646625097 0 0.00039523949945079786 0.034865711901413216 0 0.00048987366834531111 0.034930228555273432 0 0.00042842639114762545 0.034918106403584621 0 0.00049013328015144405 0.034865933805857223 0 0.00057408246673366068 0.034884962834528292 0 0.00048987366834531111 0.034930228555273432 0 0.00049013328015144405 0.034865933805857223 0 0.00049013328015144405 0.034865933805857223 0 0.00052900491922770764 0.03483092828760484 0 0.00049645988281416702 0.034824809549268192 0 0.00052900491922770764 0.03483092828760484 0 0.00049645988281416702 0.034824809549268192 0 0.00051232607347042821 0.034799717753381247 0 0.00049013328015144405 0.034865933805857223 0 0.00049645988281416702 0.034824809549268192 0 0.00046297035485817165 0.034826116996390752 0 0.00049645988281416702 0.034824809549268192 0 0.00048809230430453044 0.034801025761399554 0 0.00046297035485817165 0.034826116996390752 0 0.00046795255756979908 0.034796839624808215 0 0.00048809230430453044 0.034801025761399554 0 0.00046297035485817165 0.034826116996390752 0 0.00046795255756979908 0.034796839624808215 0 0.00048004457258287369 0.034790540151686207 0 0.00048809230430453044 0.034801025761399554 0 0.00050167264099427544 0.034777472628788449 0 0.00048004457258287369 0.034790540151686207 0 0.00048809230430453044 0.034801025761399554 0 0.00053681293186761368 0.034786447345778113 0 0.00052900491922770764 0.03483092828760484 0 0.00051232607347042821 0.034799717753381247 0 0.00049645988281416702 0.034824809549268192 0 0.00048809230430453044 0.034801025761399554 0 0.00051232607347042821 0.034799717753381247 0 0.00050167264099427544 0.034777472628788449 0 0.00048809230430453044 0.034801025761399554 0 0.00051232607347042821 0.034799717753381247 0 0.00051657364132059861 0.034780763912131918 0 0.00050167264099427544 0.034777472628788449 0 0.00051232607347042821 0.034799717753381247 0 0.00051657364132059861 0.034780763912131918 0 0.00053681293186761368 0.034786447345778113 0 0.00051232607347042821 0.034799717753381247 0 0.00042813317994927074 0.034841897646625097 0 0.0004365917045132449 0.034817753406033165 0 0.00040742862145892354 0.034834234269847664 0 0.00044005159397144528 0.034865149333286875 0 0.00042813317994927074 0.034841897646625097 0 0.00046297035485817165 0.034826116996390752 0 0.00042813317994927074 0.034841897646625097 0 0.00046297035485817165 0.034826116996390752 0 0.0004365917045132449 0.034817753406033165 0 0.00046795255756979908 0.034796839624808215 0 0.00046297035485817165 0.034826116996390752 0 0.00045414080505286862 0.03481069343657104 0 0.00046297035485817165 0.034826116996390752 0 0.00045414080505286862 0.03481069343657104 0 0.0004365917045132449 0.034817753406033165 0 0.00046795255756979908 0.034796839624808215 0 0.00045414080505286862 0.03481069343657104 0 0.00044829540449407542 0.034800867488617042 0 0.00045414080505286862 0.03481069343657104 0 0.00044829540449407542 0.034800867488617042 0 0.0004365917045132449 0.034817753406033165 0 0.000429280189947233 0.034800966466852358 0 0.0004365917045132449 0.034817753406033165 0 0.00041758206541039374 0.034813124542064172 0 0.0004365917045132449 0.034817753406033165 0 0.00041758206541039374 0.034813124542064172 0 0.00040742862145892354 0.034834234269847664 0 0.000429280189947233 0.034800966466852358 0 0.00044829540449407542 0.034800867488617042 0 0.0004365917045132449 0.034817753406033165 0 0.0003740935526664471 0.034835569663021836 0 0.00033951302302571919 0.034869966505748251 0 0.00039523949945079786 0.034865711901413216 0 0.00040015072028174765 0.034811702071130719 0 0.00041758206541039374 0.034813124542064172 0 0.00040742862145892354 0.034834234269847664 0 0.00040015072028174765 0.034811702071130719 0 0.00040742862145892354 0.034834234269847664 0 0.0003740935526664471 0.034835569663021836 0 0.00040742862145892354 0.034834234269847664 0 0.0003740935526664471 0.034835569663021836 0 0.00039523949945079786 0.034865711901413216 0 0.00042813317994927074 0.034841897646625097 0 0.00040742862145892354 0.034834234269847664 0 0.00039523949945079786 0.034865711901413216 0 0.00037557434940038552 0.034810411856624798 0 0.00040015072028174765 0.034811702071130719 0 0.0003740935526664471 0.034835569663021836 0 0.00033215252907126813 0.034826009015159309 0 0.0003740935526664471 0.034835569663021836 0 0.00033951302302571919 0.034869966505748251 0 0.00033215252907126813 0.034826009015159309 0 0.00033951302302571919 0.034869966505748251 0 0.00028283289373128164 0.03490620736618346 0 0.00033215252907126813 0.034826009015159309 0 0.00037557434940038552 0.034810411856624798 0 0.0003740935526664471 0.034835569663021836 0 0.00033951302302571919 0.034869966505748251 0 0.00035492178602578083 0.034902623457433425 0 0.00028283289373128164 0.03490620736618346 0 0.00033951302302571919 0.034869966505748251 0 0.00035492178602578083 0.034902623457433425 0 0.00039523949945079786 0.034865711901413216 0 0.00042842639114762545 0.034918106403584621 0 0.00035492178602578083 0.034902623457433425 0 0.00039523949945079786 0.034865711901413216 0 0.00025650644562811578 0.034924983066918096 0 0.00020071406047989456 0.034898082769429531 0 0.00024443226057501924 0.03493009726131268 0 0.00017028589268487752 0.034914489182701222 0 0.00018926965436525767 0.034976362223605284 0 0.00026201238311717736 0.034841495634772741 0 0.00033215252907126813 0.034826009015159309 0 0.00028283289373128164 0.03490620736618346 0 0.00026201238311717736 0.034841495634772741 0 0.00028283289373128164 0.03490620736618346 0 0.00021358808516697145 0.034884216556469221 0 0.00016865683657738283 0.034882825447331046 0 0.00020071406047989456 0.034898082769429531 0 0.00011288548878075281 0.034882222016540614 0 0.00017028589268487752 0.034914489182701222 0 0.00011784280005669569 0.034933987606903513 0 0.00011784280005669569 0.034933987606903513 0 0.00013740092139889607 0.034960752004625048 0 9.4350374413710881e-05 0.034962247565275918 0 0.00013740092139889607 0.034960752004625048 0 0.00011029706067967296 0.034984083627297206 0 9.4350374413710881e-05 0.034962247565275918 0 0.00017028589268487752 0.034914489182701222 0 0.00011784280005669569 0.034933987606903513 0 0.00013740092139889607 0.034960752004625048 0 0.00017028589268487752 0.034914489182701222 0 0.00013740092139889607 0.034960752004625048 0 0.00018926965436525767 0.034976362223605284 0 0.00013740092139889607 0.034960752004625048 0 0.00013608487667247907 0.035000846338494436 0 0.00018926965436525767 0.034976362223605284 0 0.00013740092139889607 0.034960752004625048 0 0.00011029706067967296 0.034984083627297206 0 0.00013608487667247907 0.035000846338494436 0 0.00011029706067967296 0.034984083627297206 0 0.00013608487667247907 0.035000846338494436 0 9.5326123711355587e-05 0.035006801103023892 0 0.00013608487667247907 0.035000846338494436 0 0.00010573795674632785 0.035032966124362373 0 9.5326123711355587e-05 0.035006801103023892 0 0.00013608487667247907 0.035000846338494436 0 0.00010573795674632785 0.035032966124362373 0 0.00014298008348634459 0.035031276237321593 0 0.00013608487667247907 0.035000846338494436 0 0.00017179236526664591 0.035010844164113951 0 0.00018926965436525767 0.034976362223605284 0 0.00013608487667247907 0.035000846338494436 0 0.00017179236526664591 0.035010844164113951 0 0.00014298008348634459 0.035031276237321593 0 0.00017179236526664591 0.035010844164113951 0 0.00014298008348634459 0.035031276237321593 0 0.00018351310887791062 0.035038106462632113 0 0.00020435429350689732 0.03501258709333821 0 0.00025743640668063941 0.034989518585751299 0 0.00022254646347355506 0.035051147748005405 0 0.00020435429350689732 0.03501258709333821 0 0.00018926965436525767 0.034976362223605284 0 0.00025743640668063941 0.034989518585751299 0 0.00017179236526664591 0.035010844164113951 0 0.00020435429350689732 0.03501258709333821 0 0.00018351310887791062 0.035038106462632113 0 0.00017179236526664591 0.035010844164113951 0 0.00020435429350689732 0.03501258709333821 0 0.00018926965436525767 0.034976362223605284 0 0.00034849946739479198 0.034953326995710368 0 0.00024443226057501924 0.03493009726131268 0 0.00025743640668063941 0.034989518585751299 0 0.00024443226057501924 0.03493009726131268 0 0.00018926965436525767 0.034976362223605284 0 0.00025743640668063941 0.034989518585751299 0 0.00032145234492365492 0.035033731707698884 0 0.00025743640668063941 0.034989518585751299 0 0.00022254646347355506 0.035051147748005405 0 0.00013703377513985866 0.029933142978144634 0 0.00024365353939985245 0.031012744001918238 0 0.0004474240827187872 0.026083205283071894 0 0.00042659469097411866 0.026057392651322151 0 0.00046699359728865773 0.026063038196966402 0 0.00042659469097411866 0.026057392651322151 0 0.00019468729168962984 0.026474667441456733 0 -0.00029931686403980779 0.026158557336847858 0 0.00024365353939985245 0.031012744001918238 0 0.00022618115985462235 0.032259459993967399 0 0.00020435429350689732 0.03501258709333821 0 0.00022254646347355506 0.035051147748005405 0 0.00018351310887791062 0.035038106462632113 0 0.00042659469097411866 0.026057392651322151 0 0.00019468729168962984 0.026474667441456733 0 0.00046699359728865773 0.026063038196966402 0 0.00019468729168962984 0.026474667441456733 0 0.00046699359728865773 0.026063038196966402 0 0.00031200458090388928 0.026653034245405615 0 0.00035687304422458895 0.02555082352320889 0 0.00046699359728865773 0.026063038196966402 0 0.00031200458090388928 0.026653034245405615 0 0.00035687304422458895 0.02555082352320889 0 0.00031200458090388928 0.026653034245405615 0 4.5825919195311568e-07 0.02636894884595558 0 0.00031200458090388928 0.026653034245405615 0 1.3090866993468242e-06 0.02829420643747263 0 -3.4897471760846298e-05 0.027277889272824846 0 0.00019468729168962984 0.026474667441456733 0 0.00031200458090388928 0.026653034245405615 0 -3.4897471760846298e-05 0.027277889272824846 0 0.00031200458090388928 0.026653034245405615 0 1.3090866993468242e-06 0.02829420643747263 0 4.5825919195311568e-07 0.02636894884595558 0 -0.00018607155087443336 0.028376466916435823 0 -3.2407537424745634e-06 0.030215476594804343 0 -0.0014945646136661037 0.028369607444193295 0 -9.1547724607810131e-07 0.030221119347605303 0 -3.7317492339837988e-05 0.031039806763588768 0 1.3090866993468242e-06 0.02829420643747263 0 -0.00018607155087443336 0.028376466916435823 0 -3.4897471760846298e-05 0.027277889272824846 0 1.3090866993468242e-06 0.02829420643747263 0 -0.00018607155087443336 0.028376466916435823 0 -3.2407537424745634e-06 0.030215476594804343 0 -0.00018607155087443336 0.028376466916435823 0 -0.00090712234904002302 0.02753967132509309 0 -0.0014945646136661037 0.028369607444193295 0 -3.4897471760846298e-05 0.027277889272824846 0 -0.00090712234904002302 0.02753967132509309 0 -0.0010203741824344659 0.02666278906270041 0 -0.00018607155087443336 0.028376466916435823 0 -3.4897471760846298e-05 0.027277889272824846 0 -0.00090712234904002302 0.02753967132509309 0 0.00023550865518452517 0.032229469004883056 0 0.00022618115985462235 0.032259459993967399 0 -3.4897471760846298e-05 0.027277889272824846 0 -0.0010203741824344659 0.02666278906270041 0 -0.00029931686403980779 0.026158557336847858 0 0.0001033560433349029 0.035075576977079623 0 0.00014264544028505524 0.035045890462997373 0 0.00010304179025524891 0.035059695321026083 0 0.00019468729168962984 0.026474667441456733 0 -3.4897471760846298e-05 0.027277889272824846 0 -0.00029931686403980779 0.026158557336847858 0 0.00022254646347355506 0.035051147748005405 0 0.00014722229442047874 0.035054265774968618 0 0.00018351310887791062 0.035038106462632113 0 0.00014298008348634459 0.035031276237321593 0 0.0001440679144510994 0.035059536266021478 0 0.00018351310887791062 0.035038106462632113 0 0.00022618115985462235 0.032259459993967399 0 4.7935136791515887e-05 0.032516560827032387 0 0.0001440679144510994 0.035059536266021478 0 0.00010304179025524891 0.035059695321026083 0 0.00011912272490619618 0.035047219335252053 0 0.00022618115985462235 0.032259459993967399 0 0.00013205352476378069 0.032430367431269327 0 0.00010304179025524891 0.035059695321026083 0 0.00011912272490619618 0.035047219335252053 0 9.9504683089057718e-05 0.03504880700956671 0 0.00014298008348634459 0.035031276237321593 0 0.0001440679144510994 0.035059536266021478 0 0.00011912272490619618 0.035047219335252053 0 0.00010573795674632785 0.035032966124362373 0 0.00014298008348634459 0.035031276237321593 0 0.00011912272490619618 0.035047219335252053 0 0.00010573795674632785 0.035032966124362373 0 0.00011912272490619618 0.035047219335252053 0 9.9504683089057718e-05 0.03504880700956671 0 0.00010573795674632785 0.035032966124362373 0 9.9504683089057718e-05 0.03504880700956671 0 8.182779116647519e-05 0.035045914926544144 0 0.00010573795674632785 0.035032966124362373 0 8.182779116647519e-05 0.035045914926544144 0 7.4444789574640351e-05 0.035027111285119705 0 8.182779116647519e-05 0.035045914926544144 0 6.0393715695224814e-05 0.035041229064134864 0 7.4444789574640351e-05 0.035027111285119705 0 8.182779116647519e-05 0.035045914926544144 0 6.8434623629023045e-05 0.035062235246700837 0 8.7163701658219948e-05 0.035061542156811835 0 8.182779116647519e-05 0.035045914926544144 0 6.8434623629023045e-05 0.035062235246700837 0 6.0393715695224814e-05 0.035041229064134864 0 9.9504683089057718e-05 0.03504880700956671 0 8.182779116647519e-05 0.035045914926544144 0 8.7163701658219948e-05 0.035061542156811835 0 0.00010304179025524891 0.035059695321026083 0 9.9504683089057718e-05 0.03504880700956671 0 8.7163701658219948e-05 0.035061542156811835 0 6.8434623629023045e-05 0.035062235246700837 0 3.4503892210288009e-05 0.03504823710597 0 6.0393715695224814e-05 0.035041229064134864 0 3.4503892210288009e-05 0.03504823710597 0 6.0393715695224814e-05 0.035041229064134864 0 4.3773118120125764e-05 0.035022479246694396 0 0.00011797754975710164 0.032797598054904405 0 0.00023280868264854239 0.033817067377100954 0 6.8434623629023045e-05 0.035062235246700837 0 3.4503892210288009e-05 0.03504823710597 0 6.9319994959315029e-05 0.035094571251262072 0 -5.276257866276972e-05 0.034911458091922844 0 -4.2575544925217469e-05 0.034904697323948186 0 -2.4431167832858194e-06 0.03493378336296861 0 -1.245207863737301e-05 0.034975733424721586 0 -5.276257866276972e-05 0.034911458091922844 0 -2.4431167832858194e-06 0.03493378336296861 0 0.00058388514245725262 0.033934076238606704 0 0.00030339776669973827 0.03244966342799209 0 0.00023550865518452517 0.032229469004883056 0 0.00030339776669973827 0.03244966342799209 0 0.0001033560433349029 0.035075576977079623 0 8.1280835779575913e-05 0.035074973160476412 0 6.9319994959315029e-05 0.035094571251262072 0 -0.00090712234904002302 0.02753967132509309 0 -0.0010203741824344659 0.02666278906270041 0 -0.0021094959154144646 0.027276286682560349 0 6.8434623629023045e-05 0.035062235246700837 0 8.1280835779575913e-05 0.035074973160476412 0 6.9319994959315029e-05 0.035094571251262072 0 0.0001033560433349029 0.035075576977079623 0 8.7163701658219948e-05 0.035061542156811835 0 8.1280835779575913e-05 0.035074973160476412 0 0.0001033560433349029 0.035075576977079623 0 0.00010304179025524891 0.035059695321026083 0 8.7163701658219948e-05 0.035061542156811835 0 6.8434623629023045e-05 0.035062235246700837 0 8.7163701658219948e-05 0.035061542156811835 0 8.1280835779575913e-05 0.035074973160476412 0 -0.00090712234904002302 0.02753967132509309 0 -0.0021094959154144646 0.027276286682560349 0 -0.0014945646136661037 0.028369607444193295 0 7.1876597886419289e-05 0.03150120947789857 0 8.4162914358432148e-05 0.031471732364798846 0 -8.6511619440677214e-06 0.031408082146250516 0 0.00030339776669973827 0.03244966342799209 0 -3.7317492339837988e-05 0.031039806763588768 0 7.5875410383781795e-05 0.031502113133304969 0 8.4162914358432148e-05 0.031471732364798846 0 -8.6511619440677214e-06 0.031408082146250516 0 8.4799019344832864e-05 0.033112203568775776 0 -4.7462502840172279e-05 0.03320076166043158 0 -0.00010640033146575104 0.033000206242138716 0 0.00030339776669973827 0.03244966342799209 0 0.00011797754975710164 0.032797598054904405 0 7.5875410383781795e-05 0.031502113133304969 0 8.4162914358432148e-05 0.031471732364798846 0 0.00010360742893616389 0.031483488750824525 0 8.4162914358432148e-05 0.031471732364798846 0 4.4227969253490696e-05 0.031404099419883182 0 2.8666905758218861e-05 0.03149070746328729 0 0.00011320205271494396 0.032791945045855482 0 0.00011797754975710164 0.032797598054904405 0 0.00011797754975710164 0.032797598054904405 0 8.6035408181010678e-05 0.033061825284660638 0 4.4227969253490696e-05 0.031404099419883182 0 -0.00028225686843008001 0.031465364614755222 0 2.8666905758218861e-05 0.03149070746328729 0 7.1876597886419289e-05 0.03150120947789857 0 2.8666905758218861e-05 0.03149070746328729 0 0.00012388084716998188 0.031669252816129541 0 -0.00028225686843008001 0.031465364614755222 0 2.8666905758218861e-05 0.03149070746328729 0 0.00012388084716998188 0.031669252816129541 0 7.1876597886419289e-05 0.03150120947789857 0 8.4162914358432148e-05 0.031471732364798846 0 2.8666905758218861e-05 0.03149070746328729 0 -0.00028225686843008001 0.031465364614755222 0 0.00012388084716998188 0.031669252816129541 0 7.9646168516892748e-09 0.032324421795790537 0 8.6035408181010678e-05 0.033061825284660638 0 -7.2712578324194451e-08 0.032329341428845519 0 -4.8891639155174237e-09 0.030222713697099352 0 0.00012388084716998188 0.031669252816129541 0 7.9646168516892748e-09 0.032324421795790537 0 -4.8891639155174237e-09 0.030222713697099352 0 0.00012388084716998188 0.031669252816129541 0 -8.6511619440677214e-06 0.031408082146250516 0 7.1876597886419289e-05 0.03150120947789857 0 0.00012388084716998188 0.031669252816129541 0 -8.6511619440677214e-06 0.031408082146250516 0 -3.9351490457250902e-07 0.032330961964052538 0 2.7072934238628248e-07 0.034998168308013541 0 -1.3840591318341449e-05 0.034620036072988754 0 2.7072934238628248e-07 0.034998168308013541 0 -1.1152405951294645e-05 0.034918692720177044 0 -1.4232941993857014e-07 0.035000719518959812 0 2.7072934238628248e-07 0.034998168308013541 0 -1.3840591318341449e-05 0.034620036072988754 0 -1.1152405951294645e-05 0.034918692720177044 0 -1.3840591318341449e-05 0.034620036072988754 0 -9.4899256029530788e-05 0.0347518764704004 0 -1.1152405951294645e-05 0.034918692720177044 0 3.9061418344269238e-05 0.033292505544113435 0 3.6862272972716121e-05 0.033239205627968824 0 -0.00015245650605899178 0.033487467703028143 0 -3.9351490457250902e-07 0.032330961964052538 0 9.3259347227309618e-05 0.033471852777254084 0 -3.9351490457250902e-07 0.032330961964052538 0 -1.3840591318341449e-05 0.034620036072988754 0 9.3259347227309618e-05 0.033471852777254084 0 8.6035408181010678e-05 0.033061825284660638 0 3.6862272972716121e-05 0.033239205627968824 0 8.6035408181010678e-05 0.033061825284660638 0 0.00023280868264854239 0.033817067377100954 0 -9.4899256029530788e-05 0.0347518764704004 0 -0.0001017230528486358 0.034882826544959424 0 -1.1152405951294645e-05 0.034918692720177044 0 -0.00017656363112256152 0.034852624933538613 0 -0.0001017230528486358 0.034882826544959424 0 -0.00011156191346428048 0.034970431817924488 0 -0.00017656363112256152 0.034852624933538613 0 -9.4899256029530788e-05 0.0347518764704004 0 -0.0001017230528486358 0.034882826544959424 0 -0.0001017230528486358 0.034882826544959424 0 -1.1152405951294645e-05 0.034918692720177044 0 -0.00011156191346428048 0.034970431817924488 0 -1.1152405951294645e-05 0.034918692720177044 0 -3.1884379363720472e-05 0.03498663520632566 0 -1.4232941993857014e-07 0.035000719518959812 0 -1.1152405951294645e-05 0.034918692720177044 0 -3.1884379363720472e-05 0.03498663520632566 0 -0.00011156191346428048 0.034970431817924488 0 0.00012882144565443416 0.034447434449740341 0 0.00023280868264854239 0.033817067377100954 0 0.00023280868264854239 0.033817067377100954 0 0.00028920010608438502 0.034289918654849913 0 -1.245207863737301e-05 0.034975733424721586 0 -2.4431167832858194e-06 0.03493378336296861 0 1.0317436531274711e-06 0.034990854563266546 0 6.4268017718161031e-07 0.034996014454097502 0 4.361204496669284e-06 0.034996546838096068 0 1.0317436531274711e-06 0.034990854563266546 0 6.4268017718161031e-07 0.034996014454097502 0 -5.939963802420609e-09 0.034999968392897589 0 1.0317436531274711e-06 0.034990854563266546 0 0.00012882144565443416 0.034447434449740341 0 8.8537887750416021e-07 0.034997805431349747 0 3.6618215377671801e-06 0.035002322459615515 0 1.0083992997303632e-08 0.035000017773246753 0 1.0317436531274711e-06 0.034990854563266546 0 -5.939963802420609e-09 0.034999968392897589 0 1.0083992997303632e-08 0.035000017773246753 0 1.0317436531274711e-06 0.034990854563266546 0 3.6618215377671801e-06 0.035002322459615515 0 1.0083992997303632e-08 0.035000017773246753 0 5.8749349796765652e-06 0.034991324988656779 0 3.6618215377671801e-06 0.035002322459615515 0 1.6960374462382353e-05 0.034993172207328692 0 5.8749349796765652e-06 0.034991324988656779 0 3.6618215377671801e-06 0.035002322459615515 0 1.6960374462382353e-05 0.034993172207328692 0 3.3876268022769071e-05 0.035001978208939348 0 3.4503892210288009e-05 0.03504823710597 0 3.6618215377671801e-06 0.035002322459615515 0 4.3773118120125764e-05 0.035022479246694396 0 -1.245207863737301e-05 0.034975733424721586 0 3.6618215377671801e-06 0.035002322459615515 0 1.0317436531274711e-06 0.034990854563266546 0 0.00058388514245725262 0.033934076238606704 0 0.00059357782112317735 0.034263848354611028 0 3.6618215377671801e-06 0.035002322459615515 0 4.3773118120125764e-05 0.035022479246694396 0 3.3876268022769071e-05 0.035001978208939348 0 6.0393715695224814e-05 0.035041229064134864 0 4.3773118120125764e-05 0.035022479246694396 0 7.4444789574640351e-05 0.035027111285119705 0 4.3773118120125764e-05 0.035022479246694396 0 7.4444789574640351e-05 0.035027111285119705 0 6.1873728176631184e-05 0.03500459023682076 0 4.3773118120125764e-05 0.035022479246694396 0 3.3876268022769071e-05 0.035001978208939348 0 6.1873728176631184e-05 0.03500459023682076 0 0.00010573795674632785 0.035032966124362373 0 7.4444789574640351e-05 0.035027111285119705 0 9.5326123711355587e-05 0.035006801103023892 0 7.4444789574640351e-05 0.035027111285119705 0 9.5326123711355587e-05 0.035006801103023892 0 6.1873728176631184e-05 0.03500459023682076 0 0.00011029706067967296 0.034984083627297206 0 9.5326123711355587e-05 0.035006801103023892 0 8.1910475121120676e-05 0.034987879572548723 0 9.5326123711355587e-05 0.035006801103023892 0 8.1910475121120676e-05 0.034987879572548723 0 6.1873728176631184e-05 0.03500459023682076 0 8.1910475121120676e-05 0.034987879572548723 0 6.1873728176631184e-05 0.03500459023682076 0 4.6984942344203805e-05 0.034982835742528029 0 0.00011029706067967296 0.034984083627297206 0 8.1910475121120676e-05 0.034987879572548723 0 9.4350374413710881e-05 0.034962247565275918 0 1.6960374462382353e-05 0.034993172207328692 0 3.3876268022769071e-05 0.035001978208939348 0 4.6984942344203805e-05 0.034982835742528029 0 3.3876268022769071e-05 0.035001978208939348 0 6.1873728176631184e-05 0.03500459023682076 0 4.6984942344203805e-05 0.034982835742528029 0 1.6960374462382353e-05 0.034993172207328692 0 4.6984942344203805e-05 0.034982835742528029 0 2.1914409609949177e-05 0.034973737695699773 0 4.6984942344203805e-05 0.034982835742528029 0 6.3036602823348393e-05 0.034947789036169678 0 2.1914409609949177e-05 0.034973737695699773 0 4.6984942344203805e-05 0.034982835742528029 0 9.4350374413710881e-05 0.034962247565275918 0 6.3036602823348393e-05 0.034947789036169678 0 0.00011784280005669569 0.034933987606903513 0 9.4350374413710881e-05 0.034962247565275918 0 6.3036602823348393e-05 0.034947789036169678 0 8.1910475121120676e-05 0.034987879572548723 0 4.6984942344203805e-05 0.034982835742528029 0 9.4350374413710881e-05 0.034962247565275918 0 1.5380956658890372e-05 0.034926071623461168 0 0.00011288548878075281 0.034882222016540614 0 6.3036602823348393e-05 0.034947789036169678 0 0.00011288548878075281 0.034882222016540614 0 0.00011784280005669569 0.034933987606903513 0 6.3036602823348393e-05 0.034947789036169678 0 1.5380956658890372e-05 0.034926071623461168 0 6.3036602823348393e-05 0.034947789036169678 0 2.1914409609949177e-05 0.034973737695699773 0 1.5380956658890372e-05 0.034926071623461168 0 7.8466863761565278e-06 0.034971492350556868 0 2.1914409609949177e-05 0.034973737695699773 0 7.8466863761565278e-06 0.034971492350556868 0 -3.8288011977737081e-09 0.034999955379087865 0 5.8749349796765652e-06 0.034991324988656779 0 1.0083992997303632e-08 0.035000017773246753 0 -3.8288011977737081e-09 0.034999955379087865 0 5.8749349796765652e-06 0.034991324988656779 0 1.6960374462382353e-05 0.034993172207328692 0 5.8749349796765652e-06 0.034991324988656779 0 2.1914409609949177e-05 0.034973737695699773 0 7.8466863761565278e-06 0.034971492350556868 0 5.8749349796765652e-06 0.034991324988656779 0 2.1914409609949177e-05 0.034973737695699773 0 0.0019696485899714719 0.00077334654206276626 0 0.0021510744499299459 3.5083170201666999e-05 0 0.001056997376867524 0.0010598447022513774 0 -0.0015091942377930189 0.0077083416377434445 0 -0.0030875353531223046 0.0085461316549929178 0 0.0019696485899714719 0.00077334654206276626 0 0.001056997376867524 0.0010598447022513774 0 0.0017676754176341157 0.0015406779334146375 0 0.0019696485899714719 0.00077334654206276626 0 0.0023603632052754896 0.00093269768848088246 0 0.0021355657547412758 0.0013252398335830229 0 0.0019696485899714719 0.00077334654206276626 0 0.0023603632052754896 0.00093269768848088246 0 0.0023159314278352449 0.00064281647421456502 0 0.0019696485899714719 0.00077334654206276626 0 0.0023159314278352449 0.00064281647421456502 0 0.0022868914907283829 0.00059952359258154636 0 0.0023872235358968681 0.00072782534781266775 0 0.0023159314278352449 0.00064281647421456502 0 0.0022868914907283829 0.00059952359258154636 0 -0.012098566404428256 0.019185753144135419 0 -0.010673444862746871 0.019594264098817097 0 -0.010105143448832567 0.016504220258516264 0 -0.012098566404428256 0.019185753144135419 0 -0.010673444862746871 0.019594264098817097 0 -0.011028594234041227 0.021248841378566363 0 -0.0011772190836866646 0.0065268283141608537 0 -0.0015091942377930189 0.0077083416377434445 0 -0.010673444862746871 0.019594264098817097 0 -0.0093565406488507769 0.019168183888563881 0 -0.010105143448832567 0.016504220258516264 0 -0.010673444862746871 0.019594264098817097 0 -0.0093565406488507769 0.019168183888563881 0 -0.0095626929287183412 0.020801084651983017 0 -0.0093565406488507769 0.019168183888563881 0 -0.0078176093972446153 0.020320786559155837 0 -0.0095626929287183412 0.020801084651983017 0 -0.0080583911421496721 0.018481049967382403 0 -0.0078176093972446153 0.020320786559155837 0 -0.0059389217766314213 0.019428331201935944 0 -0.0093565406488507769 0.019168183888563881 0 -0.0080583911421496721 0.018481049967382403 0 -0.0078176093972446153 0.020320786559155837 0 -0.0077247514114246307 0.016971142249140515 0 -0.010105143448832567 0.016504220258516264 0 -0.007138758879627647 0.0153102852664748 0 -0.0080583911421496721 0.018481049967382403 0 -0.0077247514114246307 0.016971142249140515 0 -0.010105143448832567 0.016504220258516264 0 -0.0080583911421496721 0.018481049967382403 0 -0.0077247514114246307 0.016971142249140515 0 -0.0061444358816213508 0.017432808678575214 0 -0.0077247514114246307 0.016971142249140515 0 -0.007138758879627647 0.0153102852664748 0 -0.0061444358816213508 0.017432808678575214 0 -0.0093565406488507769 0.019168183888563881 0 -0.0080583911421496721 0.018481049967382403 0 -0.010105143448832567 0.016504220258516264 0 0.001056997376867524 0.0010598447022513774 0 0.0011192836832005651 0.002139405984345491 0 -0.00034059352980242235 0.0028198517603096455 0 -0.0030875353531223046 0.0085461316549929178 0 -0.0032355686979134535 0.0082348723327248033 0 0.001056997376867524 0.0010598447022513774 0 0.0011192836832005651 0.002139405984345491 0 0.0017676754176341157 0.0015406779334146375 0 -0.010105143448832567 0.016504220258516264 0 -0.007138758879627647 0.0153102852664748 0 -0.007868237551032697 0.013340481742868058 0 -0.00034059352980242235 0.0028198517603096455 0 0.0013077237035305277 0.0030815335687925812 0 -0.00045987522348307433 0.004585808717309011 0 0.0011192836832005651 0.002139405984345491 0 -0.00034059352980242235 0.0028198517603096455 0 0.0013077237035305277 0.0030815335687925812 0 0.0011192836832005651 0.002139405984345491 0 0.0013077237035305277 0.0030815335687925812 0 0.0016885267786577712 0.0021125562179703499 0 0.00047056501364266772 0.0039819884313425247 0 0.0011860753990852774 0.0034234117828600068 0 0.0010168583358018341 0.0040606528929874371 0 0.0013077237035305277 0.0030815335687925812 0 0.0016885267786577712 0.0021125562179703499 0 0.002336018002814081 0.001722165223506865 0 0.00047056501364266772 0.0039819884313425247 0 0.0012949690521816702 0.0025845786626686761 0 0.0011860753990852774 0.0034234117828600068 0 0.00086046955949391874 0.0030735085724223903 0 0.0016633210212003509 0.0025373713750071231 0 0.0011192836832005651 0.002139405984345491 0 0.0016885267786577712 0.0021125562179703499 0 0.0017676754176341157 0.0015406779334146375 0 0.0016885267786577712 0.0021125562179703499 0 0.0019720749431938476 0.0017071707173185087 0 0.002336018002814081 0.001722165223506865 0 0.0019696485899714719 0.00077334654206276626 0 0.0017676754176341157 0.0015406779334146375 0 0.0021355657547412758 0.0013252398335830229 0 0.0016885267786577712 0.0021125562179703499 0 0.0019720749431938476 0.0017071707173185087 0 0.0017676754176341157 0.0015406779334146375 0 0.0019720749431938476 0.0017071707173185087 0 0.0017676754176341157 0.0015406779334146375 0 0.0021355657547412758 0.0013252398335830229 0 0.0023603632052754896 0.00093269768848088246 0 0.0021355657547412758 0.0013252398335830229 0 0.002336018002814081 0.001722165223506865 0 0.0015093435519411313 0.0026865434864311835 0 0.0012949690521816702 0.0025845786626686761 0 0.0025206137161450201 0.00089548234697955779 0 0.0019720749431938476 0.0017071707173185087 0 0.0021355657547412758 0.0013252398335830229 0 0.002336018002814081 0.001722165223506865 0 0.0015093435519411313 0.0026865434864311835 0 0.0012949690521816702 0.0025845786626686761 0 0.0011860753990852774 0.0034234117828600068 0 0.0011860753990852774 0.0034234117828600068 0 0.0014457647738158612 0.0039217889939902736 0 0.0010168583358018341 0.0040606528929874371 0 0.0015093435519411313 0.0026865434864311835 0 0.0011860753990852774 0.0034234117828600068 0 0.0015120349717622165 0.0034196763949693597 0 0.0011860753990852774 0.0034234117828600068 0 0.0015120349717622165 0.0034196763949693597 0 0.0014457647738158612 0.0039217889939902736 0 0.0015093435519411313 0.0026865434864311835 0 0.0015120349717622165 0.0034196763949693597 0 0.0020126332548421042 0.0036486826474153274 0 0.0015120349717622165 0.0034196763949693597 0 0.0020126332548421042 0.0036486826474153274 0 0.0014457647738158612 0.0039217889939902736 0 0.0015093435519411313 0.0026865434864311835 0 0.0020126332548421042 0.0036486826474153274 0 0.0037731241173578648 0.0035562860850954902 0 0.0015093435519411313 0.0026865434864311835 0 0.0026994220694211112 0.001178660639511835 0 0.0025206137161450201 0.00089548234697955779 0 0.0022418409550855382 0.0015027363987330097 0 0.0027231544503834495 0.0014231099611117903 0 0.0026994220694211112 0.001178660639511835 0 0.002758655010177215 0.00066602368269258905 0 0.002868289689456815 0.00051506335571287014 0 0.0026994220694211112 0.001178660639511835 0 0.002758655010177215 0.00066602368269258905 0 0.0025206137161450201 0.00089548234697955779 0 0.002758655010177215 0.00066602368269258905 0 0.0025206137161450201 0.00089548234697955779 0 0.0027907409203993191 0.00024913718069092947 0 0.0016633210212003509 0.0025373713750071231 0 0.002068288150395193 0.0022518826230177422 0 0.0023603632052754896 0.00093269768848088246 0 0.002336018002814081 0.001722165223506865 0 0.0025206137161450201 0.00089548234697955779 0 0.002868289689456815 0.00051506335571287014 0 0.0029392528556026819 0.00013201169505648382 0 0.0029388502502218487 0.0002694799052800433 0 0.0029392528556026819 0.00013201169505648382 0 0.0029388502502218487 0.0002694799052800433 0 0.0029763418637652117 -0.00013290718553726847 0 0.0029392528556026819 0.00013201169505648382 0 0.0029763418637652117 -0.00013290718553726847 0 0.0029680330938839324 -0.00016168585622720075 0 0.0026994220694211112 0.001178660639511835 0 0.002868289689456815 0.00051506335571287014 0 0.0029388502502218487 0.0002694799052800433 0 0.0027231544503834495 0.0014231099611117903 0 0.0028987091704756078 0.00095870375908627408 0 0.002758655010177215 0.00066602368269258905 0 0.0028813945695636066 0.00032420322859297491 0 0.0027907409203993191 0.00024913718069092947 0 0.002758655010177215 0.00066602368269258905 0 0.002868289689456815 0.00051506335571287014 0 0.0028813945695636066 0.00032420322859297491 0 0.002868289689456815 0.00051506335571287014 0 0.0028813945695636066 0.00032420322859297491 0 0.0029392528556026819 0.00013201169505648382 0 0.0029392528556026819 0.00013201169505648382 0 0.0029242343059291205 -3.1319440600479715e-05 0 0.0029680330938839324 -0.00016168585622720075 0 0.0028813945695636066 0.00032420322859297491 0 0.0029392528556026819 0.00013201169505648382 0 0.0029242343059291205 -3.1319440600479715e-05 0 0.0029242343059291205 -3.1319440600479715e-05 0 0.0027907409203993191 0.00024913718069092947 0 0.0028496732236626514 -0.00019197826867502419 0 0.0028813945695636066 0.00032420322859297491 0 0.0029242343059291205 -3.1319440600479715e-05 0 0.0027907409203993191 0.00024913718069092947 0 0.0027907409203993191 0.00024913718069092947 0 0.0023262219535249776 0.00041252028465644304 0 0.002751222183254924 -8.9746286027339256e-05 0 0.0023603632052754896 0.00093269768848088246 0 0.0023159314278352449 0.00064281647421456502 0 0.0023262219535249776 0.00041252028465644304 0 0.0023603632052754896 0.00093269768848088246 0 0.0025206137161450201 0.00089548234697955779 0 0.0023262219535249776 0.00041252028465644304 0 0.0025206137161450201 0.00089548234697955779 0 0.0027907409203993191 0.00024913718069092947 0 0.0023262219535249776 0.00041252028465644304 0 0.0023872235358968681 0.00072782534781266775 0 0.0023159314278352449 0.00064281647421456502 0 0.0023262219535249776 0.00041252028465644304 0 0.0023872235358968681 0.00072782534781266775 0 0.0023262219535249776 0.00041252028465644304 0 0.0024867111378208311 0.0011378531033285149 0 0.0023262219535249776 0.00041252028465644304 0 0.0024867111378208311 0.0011378531033285149 0 0.0014129618805573635 0.0011239058927095416 0 0.00080675075028785101 -8.8565365440135672e-06 0 0.0004535994127786697 6.602707147771487e-05 0 0.0014129618805573635 0.0011239058927095416 0 0.0017167874387737318 0.0019070081861936963 0 0.0004777602285935726 0.0022086461855121155 0 0.0024867111378208311 0.0011378531033285149 0 0.0014129618805573635 0.0011239058927095416 0 0.0017167874387737318 0.0019070081861936963 0 0.0024867111378208311 0.0011378531033285149 0 0.0017167874387737318 0.0019070081861936963 0 0.0024855857112039428 0.0019100432520097429 0 0.0027907409203993191 0.00024913718069092947 0 0.002751222183254924 -8.9746286027339256e-05 0 0.0028496732236626514 -0.00019197826867502419 0 0.0004535994127786697 6.602707147771487e-05 0 -0.00069212262104276646 0.00030428585901136546 0 0.002751222183254924 -8.9746286027339256e-05 0 0.0028496732236626514 -0.00019197826867502419 0 0.002949113197012178 3.3161994940039186e-05 0 0.0028496732236626514 -0.00019197826867502419 0 0.002949113197012178 3.3161994940039186e-05 0 0.0027631592237861206 9.2223275989273754e-05 0 -0.00069212262104276646 0.00030428585901136546 0 -0.0030488728359319966 0.00081024459102153759 0 0.002949113197012178 3.3161994940039186e-05 0 0.002794238538636831 0.00050553458568540553 0 0.0027631592237861206 9.2223275989273754e-05 0 0.0004777602285935726 0.0022086461855121155 0 0.00047953796011645654 0.0031046488603488948 0 0.0014083049241706083 0.0028682050674778432 0 0.00047953796011645654 0.0031046488603488948 0 0.0014083049241706083 0.0028682050674778432 0 0.0011322083085482193 0.003605227394549747 0 0.0004777602285935726 0.0022086461855121155 0 0.00047953796011645654 0.0031046488603488948 0 -0.00037601361078103612 0.0033891346663450076 0 0.002949113197012178 3.3161994940039186e-05 0 0.0028666100193878146 0.00059781210235858198 0 0.002794238538636831 0.00050553458568540553 0 -0.0030488728359319966 0.00081024459102153759 0 -0.0029000814702449997 0.00090231415617140446 0 0.0024855857112039428 0.0019100432520097429 0 0.0022072506339703207 0.002582655126661153 0 0.002968574721382435 0.0028389879856459115 0 0.0017167874387737318 0.0019070081861936963 0 0.0024855857112039428 0.0019100432520097429 0 0.0022072506339703207 0.002582655126661153 0 0.0017167874387737318 0.0019070081861936963 0 0.0004777602285935726 0.0022086461855121155 0 0.0014083049241706083 0.0028682050674778432 0 0.0017167874387737318 0.0019070081861936963 0 0.0022072506339703207 0.002582655126661153 0 0.0014083049241706083 0.0028682050674778432 0 0.0014083049241706083 0.0028682050674778432 0 0.0017000504371730942 0.0035482050600363713 0 0.0020954201196992125 0.0031743246989679019 0 0.0014083049241706083 0.0028682050674778432 0 0.0011322083085482193 0.003605227394549747 0 0.0017000504371730942 0.0035482050600363713 0 0.0017000504371730942 0.0035482050600363713 0 0.0021281811862492775 0.0035973866452415487 0 0.0020954201196992125 0.0031743246989679019 0 0.0022072506339703207 0.002582655126661153 0 0.0014083049241706083 0.0028682050674778432 0 0.0020954201196992125 0.0031743246989679019 0 0.0022072506339703207 0.002582655126661153 0 0.0020954201196992125 0.0031743246989679019 0 0.002536534857208666 0.0030924846609128431 0 0.0022072506339703207 0.002582655126661153 0 0.002536534857208666 0.0030924846609128431 0 0.002968574721382435 0.0028389879856459115 0 0.0020954201196992125 0.0031743246989679019 0 0.002536534857208666 0.0030924846609128431 0 0.0025091013640279199 0.0034232842571633349 0 0.0021281811862492775 0.0035973866452415487 0 0.0020954201196992125 0.0031743246989679019 0 0.0025091013640279199 0.0034232842571633349 0 0.0024494025650777548 0.003878886207193683 0 0.0021281811862492775 0.0035973866452415487 0 0.0025091013640279199 0.0034232842571633349 0 0.0029640774707419908 0.0038338762064846692 0 0.0025091013640279199 0.0034232842571633349 0 0.003437260750582709 0.003295926514579607 0 -0.00061480413651408751 0.01370031983105972 0 -0.00076024322382207835 0.013810258437166802 0 0.002536534857208666 0.0030924846609128431 0 0.0025091013640279199 0.0034232842571633349 0 0.00284792376749854 0.0034454024039733246 0 -0.00076024322382207835 0.013810258437166802 0 -0.0019512094662715114 0.014737486714381133 0 0.0036771776304563393 0.0038634855185931808 0 0.003437260750582709 0.003295926514579607 0 0.0046430368212140045 0.0033030728949037893 0 -0.0021899380660765928 0.015272506270751737 0 -0.001427066965527958 0.015301338207436085 0 -0.0019659414554037071 0.014152479218512011 0 -0.012493756318767294 0.026880039746943817 0 -0.013171262247496329 0.025441024620868932 0 -0.011438949154706349 0.025561477851676066 0 -0.0019512094662715114 0.014737486714381133 0 -0.0013472070044316725 0.013079147020545669 0 0.002536534857208666 0.0030924846609128431 0 0.00284792376749854 0.0034454024039733246 0 0.002968574721382435 0.0028389879856459115 0 -0.00076024322382207835 0.013810258437166802 0 -0.0013472070044316725 0.013079147020545669 0 -0.012493756318767294 0.026880039746943817 0 -0.011438949154706349 0.025561477851676066 0 -0.009910831244656507 0.026994742180732195 0 -0.0019512094662715114 0.014737486714381133 0 -0.0047334891556751902 0.018267692602595045 0 -0.011438949154706349 0.025561477851676066 0 -0.010779329199923554 0.024271727105405653 0 -0.0099135310658512964 0.025364345307794484 0 -0.011438949154706349 0.025561477851676066 0 -0.011901035628059671 0.024157856645409453 0 -0.010779329199923554 0.024271727105405653 0 -0.013171262247496329 0.025441024620868932 0 -0.011438949154706349 0.025561477851676066 0 -0.011901035628059671 0.024157856645409453 0 -0.011901035628059671 0.024157856645409453 0 -0.010779329199923554 0.024271727105405653 0 -0.011246164365890975 0.022939410375556114 0 0.0024855857112039428 0.0019100432520097429 0 0.0028892268765453259 0.0028035738760453402 0 0.0031179434229556681 0.0014579543070515767 0 -0.013171262247496329 0.025441024620868932 0 -0.011901035628059671 0.024157856645409453 0 -0.012601334092719884 0.022346928975388453 0 -0.0017001401533740129 0.010809118346431572 0 -0.0013472070044316725 0.013079147020545669 0 -0.0013472070044316725 0.013079147020545669 0 -0.0020339700891128004 0.011240217170527552 0 0.0024867111378208311 0.0011378531033285149 0 0.0024855857112039428 0.0019100432520097429 0 0.0031179434229556681 0.0014579543070515767 0 -0.011901035628059671 0.024157856645409453 0 -0.012601334092719884 0.022346928975388453 0 -0.011246164365890975 0.022939410375556114 0 -0.010779329199923554 0.024271727105405653 0 -0.011246164365890975 0.022939410375556114 0 -0.0099107282278964991 0.022659544700763347 0 -0.011246164365890975 0.022939410375556114 0 -0.011028594234041227 0.021248841378566363 0 -0.0099107282278964991 0.022659544700763347 0 -0.012601334092719884 0.022346928975388453 0 -0.011246164365890975 0.022939410375556114 0 -0.011028594234041227 0.021248841378566363 0 -0.012098566404428256 0.019185753144135419 0 -0.012601334092719884 0.022346928975388453 0 -0.011028594234041227 0.021248841378566363 0 -0.0015091942377930189 0.0077083416377434445 0 -0.0020339700891128004 0.011240217170527552 0 0.0033359488733672917 0.00018236124851828982 0 0.0024867111378208311 0.0011378531033285149 0 0.0031179434229556681 0.0014579543070515767 0 -0.0015091942377930189 0.0077083416377434445 0 0.00061216286899967655 0.0049629666841015862 0 0.0023872235358968681 0.00072782534781266775 0 0.0022868914907283829 0.00059952359258154636 0 0.0024867111378208311 0.0011378531033285149 0 -0.0085740870876825654 0.021758742180084983 0 -0.0078176093972446153 0.020320786559155837 0 -0.0071470860580070275 0.022233206995987746 0 -0.0078176093972446153 0.020320786559155837 0 -0.0071470860580070275 0.022233206995987746 0 -0.0060210818941451591 0.021364173353509909 0 -0.0085740870876825654 0.021758742180084983 0 -0.0078176093972446153 0.020320786559155837 0 -0.0095626929287183412 0.020801084651983017 0 -0.011028594234041227 0.021248841378566363 0 -0.0095626929287183412 0.020801084651983017 0 -0.0099107282278964991 0.022659544700763347 0 -0.0085740870876825654 0.021758742180084983 0 -0.0095626929287183412 0.020801084651983017 0 -0.0099107282278964991 0.022659544700763347 0 -0.010673444862746871 0.019594264098817097 0 -0.011028594234041227 0.021248841378566363 0 -0.0095626929287183412 0.020801084651983017 0 -0.0085740870876825654 0.021758742180084983 0 -0.0099107282278964991 0.022659544700763347 0 -0.008297864678342223 0.022980544032627986 0 -0.0099107282278964991 0.022659544700763347 0 -0.008297864678342223 0.022980544032627986 0 -0.0089373494563579677 0.024263886583794015 0 -0.0085740870876825654 0.021758742180084983 0 -0.008297864678342223 0.022980544032627986 0 -0.0071470860580070275 0.022233206995987746 0 -0.008297864678342223 0.022980544032627986 0 -0.0071470860580070275 0.022233206995987746 0 -0.0072260051640368628 0.023707240429708534 0 -0.0072260051640368628 0.023707240429708534 0 -0.0074830731478929702 0.024957197066894407 0 -0.0089373494563579677 0.024263886583794015 0 -0.008297864678342223 0.022980544032627986 0 -0.0072260051640368628 0.023707240429708534 0 -0.0089373494563579677 0.024263886583794015 0 -0.0074830731478929702 0.024957197066894407 0 -0.0089373494563579677 0.024263886583794015 0 -0.0084925435681565357 0.025733965060526161 0 -0.010779329199923554 0.024271727105405653 0 -0.0089373494563579677 0.024263886583794015 0 -0.0099135310658512964 0.025364345307794484 0 -0.010779329199923554 0.024271727105405653 0 -0.0099107282278964991 0.022659544700763347 0 -0.0089373494563579677 0.024263886583794015 0 -0.0089373494563579677 0.024263886583794015 0 -0.0099135310658512964 0.025364345307794484 0 -0.0084925435681565357 0.025733965060526161 0 -0.0047334891556751902 0.018267692602595045 0 -0.0051718340657407325 0.02014453201675653 0 -0.0098485404126317771 0.026962377673089233 0 -0.0084925435681565357 0.025733965060526161 0 -0.0079336102939716827 0.027051577988503057 0 -0.011438949154706349 0.025561477851676066 0 -0.0099135310658512964 0.025364345307794484 0 -0.009910831244656507 0.026994742180732195 0 -0.0099135310658512964 0.025364345307794484 0 -0.009910831244656507 0.026994742180732195 0 -0.0084925435681565357 0.025733965060526161 0 -0.0047334891556751902 0.018267692602595045 0 -0.0058433002678033759 0.019490726139637187 0 -0.0051718340657407325 0.02014453201675653 0 -0.0054552486067835524 0.021645147802286744 0 -0.0070864811375571189 0.026007030182486249 0 -0.0079336102939716827 0.027051577988503057 0 -0.0059684806589477878 0.027132968688143168 0 -0.0074830731478929702 0.024957197066894407 0 -0.0070864811375571189 0.026007030182486249 0 -0.0084925435681565357 0.025733965060526161 0 -0.0070864811375571189 0.026007030182486249 0 -0.0084925435681565357 0.025733965060526161 0 -0.0079336102939716827 0.027051577988503057 0 -0.0074830731478929702 0.024957197066894407 0 -0.0070864811375571189 0.026007030182486249 0 -0.0053969527871530927 0.025250984702706192 0 -0.0070864811375571189 0.026007030182486249 0 -0.0059684806589477878 0.027132968688143168 0 -0.0053969527871530927 0.025250984702706192 0 -0.0054552486067835524 0.021645147802286744 0 -0.0055779482072588716 0.022663163770311929 0 -0.0049595466613423633 0.024518349729912622 0 -0.0048393740435487579 0.023895981113747713 0 -0.004609115924552396 0.024287147991143943 0 -0.0046773960593129169 0.024533350531480508 0 -0.0049595466613423633 0.024518349729912622 0 -0.004609115924552396 0.024287147991143943 0 -0.0054234276477318627 0.021675422009327011 0 -0.0054552486067835524 0.021645147802286744 0 -0.0055779482072588716 0.022663163770311929 0 -0.0055696302010461822 0.022825092153085601 0 -0.0053969527871530927 0.025250984702706192 0 -0.006012027329045661 0.023010985190273104 0 -0.004803451424247737 0.023276964485321638 0 -0.0072260051640368628 0.023707240429708534 0 -0.0074830731478929702 0.024957197066894407 0 -0.0053969527871530927 0.025250984702706192 0 -0.0072260051640368628 0.023707240429708534 0 -0.0053969527871530927 0.025250984702706192 0 -0.006012027329045661 0.023010985190273104 0 -0.0048393740435487579 0.023895981113747713 0 -0.0041733375046815136 0.023577032182031877 0 -0.004258642953191615 0.024132743527842632 0 -0.0048393740435487579 0.023895981113747713 0 -0.0041733375046815136 0.023577032182031877 0 -0.004803451424247737 0.023276964485321638 0 -0.0048393740435487579 0.023895981113747713 0 -0.004258642953191615 0.024132743527842632 0 -0.004609115924552396 0.024287147991143943 0 -0.0043345942088839151 0.024524113810662388 0 -0.0046773960593129169 0.024533350531480508 0 -0.004609115924552396 0.024287147991143943 0 -0.0039480808855920846 0.024620872826104288 0 -0.0043345942088839151 0.024524113810662388 0 -0.004258642953191615 0.024132743527842632 0 -0.0043345942088839151 0.024524113810662388 0 -0.004258642953191615 0.024132743527842632 0 -0.004609115924552396 0.024287147991143943 0 -0.0039480808855920846 0.024620872826104288 0 -0.0034442679864674667 0.024356849343170242 0 -0.0036238123636434631 0.023841124833316123 0 -0.0039480808855920846 0.024620872826104288 0 -0.004258642953191615 0.024132743527842632 0 -0.0036238123636434631 0.023841124833316123 0 -0.0030311795765142779 0.02466525744936713 0 -0.0034442679864674667 0.024356849343170242 0 -0.0030138615166358062 0.023773287046477971 0 -0.0034442679864674667 0.024356849343170242 0 -0.0030138615166358062 0.023773287046477971 0 -0.0036238123636434631 0.023841124833316123 0 -0.0030852355202407918 0.023310548906122188 0 -0.0036238123636434631 0.023841124833316123 0 -0.0033591067161719266 0.023015516371248212 0 -0.0030138615166358062 0.023773287046477971 0 -0.0030852355202407918 0.023310548906122188 0 -0.0036238123636434631 0.023841124833316123 0 -0.0041733375046815136 0.023577032182031877 0 -0.004258642953191615 0.024132743527842632 0 -0.0036238123636434631 0.023841124833316123 0 -0.0041733375046815136 0.023577032182031877 0 -0.0036238123636434631 0.023841124833316123 0 -0.0033591067161719266 0.023015516371248212 0 -0.0041733375046815136 0.023577032182031877 0 -0.0033591067161719266 0.023015516371248212 0 -0.0038185976448000866 0.022663180026884357 0 -0.0033591067161719266 0.023015516371248212 0 -0.0033214327937331604 0.022563870807716751 0 -0.0038185976448000866 0.022663180026884357 0 -0.0033214327937331604 0.022563870807716751 0 -0.0038185976448000866 0.022663180026884357 0 -0.0033285112785642799 0.022113457660990276 0 -0.0033591067161719266 0.023015516371248212 0 -0.0028182474736218655 0.022896521711197368 0 -0.0030174384434776291 0.022468331855757476 0 -0.0030852355202407918 0.023310548906122188 0 -0.0033591067161719266 0.023015516371248212 0 -0.0028182474736218655 0.022896521711197368 0 -0.0033591067161719266 0.023015516371248212 0 -0.0033214327937331604 0.022563870807716751 0 -0.0030174384434776291 0.022468331855757476 0 -0.0028182474736218655 0.022896521711197368 0 -0.0030174384434776291 0.022468331855757476 0 -0.0026374957279291017 0.022509647957349534 0 -0.0030174384434776291 0.022468331855757476 0 -0.0028037361796929778 0.022255278935193398 0 -0.0026374957279291017 0.022509647957349534 0 -0.0030174384434776291 0.022468331855757476 0 -0.0030566377766396823 0.022158338879011245 0 -0.0033285112785642799 0.022113457660990276 0 -0.0030174384434776291 0.022468331855757476 0 -0.0030566377766396823 0.022158338879011245 0 -0.0028037361796929778 0.022255278935193398 0 -0.0033285112785642799 0.022113457660990276 0 -0.0037531699387865435 0.021676566020547534 0 -0.0031028259832044562 0.020742154441741836 0 -0.0038185976448000866 0.022663180026884357 0 -0.0033285112785642799 0.022113457660990276 0 -0.0037531699387865435 0.021676566020547534 0 -0.0033214327937331604 0.022563870807716751 0 -0.0030174384434776291 0.022468331855757476 0 -0.0033285112785642799 0.022113457660990276 0 -0.0038185976448000866 0.022663180026884357 0 -0.0037531699387865435 0.021676566020547534 0 -0.004766065984865884 0.02218685626734283 0 -0.0037531699387865435 0.021676566020547534 0 -0.0048828977669387085 0.020885106060625817 0 -0.004766065984865884 0.02218685626734283 0 -0.0037531699387865435 0.021676566020547534 0 -0.0048828977669387085 0.020885106060625817 0 -0.0042966284750517005 0.019459904544971124 0 -0.0048828977669387085 0.020885106060625817 0 -0.0060210818941451591 0.021364173353509909 0 -0.0059389217766314213 0.019428331201935944 0 -0.0078176093972446153 0.020320786559155837 0 -0.0060210818941451591 0.021364173353509909 0 -0.0059389217766314213 0.019428331201935944 0 -0.0048828977669387085 0.020885106060625817 0 -0.0060210818941451591 0.021364173353509909 0 -0.004766065984865884 0.02218685626734283 0 -0.0071470860580070275 0.022233206995987746 0 -0.0060210818941451591 0.021364173353509909 0 -0.006012027329045661 0.023010985190273104 0 -0.0060210818941451591 0.021364173353509909 0 -0.006012027329045661 0.023010985190273104 0 -0.004766065984865884 0.02218685626734283 0 -0.0071470860580070275 0.022233206995987746 0 -0.0072260051640368628 0.023707240429708534 0 -0.006012027329045661 0.023010985190273104 0 -0.006012027329045661 0.023010985190273104 0 -0.004803451424247737 0.023276964485321638 0 -0.004766065984865884 0.02218685626734283 0 -0.0041733375046815136 0.023577032182031877 0 -0.0038185976448000866 0.022663180026884357 0 -0.004803451424247737 0.023276964485321638 0 -0.0038185976448000866 0.022663180026884357 0 -0.004803451424247737 0.023276964485321638 0 -0.004766065984865884 0.02218685626734283 0 0.003384440032281587 0.028535447234601632 0 0.0031482141701575099 0.029201072809081741 0 0.0024721981321003078 0.028578823918546103 0 -0.0012769888342741543 0.023458724244638598 0 -0.0016306925269002055 0.023299034671651182 0 -0.0016263252511760419 0.022904373317774823 0 0.0011224945801941995 0.025699414003148194 0 0.00044963943426441322 0.02522906964431711 0 0.0009063918915403487 0.026175261478562133 0 0.00094141002907654559 0.026104151998997627 0 0.00083690279398657857 0.026133846814816689 0 -0.0012769888342741543 0.023458724244638598 0 -0.0018637118421234108 0.023636342699890078 0 -0.0016306925269002055 0.023299034671651182 0 0.0011224945801941995 0.025699414003148194 0 -0.0010379869696440821 0.024999334859043505 0 -0.0010379869696440821 0.024999334859043505 0 -0.0015022056150741376 0.024946648623626621 0 -0.0010379869696440821 0.024999334859043505 0 -0.0015653229606223417 0.023734776636053338 0 -0.0018637118421234108 0.023636342699890078 0 -0.0016306925269002055 0.023299034671651182 0 -0.00207504039944939 0.023021511691597576 0 -0.0016306925269002055 0.023299034671651182 0 -0.00207504039944939 0.023021511691597576 0 -0.0016263252511760419 0.022904373317774823 0 -0.0015427138850235471 0.024139850716339933 0 -0.0018738344021780493 0.023214922783717548 0 -0.0023111199535767106 0.023716684268209432 0 -0.0018738344021780493 0.023214922783717548 0 -0.0023111199535767106 0.023716684268209432 0 -0.0025624518092713169 0.023298352292817959 0 -0.0030311795765142779 0.02466525744936713 0 -0.0023111199535767106 0.023716684268209432 0 -0.0017935763189925343 0.024369181849751644 0 -0.0015427138850235471 0.024139850716339933 0 -0.0023111199535767106 0.023716684268209432 0 -0.0018887242710554865 0.02424007060065602 0 -0.0016673848745383565 0.024727716292900145 0 -0.0015022056150741376 0.024946648623626621 0 -0.0030311795765142779 0.02466525744936713 0 -0.0030138615166358062 0.023773287046477971 0 -0.0023111199535767106 0.023716684268209432 0 -0.0030138615166358062 0.023773287046477971 0 -0.0023111199535767106 0.023716684268209432 0 -0.0025624518092713169 0.023298352292817959 0 -0.0030852355202407918 0.023310548906122188 0 -0.0028182474736218655 0.022896521711197368 0 -0.0025624518092713169 0.023298352292817959 0 -0.0030138615166358062 0.023773287046477971 0 -0.0030852355202407918 0.023310548906122188 0 -0.0025624518092713169 0.023298352292817959 0 -0.0028182474736218655 0.022896521711197368 0 -0.0025624518092713169 0.023298352292817959 0 -0.002424231722340978 0.022858383334639201 0 -0.0028182474736218655 0.022896521711197368 0 -0.002424231722340978 0.022858383334639201 0 -0.0026374957279291017 0.022509647957349534 0 -0.0028037361796929778 0.022255278935193398 0 -0.0026374957279291017 0.022509647957349534 0 -0.0025189978877260596 0.022257845994034957 0 -0.0026374957279291017 0.022509647957349534 0 -0.0025189978877260596 0.022257845994034957 0 -0.0022616602169548477 0.022426124103920794 0 -0.002424231722340978 0.022858383334639201 0 -0.0026374957279291017 0.022509647957349534 0 -0.0022616602169548477 0.022426124103920794 0 -0.0015653229606223417 0.023734776636053338 0 -0.0017441733766900842 0.023303138773914704 0 -0.00207504039944939 0.023021511691597576 0 -0.0022616602169548477 0.022426124103920794 0 -0.0019807294263717548 0.022369100896147943 0 -0.0018738344021780493 0.023214922783717548 0 -0.0025624518092713169 0.023298352292817959 0 -0.002424231722340978 0.022858383334639201 0 -0.0018738344021780493 0.023214922783717548 0 -0.002424231722340978 0.022858383334639201 0 -0.0022616602169548477 0.022426124103920794 0 -0.00029890784619465732 0.024457378482078903 0 0.00044963943426441322 0.02522906964431711 0 -0.00207504039944939 0.023021511691597576 0 -0.0019807294263717548 0.022369100896147943 0 -0.0016263252511760419 0.022904373317774823 0 0.0010742269574185754 0.027442755098680674 0 0.0030327439908714332 0.027653935428557243 0 0.0024721981321003078 0.028578823918546103 0 0.0010742269574185754 0.027442755098680674 0 0.0030327439908714332 0.027653935428557243 0 0.0021131136014110466 0.026618597038756284 0 0.003384440032281587 0.028535447234601632 0 0.0030327439908714332 0.027653935428557243 0 0.0024721981321003078 0.028578823918546103 0 0.0037903915090165097 0.023462151883681448 0 0.0024509346295600366 0.023566749480026405 0 0.00337554959829232 0.025164540665391165 0 0.0024509346295600366 0.023566749480026405 0 0.0022002585436621943 0.025211787445740774 0 0.00337554959829232 0.025164540665391165 0 0.0022002585436621943 0.025211787445740774 0 0.00337554959829232 0.025164540665391165 0 0.0030720071764296164 0.026651001448272069 0 0.0042771869249082165 0.027308299065081785 0 0.0030327439908714332 0.027653935428557243 0 0.0030720071764296164 0.026651001448272069 0 0.0030327439908714332 0.027653935428557243 0 0.0030720071764296164 0.026651001448272069 0 0.0021131136014110466 0.026618597038756284 0 0.0022002585436621943 0.025211787445740774 0 0.0030720071764296164 0.026651001448272069 0 0.0021131136014110466 0.026618597038756284 0 0.0022002585436621943 0.025211787445740774 0 0.0021131136014110466 0.026618597038756284 0 0.0011456048426666463 0.025670385670468872 0 0.0010742269574185754 0.027442755098680674 0 0.0021131136014110466 0.026618597038756284 0 0.0011456048426666463 0.025670385670468872 0 0.0022002585436621943 0.025211787445740774 0 0.0011456048426666463 0.025670385670468872 0 0.0010515332128914704 0.023851063349482105 0 0.0024509346295600366 0.023566749480026405 0 0.0022002585436621943 0.025211787445740774 0 0.0010515332128914704 0.023851063349482105 0 0.0011456048426666463 0.025670385670468872 0 0.0010515332128914704 0.023851063349482105 0 -0.00080887462324637802 0.024979805352997653 0 0.0010515332128914704 0.023851063349482105 0 -0.00080887462324637802 0.024979805352997653 0 -0.00017037306436488948 0.022056475560805228 0 -0.00080887462324637802 0.024979805352997653 0 -0.0023237565823099504 0.021684432299078276 0 -0.00017037306436488948 0.022056475560805228 0 0.0010742269574185754 0.027442755098680674 0 0.0011456048426666463 0.025670385670468872 0 -0.00080887462324637802 0.024979805352997653 0 -0.0025189978877260596 0.022257845994034957 0 -0.0022616602169548477 0.022426124103920794 0 -0.0023279630425028686 0.021984917794034466 0 -0.0022616602169548477 0.022426124103920794 0 -0.0019807294263717548 0.022369100896147943 0 -0.0023279630425028686 0.021984917794034466 0 -0.00029890784619465732 0.024457378482078903 0 -0.0010060607979994222 0.023559743391481092 0 -0.0023279630425028686 0.021984917794034466 0 -0.0026577402693708238 0.022118497249637638 0 -0.0026138226833018262 0.021974014705269284 0 -0.0025189978877260596 0.022257845994034957 0 -0.0023279630425028686 0.021984917794034466 0 -0.0026577402693708238 0.022118497249637638 0 -0.0028037361796929778 0.022255278935193398 0 -0.0025189978877260596 0.022257845994034957 0 -0.0026577402693708238 0.022118497249637638 0 -0.0023279630425028686 0.021984917794034466 0 -0.0026138226833018262 0.021974014705269284 0 -0.0023237565823099504 0.021684432299078276 0 -0.0010060607979994222 0.023559743391481092 0 -0.0013604386098877781 0.023040378341122682 0 -0.0026138226833018262 0.021974014705269284 0 -0.0023237565823099504 0.021684432299078276 0 -0.0031078110483608199 0.02130332913958383 0 -0.0023237565823099504 0.021684432299078276 0 -0.0010624250163258999 0.020968920137880747 0 -0.00017037306436488948 0.022056475560805228 0 -0.0023237565823099504 0.021684432299078276 0 -0.0018267293859348108 0.02039885823653554 0 -0.0010624250163258999 0.020968920137880747 0 -0.0023237565823099504 0.021684432299078276 0 -0.0018267293859348108 0.02039885823653554 0 -0.0031078110483608199 0.02130332913958383 0 -0.0018267293859348108 0.02039885823653554 0 -0.0031078110483608199 0.02130332913958383 0 -0.0021628299435721217 0.017915566808074466 0 -0.0018267293859348108 0.02039885823653554 0 -0.00035770950929632235 0.019844277449098845 0 -0.0021628299435721217 0.017915566808074466 0 -0.0018267293859348108 0.02039885823653554 0 -0.00035770950929632235 0.019844277449098845 0 -0.0010624250163258999 0.020968920137880747 0 -0.00035770950929632235 0.019844277449098845 0 0.00048081754665286883 0.020860337076171284 0 -0.0010624250163258999 0.020968920137880747 0 -0.00035770950929632235 0.019844277449098845 0 0.00048081754665286883 0.020860337076171284 0 0.0014407851912154803 0.019540383378877108 0 0.00048081754665286883 0.020860337076171284 0 -0.0010624250163258999 0.020968920137880747 0 -0.00017037306436488948 0.022056475560805228 0 0.0024509346295600366 0.023566749480026405 0 0.0010515332128914704 0.023851063349482105 0 0.0015691180999513707 0.021728373183888094 0 0.00048081754665286883 0.020860337076171284 0 -0.00017037306436488948 0.022056475560805228 0 0.0015691180999513707 0.021728373183888094 0 0.0010515332128914704 0.023851063349482105 0 -0.00017037306436488948 0.022056475560805228 0 0.0015691180999513707 0.021728373183888094 0 0.00048081754665286883 0.020860337076171284 0 0.0015691180999513707 0.021728373183888094 0 0.0014407851912154803 0.019540383378877108 0 0.0015691180999513707 0.021728373183888094 0 0.0014407851912154803 0.019540383378877108 0 0.002596487482800345 0.02049454462720772 0 0.0014407851912154803 0.019540383378877108 0 0.002596487482800345 0.02049454462720772 0 0.0028638368187984429 0.019291830874958761 0 0.002596487482800345 0.02049454462720772 0 0.0039222364041717221 0.019846210698713482 0 0.0028638368187984429 0.019291830874958761 0 0.002596487482800345 0.02049454462720772 0 0.0039222364041717221 0.019846210698713482 0 0.0037858388665516001 0.021046183813339128 0 0.002596487482800345 0.02049454462720772 0 0.0037858388665516001 0.021046183813339128 0 0.0030083753596849457 0.022074361707104546 0 0.0042314669327084128 0.022365411521470972 0 0.0037858388665516001 0.021046183813339128 0 0.0030083753596849457 0.022074361707104546 0 0.0015691180999513707 0.021728373183888094 0 0.002596487482800345 0.02049454462720772 0 0.0030083753596849457 0.022074361707104546 0 0.0024509346295600366 0.023566749480026405 0 0.0015691180999513707 0.021728373183888094 0 0.0030083753596849457 0.022074361707104546 0 0.0037903915090165097 0.023462151883681448 0 0.0024509346295600366 0.023566749480026405 0 0.0030083753596849457 0.022074361707104546 0 0.0037903915090165097 0.023462151883681448 0 0.0042314669327084128 0.022365411521470972 0 0.0030083753596849457 0.022074361707104546 0 -0.0044984735161047746 0.017540039153722667 0 -0.0042966284750517005 0.019459904544971124 0 -0.0024621868412536422 0.017571495480146138 0 -0.0044984735161047746 0.017540039153722667 0 -0.0024621868412536422 0.017571495480146138 0 -0.0036854881267023476 0.015502825689138536 0 -0.0044984735161047746 0.017540039153722667 0 -0.0036854881267023476 0.015502825689138536 0 -0.0054032922084752142 0.015809808048510586 0 -0.0044984735161047746 0.017540039153722667 0 -0.0061444358816213508 0.017432808678575214 0 -0.0054032922084752142 0.015809808048510586 0 -0.007138758879627647 0.0153102852664748 0 -0.0061444358816213508 0.017432808678575214 0 -0.0054032922084752142 0.015809808048510586 0 -0.0044984735161047746 0.017540039153722667 0 -0.0061444358816213508 0.017432808678575214 0 -0.0059389217766314213 0.019428331201935944 0 -0.0080583911421496721 0.018481049967382403 0 -0.0061444358816213508 0.017432808678575214 0 -0.0059389217766314213 0.019428331201935944 0 -0.0048828977669387085 0.020885106060625817 0 -0.0059389217766314213 0.019428331201935944 0 -0.0042966284750517005 0.019459904544971124 0 -0.0037531699387865435 0.021676566020547534 0 -0.0042966284750517005 0.019459904544971124 0 -0.0024621868412536422 0.017571495480146138 0 -0.0044984735161047746 0.017540039153722667 0 -0.0059389217766314213 0.019428331201935944 0 -0.0042966284750517005 0.019459904544971124 0 -0.0032342650845969627 0.019305637625532186 0 -0.003091802050548766 0.018190247066020189 0 -0.0037531699387865435 0.021676566020547534 0 -0.0031028259832044562 0.020742154441741836 0 -0.0037309390416890515 0.020525897572484349 0 -0.0031508446377249899 0.021522647369951371 0 -0.0030362523201810927 0.02109543340555688 0 -0.0030566377766396823 0.022158338879011245 0 -0.0033285112785642799 0.022113457660990276 0 -0.0030044831871061154 0.022044255274699966 0 -0.0030566377766396823 0.022158338879011245 0 -0.0028643670582544976 0.022107776053139992 0 -0.0030044831871061154 0.022044255274699966 0 -0.0026138226833018262 0.021974014705269284 0 -0.0028643670582544976 0.022107776053139992 0 -0.0030044831871061154 0.022044255274699966 0 -0.0030566377766396823 0.022158338879011245 0 -0.0028037361796929778 0.022255278935193398 0 -0.0028643670582544976 0.022107776053139992 0 -0.0028037361796929778 0.022255278935193398 0 -0.0026577402693708238 0.022118497249637638 0 -0.0028643670582544976 0.022107776053139992 0 -0.0026577402693708238 0.022118497249637638 0 -0.0026138226833018262 0.021974014705269284 0 -0.0028643670582544976 0.022107776053139992 0 -0.0031028259832044562 0.020742154441741836 0 -0.0033098019831365073 0.020006855140136299 0 -0.002735606626917153 0.019478712511571235 0 -0.0026138226833018262 0.021974014705269284 0 -0.0030044831871061154 0.022044255274699966 0 -0.0031078110483608199 0.02130332913958383 0 -0.0030362523201810927 0.02109543340555688 0 -0.0028030480166146023 0.020196152429655265 0 -0.0031028259832044562 0.020742154441741836 0 -0.0037309390416890515 0.020525897572484349 0 -0.0033098019831365073 0.020006855140136299 0 -0.0037309390416890515 0.020525897572484349 0 -0.0033098019831365073 0.020006855140136299 0 -0.003790382906879997 0.019170072207481532 0 -0.0033098019831365073 0.020006855140136299 0 -0.002735606626917153 0.019478712511571235 0 -0.003790382906879997 0.019170072207481532 0 -0.003091802050548766 0.018190247066020189 0 -0.0028460164252952836 0.015972308241769512 0 -0.002735606626917153 0.019478712511571235 0 -0.0030621438747494498 0.018512067068923523 0 -0.0021628299435721217 0.017915566808074466 0 -0.0028030480166146023 0.020196152429655265 0 -0.0026126227564085775 0.01949165679628594 0 -0.002735606626917153 0.019478712511571235 0 -0.0030621438747494498 0.018512067068923523 0 -0.003790382906879997 0.019170072207481532 0 -0.0017065087210150728 0.013258103445998044 0 -0.0050675087322842906 0.012919697618121019 0 -0.0031417437661683625 0.011092004701029974 0 -0.0017065087210150728 0.013258103445998044 0 -0.0036854881267023476 0.015502825689138536 0 -0.0050675087322842906 0.012919697618121019 0 -0.0036854881267023476 0.015502825689138536 0 -0.0054032922084752142 0.015809808048510586 0 -0.0050675087322842906 0.012919697618121019 0 -0.0024621868412536422 0.017571495480146138 0 -0.0017065087210150728 0.013258103445998044 0 -0.0036854881267023476 0.015502825689138536 0 -0.007138758879627647 0.0153102852664748 0 -0.0054032922084752142 0.015809808048510586 0 -0.0050675087322842906 0.012919697618121019 0 -0.007138758879627647 0.0153102852664748 0 -0.007868237551032697 0.013340481742868058 0 -0.0050675087322842906 0.012919697618121019 0 -0.007868237551032697 0.013340481742868058 0 -0.0050675087322842906 0.012919697618121019 0 -0.0050209587703875626 0.0099188970805916075 0 -0.0032355686979134535 0.0082348723327248033 0 -0.0029364013350120979 0.0077779101421690767 0 -0.00034059352980242235 0.0028198517603096455 0 -0.0014970324598175134 0.0052094305072335331 0 -0.00045987522348307433 0.004585808717309011 0 -0.0014970324598175134 0.0052094305072335331 0 -0.00066313581977871499 0.0058014744804770714 0 -0.00045987522348307433 0.004585808717309011 0 -0.0014970324598175134 0.0052094305072335331 0 -0.00066313581977871499 0.0058014744804770714 0 -0.0011457652142709473 0.006726500478682439 0 -0.00066313581977871499 0.0058014744804770714 0 -0.0011457652142709473 0.006726500478682439 0 -0.00046404986839631733 0.0066577472867317125 0 -0.0029364013350120979 0.0077779101421690767 0 -0.0027067951295888732 0.0075574432265706074 0 -0.0014970324598175134 0.0052094305072335331 0 -0.0011457652142709473 0.006726500478682439 0 -0.0020147308680292641 0.0074451231307842772 0 -0.0050209587703875626 0.0099188970805916075 0 -0.0013112207640134349 0.0087072995949781726 0 -0.0020147308680292641 0.0074451231307842772 0 -0.0050675087322842906 0.012919697618121019 0 -0.0050209587703875626 0.0099188970805916075 0 -0.0031417437661683625 0.011092004701029974 0 -0.0050209587703875626 0.0099188970805916075 0 -0.0031417437661683625 0.011092004701029974 0 -0.0013112207640134349 0.0087072995949781726 0 -0.0028460164252952836 0.015972308241769512 0 -0.0026203784231160071 0.013642366792417124 0 -0.0017065087210150728 0.013258103445998044 0 -0.0031417437661683625 0.011092004701029974 0 -0.0013112207640134349 0.0087072995949781726 0 -0.0030621438747494498 0.018512067068923523 0 -0.003790382906879997 0.019170072207481532 0 -0.0038474405287603217 0.017201385314184383 0 -0.0030621438747494498 0.018512067068923523 0 -0.0038474405287603217 0.017201385314184383 0 -0.0021628299435721217 0.017915566808074466 0 -0.0024131108510296248 0.015807216403675675 0 -0.0038474405287603217 0.017201385314184383 0 -0.0021628299435721217 0.017915566808074466 0 -0.0013112207640134349 0.0087072995949781726 0 -0.0019875117239909279 0.0073816627310633407 0 -0.0020147308680292641 0.0074451231307842772 0 -0.0024131108510296248 0.015807216403675675 0 -0.0038474405287603217 0.017201385314184383 0 -0.0034191302449862685 0.014252504014548575 0 -0.0019875117239909279 0.0073816627310633407 0 -0.0020147308680292641 0.0074451231307842772 0 -0.0014401338646788514 0.0074749650297487175 0 -0.0026203784231160071 0.013642366792417124 0 -0.0024453217029817712 0.012015125956930866 0 -0.0024131108510296248 0.015807216403675675 0 -0.0034191302449862685 0.014252504014548575 0 -0.0018644492759140297 0.013500629846204724 0 -0.0024131108510296248 0.015807216403675675 0 -0.0018644492759140297 0.013500629846204724 0 -0.0011519015784408301 0.014279659872198588 0 -0.0034191302449862685 0.014252504014548575 0 -0.0018644492759140297 0.013500629846204724 0 -0.0015666484758382678 0.010694900192414543 0 -0.0018644492759140297 0.013500629846204724 0 -0.0011519015784408301 0.014279659872198588 0 -0.00091780280843240284 0.01260129113301397 0 -0.0024453217029817712 0.012015125956930866 0 -0.0023338368987329155 0.011494152834039038 0 -0.0019875117239909279 0.0073816627310633407 0 -0.0012280496223996667 0.0088780735868670534 0 -0.00094913940460580686 0.0081159828073901451 0 -0.0019875117239909279 0.0073816627310633407 0 -0.0012280496223996667 0.0088780735868670534 0 -0.0015666484758382678 0.010694900192414543 0 -0.0012280496223996667 0.0088780735868670534 0 -0.00094913940460580686 0.0081159828073901451 0 -0.00053952172700696434 0.0088089147022743924 0 -0.00094913940460580686 0.0081159828073901451 0 -0.00023367659066214096 0.0080460404258847762 0 -0.00075150657456712346 0.0074866195283133773 0 -0.00094913940460580686 0.0081159828073901451 0 -0.00023367659066214096 0.0080460404258847762 0 -0.00053952172700696434 0.0088089147022743924 0 -0.00023367659066214096 0.0080460404258847762 0 -0.00075150657456712346 0.0074866195283133773 0 -0.00022821818260884707 0.0073299639078641902 0 -0.00075150657456712346 0.0074866195283133773 0 -0.00022821818260884707 0.0073299639078641902 0 -0.00046404986839631733 0.0066577472867317125 0 -0.0011457652142709473 0.006726500478682439 0 -0.00075150657456712346 0.0074866195283133773 0 -0.00046404986839631733 0.0066577472867317125 0 -0.0011457652142709473 0.006726500478682439 0 -0.00075150657456712346 0.0074866195283133773 0 -0.0014401338646788514 0.0074749650297487175 0 -0.0019875117239909279 0.0073816627310633407 0 -0.00094913940460580686 0.0081159828073901451 0 -0.0014401338646788514 0.0074749650297487175 0 -0.0011457652142709473 0.006726500478682439 0 -0.0020147308680292641 0.0074451231307842772 0 -0.0014401338646788514 0.0074749650297487175 0 -0.00094913940460580686 0.0081159828073901451 0 -0.00075150657456712346 0.0074866195283133773 0 -0.0014401338646788514 0.0074749650297487175 0 0.0030930005381747008 0.017400636545698362 0 0.0017855462214570379 0.016108104631766061 0 0.0033757189506747635 0.015530416455285625 0 0.0046721034358140059 0.01864703673880614 0 0.0030930005381747008 0.017400636545698362 0 0.0033757189506747635 0.015530416455285625 0 0.0046721034358140059 0.01864703673880614 0 0.0030930005381747008 0.017400636545698362 0 0.0034468561751161198 0.018673791923491962 0 0.0039222364041717221 0.019846210698713482 0 0.0034468561751161198 0.018673791923491962 0 0.0028638368187984429 0.019291830874958761 0 0.0014407851912154803 0.019540383378877108 0 0.0028638368187984429 0.019291830874958761 0 0.0027172201157813452 0.018234811857337097 0 0.0034468561751161198 0.018673791923491962 0 0.0028638368187984429 0.019291830874958761 0 0.0027172201157813452 0.018234811857337097 0 0.0030930005381747008 0.017400636545698362 0 0.0034468561751161198 0.018673791923491962 0 0.0027172201157813452 0.018234811857337097 0 0.0030930005381747008 0.017400636545698362 0 0.0027172201157813452 0.018234811857337097 0 0.0016538694698417841 0.017744207826746173 0 0.0014407851912154803 0.019540383378877108 0 0.0027172201157813452 0.018234811857337097 0 0.0016538694698417841 0.017744207826746173 0 0.0014407851912154803 0.019540383378877108 0 0.0016538694698417841 0.017744207826746173 0 0.0001271941197242165 0.018197347715394035 0 0.0016538694698417841 0.017744207826746173 0 0.00078876637668460526 0.016773384050615934 0 0.0001271941197242165 0.018197347715394035 0 0.0016538694698417841 0.017744207826746173 0 0.00078876637668460526 0.016773384050615934 0 0.0017855462214570379 0.016108104631766061 0 0.0030930005381747008 0.017400636545698362 0 0.0016538694698417841 0.017744207826746173 0 0.0017855462214570379 0.016108104631766061 0 0.00078876637668460526 0.016773384050615934 0 0.0017855462214570379 0.016108104631766061 0 0.00052248963720190886 0.015301702490274694 0 -0.00037674119869449303 0.016804319851011947 0 -0.0011975107293618491 0.015840748236021891 0 0.00052248963720190886 0.015301702490274694 0 0.00078876637668460526 0.016773384050615934 0 -0.00037674119869449303 0.016804319851011947 0 0.00052248963720190886 0.015301702490274694 0 0.00078876637668460526 0.016773384050615934 0 -0.00037674119869449303 0.016804319851011947 0 0.0001271941197242165 0.018197347715394035 0 -0.00035770950929632235 0.019844277449098845 0 0.0014407851912154803 0.019540383378877108 0 0.0001271941197242165 0.018197347715394035 0 -0.00035770950929632235 0.019844277449098845 0 0.0001271941197242165 0.018197347715394035 0 -0.0021628299435721217 0.017915566808074466 0 -0.00037674119869449303 0.016804319851011947 0 0.0001271941197242165 0.018197347715394035 0 -0.0021628299435721217 0.017915566808074466 0 -0.00037674119869449303 0.016804319851011947 0 -0.0021628299435721217 0.017915566808074466 0 -0.0011975107293618491 0.015840748236021891 0 -0.0024131108510296248 0.015807216403675675 0 -0.0021628299435721217 0.017915566808074466 0 -0.0011975107293618491 0.015840748236021891 0 -0.0011975107293618491 0.015840748236021891 0 -0.0011519015784408301 0.014279659872198588 0 -9.7737165923683311e-05 0.013945277873612629 0 -0.0024131108510296248 0.015807216403675675 0 -0.0011975107293618491 0.015840748236021891 0 -0.0011519015784408301 0.014279659872198588 0 -0.0011519015784408301 0.014279659872198588 0 -9.7737165923683311e-05 0.013945277873612629 0 -0.00091780280843240284 0.01260129113301397 0 -9.7737165923683311e-05 0.013945277873612629 0 -2.0934747064515989e-05 0.012627794186194672 0 -0.00091780280843240284 0.01260129113301397 0 -9.7737165923683311e-05 0.013945277873612629 0 0.00076335950089483052 0.013516933158006209 0 -2.0934747064515989e-05 0.012627794186194672 0 -9.7737165923683311e-05 0.013945277873612629 0 0.00052248963720190886 0.015301702490274694 0 0.00076335950089483052 0.013516933158006209 0 -0.0011975107293618491 0.015840748236021891 0 -9.7737165923683311e-05 0.013945277873612629 0 0.00052248963720190886 0.015301702490274694 0 0.00052248963720190886 0.015301702490274694 0 0.0016325123299993536 0.014654410073087943 0 0.00076335950089483052 0.013516933158006209 0 0.0017855462214570379 0.016108104631766061 0 0.00052248963720190886 0.015301702490274694 0 0.0016325123299993536 0.014654410073087943 0 0.00076335950089483052 0.013516933158006209 0 0.0018380476081039366 0.013025241959800607 0 0.00048719225892800356 0.012531708393912693 0 0.0016325123299993536 0.014654410073087943 0 0.00076335950089483052 0.013516933158006209 0 0.0018380476081039366 0.013025241959800607 0 0.00087726536441973431 0.014244198019282336 0 0.0019699803935092331 0.014575740880729292 0 0.0021232917872737751 0.016331881796529488 0 0.0016047073996647216 0.014479394736791187 0 0.0025676308266580567 0.016226875557406747 0 0.0016325123299993536 0.014654410073087943 0 0.0018380476081039366 0.013025241959800607 0 0.0033757189506747635 0.015530416455285625 0 0.0027838619887719475 0.015672832714580323 0 0.0019699803935092331 0.014575740880729292 0 0.0021232917872737751 0.016331881796529488 0 0.0017855462214570379 0.016108104631766061 0 0.0016325123299993536 0.014654410073087943 0 0.0033757189506747635 0.015530416455285625 0 0.00042469997526972089 0.018685790060120212 0 -0.00027865542107553723 0.018479054799059501 0 0.00017306271773073978 0.017125274771382832 0 0.00023437992534090161 0.018908955840269994 0 0.00013034849816282021 0.018048109601675098 0 0.00010012861832460685 0.017592363356813544 0 -1.2278412914608296e-05 0.016316689863587301 0 0.00042469997526972089 0.018685790060120212 0 -2.0856690298245348e-05 0.020336147977293013 0 -0.00027865542107553723 0.018479054799059501 0 0.00087726536441973431 0.014244198019282336 0 0.0019699803935092331 0.014575740880729292 0 0.00071804445011775431 0.013451521942521173 0 0.00042227043177337062 0.019903903865862712 0 0.00010012861832460685 0.017592363356813544 0 0.0016047073996647216 0.014479394736791187 0 0.00095716435323005365 0.013606666673070106 0 0.0018380476081039366 0.013025241959800607 0 0.00048719225892800356 0.012531708393912693 0 5.7562594445037792e-05 0.011996986430412665 0 0.00087726536441973431 0.014244198019282336 0 0.00071804445011775431 0.013451521942521173 0 3.8969954773997249e-05 0.013262898059903985 0 0.00048719225892800356 0.012531708393912693 0 5.7562594445037792e-05 0.011996986430412665 0 1.6494687625170591e-05 0.012113682057070923 0 0.00071804445011775431 0.013451521942521173 0 3.8969954773997249e-05 0.013262898059903985 0 -0.00026172637667591571 0.01349430266183875 0 5.7562594445037792e-05 0.011996986430412665 0 1.6494687625170591e-05 0.012113682057070923 0 6.8951492325635213e-05 0.012565377604666642 0 1.6494687625170591e-05 0.012113682057070923 0 -0.00017020953590053494 0.012060370774324942 0 6.8951492325635213e-05 0.012565377604666642 0 0.00048719225892800356 0.012531708393912693 0 1.6494687625170591e-05 0.012113682057070923 0 -2.0934747064515989e-05 0.012627794186194672 0 0.00076335950089483052 0.013516933158006209 0 0.00048719225892800356 0.012531708393912693 0 -2.0934747064515989e-05 0.012627794186194672 0 1.6494687625170591e-05 0.012113682057070923 0 -2.0934747064515989e-05 0.012627794186194672 0 -0.00050641283834119304 0.011968806612678221 0 -2.0934747064515989e-05 0.012627794186194672 0 -0.00091780280843240284 0.01260129113301397 0 -0.00050641283834119304 0.011968806612678221 0 1.6494687625170591e-05 0.012113682057070923 0 -0.00050641283834119304 0.011968806612678221 0 -0.00017020953590053494 0.012060370774324942 0 -0.00050641283834119304 0.011968806612678221 0 -0.00017020953590053494 0.012060370774324942 0 -0.0015666484758382678 0.010694900192414543 0 -0.00017020953590053494 0.012060370774324942 0 -2.5463474155396102e-05 0.012890231106534207 0 -0.00035025129877007898 0.011566939281107266 0 -0.00017020953590053494 0.012060370774324942 0 -2.5463474155396102e-05 0.012890231106534207 0 6.8951492325635213e-05 0.012565377604666642 0 -2.5463474155396102e-05 0.012890231106534207 0 7.7413418919428867e-07 0.013609329965780867 0 -0.00035025129877007898 0.011566939281107266 0 -2.5463474155396102e-05 0.012890231106534207 0 7.7413418919428867e-07 0.013609329965780867 0 -1.2810694344568384e-05 0.014212138511190051 0 7.7413418919428867e-07 0.013609329965780867 0 -1.2810694344568384e-05 0.014212138511190051 0 -2.3064102570647674e-06 0.015501010783768735 0 -2.5463474155396102e-05 0.012890231106534207 0 -1.2810694344568384e-05 0.014212138511190051 0 6.8951492325635213e-05 0.012565377604666642 0 5.7562594445037792e-05 0.011996986430412665 0 -1.2810694344568384e-05 0.014212138511190051 0 6.8951492325635213e-05 0.012565377604666642 0 0.00095716435323005365 0.013606666673070106 0 0.00080536929070424551 0.013604567260000014 0 3.8969954773997249e-05 0.013262898059903985 0 -1.2810694344568384e-05 0.014212138511190051 0 -0.00026172637667591571 0.01349430266183875 0 -0.00027186809280034188 0.017019756858748413 0 -1.3948016951991676e-06 0.015510903652063332 0 1.1714458402989278e-06 0.016740212505832054 0 -1.2810694344568384e-05 0.014212138511190051 0 -0.00026172637667591571 0.01349430266183875 0 -2.3064102570647674e-06 0.015501010783768735 0 -1.2278412914608296e-05 0.016316689863587301 0 -3.783545800300983e-07 0.015507176556811463 0 -2.2012382278968155e-08 0.016747363704654874 0 0.00013034849816282021 0.018048109601675098 0 6.769249422647004e-05 0.019254140505668153 0 -2.4124853652867884e-06 0.016748354651806071 0 -0.00060392062000346023 0.019581964279312181 0 -0.00027186809280034188 0.017019756858748413 0 1.1714458402989278e-06 0.016740212505832054 0 0.00017306271773073978 0.017125274771382832 0 -0.00027865542107553723 0.018479054799059501 0 -0.00027186809280034188 0.017019756858748413 0 0.00017306271773073978 0.017125274771382832 0 -0.0003073319109756906 0.0094127295063619679 0 -0.0015666484758382678 0.010694900192414543 0 -0.00030942967050903789 0.010383592411358136 0 -0.0003073319109756906 0.0094127295063619679 0 1.2377620422927474e-05 0.008666004161870933 0 1.0306139256292308e-05 0.0084058133285268653 0 -0.0003073319109756906 0.0094127295063619679 0 -0.00053952172700696434 0.0088089147022743924 0 1.0306139256292308e-05 0.0084058133285268653 0 -0.00023367659066214096 0.0080460404258847762 0 -0.00053952172700696434 0.0088089147022743924 0 1.0306139256292308e-05 0.0084058133285268653 0 -0.0003073319109756906 0.0094127295063619679 0 -0.00053952172700696434 0.0088089147022743924 0 -0.0015666484758382678 0.010694900192414543 0 -0.0012280496223996667 0.0088780735868670534 0 -0.00053952172700696434 0.0088089147022743924 0 -0.0015666484758382678 0.010694900192414543 0 -0.0018644492759140297 0.013500629846204724 0 -0.00091780280843240284 0.01260129113301397 0 -0.0015666484758382678 0.010694900192414543 0 -0.00091780280843240284 0.01260129113301397 0 -0.00050641283834119304 0.011968806612678221 0 -0.0015666484758382678 0.010694900192414543 0 -0.00017020953590053494 0.012060370774324942 0 -0.0015666484758382678 0.010694900192414543 0 -0.00035025129877007898 0.011566939281107266 0 -0.0015666484758382678 0.010694900192414543 0 -0.00035025129877007898 0.011566939281107266 0 -0.00030942967050903789 0.010383592411358136 0 7.7413418919428867e-07 0.013609329965780867 0 -0.00035025129877007898 0.011566939281107266 0 -5.7620930476258404e-07 0.011712644891876553 0 -0.00035025129877007898 0.011566939281107266 0 -5.7620930476258404e-07 0.011712644891876553 0 -0.00030942967050903789 0.010383592411358136 0 -5.7620930476258404e-07 0.011712644891876553 0 -0.00030942967050903789 0.010383592411358136 0 -7.4023766652435188e-08 0.0098169945047560676 0 -0.0003073319109756906 0.0094127295063619679 0 -0.00030942967050903789 0.010383592411358136 0 1.2377620422927474e-05 0.008666004161870933 0 -7.4023766652435188e-08 0.0098169945047560676 0 2.0382393406045302e-07 0.0079207704773023475 0 1.2377620422927474e-05 0.008666004161870933 0 -0.00030942967050903789 0.010383592411358136 0 -7.4023766652435188e-08 0.0098169945047560676 0 1.2377620422927474e-05 0.008666004161870933 0 2.0382393406045302e-07 0.0079207704773023475 0 0.00015647077282478363 0.0072073731702211536 0 1.2377620422927474e-05 0.008666004161870933 0 2.0382393406045302e-07 0.0079207704773023475 0 0.00015647077282478363 0.0072073731702211536 0 4.6153960646854473e-07 0.0060249312956751656 0 0.00015647077282478363 0.0072073731702211536 0 0.00041884402110025222 0.0066669066690108764 0 4.7906782281897983e-05 0.0076583595008105857 0 0.00015647077282478363 0.0072073731702211536 0 1.2377620422927474e-05 0.008666004161870933 0 4.7906782281897983e-05 0.0076583595008105857 0 4.6153960646854473e-07 0.0060249312956751656 0 0.00028515880845525504 0.005771308276592879 0 6.1256731243301275e-07 0.0041284381746666196 0 0.00015647077282478363 0.0072073731702211536 0 4.6153960646854473e-07 0.0060249312956751656 0 0.00028515880845525504 0.005771308276592879 0 0.00015647077282478363 0.0072073731702211536 0 0.00028515880845525504 0.005771308276592879 0 0.00041884402110025222 0.0066669066690108764 0 0.00028515880845525504 0.005771308276592879 0 0.00038280982932016339 0.0062715772022663525 0 0.00041884402110025222 0.0066669066690108764 0 0.00069226939292811335 0.0039626742862597366 0 0.0007126589768152112 0.0041225779119098095 0 0.00038280982932016339 0.0062715772022663525 0 0.00041884402110025222 0.0066669066690108764 0 0.00083076739637861119 0.0054878824692126058 0 0.00041884402110025222 0.0066669066690108764 0 0.00083076739637861119 0.0054878824692126058 0 4.7906782281897983e-05 0.0076583595008105857 0 0.00083076739637861119 0.0054878824692126058 0 4.7906782281897983e-05 0.0076583595008105857 0 0.00044440225922623362 0.0050991644032052788 0 0.00083076739637861119 0.0054878824692126058 0 0.00044440225922623362 0.0050991644032052788 0 0.00092784868034264073 0.0049414091598226325 0 0.00083076739637861119 0.0054878824692126058 0 0.00092784868034264073 0.0049414091598226325 0 0.00099349954235287237 0.0047025672541604405 0 0.0011917502681725186 0.0039852597877182028 0 0.00083076739637861119 0.0054878824692126058 0 0.00099349954235287237 0.0047025672541604405 0 1.2377620422927474e-05 0.008666004161870933 0 4.7906782281897983e-05 0.0076583595008105857 0 1.0306139256292308e-05 0.0084058133285268653 0 0.00061144248929300229 0.0063715473680073364 0 0.00078140762611959792 0.0060574811859502751 0 4.7906782281897983e-05 0.0076583595008105857 0 0.00022953317215191141 0.0079890591522758011 0 0.00051422784059576587 0.0078534610850536108 0 4.7906782281897983e-05 0.0076583595008105857 0 0.00051422784059576587 0.0078534610850536108 0 0.00085619348129756646 0.0079324479877072047 0 -0.00023367659066214096 0.0080460404258847762 0 1.0306139256292308e-05 0.0084058133285268653 0 0.00022953317215191141 0.0079890591522758011 0 4.7906782281897983e-05 0.0076583595008105857 0 1.0306139256292308e-05 0.0084058133285268653 0 0.00022953317215191141 0.0079890591522758011 0 -0.00023367659066214096 0.0080460404258847762 0 0.00022953317215191141 0.0079890591522758011 0 0.00017332454084249417 0.0075676973260191552 0 -0.00023367659066214096 0.0080460404258847762 0 0.00017332454084249417 0.0075676973260191552 0 -0.00022821818260884707 0.0073299639078641902 0 0.00017332454084249417 0.0075676973260191552 0 -0.00022821818260884707 0.0073299639078641902 0 0.00015014593240022793 0.0068265893826799078 0 -0.00022821818260884707 0.0073299639078641902 0 0.00015014593240022793 0.0068265893826799078 0 -0.00046404986839631733 0.0066577472867317125 0 0.00015014593240022793 0.0068265893826799078 0 0.00063981015475707249 0.0071245746780400172 0 0.00062895682586935778 0.0061167718369826022 0 0.00063981015475707249 0.0071245746780400172 0 0.0011814409514894516 0.006709384015496582 0 0.00062895682586935778 0.0061167718369826022 0 0.00017332454084249417 0.0075676973260191552 0 0.00015014593240022793 0.0068265893826799078 0 0.00063981015475707249 0.0071245746780400172 0 0.00063981015475707249 0.0071245746780400172 0 0.00051422784059576587 0.0078534610850536108 0 0.0010554480290756996 0.0072851114604951797 0 0.00017332454084249417 0.0075676973260191552 0 0.00063981015475707249 0.0071245746780400172 0 0.00051422784059576587 0.0078534610850536108 0 0.00022953317215191141 0.0079890591522758011 0 0.00017332454084249417 0.0075676973260191552 0 0.00051422784059576587 0.0078534610850536108 0 0.00085619348129756646 0.0079324479877072047 0 0.0010554480290756996 0.0072851114604951797 0 0.0021623846166546313 0.0067878362989884184 0 0.00078140762611959792 0.0060574811859502751 0 0.001022046366656458 0.0054911652516687554 0 0.00051422784059576587 0.0078534610850536108 0 0.00085619348129756646 0.0079324479877072047 0 0.0010554480290756996 0.0072851114604951797 0 0.00092784868034264073 0.0049414091598226325 0 0.00092121782041729432 0.004581575940854914 0 0.00097469474678450589 0.0048435435675742763 0 0.00044440225922623362 0.0050991644032052788 0 0.00092784868034264073 0.0049414091598226325 0 0.00092121782041729432 0.004581575940854914 0 0.0010554480290756996 0.0072851114604951797 0 0.0021623846166546313 0.0067878362989884184 0 0.0011814409514894516 0.006709384015496582 0 0.0021623846166546313 0.0067878362989884184 0 0.0011814409514894516 0.006709384015496582 0 0.0015449630927735984 0.0059972436908357378 0 0.00063981015475707249 0.0071245746780400172 0 0.0010554480290756996 0.0072851114604951797 0 0.0011814409514894516 0.006709384015496582 0 0.0011814409514894516 0.006709384015496582 0 0.0015449630927735984 0.0059972436908357378 0 0.00062895682586935778 0.0061167718369826022 0 0.0015449630927735984 0.0059972436908357378 0 0.00070929736071976429 0.0048985659116168806 0 0.00062895682586935778 0.0061167718369826022 0 0.0009973596214511429 0.0054216087245517646 0 0.00092719236927578147 0.0053382166391096548 0 0.0013764457118840363 0.0051643995668360226 0 0.0013626347581762622 0.0048428424056734523 0 0.0015371699354868708 0.0047702740241039486 0 0.001022046366656458 0.0054911652516687554 0 0.0011321866717812241 0.0053379756030117395 0 0.001022046366656458 0.0054911652516687554 0 0.0009973596214511429 0.0054216087245517646 0 0.0013764457118840363 0.0051643995668360226 0 0.0010497936249738639 0.0049453909802314863 0 0.0013626347581762622 0.0048428424056734523 0 0.0010497936249738639 0.0049453909802314863 0 0.0013626347581762622 0.0048428424056734523 0 0.0012434659284153895 0.0045392098660490448 0 0.0013626347581762622 0.0048428424056734523 0 0.0018450557874550996 0.0045782685592774272 0 0.0015371699354868708 0.0047702740241039486 0 0.0013626347581762622 0.0048428424056734523 0 0.0012434659284153895 0.0045392098660490448 0 0.0018450557874550996 0.0045782685592774272 0 0.0012434659284153895 0.0045392098660490448 0 0.0014457647738158612 0.0039217889939902736 0 0.0010168583358018341 0.0040606528929874371 0 0.0020126332548421042 0.0036486826474153274 0 0.0014457647738158612 0.0039217889939902736 0 0.0018450557874550996 0.0045782685592774272 0 0.0012434659284153895 0.0045392098660490448 0 0.0014457647738158612 0.0039217889939902736 0 0.0018450557874550996 0.0045782685592774272 0 0.0010497936249738639 0.0049453909802314863 0 0.00091326991986116475 0.0045700404896024767 0 0.00070929736071976429 0.0048985659116168806 0 0.0010497936249738639 0.0049453909802314863 0 0.0012434659284153895 0.0045392098660490448 0 0.00091326991986116475 0.0045700404896024767 0 0.00047056501364266772 0.0039819884313425247 0 0.00091326991986116475 0.0045700404896024767 0 0.00070929736071976429 0.0048985659116168806 0 0.0012434659284153895 0.0045392098660490448 0 0.00091326991986116475 0.0045700404896024767 0 0.0010168583358018341 0.0040606528929874371 0 0.00047056501364266772 0.0039819884313425247 0 0.00091326991986116475 0.0045700404896024767 0 0.0010168583358018341 0.0040606528929874371 0 0.00086046955949391874 0.0030735085724223903 0 0.00035414495304716769 0.0033779144327224604 0 0.00047056501364266772 0.0039819884313425247 0 0.00070929736071976429 0.0048985659116168806 0 0.00014274140159436979 0.0051590308028072376 0 0.00047056501364266772 0.0039819884313425247 0 0.00014274140159436979 0.0051590308028072376 0 -0.00045987522348307433 0.004585808717309011 0 -0.00066313581977871499 0.0058014744804770714 0 0.00014274140159436979 0.0051590308028072376 0 -0.00045987522348307433 0.004585808717309011 0 -0.00066313581977871499 0.0058014744804770714 0 0.00014274140159436979 0.0051590308028072376 0 -4.2412473337342256e-05 0.0060500271613405316 0 -0.00066313581977871499 0.0058014744804770714 0 -0.00046404986839631733 0.0066577472867317125 0 -4.2412473337342256e-05 0.0060500271613405316 0 0.00015014593240022793 0.0068265893826799078 0 -0.00046404986839631733 0.0066577472867317125 0 -4.2412473337342256e-05 0.0060500271613405316 0 0.00015014593240022793 0.0068265893826799078 0 -4.2412473337342256e-05 0.0060500271613405316 0 0.00062895682586935778 0.0061167718369826022 0 0.00070929736071976429 0.0048985659116168806 0 0.00014274140159436979 0.0051590308028072376 0 0.00062895682586935778 0.0061167718369826022 0 0.00014274140159436979 0.0051590308028072376 0 -4.2412473337342256e-05 0.0060500271613405316 0 0.00062895682586935778 0.0061167718369826022 0 0.00058680825564257793 0.0049598345061314299 0 0.00051838180230293475 0.004690293829762454 0 0.0002362775075791039 0.0048894713807307137 0 0.00058680825564257793 0.0049598345061314299 0 0.00051838180230293475 0.004690293829762454 0 0.00078455517017336253 0.0047728896823990572 0 0.00051838180230293475 0.004690293829762454 0 0.00078455517017336253 0.0047728896823990572 0 0.00082667669564463341 0.0046026872619374173 0 0.00051838180230293475 0.004690293829762454 0 0.0002362775075791039 0.0048894713807307137 0 0.00021480597391601385 0.0046259643209547018 0 -2.2415719021472592e-05 0.0047796068652825457 0 0.0002362775075791039 0.0048894713807307137 0 0.00021480597391601385 0.0046259643209547018 0 -2.2415719021472592e-05 0.0047796068652825457 0 -5.5019428799702989e-05 0.0045523143048761235 0 -0.00026002814443907066 0.0046856475215445066 0 -2.2415719021472592e-05 0.0047796068652825457 0 -5.5019428799702989e-05 0.0045523143048761235 0 0.00021480597391601385 0.0046259643209547018 0 -2.2415719021472592e-05 0.0047796068652825457 0 -3.24790623609496e-05 0.0050342211878539314 0 -0.00023435884609740974 0.0049129150021457371 0 -2.2415719021472592e-05 0.0047796068652825457 0 0.0002362775075791039 0.0048894713807307137 0 -3.24790623609496e-05 0.0050342211878539314 0 0.0028987091704756078 0.00095870375908627408 0 0.002561989018262757 3.8235112781318704e-05 0 0.00020334577608317224 0.0053384752571091253 0 -3.24790623609496e-05 0.0050342211878539314 0 -0.00032236587073717948 0.0052072066988587198 0 0.0002362775075791039 0.0048894713807307137 0 0.00020334577608317224 0.0053384752571091253 0 -3.24790623609496e-05 0.0050342211878539314 0 0.00058680825564257793 0.0049598345061314299 0 0.00020334577608317224 0.0053384752571091253 0 0.00093027642525944784 0.0052489275244208267 0 0.0028987091704756078 0.00095870375908627408 0 0.0024241302971054553 0.0019816042974580409 0 0.0037731241173578648 0.0035562860850954902 0 0.0062936471626142253 0.0041911120739769265 0 0.004131505556081696 0.0043977333780638771 0 0.00058680825564257793 0.0049598345061314299 0 0.0002362775075791039 0.0048894713807307137 0 0.00020334577608317224 0.0053384752571091253 0 0.0037731241173578648 0.0035562860850954902 0 0.004131505556081696 0.0043977333780638771 0 0.0018450557874550996 0.0045782685592774272 0 0.00058680825564257793 0.0049598345061314299 0 0.00093027642525944784 0.0052489275244208267 0 0.00091201232859075771 0.0049153075523539463 0 0.00093027642525944784 0.0052489275244208267 0 0.0012248984512292947 0.0048918734638668847 0 0.00091201232859075771 0.0049153075523539463 0 0.0012248984512292947 0.0048918734638668847 0 0.0018450557874550996 0.0045782685592774272 0 0.0014351692121676288 0.0047644499894854194 0 0.0020126332548421042 0.0036486826474153274 0 0.0037731241173578648 0.0035562860850954902 0 0.0018450557874550996 0.0045782685592774272 0 0.00093027642525944784 0.0052489275244208267 0 0.0012248984512292947 0.0048918734638668847 0 0.0018450557874550996 0.0045782685592774272 0 0.0024241302971054553 0.0019816042974580409 0 0.0021657750805871997 0.0022952016194349458 0 0.0018450557874550996 0.0045782685592774272 0 0.0015371699354868708 0.0047702740241039486 0 0.0014351692121676288 0.0047644499894854194 0 0.0016005190745446941 0.0044914303211664973 0 0.0015371699354868708 0.0047702740241039486 0 0.0012027990809772118 0.0045434418017691203 0 0.0015371699354868708 0.0047702740241039486 0 0.0014351692121676288 0.0047644499894854194 0 0.0011371428305303952 0.0047480143317406107 0 0.0015371699354868708 0.0047702740241039486 0 0.0011371428305303952 0.0047480143317406107 0 0.0012027990809772118 0.0045434418017691203 0 0.00091201232859075771 0.0049153075523539463 0 0.00078455517017336253 0.0047728896823990572 0 0.0011371428305303952 0.0047480143317406107 0 0.00058680825564257793 0.0049598345061314299 0 0.00091201232859075771 0.0049153075523539463 0 0.00078455517017336253 0.0047728896823990572 0 0.0012248984512292947 0.0048918734638668847 0 0.00091201232859075771 0.0049153075523539463 0 0.0011371428305303952 0.0047480143317406107 0 0.0012248984512292947 0.0048918734638668847 0 0.0014351692121676288 0.0047644499894854194 0 0.0011371428305303952 0.0047480143317406107 0 0.0011371428305303952 0.0047480143317406107 0 0.00082667669564463341 0.0046026872619374173 0 0.0012027990809772118 0.0045434418017691203 0 0.00078455517017336253 0.0047728896823990572 0 0.0011371428305303952 0.0047480143317406107 0 0.00082667669564463341 0.0046026872619374173 0 0.00082667669564463341 0.0046026872619374173 0 0.00089318754362837836 0.0044229628620969311 0 0.00046456657253068586 0.0044591962095902084 0 0.00089318754362837836 0.0044229628620969311 0 0.00062883312955131767 0.0042793265572420086 0 0.00046456657253068586 0.0044591962095902084 0 0.00082667669564463341 0.0046026872619374173 0 0.00089318754362837836 0.0044229628620969311 0 0.0012027990809772118 0.0045434418017691203 0 0.0016005190745446941 0.0044914303211664973 0 0.0012027990809772118 0.0045434418017691203 0 0.0011526165488148737 0.0042397065132571661 0 0.00089318754362837836 0.0044229628620969311 0 0.0012027990809772118 0.0045434418017691203 0 0.0011526165488148737 0.0042397065132571661 0 0.001022046366656458 0.0054911652516687554 0 0.00088791846519801262 0.005140167657420083 0 0.00092784868034264073 0.0049414091598226325 0 0.00097469474678450589 0.0048435435675742763 0 0.00099349954235287237 0.0047025672541604405 0 0.00089318754362837836 0.0044229628620969311 0 0.0011526165488148737 0.0042397065132571661 0 0.00062883312955131767 0.0042793265572420086 0 0.0011526165488148737 0.0042397065132571661 0 0.00062883312955131767 0.0042793265572420086 0 0.00065266603877428921 0.0042260760514606904 0 0.00088791846519801262 0.005140167657420083 0 0.00083042536462407082 0.0050198938782022914 0 0.00062883312955131767 0.0042793265572420086 0 0.00037279943227269105 0.0041507665449828559 0 0.00065266603877428921 0.0042260760514606904 0 0.00062883312955131767 0.0042793265572420086 0 0.00046456657253068586 0.0044591962095902084 0 0.00017044425529173999 0.0042719455905034674 0 0.00037279943227269105 0.0041507665449828559 0 0.00017044425529173999 0.0042719455905034674 0 0.00010503279867140113 0.0039169356120373998 0 0.00062883312955131767 0.0042793265572420086 0 0.00037279943227269105 0.0041507665449828559 0 0.00017044425529173999 0.0042719455905034674 0 0.00046456657253068586 0.0044591962095902084 0 0.00012930669205281231 0.0044438213209285031 0 0.00017044425529173999 0.0042719455905034674 0 0.00046456657253068586 0.0044591962095902084 0 0.00021480597391601385 0.0046259643209547018 0 0.00012930669205281231 0.0044438213209285031 0 0.00051838180230293475 0.004690293829762454 0 0.00046456657253068586 0.0044591962095902084 0 0.00021480597391601385 0.0046259643209547018 0 0.00051838180230293475 0.004690293829762454 0 0.00082667669564463341 0.0046026872619374173 0 0.00046456657253068586 0.0044591962095902084 0 -5.5019428799702989e-05 0.0045523143048761235 0 0.00021480597391601385 0.0046259643209547018 0 0.00012930669205281231 0.0044438213209285031 0 0.00012930669205281231 0.0044438213209285031 0 -0.00014606695750230667 0.0043184789452257177 0 0.00017044425529173999 0.0042719455905034674 0 -5.5019428799702989e-05 0.0045523143048761235 0 0.00012930669205281231 0.0044438213209285031 0 -0.00014606695750230667 0.0043184789452257177 0 -0.00014606695750230667 0.0043184789452257177 0 0.00017044425529173999 0.0042719455905034674 0 -0.00030829560476304052 0.004005755737573633 0 0.00017044425529173999 0.0042719455905034674 0 0.00010503279867140113 0.0039169356120373998 0 -0.00030829560476304052 0.004005755737573633 0 -0.00024895702785051064 0.0037325947466704738 0 0.00010503279867140113 0.0039169356120373998 0 -0.00030829560476304052 0.004005755737573633 0 -0.00024895702785051064 0.0037325947466704738 0 0.00010503279867140113 0.0039169356120373998 0 8.9948650038391333e-05 0.0035872124903495207 0 0.00037279943227269105 0.0041507665449828559 0 0.00036644636284375058 0.0038717902650364012 0 0.00010503279867140113 0.0039169356120373998 0 0.00037279943227269105 0.0041507665449828559 0 0.00036644636284375058 0.0038717902650364012 0 0.00065266603877428921 0.0042260760514606904 0 0.00036644636284375058 0.0038717902650364012 0 0.00010503279867140113 0.0039169356120373998 0 8.9948650038391333e-05 0.0035872124903495207 0 0.00036644636284375058 0.0038717902650364012 0 8.9948650038391333e-05 0.0035872124903495207 0 0.00028507271889773809 0.0033796889424591962 0 8.9948650038391333e-05 0.0035872124903495207 0 0.00028507271889773809 0.0033796889424591962 0 -1.9212839709257892e-05 0.0030748187009720326 0 8.9948650038391333e-05 0.0035872124903495207 0 -0.00024337299805857096 0.0034027272107288028 0 -1.9212839709257892e-05 0.0030748187009720326 0 -0.00024337299805857096 0.0034027272107288028 0 -0.00035798728377466196 0.0030213115738688028 0 -0.00057929237556457978 0.0036278058379284016 0 -0.00024337299805857096 0.0034027272107288028 0 -0.00035798728377466196 0.0030213115738688028 0 -1.9212839709257892e-05 0.0030748187009720326 0 -0.00024895702785051064 0.0037325947466704738 0 -0.00024337299805857096 0.0034027272107288028 0 -0.00057929237556457978 0.0036278058379284016 0 -0.00024895702785051064 0.0037325947466704738 0 8.9948650038391333e-05 0.0035872124903495207 0 -0.00024337299805857096 0.0034027272107288028 0 0.00097469474678450589 0.0048435435675742763 0 0.00099349954235287237 0.0047025672541604405 0 0.00065266603877428921 0.0042260760514606904 0 0.00099349954235287237 0.0047025672541604405 0 0.00065266603877428921 0.0042260760514606904 0 0.0006807475402418906 0.0037769662332322045 0 0.00036644636284375058 0.0038717902650364012 0 0.00065266603877428921 0.0042260760514606904 0 0.0006807475402418906 0.0037769662332322045 0 0.00036644636284375058 0.0038717902650364012 0 0.00028507271889773809 0.0033796889424591962 0 0.0006807475402418906 0.0037769662332322045 0 0.00028507271889773809 0.0033796889424591962 0 0.0006807475402418906 0.0037769662332322045 0 0.00044101113145189982 0.0029531028474740679 0 0.0011917502681725186 0.0039852597877182028 0 0.00099349954235287237 0.0047025672541604405 0 0.0006807475402418906 0.0037769662332322045 0 0.00028515880845525504 0.005771308276592879 0 0.00038280982932016339 0.0062715772022663525 0 -0.00027898043728406021 0.0049123857700489352 0 0.0011917502681725186 0.0039852597877182028 0 0.0006807475402418906 0.0037769662332322045 0 0.00082496843056361062 0.0028519705090567708 0 0.00069226939292811335 0.0039626742862597366 0 0.00051528335450566599 0.0033776924352570885 0 0.0006807475402418906 0.0037769662332322045 0 0.00082496843056361062 0.0028519705090567708 0 0.00044101113145189982 0.0029531028474740679 0 0.00051528335450566599 0.0033776924352570885 0 7.0642505883788041e-07 0.0022342757470071393 0 -0.00027898043728406021 0.0049123857700489352 0 -1.7660075660552694e-06 0.0022342526170216065 0 6.1256731243301275e-07 0.0041284381746666196 0 0.00082496843056361062 0.0028519705090567708 0 0.00044101113145189982 0.0029531028474740679 0 3.0019102586463926e-06 0.0022284161437731344 0 0.00028515880845525504 0.005771308276592879 0 -0.00027898043728406021 0.0049123857700489352 0 6.1256731243301275e-07 0.0041284381746666196 0 -0.00062284760506197139 0.0026434376184267206 0 -0.00035798728377466196 0.0030213115738688028 0 -0.00057929237556457978 0.0036278058379284016 0 -8.0045029544297086e-05 0.0025801160655855777 0 -0.00050917410711021863 0.0026357088475571647 0 -0.00035798728377466196 0.0030213115738688028 0 -0.00050917410711021863 0.0026357088475571647 0 -0.00088997992802215212 0.0025678510364378058 0 6.2701467010345863e-05 0.001882783271689307 0 -8.0045029544297086e-05 0.0025801160655855777 0 -0.00050917410711021863 0.0026357088475571647 0 6.2701467010345863e-05 0.001882783271689307 0 -0.00050917410711021863 0.0026357088475571647 0 -0.00062284760506197139 0.0026434376184267206 0 -0.00035798728377466196 0.0030213115738688028 0 0.00035658632812418455 -0.00065004686691807817 0 0.00036261155714414857 -0.0006618387515734687 0 -8.0045029544297086e-05 0.0025801160655855777 0 -0.00035798728377466196 0.0030213115738688028 0 -1.9212839709257892e-05 0.0030748187009720326 0 0.00028507271889773809 0.0033796889424591962 0 -1.9212839709257892e-05 0.0030748187009720326 0 0.00018965311709843806 0.0025899263982354236 0 0.00028507271889773809 0.0033796889424591962 0 0.00044101113145189982 0.0029531028474740679 0 0.00018965311709843806 0.0025899263982354236 0 -8.0045029544297086e-05 0.0025801160655855777 0 -1.9212839709257892e-05 0.0030748187009720326 0 0.00018965311709843806 0.0025899263982354236 0 -8.0045029544297086e-05 0.0025801160655855777 0 0.00018965311709843806 0.0025899263982354236 0 6.2701467010345863e-05 0.001882783271689307 0 3.0019102586463926e-06 0.0022284161437731344 0 -2.6796880045077904e-06 0.00067611941947090092 0 6.2701467010345863e-05 0.001882783271689307 0 0.00044101113145189982 0.0029531028474740679 0 3.0019102586463926e-06 0.0022284161437731344 0 0.00018965311709843806 0.0025899263982354236 0 3.0019102586463926e-06 0.0022284161437731344 0 0.00018965311709843806 0.0025899263982354236 0 6.2701467010345863e-05 0.001882783271689307 0 -0.00088997992802215212 0.0025678510364378058 0 -2.6796880045077904e-06 0.00067611941947090092 0 6.2701467010345863e-05 0.001882783271689307 0 0.00036261155714414857 -0.0006618387515734687 0 2.8907850543416063e-07 0.0006695047598442779 0 -2.9596428588452623e-05 -0.00052520572783226933 0 -8.7041604585682384e-07 0.00066897062588493217 0 6.1891988885692974e-07 -0.0010870201430898453 0 -2.9596428588452623e-05 -0.00052520572783226933 0 6.1891988885692974e-07 -0.0010870201430898453 0 4.4988480501900438e-05 -0.0015458583060863761 0 0.00036261155714414857 -0.0006618387515734687 0 0.00082016460097352579 -0.0019169385044374393 0 0.0028396962563259397 -0.004932684855728192 0 0.0019655121558311895 -0.0044968243847390583 0 0.0024735186662013151 -0.0039813976127724676 0 0.0028396962563259397 -0.004932684855728192 0 0.0019655121558311895 -0.0044968243847390583 0 0.0018604232520177868 -0.0051393407667398062 0 0.0019655121558311895 -0.0044968243847390583 0 0.0018604232520177868 -0.0051393407667398062 0 0.0013145385686670211 -0.0046410032499024359 0 6.1891988885692974e-07 -0.0010870201430898453 0 4.4988480501900438e-05 -0.0015458583060863761 0 -8.769768698144815e-08 -0.0028468085437973996 0 0.0018604232520177868 -0.0051393407667398062 0 0.00089616387101553623 -0.0053457791509934271 0 0.00095747729818342476 -0.0049090346226187478 0 0.00082016460097352579 -0.0019169385044374393 0 0.00076666693078154716 -0.002771922629757193 0 4.4988480501900438e-05 -0.0015458583060863761 0 -8.769768698144815e-08 -0.0028468085437973996 0 -2.4639940681108321e-05 -0.0034069238618373485 0 -8.769768698144815e-08 -0.0028468085437973996 0 -2.4639940681108321e-05 -0.0034069238618373485 0 -5.1913025706634829e-08 -0.0046067267349807518 0 0.00089616387101553623 -0.0053457791509934271 0 0.00054534295742605552 -0.0050489765477206936 0 0.00095747729818342476 -0.0049090346226187478 0 0.00095747729818342476 -0.0049090346226187478 0 0.00060001065493081997 -0.004566408539994694 0 0.0013145385686670211 -0.0046410032499024359 0 0.0001505195315470406 -0.0043371302289233393 0 0.00041831509373979549 -0.0043856747711586213 0 0.00054534295742605552 -0.0050489765477206936 0 0.00095747729818342476 -0.0049090346226187478 0 0.00060001065493081997 -0.004566408539994694 0 0.0018604232520177868 -0.0051393407667398062 0 0.00095747729818342476 -0.0049090346226187478 0 0.0013145385686670211 -0.0046410032499024359 0 0.0019655121558311895 -0.0044968243847390583 0 0.0013145385686670211 -0.0046410032499024359 0 0.0013331359265968132 -0.0037768180848566594 0 0.000557020866339921 -0.0045392222962522275 0 0.0013145385686670211 -0.0046410032499024359 0 0.0013331359265968132 -0.0037768180848566594 0 0.0001505195315470406 -0.0043371302289233393 0 0.00076548335816101112 -0.0014160009616659883 0 -0.0018187368132973679 0.0026051560047226602 0 -0.0016558435176764279 0.0036017963062386442 0 -0.00115505671186489 0.0032856059731264154 0 -0.0016558435176764279 0.0036017963062386442 0 -0.00115505671186489 0.0032856059731264154 0 -0.0012612824816186944 0.0041023882384014021 0 0.0019655121558311895 -0.0044968243847390583 0 0.0013331359265968132 -0.0037768180848566594 0 0.0024735186662013151 -0.0039813976127724676 0 0.00076548335816101112 -0.0014160009616659883 0 0.0012932576432350433 0.00072531324625567069 0 0.0013331359265968132 -0.0037768180848566594 0 0.0024735186662013151 -0.0039813976127724676 0 0.0021002945604635332 -0.0030165953076389854 0 0.00088977563048987817 -0.00011909272543055308 0 0.0012932576432350433 0.00072531324625567069 0 -0.00024895702785051064 0.0037325947466704738 0 -0.00030829560476304052 0.004005755737573633 0 -0.00057929237556457978 0.0036278058379284016 0 -0.00030829560476304052 0.004005755737573633 0 -0.00057929237556457978 0.0036278058379284016 0 -0.00058888404660936851 0.0041768767728264707 0 0.00036261155714414857 -0.0006618387515734687 0 0.00088977563048987817 -0.00011909272543055308 0 0.00031662345766263796 -0.0084787257126788876 0 0.00029898718455075696 -0.0083980469427096579 0 0.00026317004158634409 -0.0084356848219522811 0 0.00029898718455075696 -0.0083980469427096579 0 0.00026317004158634409 -0.0084356848219522811 0 0.00020583811369543774 -0.0081681084099812003 0 0.00026317004158634409 -0.0084356848219522811 0 0.00018241920689210313 -0.0081690453557114011 0 0.00020583811369543774 -0.0081681084099812003 0 9.7258541853553092e-07 -0.0078550078070905895 0 0.00018241920689210313 -0.0081690453557114011 0 5.2836241535395487e-07 -0.0093452419652502484 0 0.00026317004158634409 -0.0084356848219522811 0 0.00018241920689210313 -0.0081690453557114011 0 5.2836241535395487e-07 -0.0093452419652502484 0 9.7258541853553092e-07 -0.0078550078070905895 0 0.00018241920689210313 -0.0081690453557114011 0 0.00010267791377310458 -0.0075487156696894264 0 0.00018241920689210313 -0.0081690453557114011 0 0.00010267791377310458 -0.0075487156696894264 0 0.00020583811369543774 -0.0081681084099812003 0 9.7258541853553092e-07 -0.0078550078070905895 0 0.00010267791377310458 -0.0075487156696894264 0 -1.720554817504313e-06 -0.0063687290137275157 0 -0.00026044600552942415 -0.008175740050110061 0 -0.00040750743668679809 -0.0084584092245832063 0 0.00010026674914144104 -0.0085252261930808901 0 0.00010267791377310458 -0.0075487156696894264 0 0.00020583811369543774 -0.0081681084099812003 0 -0.00026044600552942415 -0.008175740050110061 0 0.00029898718455075696 -0.0083980469427096579 0 0.00020583811369543774 -0.0081681084099812003 0 0.00010026674914144104 -0.0085252261930808901 0 0.00020583811369543774 -0.0081681084099812003 0 -0.00026044600552942415 -0.008175740050110061 0 0.00010026674914144104 -0.0085252261930808901 0 0.00010267791377310458 -0.0075487156696894264 0 -0.00026044600552942415 -0.008175740050110061 0 -0.001239799322030025 -0.007640729249851418 0 -0.00026044600552942415 -0.008175740050110061 0 -0.001239799322030025 -0.007640729249851418 0 -0.00057020758204864852 -0.0087634703065669842 0 -0.0010322448392776958 -0.0044010134177781563 0 -0.00093902438846610434 -0.0040920690813269957 0 -8.9406938030751651e-08 -0.0063647833337508548 0 6.4610191428347279e-06 -0.0055830022197581215 0 -5.1913025706634829e-08 -0.0046067267349807518 0 0.00010267791377310458 -0.0075487156696894264 0 -1.720554817504313e-06 -0.0063687290137275157 0 -0.001239799322030025 -0.007640729249851418 0 -8.7285847206376089e-07 -0.0063638976267378581 0 -0.00011064698017323583 -0.0055720936895959751 0 -8.9406938030751651e-08 -0.0063647833337508548 0 6.4610191428347279e-06 -0.0055830022197581215 0 6.6529353689824037e-05 -0.0051053527226717207 0 0.00076666693078154716 -0.002771922629757193 0 0.00064532712796313749 -0.0031209367445079049 0 0.00054534295742605552 -0.0050489765477206936 0 6.4610191428347279e-06 -0.0055830022197581215 0 6.6529353689824037e-05 -0.0051053527226717207 0 0.00089616387101553623 -0.0053457791509934271 0 0.00054534295742605552 -0.0050489765477206936 0 6.4610191428347279e-06 -0.0055830022197581215 0 -2.4639940681108321e-05 -0.0034069238618373485 0 6.4610191428347279e-06 -0.0055830022197581215 0 -5.1913025706634829e-08 -0.0046067267349807518 0 0.0001505195315470406 -0.0043371302289233393 0 -0.00011064698017323583 -0.0055720936895959751 0 -0.0021626971225195248 -0.0085397198360058716 0 -0.001239799322030025 -0.007640729249851418 0 -0.00057020758204864852 -0.0087634703065669842 0 0.00054534295742605552 -0.0050489765477206936 0 0.00060001065493081997 -0.004566408539994694 0 6.6529353689824037e-05 -0.0051053527226717207 0 0.0001505195315470406 -0.0043371302289233393 0 -0.00093902438846610434 -0.0040920690813269957 0 -0.0018187368132973679 0.0026051560047226602 0 -0.0022503481389770322 0.003501022612341251 0 -0.0026547184352058756 0.002707891572709576 0 -0.0018187368132973679 0.0026051560047226602 0 -0.0016558435176764279 0.0036017963062386442 0 -0.0022503481389770322 0.003501022612341251 0 0.00095773662890636594 -0.0085289652486489568 0 0.00082155325047451031 -0.0086976165273158264 0 0.00077821115440888163 -0.0085846596285587082 0 0.00095773662890636594 -0.0085289652486489568 0 0.00077821115440888163 -0.0085846596285587082 0 0.00076452804531149717 -0.0084283032766022479 0 -9.3487048934905235e-05 -0.0031497268095727528 0 -0.00093902438846610434 -0.0040920690813269957 0 0.00082155325047451031 -0.0086976165273158264 0 0.00067412228362827764 -0.0086510422568446144 0 0.00077821115440888163 -0.0085846596285587082 0 -0.00093902438846610434 -0.0040920690813269957 0 -0.00022960770561152337 -0.0048363410485365351 0 0.00067412228362827764 -0.0086510422568446144 0 0.00077821115440888163 -0.0085846596285587082 0 0.00068277907375227827 -0.0085914112023446395 0 0.00077821115440888163 -0.0085846596285587082 0 0.00068277907375227827 -0.0085914112023446395 0 0.00076452804531149717 -0.0084283032766022479 0 0.00068277907375227827 -0.0085914112023446395 0 0.00065820429299014106 -0.0092874072990898164 0 0.00056639419527077298 -0.0089645142218858654 0 0.00068277907375227827 -0.0085914112023446395 0 0.00057366134951037479 -0.0084679917730141226 0 0.00052933128496386605 -0.0087314632986958459 0 0.00068277907375227827 -0.0085914112023446395 0 0.00056639419527077298 -0.0089645142218858654 0 0.00052933128496386605 -0.0087314632986958459 0 0.00068277907375227827 -0.0085914112023446395 0 0.00041114801981214982 -0.0085183808197234669 0 0.00034042271519989735 -0.0084644954153823681 0 -0.00022960770561152337 -0.0048363410485365351 0 -2.4386060330824748e-05 -0.0050703421675047482 0 0.00067412228362827764 -0.0086510422568446144 0 0.00068277907375227827 -0.0085914112023446395 0 0.00041114801981214982 -0.0085183808197234669 0 0.0005775823607575498 -0.0093894321742477704 0 0.00051347299541272724 -0.0095487849606005707 0 0.00029898718455075696 -0.0083980469427096579 0 0.00010026674914144104 -0.0085252261930808901 0 0.00041114801981214982 -0.0085183808197234669 0 0.00031662345766263796 -0.0084787257126788876 0 0.00041114801981214982 -0.0085183808197234669 0 0.00034042271519989735 -0.0084644954153823681 0 0.00031662345766263796 -0.0084787257126788876 0 0.00029898718455075696 -0.0083980469427096579 0 0.00041114801981214982 -0.0085183808197234669 0 0.00068277907375227827 -0.0085914112023446395 0 0.00057366134951037479 -0.0084679917730141226 0 0.00076452804531149717 -0.0084283032766022479 0 0.00057501303685184024 -0.0082280686475490975 0 0.00057366134951037479 -0.0084679917730141226 0 0.00076452804531149717 -0.0084283032766022479 0 0.0004827131327614273 -0.0062849074864114521 0 0.00066708180593032208 -0.0054584983531663581 0 0.00057501303685184024 -0.0082280686475490975 0 0.00076452804531149717 -0.0084283032766022479 0 0.00079011124717017292 -0.0081931624423948555 0 0.00076452804531149717 -0.0084283032766022479 0 0.00092416264510292894 -0.0083222090894973979 0 0.00079011124717017292 -0.0081931624423948555 0 0.00092416264510292894 -0.0083222090894973979 0 0.0010029168359069523 -0.0081270047459448963 0 0.00079011124717017292 -0.0081931624423948555 0 0.00095773662890636594 -0.0085289652486489568 0 0.00076452804531149717 -0.0084283032766022479 0 0.00092416264510292894 -0.0083222090894973979 0 -9.3487048934905235e-05 -0.0031497268095727528 0 0.00074663660068253026 -0.0027682534077831198 0 -0.0016558435176764279 0.0036017963062386442 0 -0.0022503481389770322 0.003501022612341251 0 -0.001832166759220702 0.0042775523434359607 0 0.00095773662890636594 -0.0085289652486489568 0 0.00092416264510292894 -0.0083222090894973979 0 0.0011063662841639917 -0.0083079341817681156 0 0.00092416264510292894 -0.0083222090894973979 0 0.0010029168359069523 -0.0081270047459448963 0 0.0011063662841639917 -0.0083079341817681156 0 0.0014811323773039698 -0.0038099357748440305 0 0.0021458344441023574 -0.0028785614106366843 0 0.0017103841329001608 -0.0023160557905715748 0 0.0014811323773039698 -0.0038099357748440305 0 0.00077909086357878723 -0.0030419887695582134 0 0.0017103841329001608 -0.0023160557905715748 0 0.0014811323773039698 -0.0038099357748440305 0 0.00077909086357878723 -0.0030419887695582134 0 0.00041739775619685238 -0.0044267427858454824 0 0.0011057865779980681 -0.0043690693988376918 0 0.00066708180593032208 -0.0054584983531663581 0 0.00041739775619685238 -0.0044267427858454824 0 4.9994497249056095e-05 -0.0039973610520383333 0 -0.00019383273588995619 -0.0044465292213949669 0 0.00077909086357878723 -0.0030419887695582134 0 0.00041739775619685238 -0.0044267427858454824 0 4.9994497249056095e-05 -0.0039973610520383333 0 0.00077909086357878723 -0.0030419887695582134 0 4.9994497249056095e-05 -0.0039973610520383333 0 0.00010598444955972582 -0.0033447225904496788 0 4.9994497249056095e-05 -0.0039973610520383333 0 0.00010598444955972582 -0.0033447225904496788 0 -0.00037548337277875851 -0.0039780463838099559 0 4.9994497249056095e-05 -0.0039973610520383333 0 -0.00037548337277875851 -0.0039780463838099559 0 -0.00033123981337553207 -0.0046920352258337048 0 4.9994497249056095e-05 -0.0039973610520383333 0 -0.00019383273588995619 -0.0044465292213949669 0 -0.00033123981337553207 -0.0046920352258337048 0 -0.00020682331623066811 -0.0045148399455152734 0 -0.00019383273588995619 -0.0044465292213949669 0 7.804336687382014e-05 -0.0046581144523488733 0 -0.00020682331623066811 -0.0045148399455152734 0 0.00041739775619685238 -0.0044267427858454824 0 -0.00019383273588995619 -0.0044465292213949669 0 -0.00063758630420939291 0.0042780773808306187 0 -0.00083937054683236561 0.0044297164543670112 0 -0.0005762363700127529 0.0044583629004742954 0 -0.00063758630420939291 0.0042780773808306187 0 -0.0005762363700127529 0.0044583629004742954 0 -0.00051695606208465225 0.004331616121867052 0 -0.00063758630420939291 0.0042780773808306187 0 -0.00051695606208465225 0.004331616121867052 0 -0.00050862240915309923 0.0042296998154649048 0 -0.00063758630420939291 0.0042780773808306187 0 -0.00083937054683236561 0.0044297164543670112 0 -0.00088179218586543031 0.004015843754522545 0 -0.00083937054683236561 0.0044297164543670112 0 -0.00062339915812709081 0.0046666045128583907 0 -0.00086590255137636079 0.0047902520322852448 0 -0.00083937054683236561 0.0044297164543670112 0 -0.0005762363700127529 0.0044583629004742954 0 -0.00062339915812709081 0.0046666045128583907 0 -0.0005762363700127529 0.0044583629004742954 0 -0.00044204106265771198 0.0045988589990134362 0 -0.00062339915812709081 0.0046666045128583907 0 -0.00044204106265771198 0.0045988589990134362 0 -0.00028423877323822245 0.0044837681194369403 0 -0.00043545756187394498 0.004437674591928965 0 -0.0005762363700127529 0.0044583629004742954 0 -0.00044204106265771198 0.0045988589990134362 0 -0.00043545756187394498 0.004437674591928965 0 -5.5019428799702989e-05 0.0045523143048761235 0 -0.00028423877323822245 0.0044837681194369403 0 -0.00026002814443907066 0.0046856475215445066 0 -0.00044204106265771198 0.0045988589990134362 0 -0.00028423877323822245 0.0044837681194369403 0 -0.00026002814443907066 0.0046856475215445066 0 -5.5019428799702989e-05 0.0045523143048761235 0 -0.00014606695750230667 0.0043184789452257177 0 -0.00028423877323822245 0.0044837681194369403 0 -0.00014606695750230667 0.0043184789452257177 0 -0.00028423877323822245 0.0044837681194369403 0 -0.00037352025257732951 0.0043203907133126367 0 -0.0005762363700127529 0.0044583629004742954 0 -0.00043545756187394498 0.004437674591928965 0 -0.00051695606208465225 0.004331616121867052 0 -0.00028423877323822245 0.0044837681194369403 0 -0.00043545756187394498 0.004437674591928965 0 -0.00037352025257732951 0.0043203907133126367 0 -0.00043545756187394498 0.004437674591928965 0 -0.00037352025257732951 0.0043203907133126367 0 -0.00051695606208465225 0.004331616121867052 0 -0.00050862240915309923 0.0042296998154649048 0 -0.00038757108631398614 0.0041904999596761314 0 -0.00058888404660936851 0.0041768767728264707 0 -0.00030829560476304052 0.004005755737573633 0 -0.00038757108631398614 0.0041904999596761314 0 -0.00058888404660936851 0.0041768767728264707 0 -0.00037352025257732951 0.0043203907133126367 0 -0.00051695606208465225 0.004331616121867052 0 -0.00050862240915309923 0.0042296998154649048 0 -0.00014606695750230667 0.0043184789452257177 0 -0.00030829560476304052 0.004005755737573633 0 -0.00038757108631398614 0.0041904999596761314 0 -0.00037352025257732951 0.0043203907133126367 0 -0.00050862240915309923 0.0042296998154649048 0 -0.00038757108631398614 0.0041904999596761314 0 -0.00014606695750230667 0.0043184789452257177 0 -0.00037352025257732951 0.0043203907133126367 0 -0.00038757108631398614 0.0041904999596761314 0 -0.00115505671186489 0.0032856059731264154 0 -0.00050749107287176385 0.0039676924842426886 0 -0.00088179218586543031 0.004015843754522545 0 -0.00063758630420939291 0.0042780773808306187 0 -0.00050749107287176385 0.0039676924842426886 0 -0.00088179218586543031 0.004015843754522545 0 -0.00063758630420939291 0.0042780773808306187 0 -0.00050862240915309923 0.0042296998154649048 0 -0.00056564666633673313 0.0041710084370282906 0 0.0011807905818841478 0.00098700708935766279 0 0.0012932576432350433 0.00072531324625567069 0 0.0012958346207760003 0.00075712330914726547 0 0.0012932576432350433 0.00072531324625567069 0 -0.00115505671186489 0.0032856059731264154 0 -0.00088179218586543031 0.004015843754522545 0 -0.0012612824816186944 0.0041023882384014021 0 -0.00083937054683236561 0.0044297164543670112 0 -0.00088179218586543031 0.004015843754522545 0 -0.0012612824816186944 0.0041023882384014021 0 -0.0016558435176764279 0.0036017963062386442 0 -0.0012612824816186944 0.0041023882384014021 0 -0.001832166759220702 0.0042775523434359607 0 -0.001832166759220702 0.0042775523434359607 0 -0.0014059664788887436 0.0044884920194578244 0 -0.0014230165500919651 0.0049817612012329577 0 -0.0012612824816186944 0.0041023882384014021 0 -0.001832166759220702 0.0042775523434359607 0 -0.0014059664788887436 0.0044884920194578244 0 -0.00083937054683236561 0.0044297164543670112 0 -0.0012612824816186944 0.0041023882384014021 0 -0.001105029645441158 0.0045808315938802762 0 -0.0012612824816186944 0.0041023882384014021 0 -0.0014059664788887436 0.0044884920194578244 0 -0.001105029645441158 0.0045808315938802762 0 -0.00083937054683236561 0.0044297164543670112 0 -0.001105029645441158 0.0045808315938802762 0 -0.00086590255137636079 0.0047902520322852448 0 -0.0014059664788887436 0.0044884920194578244 0 -0.001105029645441158 0.0045808315938802762 0 -0.0014230165500919651 0.0049817612012329577 0 -0.001105029645441158 0.0045808315938802762 0 -0.0014230165500919651 0.0049817612012329577 0 -0.00086590255137636079 0.0047902520322852448 0 0.0018617052434752714 -0.0027923844057562179 0 0.0021213214820856971 -0.0011677844675743998 0 -0.0014230165500919651 0.0049817612012329577 0 -0.00084416801631743662 0.0050987807749716509 0 -0.00086590255137636079 0.0047902520322852448 0 0.0014811323773039698 -0.0038099357748440305 0 0.0025555251972354119 -0.0031786249469993814 0 0.0021458344441023574 -0.0028785614106366843 0 0.00074663660068253026 -0.0027682534077831198 0 0.0018617052434752714 -0.0027923844057562179 0 0.0011057865779980681 -0.0043690693988376918 0 0.0018617052434752714 -0.0027923844057562179 0 0.0010029168359069523 -0.0081270047459448963 0 0.0011063662841639917 -0.0083079341817681156 0 0.0012415464207978541 -0.0080547734951069497 0 0.0018617052434752714 -0.0027923844057562179 0 0.0018669827339859682 -0.0027921196570087855 0 0.0021458344441023574 -0.0028785614106366843 0 0.0024249195947826426 -0.0022571106100067123 0 0.0017103841329001608 -0.0023160557905715748 0 0.0021458344441023574 -0.0028785614106366843 0 0.0024249195947826426 -0.0022571106100067123 0 0.0026591857246801472 -0.0028813175902151046 0 0.0025555251972354119 -0.0031786249469993814 0 0.0021458344441023574 -0.0028785614106366843 0 0.0026591857246801472 -0.0028813175902151046 0 0.0025011577655814458 -0.0031948204252875323 0 0.0026591857246801472 -0.0028813175902151046 0 0.0037899622322789934 -0.002798623850798744 0 0.003170760873000166 -0.0024525146346652785 0 0.0026591857246801472 -0.0028813175902151046 0 0.0037899622322789934 -0.002798623850798744 0 0.0024249195947826426 -0.0022571106100067123 0 0.003170760873000166 -0.0024525146346652785 0 0.0026591857246801472 -0.0028813175902151046 0 0.0024249195947826426 -0.0022571106100067123 0 0.003170760873000166 -0.0024525146346652785 0 0.0028819443154358268 -0.0016667992036750925 0 0.0021213214820856971 -0.0011677844675743998 0 0.002561989018262757 3.8235112781318704e-05 0 0.003170760873000166 -0.0024525146346652785 0 0.004804885923841081 -0.0019011198473103254 0 0.0028819443154358268 -0.0016667992036750925 0 0.003170760873000166 -0.0024525146346652785 0 0.0037899622322789934 -0.002798623850798744 0 0.004804885923841081 -0.0019011198473103254 0 0.0037899622322789934 -0.002798623850798744 0 0.004804885923841081 -0.0019011198473103254 0 0.0052258872833742262 -0.0024156820674607099 0 -0.00084416801631743662 0.0050987807749716509 0 -0.00048744971606842817 0.0048851776520169666 0 -0.00032236587073717948 0.0052072066988587198 0 -0.00084416801631743662 0.0050987807749716509 0 -0.00086590255137636079 0.0047902520322852448 0 -0.00048744971606842817 0.0048851776520169666 0 -0.00062339915812709081 0.0046666045128583907 0 -0.00086590255137636079 0.0047902520322852448 0 -0.00048744971606842817 0.0048851776520169666 0 -0.00044204106265771198 0.0045988589990134362 0 -0.00062339915812709081 0.0046666045128583907 0 -0.00048744971606842817 0.0048851776520169666 0 -2.2415719021472592e-05 0.0047796068652825457 0 -0.00026002814443907066 0.0046856475215445066 0 -0.00023435884609740974 0.0049129150021457371 0 -0.00044204106265771198 0.0045988589990134362 0 -0.00026002814443907066 0.0046856475215445066 0 -0.00048744971606842817 0.0048851776520169666 0 -0.00026002814443907066 0.0046856475215445066 0 -0.00048744971606842817 0.0048851776520169666 0 -0.00023435884609740974 0.0049129150021457371 0 -0.00048744971606842817 0.0048851776520169666 0 -0.00023435884609740974 0.0049129150021457371 0 -0.00032236587073717948 0.0052072066988587198 0 -3.24790623609496e-05 0.0050342211878539314 0 -0.00023435884609740974 0.0049129150021457371 0 -0.00032236587073717948 0.0052072066988587198 0 0.0028987091704756078 0.00095870375908627408 0 0.0032856883883503902 0.00025291313459700228 0 0.0065920871424799471 -0.0020650723345237874 0 0.004804885923841081 -0.0019011198473103254 0 0.0052258872833742262 -0.0024156820674607099 0 0.0030133340148445608 -0.00045296744856722994 0 0.0029763418637652117 -0.00013290718553726847 0 0.0029841536360132666 -0.00043381889418780376 0 0.0029388502502218487 0.0002694799052800433 0 0.0030133340148445608 -0.00045296744856722994 0 0.0029763418637652117 -0.00013290718553726847 0 0.0029763418637652117 -0.00013290718553726847 0 0.0029680330938839324 -0.00016168585622720075 0 0.0029841536360132666 -0.00043381889418780376 0 0.0032856883883503902 0.00025291313459700228 0 0.003130418083318199 3.1683491811759085e-05 0 0.0030133340148445608 -0.00045296744856722994 0 0.0029644928157498596 -0.00085117406595634976 0 0.0029841536360132666 -0.00043381889418780376 0 0.0030133340148445608 -0.00045296744856722994 0 0.0029644928157498596 -0.00085117406595634976 0 0.0028819443154358268 -0.0016667992036750925 0 0.0028841582083139832 -0.00055653684944789261 0 0.0029841536360132666 -0.00043381889418780376 0 0.0029250787538669118 -0.00028060296804602856 0 0.0029644928157498596 -0.00085117406595634976 0 0.0028841582083139832 -0.00055653684944789261 0 0.0029841536360132666 -0.00043381889418780376 0 0.0029644928157498596 -0.00085117406595634976 0 0.0028841582083139832 -0.00055653684944789261 0 0.0027722532527230848 -0.0010874011592192268 0 0.0029242343059291205 -3.1319440600479715e-05 0 0.0029680330938839324 -0.00016168585622720075 0 0.0029250787538669118 -0.00028060296804602856 0 0.0029680330938839324 -0.00016168585622720075 0 0.0029841536360132666 -0.00043381889418780376 0 0.0029250787538669118 -0.00028060296804602856 0 0.0029242343059291205 -3.1319440600479715e-05 0 0.0029250787538669118 -0.00028060296804602856 0 0.0028094518791642498 -0.00026360057623134656 0 0.0029242343059291205 -3.1319440600479715e-05 0 0.0028496732236626514 -0.00019197826867502419 0 0.0028094518791642498 -0.00026360057623134656 0 0.0028841582083139832 -0.00055653684944789261 0 0.0029250787538669118 -0.00028060296804602856 0 0.0028094518791642498 -0.00026360057623134656 0 0.0028841582083139832 -0.00055653684944789261 0 0.0028094518791642498 -0.00026360057623134656 0 0.0026007253529492097 -0.00048829231661778004 0 0.0014103289385439986 -0.0022675270891017781 0 -0.00029705179418514549 -0.0037327867400038586 0 0.00010621203262068005 -0.0021685532599883639 0 0.0015144114664585654 -0.0015166747511876852 0 0.0009562875348447361 -0.0019612507111828022 0 0.0026300004238630349 -0.00023152916832604715 0 0.0026007253529492097 -0.00048829231661778004 0 0.0020548378592914925 -0.00035617189489818351 0 0.0028094518791642498 -0.00026360057623134656 0 0.0026300004238630349 -0.00023152916832604715 0 0.0026007253529492097 -0.00048829231661778004 0 0.0026007253529492097 -0.00048829231661778004 0 0.0020937733144731755 -0.0008400096350833601 0 0.0025042340439067529 -0.00094063174926262475 0 0.0026007253529492097 -0.00048829231661778004 0 0.0020937733144731755 -0.0008400096350833601 0 0.0020548378592914925 -0.00035617189489818351 0 0.0025042340439067529 -0.00094063174926262475 0 0.0023301387923369619 -0.0016159148656222796 0 0.0018579033340397682 -0.0014618154026501584 0 0.0020937733144731755 -0.0008400096350833601 0 0.0025042340439067529 -0.00094063174926262475 0 0.0018579033340397682 -0.0014618154026501584 0 0.0025042340439067529 -0.00094063174926262475 0 0.0027722532527230848 -0.0010874011592192268 0 0.0023301387923369619 -0.0016159148656222796 0 0.0028841582083139832 -0.00055653684944789261 0 0.0026007253529492097 -0.00048829231661778004 0 0.0025042340439067529 -0.00094063174926262475 0 0.0028841582083139832 -0.00055653684944789261 0 0.0025042340439067529 -0.00094063174926262475 0 0.0027722532527230848 -0.0010874011592192268 0 0.0029644928157498596 -0.00085117406595634976 0 0.0027722532527230848 -0.0010874011592192268 0 0.0028819443154358268 -0.0016667992036750925 0 0.0027722532527230848 -0.0010874011592192268 0 0.0028819443154358268 -0.0016667992036750925 0 0.0023301387923369619 -0.0016159148656222796 0 0.0024249195947826426 -0.0022571106100067123 0 0.0023301387923369619 -0.0016159148656222796 0 0.0017103841329001608 -0.0023160557905715748 0 0.0024249195947826426 -0.0022571106100067123 0 0.0028819443154358268 -0.0016667992036750925 0 0.0023301387923369619 -0.0016159148656222796 0 0.0023301387923369619 -0.0016159148656222796 0 0.0017103841329001608 -0.0023160557905715748 0 0.0018579033340397682 -0.0014618154026501584 0 0.0017103841329001608 -0.0023160557905715748 0 0.0011268867567448115 -0.0020444542208468961 0 0.0018579033340397682 -0.0014618154026501584 0 0.00077909086357878723 -0.0030419887695582134 0 0.0017103841329001608 -0.0023160557905715748 0 0.0011268867567448115 -0.0020444542208468961 0 0.00077909086357878723 -0.0030419887695582134 0 0.0011268867567448115 -0.0020444542208468961 0 0.0001177658308623239 -0.0023090221740463099 0 0.00041754200717394364 -0.0023955609424192881 0 4.6314284635960551e-05 -0.0027602387265797681 0 0.0011268867567448115 -0.0020444542208468961 0 0.0010852623021830965 -0.0010539690328224976 0 0.0001177658308623239 -0.0023090221740463099 0 0.0020937733144731755 -0.0008400096350833601 0 0.0010852623021830965 -0.0010539690328224976 0 0.0018579033340397682 -0.0014618154026501584 0 0.0011268867567448115 -0.0020444542208468961 0 0.0010852623021830965 -0.0010539690328224976 0 0.0018579033340397682 -0.0014618154026501584 0 -0.00037548337277875851 -0.0039780463838099559 0 -0.00053997724663701232 -0.003389204464319534 0 -0.00053855475291656396 -0.0033826873064247537 0 0.00010598444955972582 -0.0033447225904496788 0 -0.00037548337277875851 -0.0039780463838099559 0 0.0001177658308623239 -0.0023090221740463099 0 -0.00012469949977755981 -0.0029643757947428076 0 4.6314284635960551e-05 -0.0027602387265797681 0 0.00077909086357878723 -0.0030419887695582134 0 0.00010598444955972582 -0.0033447225904496788 0 0.0001177658308623239 -0.0023090221740463099 0 -0.0011211918049616406 -0.0037489279326909431 0 -0.00053855475291656396 -0.0033826873064247537 0 -0.00077829568493564978 -0.0037106832764191868 0 -0.00053855475291656396 -0.0033826873064247537 0 -0.00050273041578021837 -0.0035161869385277001 0 -0.00077829568493564978 -0.0037106832764191868 0 -0.00021835240652170532 -0.0050709870047881168 0 -0.00018588893987214137 -0.005364730664684526 0 -0.00053997724663701232 -0.003389204464319534 0 -0.00050273041578021837 -0.0035161869385277001 0 -0.0002287542938638328 -0.0037311082358468571 0 -0.00053997724663701232 -0.003389204464319534 0 -0.00053855475291656396 -0.0033826873064247537 0 -0.00050273041578021837 -0.0035161869385277001 0 -0.00050273041578021837 -0.0035161869385277001 0 -0.0002287542938638328 -0.0037311082358468571 0 -0.00077829568493564978 -0.0037106832764191868 0 -0.0002287542938638328 -0.0037311082358468571 0 -0.00077829568493564978 -0.0037106832764191868 0 -0.00074421508972729829 -0.0041696623311530262 0 -0.00077829568493564978 -0.0037106832764191868 0 -0.00074421508972729829 -0.0041696623311530262 0 -0.0012965141934210579 -0.0036618030771294091 0 -0.0002287542938638328 -0.0037311082358468571 0 -0.00074421508972729829 -0.0041696623311530262 0 9.0740711427936722e-06 -0.0046477570417757042 0 -0.00018588893987214137 -0.005364730664684526 0 -0.00016073242038361222 -0.0056786979869829059 0 -0.0011211918049616406 -0.0037489279326909431 0 -0.00029705179418514549 -0.0037327867400038586 0 -0.0012965141934210579 -0.0036618030771294091 0 0.00041754200717394364 -0.0023955609424192881 0 0.0009562875348447361 -0.0019612507111828022 0 0.0020937733144731755 -0.0008400096350833601 0 0.0010852623021830965 -0.0010539690328224976 0 0.0020548378592914925 -0.00035617189489818351 0 -0.0011211918049616406 -0.0037489279326909431 0 -0.00077829568493564978 -0.0037106832764191868 0 -0.0012965141934210579 -0.0036618030771294091 0 -0.00074421508972729829 -0.0041696623311530262 0 -0.0012965141934210579 -0.0036618030771294091 0 -0.0012356659566212622 -0.0044912022567502041 0 -0.0015023360052625234 -0.0037703047593918072 0 -0.0015297332390715732 -0.0038492738032483761 0 -0.0012965141934210579 -0.0036618030771294091 0 -0.0020217402991537024 -0.0050310531340240832 0 -0.0012356659566212622 -0.0044912022567502041 0 -0.00029705179418514549 -0.0037327867400038586 0 -0.0012965141934210579 -0.0036618030771294091 0 0.00010621203262068005 -0.0021685532599883639 0 -0.0012965141934210579 -0.0036618030771294091 0 -0.00098844191400281447 -0.0015617430325978619 0 0.00010621203262068005 -0.0021685532599883639 0 -0.00098844191400281447 -0.0015617430325978619 0 0.00010621203262068005 -0.0021685532599883639 0 0.00020231506823717497 -0.00078772126612828414 0 -0.0012356659566212622 -0.0044912022567502041 0 -0.0013314529060895234 -0.0054720470752710245 0 -0.0007980822914396261 -0.0049891477123653692 0 -0.0020217402991537024 -0.0050310531340240832 0 -0.0012356659566212622 -0.0044912022567502041 0 -0.0013314529060895234 -0.0054720470752710245 0 -0.0013314529060895234 -0.0054720470752710245 0 -0.0018867113679668964 -0.005855899209657141 0 -0.0013831426998870966 -0.0063569884482283781 0 -0.0020217402991537024 -0.0050310531340240832 0 -0.0013314529060895234 -0.0054720470752710245 0 -0.0018867113679668964 -0.005855899209657141 0 -0.00098844191400281447 -0.0015617430325978619 0 -0.00039625100596487754 7.1083625782628526e-05 0 0.00020231506823717497 -0.00078772126612828414 0 -0.0015297332390715732 -0.0038492738032483761 0 -0.0016470800145283568 -0.0043677832774893918 0 -0.0020217402991537024 -0.0050310531340240832 0 -0.0018867113679668964 -0.005855899209657141 0 -0.0023495759237775484 -0.0062696064034989422 0 -0.0018867113679668964 -0.005855899209657141 0 -0.0023155587240486475 -0.006241694661742854 0 -0.0019016126317743832 -0.0063027578586630903 0 -0.0017301177445222745 -0.0044762920639018853 0 -0.0016470800145283568 -0.0043677832774893918 0 -0.00039625100596487754 7.1083625782628526e-05 0 0.00062614275493637047 5.2178898830341008e-05 0 0.00020231506823717497 -0.00078772126612828414 0 -0.00074421508972729829 -0.0041696623311530262 0 9.0740711427936722e-06 -0.0046477570417757042 0 -0.0007980822914396261 -0.0049891477123653692 0 9.0740711427936722e-06 -0.0046477570417757042 0 -0.0007980822914396261 -0.0049891477123653692 0 -0.00071279617108342642 -0.0058507671617686486 0 -0.00074421508972729829 -0.0041696623311530262 0 -0.0012356659566212622 -0.0044912022567502041 0 -0.0007980822914396261 -0.0049891477123653692 0 -0.00071279617108342642 -0.0058507671617686486 0 -0.00010250315619242128 -0.0063588964269951911 0 -0.00066801310996381037 -0.0066314638095172117 0 -0.0013314529060895234 -0.0054720470752710245 0 -0.00071279617108342642 -0.0058507671617686486 0 -0.0013831426998870966 -0.0063569884482283781 0 -0.0013314529060895234 -0.0054720470752710245 0 -0.0007980822914396261 -0.0049891477123653692 0 -0.00071279617108342642 -0.0058507671617686486 0 -0.00016073242038361222 -0.0056786979869829059 0 -0.00016221850856641578 -0.0058825012206295806 0 9.0740711427936722e-06 -0.0046477570417757042 0 -0.00071279617108342642 -0.0058507671617686486 0 -0.00010250315619242128 -0.0063588964269951911 0 -1.0978854856651125e-05 -0.0066206711852708315 0 -0.00010250315619242128 -0.0063588964269951911 0 -7.2965724892997343e-05 -0.0064977695658462592 0 -0.00010250315619242128 -0.0063588964269951911 0 -5.3970074177399134e-05 -0.0067805290891238303 0 -7.2965724892997343e-05 -0.0064977695658462592 0 -0.00010250315619242128 -0.0063588964269951911 0 -5.3970074177399134e-05 -0.0067805290891238303 0 -0.00066801310996381037 -0.0066314638095172117 0 -5.3970074177399134e-05 -0.0067805290891238303 0 -0.00066801310996381037 -0.0066314638095172117 0 -0.00046307336085157908 -0.0071299584315541722 0 -0.00071279617108342642 -0.0058507671617686486 0 -0.00066801310996381037 -0.0066314638095172117 0 -0.0013831426998870966 -0.0063569884482283781 0 -0.00066801310996381037 -0.0066314638095172117 0 -0.0013831426998870966 -0.0063569884482283781 0 -0.0012701218185934536 -0.0070529358441036782 0 -0.00095479839470434731 -0.0072685532356849139 0 -0.00046307336085157908 -0.0071299584315541722 0 -0.0001603095290124078 -0.007916049869554664 0 -0.00066801310996381037 -0.0066314638095172117 0 -0.00095479839470434731 -0.0072685532356849139 0 -0.0012701218185934536 -0.0070529358441036782 0 -0.00095479839470434731 -0.0072685532356849139 0 -0.0013836973572927183 -0.0074968081613600353 0 -0.0011014832704127565 -0.0079898616848078918 0 -0.00095479839470434731 -0.0072685532356849139 0 -0.0012701218185934536 -0.0070529358441036782 0 -0.0013836973572927183 -0.0074968081613600353 0 -0.00066801310996381037 -0.0066314638095172117 0 -0.00095479839470434731 -0.0072685532356849139 0 -0.00046307336085157908 -0.0071299584315541722 0 -5.3970074177399134e-05 -0.0067805290891238303 0 -8.7067109146675745e-05 -0.0068200334852627272 0 -6.6950082192295939e-05 -0.0067951051951246075 0 -0.00063672351873452382 -0.0080469082383362103 0 -0.00082822151423928101 -0.0086851698386048448 0 -5.3970074177399134e-05 -0.0067805290891238303 0 -0.00046307336085157908 -0.0071299584315541722 0 -0.0001603095290124078 -0.007916049869554664 0 -0.0022935323924491531 -0.005137186070181759 0 -0.0026159896721546856 -0.0065837819764924211 0 -0.0034791118636470558 -0.0062315733512036059 0 -0.0016470800145283568 -0.0043677832774893918 0 -0.0021873685016085254 -0.0062332813238051296 0 -0.0020211042915755967 -0.0067454071892264801 0 -0.0023155587240486475 -0.006241694661742854 0 -0.0025777960116461348 -0.0072484259263067546 0 -0.0020211042915755967 -0.0067454071892264801 0 -0.0023155587240486475 -0.006241694661742854 0 -0.0019016126317743832 -0.0063027578586630903 0 -0.0020211042915755967 -0.0067454071892264801 0 -0.0019016126317743832 -0.0063027578586630903 0 -0.0013831426998870966 -0.0063569884482283781 0 -0.0020211042915755967 -0.0067454071892264801 0 -0.0013831426998870966 -0.0063569884482283781 0 -0.0019804470091597018 -0.0075401409842409881 0 -0.0018867113679668964 -0.005855899209657141 0 -0.0019016126317743832 -0.0063027578586630903 0 -0.0013831426998870966 -0.0063569884482283781 0 -0.0013831426998870966 -0.0063569884482283781 0 -0.0012701218185934536 -0.0070529358441036782 0 -0.0020058809132977116 -0.0075358272142730526 0 -0.0019146800223939111 -0.0073301960392920633 0 -0.0021369306774912636 -0.0078011294345968433 0 -0.0012701218185934536 -0.0070529358441036782 0 -0.0013836973572927183 -0.0074968081613600353 0 -0.0020058809132977116 -0.0075358272142730526 0 -0.0013836973572927183 -0.0074968081613600353 0 -0.0020058809132977116 -0.0075358272142730526 0 -0.0015862219401305516 -0.0078315338724725334 0 -0.0020211042915755967 -0.0067454071892264801 0 -0.0019804470091597018 -0.0075401409842409881 0 -0.0025777960116461348 -0.0072484259263067546 0 -0.0026159896721546856 -0.0065837819764924211 0 -0.0034791118636470558 -0.0062315733512036059 0 -0.0035142377157386679 -0.0072233103100687096 0 -0.0034791118636470558 -0.0062315733512036059 0 -0.0035142377157386679 -0.0072233103100687096 0 -0.0046466265288098276 -0.0073230448411230973 0 -0.00039625100596487754 7.1083625782628526e-05 0 0.00089024347497917706 0.00079444700772413643 0 0.00062614275493637047 5.2178898830341008e-05 0 -0.0016470800145283568 -0.0043677832774893918 0 -0.0013801376282942504 -0.0037824088750936418 0 0.00089024347497917706 0.00079444700772413643 0 0.00062614275493637047 5.2178898830341008e-05 0 0.0013522971491569393 0.00030504017610803426 0 0.00062614275493637047 5.2178898830341008e-05 0 0.0013522971491569393 0.00030504017610803426 0 0.00097142599647473925 -0.00030000599996689119 0 0.00089024347497917706 0.00079444700772413643 0 0.0013522971491569393 0.00030504017610803426 0 0.0016742508005291009 0.00066378647490625915 0 0.0013522971491569393 0.00030504017610803426 0 0.0020834269840682225 0.00029554752778121739 0 0.0019024007309768581 -0.00016883092874061232 0 0.0013522971491569393 0.00030504017610803426 0 0.0016742508005291009 0.00066378647490625915 0 0.0020834269840682225 0.00029554752778121739 0 0.0013522971491569393 0.00030504017610803426 0 0.00097142599647473925 -0.00030000599996689119 0 0.0019024007309768581 -0.00016883092874061232 0 0.0016742508005291009 0.00066378647490625915 0 0.0022191355120819885 0.00069835589005132421 0 0.0017090084328742043 0.0011701053220921347 0 -0.0013801376282942504 -0.0037824088750936418 0 -0.0014934434989727044 -0.0037807760102940235 0 0.00089024347497917706 0.00079444700772413643 0 0.0016742508005291009 0.00066378647490625915 0 0.0017090084328742043 0.0011701053220921347 0 0.0022191355120819885 0.00069835589005132421 0 0.0017090084328742043 0.0011701053220921347 0 0.0022187650221334198 0.00107252060107967 0 0.0022191355120819885 0.00069835589005132421 0 0.0026017421418714371 0.0007654836388417272 0 0.0022187650221334198 0.00107252060107967 0 0.0016742508005291009 0.00066378647490625915 0 0.0022191355120819885 0.00069835589005132421 0 0.0020834269840682225 0.00029554752778121739 0 0.0027618724309863129 0.00075686505299520643 0 0.0026017421418714371 0.0007654836388417272 0 0.0026878601136458486 0.0010763052402678751 0 0.0027618724309863129 0.00075686505299520643 0 0.0026017421418714371 0.0007654836388417272 0 0.002794238538636831 0.00050553458568540553 0 0.0029519765599602694 0.00074642065688434924 0 0.0027618724309863129 0.00075686505299520643 0 0.002794238538636831 0.00050553458568540553 0 0.0022191355120819885 0.00069835589005132421 0 0.0026017421418714371 0.0007654836388417272 0 0.0026069407049885648 0.0004426257372965529 0 0.0022191355120819885 0.00069835589005132421 0 0.0026069407049885648 0.0004426257372965529 0 0.0025253290195233666 0.00026266674572284594 0 0.0026017421418714371 0.0007654836388417272 0 0.0026069407049885648 0.0004426257372965529 0 0.002794238538636831 0.00050553458568540553 0 0.0026069407049885648 0.0004426257372965529 0 0.002794238538636831 0.00050553458568540553 0 0.0027631592237861206 9.2223275989273754e-05 0 0.0026069407049885648 0.0004426257372965529 0 0.0025253290195233666 0.00026266674572284594 0 0.0027631592237861206 9.2223275989273754e-05 0 0.0025253290195233666 0.00026266674572284594 0 0.0027631592237861206 9.2223275989273754e-05 0 0.0026004217724079387 -0.0001053562696272023 0 0.0020834269840682225 0.00029554752778121739 0 0.0026004217724079387 -0.0001053562696272023 0 0.0019024007309768581 -0.00016883092874061232 0 0.0022191355120819885 0.00069835589005132421 0 0.0025253290195233666 0.00026266674572284594 0 0.0020834269840682225 0.00029554752778121739 0 0.0025253290195233666 0.00026266674572284594 0 0.0020834269840682225 0.00029554752778121739 0 0.0026004217724079387 -0.0001053562696272023 0 0.0026004217724079387 -0.0001053562696272023 0 0.0025580104528864214 -0.0004625877063036076 0 0.0019024007309768581 -0.00016883092874061232 0 0.0028496732236626514 -0.00019197826867502419 0 0.0026004217724079387 -0.0001053562696272023 0 0.0025580104528864214 -0.0004625877063036076 0 0.0028496732236626514 -0.00019197826867502419 0 0.0027631592237861206 9.2223275989273754e-05 0 0.0026004217724079387 -0.0001053562696272023 0 0.0028496732236626514 -0.00019197826867502419 0 0.0028094518791642498 -0.00026360057623134656 0 0.0025580104528864214 -0.0004625877063036076 0 0.0028094518791642498 -0.00026360057623134656 0 0.0026300004238630349 -0.00023152916832604715 0 0.0025580104528864214 -0.0004625877063036076 0 0.0014103289385439986 -0.0022675270891017781 0 0.0025580104528864214 -0.0004625877063036076 0 0.0012394716853965885 -0.00096726971672662768 0 0.0015144114664585654 -0.0015166747511876852 0 0.0017795129963394175 -0.0012914293709460729 0 0.0014103289385439986 -0.0022675270891017781 0 0.0012394716853965885 -0.00096726971672662768 0 0.00010621203262068005 -0.0021685532599883639 0 0.0012394716853965885 -0.00096726971672662768 0 0.00010621203262068005 -0.0021685532599883639 0 0.00020231506823717497 -0.00078772126612828414 0 0.0012394716853965885 -0.00096726971672662768 0 0.00020231506823717497 -0.00078772126612828414 0 0.00097142599647473925 -0.00030000599996689119 0 0.00062614275493637047 5.2178898830341008e-05 0 0.00020231506823717497 -0.00078772126612828414 0 0.00097142599647473925 -0.00030000599996689119 0 0.0012394716853965885 -0.00096726971672662768 0 0.00097142599647473925 -0.00030000599996689119 0 0.0019024007309768581 -0.00016883092874061232 0 0.0025580104528864214 -0.0004625877063036076 0 0.0012394716853965885 -0.00096726971672662768 0 0.0019024007309768581 -0.00016883092874061232 0 0.0028037611576489912 -0.0061780682127739149 0 0.0044075391201246223 -0.0056754714837819551 0 0.0041481857933327957 -0.0072430592252555413 0 0.0028037611576489912 -0.0061780682127739149 0 0.0041481857933327957 -0.0072430592252555413 0 0.0029250912341001909 -0.0073210336789461886 0 0.0028037611576489912 -0.0061780682127739149 0 0.0029250912341001909 -0.0073210336789461886 0 0.0019698599259878003 -0.0071465001851606083 0 -0.00014707240351676882 -0.0066334006773893358 0 -0.00017764219972297223 -0.006692168888086234 0 -9.1880726660232347e-05 -0.0066756236919084805 0 0.0018708734490826963 -0.0084482731769183889 0 0.0027119570089903537 -0.0098479698670183059 0 -0.00017764219972297223 -0.006692168888086234 0 -0.00024797314194187895 -0.0066862633774788108 0 -0.00021845181886616963 -0.0067338807969092532 0 -0.00014707240351676882 -0.0066334006773893358 0 -0.00017764219972297223 -0.006692168888086234 0 -0.00024797314194187895 -0.0066862633774788108 0 0.0027812916775520912 -0.010605964633299268 0 0.002918731958684413 -0.010586687518705094 0 0.0029268892131107242 -0.010628946397720513 0 0.0044075391201246223 -0.0056754714837819551 0 0.005030860629793279 -0.0061752368166143722 0 0.0058945223625871115 -0.0051911162430870877 0 0.0027119570089903537 -0.0098479698670183059 0 0.0029042273263353933 -0.013002337238201496 0 0.0037731070547420446 -0.010587847632300076 0 0.0029042273263353933 -0.013002337238201496 0 0.0027812916775520912 -0.010605964633299268 0 0.0029268892131107242 -0.010628946397720513 0 0.0029700174841013707 -0.010700204987525608 0 0.0027812916775520912 -0.010605964633299268 0 0.0027832544797901709 -0.010757909850979413 0 0.0029700174841013707 -0.010700204987525608 0 0.0044075391201246223 -0.0056754714837819551 0 0.005030860629793279 -0.0061752368166143722 0 0.0041481857933327957 -0.0072430592252555413 0 0.0027812916775520912 -0.010605964633299268 0 0.0027832544797901709 -0.010757909850979413 0 0.0025203334294392099 -0.01072259767043281 0 0.0037731070547420446 -0.010587847632300076 0 0.0035132197864883412 -0.010035708153122372 0 0.0027340745412932914 -0.010900693652051771 0 0.0027832544797901709 -0.010757909850979413 0 0.0025203334294392099 -0.01072259767043281 0 0.0027340745412932914 -0.010900693652051771 0 0.0025551144481189129 -0.010986973935967983 0 0.0025203334294392099 -0.01072259767043281 0 0.0027832544797901709 -0.010757909850979413 0 0.0029700174841013707 -0.010700204987525608 0 0.0029705780527428988 -0.010932540448331352 0 0.0027340745412932914 -0.010900693652051771 0 0.0027832544797901709 -0.010757909850979413 0 0.0029705780527428988 -0.010932540448331352 0 0.0027340745412932914 -0.010900693652051771 0 0.002850320940153602 -0.011138309361635471 0 0.0029705780527428988 -0.010932540448331352 0 0.002850320940153602 -0.011138309361635471 0 0.0025551144481189129 -0.010986973935967983 0 0.0026439046310808637 -0.011183228301627574 0 0.0027340745412932914 -0.010900693652051771 0 0.002850320940153602 -0.011138309361635471 0 0.0025551144481189129 -0.010986973935967983 0 0.0025551144481189129 -0.010986973935967983 0 0.0025203334294392099 -0.01072259767043281 0 0.0021715020700657818 -0.010876972373198825 0 0.0025551144481189129 -0.010986973935967983 0 0.0021715020700657818 -0.010876972373198825 0 0.0023884779389746306 -0.011211737850040558 0 0.0035132197864883412 -0.010035708153122372 0 0.0029274174268480628 -0.010205066672004564 0 0.0041481857933327957 -0.0072430592252555413 0 0.0029250912341001909 -0.0073210336789461886 0 0.0032359654144077277 -0.0084070093173102822 0 0.0029250912341001909 -0.0073210336789461886 0 0.0032359654144077277 -0.0084070093173102822 0 0.0020050849445030837 -0.0079615194445038801 0 0.0032359654144077277 -0.0084070093173102822 0 0.0020050849445030837 -0.0079615194445038801 0 0.0022661648668727101 -0.0097128092312516612 0 0.0020050849445030837 -0.0079615194445038801 0 0.00089409946716665592 -0.00866855552513255 0 0.0022661648668727101 -0.0097128092312516612 0 0.0020050849445030837 -0.0079615194445038801 0 0.00089409946716665592 -0.00866855552513255 0 0.00099717637833996895 -0.0075588547690505093 0 0.00089409946716665592 -0.00866855552513255 0 0.00099717637833996895 -0.0075588547690505093 0 0.00019980108658131305 -0.0080329706575077344 0 0.00099717637833996895 -0.0075588547690505093 0 0.0019698599259878003 -0.0071465001851606083 0 0.00098299283858984407 -0.0067686710575261284 0 0.00099717637833996895 -0.0075588547690505093 0 0.00043337471083676802 -0.0067962994247550666 0 0.00098299283858984407 -0.0067686710575261284 0 0.0020050849445030837 -0.0079615194445038801 0 0.00099717637833996895 -0.0075588547690505093 0 0.0019698599259878003 -0.0071465001851606083 0 0.0029250912341001909 -0.0073210336789461886 0 0.0020050849445030837 -0.0079615194445038801 0 0.0019698599259878003 -0.0071465001851606083 0 -0.0011106243471829969 -0.0081952325147638481 0 -0.0022804681236421238 -0.0094653920499719758 0 -0.00042698181890017136 -0.0090551187774380419 0 -0.00037827231205113816 -0.0079990192060355389 0 -0.00082822151423928101 -0.0086851698386048448 0 0.00089409946716665592 -0.00866855552513255 0 0.00019980108658131305 -0.0080329706575077344 0 -0.00042698181890017136 -0.0090551187774380419 0 -0.0011106243471829969 -0.0081952325147638481 0 0.00019980108658131305 -0.0080329706575077344 0 -0.00042698181890017136 -0.0090551187774380419 0 0.00099717637833996895 -0.0075588547690505093 0 0.00019980108658131305 -0.0080329706575077344 0 0.00043337471083676802 -0.0067962994247550666 0 0.00068580526677733389 -0.0077913698180203756 0 0.0010496704668981499 -0.0079151889658260356 0 -8.7067109146675745e-05 -0.0068200334852627272 0 0.00043337471083676802 -0.0067962994247550666 0 -4.4716192982359771e-05 -0.006699394008404554 0 0.00043337471083676802 -0.0067962994247550666 0 -4.4716192982359771e-05 -0.006699394008404554 0 0.00098299283858984407 -0.0067686710575261284 0 -0.0011106243471829969 -0.0081952325147638481 0 0.00019980108658131305 -0.0080329706575077344 0 0.00043337471083676802 -0.0067962994247550666 0 -0.00037827231205113816 -0.0079990192060355389 0 -0.00011204574246519047 -0.0076723135887826008 0 -5.3970074177399134e-05 -0.0067805290891238303 0 -4.4716192982359771e-05 -0.006699394008404554 0 -7.2965724892997343e-05 -0.0064977695658462592 0 -5.3970074177399134e-05 -0.0067805290891238303 0 -8.7067109146675745e-05 -0.0068200334852627272 0 -4.4716192982359771e-05 -0.006699394008404554 0 -4.4716192982359771e-05 -0.006699394008404554 0 -7.2965724892997343e-05 -0.0064977695658462592 0 -5.7482397761870461e-05 -0.0065977677133771196 0 -7.2965724892997343e-05 -0.0064977695658462592 0 -5.7482397761870461e-05 -0.0065977677133771196 0 -7.321210179599003e-05 -0.0065865133456356299 0 -5.7482397761870461e-05 -0.0065977677133771196 0 -7.321210179599003e-05 -0.0065865133456356299 0 -7.1627812653731089e-05 -0.0066155584172353475 0 -4.4716192982359771e-05 -0.006699394008404554 0 -5.7482397761870461e-05 -0.0065977677133771196 0 -6.1156318466725208e-05 -0.0065969688881314294 0 -8.0549945688014569e-05 -0.006637457079820306 0 -7.321210179599003e-05 -0.0065865133456356299 0 -7.1627812653731089e-05 -0.0066155584172353475 0 -8.0549945688014569e-05 -0.006637457079820306 0 -7.1627812653731089e-05 -0.0066155584172353475 0 -9.5498781864297819e-05 -0.0066591076746958652 0 -8.0549945688014569e-05 -0.006637457079820306 0 -7.321210179599003e-05 -0.0065865133456356299 0 -6.1454821858261674e-05 -0.0066751241037625282 0 -1.0978854856651125e-05 -0.0066206711852708315 0 -7.2965724892997343e-05 -0.0064977695658462592 0 -7.321210179599003e-05 -0.0065865133456356299 0 -1.0978854856651125e-05 -0.0066206711852708315 0 -7.321210179599003e-05 -0.0065865133456356299 0 -6.1454821858261674e-05 -0.0066751241037625282 0 0.0028037611576489912 -0.0061780682127739149 0 0.0019698599259878003 -0.0071465001851606083 0 0.00098299283858984407 -0.0067686710575261284 0 0.0018708734490826963 -0.0084482731769183889 0 0.0010496704668981499 -0.0079151889658260356 0 -0.00014707240351676882 -0.0066334006773893358 0 -6.1156318466725208e-05 -0.0065969688881314294 0 -8.3349344839944554e-05 -0.0066319629531928536 0 -5.7482397761870461e-05 -0.0065977677133771196 0 -6.1156318466725208e-05 -0.0065969688881314294 0 -7.1627812653731089e-05 -0.0066155584172353475 0 -6.1156318466725208e-05 -0.0065969688881314294 0 -7.1627812653731089e-05 -0.0066155584172353475 0 -8.3349344839944554e-05 -0.0066319629531928536 0 -7.1627812653731089e-05 -0.0066155584172353475 0 -0.00013723753515417495 -0.006657187164424482 0 -9.5498781864297819e-05 -0.0066591076746958652 0 -7.1627812653731089e-05 -0.0066155584172353475 0 -9.1880726660232347e-05 -0.0066756236919084805 0 -8.3349344839944554e-05 -0.0066319629531928536 0 -0.00012313422156389668 -0.0066790925887410457 0 -0.00013878906118716767 -0.006691975650253648 0 -0.00014707240351676882 -0.0066334006773893358 0 -9.1880726660232347e-05 -0.0066756236919084805 0 -8.3349344839944554e-05 -0.0066319629531928536 0 -0.00013723753515417495 -0.006657187164424482 0 -0.00010979786592125783 -0.0067152072685597317 0 -0.00015778025426684331 -0.0067466300974296433 0 -0.00013878906118716767 -0.006691975650253648 0 -0.00017264078009261106 -0.0067193023288650454 0 -9.5498781864297819e-05 -0.0066591076746958652 0 -0.00010979786592125783 -0.0067152072685597317 0 -8.5832201568748876e-05 -0.0066854604799500856 0 -0.00013723753515417495 -0.006657187164424482 0 -9.5498781864297819e-05 -0.0066591076746958652 0 -0.00010979786592125783 -0.0067152072685597317 0 -0.00010979786592125783 -0.0067152072685597317 0 -8.2806730055443419e-05 -0.0067450938913311484 0 -0.00011450086577747318 -0.0067668746759777564 0 -0.00010979786592125783 -0.0067152072685597317 0 -0.00011450086577747318 -0.0067668746759777564 0 -0.00015778025426684331 -0.0067466300974296433 0 -5.2621497029131079e-05 -0.0067415414820871291 0 -1.0978854856651125e-05 -0.0066206711852708315 0 -6.1454821858261674e-05 -0.0066751241037625282 0 -8.0549945688014569e-05 -0.006637457079820306 0 -6.1454821858261674e-05 -0.0066751241037625282 0 -8.5832201568748876e-05 -0.0066854604799500856 0 -8.0549945688014569e-05 -0.006637457079820306 0 -9.5498781864297819e-05 -0.0066591076746958652 0 -8.5832201568748876e-05 -0.0066854604799500856 0 -0.00010979786592125783 -0.0067152072685597317 0 -8.5832201568748876e-05 -0.0066854604799500856 0 -8.2806730055443419e-05 -0.0067450938913311484 0 -6.1454821858261674e-05 -0.0066751241037625282 0 -8.5832201568748876e-05 -0.0066854604799500856 0 -8.2806730055443419e-05 -0.0067450938913311484 0 -5.2621497029131079e-05 -0.0067415414820871291 0 -6.1454821858261674e-05 -0.0066751241037625282 0 -8.2806730055443419e-05 -0.0067450938913311484 0 -0.00025755702980173524 -0.0068209815000397252 0 -5.2621497029131079e-05 -0.0067415414820871291 0 -8.4867586349285544e-05 -0.0067602373398639023 0 -5.2621497029131079e-05 -0.0067415414820871291 0 -8.2806730055443419e-05 -0.0067450938913311484 0 -8.4867586349285544e-05 -0.0067602373398639023 0 -8.2806730055443419e-05 -0.0067450938913311484 0 -8.4867586349285544e-05 -0.0067602373398639023 0 -6.5836256339342871e-05 -0.0067729855338739351 0 -8.4867586349285544e-05 -0.0067602373398639023 0 -6.3905808110313616e-05 -0.0065799008742385033 0 -6.5836256339342871e-05 -0.0067729855338739351 0 0.00035648398876923201 -0.0077880325695856636 0 0.00046558083653829686 -0.0079832586964689103 0 -6.3905808110313616e-05 -0.0065799008742385033 0 0.0015967225509859663 -0.0064531513635917 0 0.00073228355007732648 -0.0059068836679953014 0 -6.3905808110313616e-05 -0.0065799008742385033 0 -6.1368138888076432e-06 -0.0056926427397886786 0 0.00073228355007732648 -0.0059068836679953014 0 -0.00025755702980173524 -0.0068209815000397252 0 -6.3905808110313616e-05 -0.0065799008742385033 0 -6.1368138888076432e-06 -0.0056926427397886786 0 -0.00025755702980173524 -0.0068209815000397252 0 -8.4867586349285544e-05 -0.0067602373398639023 0 -6.3905808110313616e-05 -0.0065799008742385033 0 -0.00011450086577747318 -0.0067668746759777564 0 -0.00014226213118033752 -0.0068335946256881438 0 -0.00018146867744536955 -0.0068060765185229957 0 -0.00011450086577747318 -0.0067668746759777564 0 -0.00018146867744536955 -0.0068060765185229957 0 -0.00015778025426684331 -0.0067466300974296433 0 -8.2806730055443419e-05 -0.0067450938913311484 0 -0.00011450086577747318 -0.0067668746759777564 0 -6.5836256339342871e-05 -0.0067729855338739351 0 0.00046558083653829686 -0.0079832586964689103 0 0.00032842119966852636 -0.0086589752085741538 0 -0.00011450086577747318 -0.0067668746759777564 0 -6.5836256339342871e-05 -0.0067729855338739351 0 -0.00014226213118033752 -0.0068335946256881438 0 0.0015967225509859663 -0.0064531513635917 0 0.0013780773684721741 -0.0063031482327345805 0 0.0015919292526748057 -0.0066526896429653093 0 0.0013780773684721741 -0.0063031482327345805 0 -0.00037683599251638218 -0.0065307204331394673 0 0.0001382997604756494 -0.0070372484656809568 0 0.00032842119966852636 -0.0086589752085741538 0 -0.00022108254031750742 -0.010054848127089868 0 -0.00014226213118033752 -0.0068335946256881438 0 -0.00022724627595699986 -0.0068807079168894053 0 -0.00018146867744536955 -0.0068060765185229957 0 -0.00022724627595699986 -0.0068807079168894053 0 -0.0002403746291702022 -0.0068291341105362986 0 -0.00018146867744536955 -0.0068060765185229957 0 -0.0002403746291702022 -0.0068291341105362986 0 -0.00018146867744536955 -0.0068060765185229957 0 -0.0002356652848305987 -0.006752771039507291 0 -0.00018146867744536955 -0.0068060765185229957 0 -0.00015778025426684331 -0.0067466300974296433 0 -0.0002356652848305987 -0.006752771039507291 0 -0.00015778025426684331 -0.0067466300974296433 0 -0.0002356652848305987 -0.006752771039507291 0 -0.00018091064835881244 -0.0066998631163538791 0 -0.00020907429387588233 -0.0067479126601293652 0 -0.00017264078009261106 -0.0067193023288650454 0 -0.00022622246449991267 -0.0067913441363015711 0 -0.00021845181886616963 -0.0067338807969092532 0 -0.00015570806672491632 -0.00673929251751501 0 -0.00017764219972297223 -0.006692168888086234 0 -0.00021845181886616963 -0.0067338807969092532 0 -0.00015570806672491632 -0.00673929251751501 0 -0.00013723753515417495 -0.006657187164424482 0 -0.00015778025426684331 -0.0067466300974296433 0 -0.00018091064835881244 -0.0066998631163538791 0 -0.00017764219972297223 -0.006692168888086234 0 -9.1880726660232347e-05 -0.0066756236919084805 0 -0.00015570806672491632 -0.00673929251751501 0 -0.00028056816381760176 -0.0067603327883583733 0 -0.00033245259465693096 -0.0067985318787829431 0 -0.00034211157510515976 -0.0067376653457541704 0 -0.00024797314194187895 -0.0066862633774788108 0 -0.00028056816381760176 -0.0067603327883583733 0 -0.00034211157510515976 -0.0067376653457541704 0 -0.00024797314194187895 -0.0066862633774788108 0 -0.00021845181886616963 -0.0067338807969092532 0 -0.00028056816381760176 -0.0067603327883583733 0 -0.00022622246449991267 -0.0067913441363015711 0 -0.00021845181886616963 -0.0067338807969092532 0 -0.00028056816381760176 -0.0067603327883583733 0 -0.00022622246449991267 -0.0067913441363015711 0 -0.00028056816381760176 -0.0067603327883583733 0 -0.00029284739549156397 -0.0068283366830589436 0 -0.00020907429387588233 -0.0067479126601293652 0 -0.00022795744249872227 -0.0067625028990678463 0 -0.00028056816381760176 -0.0067603327883583733 0 -0.00033245259465693096 -0.0067985318787829431 0 -0.00029284739549156397 -0.0068283366830589436 0 -0.00033245259465693096 -0.0067985318787829431 0 -0.00029284739549156397 -0.0068283366830589436 0 -0.00035670224172830662 -0.0068572555182725772 0 -0.00029284739549156397 -0.0068283366830589436 0 -0.00032004365800321035 -0.0068754792140457302 0 -0.00035670224172830662 -0.0068572555182725772 0 -0.00029284739549156397 -0.0068283366830589436 0 -0.00027750913510495164 -0.0068672092899355833 0 -0.00032004365800321035 -0.0068754792140457302 0 -0.0002403746291702022 -0.0068291341105362986 0 -0.00029284739549156397 -0.0068283366830589436 0 -0.00027750913510495164 -0.0068672092899355833 0 -0.0002403746291702022 -0.0068291341105362986 0 -0.0002356652848305987 -0.006752771039507291 0 -0.00029284739549156397 -0.0068283366830589436 0 -0.00022724627595699986 -0.0068807079168894053 0 -0.0002403746291702022 -0.0068291341105362986 0 -0.00027750913510495164 -0.0068672092899355833 0 -0.00037683599251638218 -0.0065307204331394673 0 -0.0023858798394454433 -0.0067886961834593999 0 -0.0010731475734733389 -0.0067768392317656924 0 -0.00022108254031750742 -0.010054848127089868 0 -0.00095433093068910486 -0.012593701201000104 0 -0.00022724627595699986 -0.0068807079168894053 0 -0.00027750913510495164 -0.0068672092899355833 0 -0.00031527292677479695 -0.0069235823096550752 0 -0.00032004365800321035 -0.0068754792140457302 0 -0.00031527292677479695 -0.0069235823096550752 0 -0.00035980378495148067 -0.0069045421405298096 0 -0.00027750913510495164 -0.0068672092899355833 0 -0.00032004365800321035 -0.0068754792140457302 0 -0.00031527292677479695 -0.0069235823096550752 0 -0.0023858798394454433 -0.0067886961834593999 0 -0.0020174026841189322 -0.0082261162798670968 0 -0.0032407672616688011 -0.0077826319970253667 0 -0.0018803069454743342 -0.0080551112458336904 0 -0.0026271053978056281 -0.0093936523857947561 0 -0.0017031553108661315 -0.0090943663456347756 0 -0.0005833880208256961 -0.010513012239968934 0 -0.00099363640177990557 -0.012325414382090751 0 -0.0020174026841189322 -0.0082261162798670968 0 -0.0032407672616688011 -0.0077826319970253667 0 -0.0032165285801959188 -0.0085062083216432133 0 -0.0020174026841189322 -0.0082261162798670968 0 -0.0030470348110831886 -0.009665167196575928 0 -0.0032165285801959188 -0.0085062083216432133 0 -0.0010696563408121829 -0.008907303299242492 0 -0.0010425226140839069 -0.0080728554477715996 0 -0.00053223331573300952 -0.0087639310200636755 0 -0.0010696563408121829 -0.008907303299242492 0 -0.0010425226140839069 -0.0080728554477715996 0 -0.0017031553108661315 -0.0090943663456347756 0 -0.0018803069454743342 -0.0080551112458336904 0 -0.0010425226140839069 -0.0080728554477715996 0 -0.0017031553108661315 -0.0090943663456347756 0 -0.0023858798394454433 -0.0067886961834593999 0 -0.0020174026841189322 -0.0082261162798670968 0 -0.0010731475734733389 -0.0067768392317656924 0 -0.0010425226140839069 -0.0080728554477715996 0 -0.0010731475734733389 -0.0067768392317656924 0 -0.00054857150840073208 -0.0072404208773839285 0 -0.0005833880208256961 -0.010513012239968934 0 -0.00036903430740334732 -0.0098243998197452727 0 -0.0018803069454743342 -0.0080551112458336904 0 -0.0010425226140839069 -0.0080728554477715996 0 -0.0010731475734733389 -0.0067768392317656924 0 -0.00037683599251638218 -0.0065307204331394673 0 -0.0010731475734733389 -0.0067768392317656924 0 -0.00054857150840073208 -0.0072404208773839285 0 -0.00037683599251638218 -0.0065307204331394673 0 0.0001382997604756494 -0.0070372484656809568 0 -0.00054857150840073208 -0.0072404208773839285 0 0.0001382997604756494 -0.0070372484656809568 0 0.00057790279829137824 -0.0074884310285525946 0 -0.00039333079204955312 -0.0077682794229476338 0 0.0001382997604756494 -0.0070372484656809568 0 -0.00054857150840073208 -0.0072404208773839285 0 -0.00039333079204955312 -0.0077682794229476338 0 -0.0010425226140839069 -0.0080728554477715996 0 -0.00054857150840073208 -0.0072404208773839285 0 -0.00039333079204955312 -0.0077682794229476338 0 0.0013780773684721741 -0.0063031482327345805 0 0.0001382997604756494 -0.0070372484656809568 0 0.00057790279829137824 -0.0074884310285525946 0 0.00057790279829137824 -0.0074884310285525946 0 0.00081815118266247524 -0.0085336438150115258 0 0.001276188677029687 -0.0075146562006997743 0 0.00057790279829137824 -0.0074884310285525946 0 0.00025987832849416769 -0.0086370521154816807 0 -3.3577037568034919e-05 -0.0081727697044084828 0 0.00057790279829137824 -0.0074884310285525946 0 0.00025987832849416769 -0.0086370521154816807 0 0.00081815118266247524 -0.0085336438150115258 0 0.00057790279829137824 -0.0074884310285525946 0 -0.00039333079204955312 -0.0077682794229476338 0 -3.3577037568034919e-05 -0.0081727697044084828 0 -0.00039333079204955312 -0.0077682794229476338 0 -3.3577037568034919e-05 -0.0081727697044084828 0 -0.00053223331573300952 -0.0087639310200636755 0 -0.0010425226140839069 -0.0080728554477715996 0 -0.00039333079204955312 -0.0077682794229476338 0 -0.00053223331573300952 -0.0087639310200636755 0 0.00025987832849416769 -0.0086370521154816807 0 -3.3577037568034919e-05 -0.0081727697044084828 0 -0.00053223331573300952 -0.0087639310200636755 0 -0.00053223331573300952 -0.0087639310200636755 0 -0.00017288510709325658 -0.0097488630993265608 0 -0.0010075512597931215 -0.009719968167962216 0 0.00025987832849416769 -0.0086370521154816807 0 -0.00053223331573300952 -0.0087639310200636755 0 -0.00017288510709325658 -0.0097488630993265608 0 -0.00017288510709325658 -0.0097488630993265608 0 -0.00060405949902463054 -0.01025492381274308 0 -0.0010075512597931215 -0.009719968167962216 0 0.00081815118266247524 -0.0085336438150115258 0 0.00040494658485565224 -0.0095121590753795508 0 0.0010410683057010155 -0.0094334488522705168 0 0.00025987832849416769 -0.0086370521154816807 0 -0.00017288510709325658 -0.0097488630993265608 0 0.00040494658485565224 -0.0095121590753795508 0 0.00025987832849416769 -0.0086370521154816807 0 0.00081815118266247524 -0.0085336438150115258 0 0.00040494658485565224 -0.0095121590753795508 0 -0.00017288510709325658 -0.0097488630993265608 0 0.00040494658485565224 -0.0095121590753795508 0 0.00046456059471013323 -0.010536120628563515 0 0.00040494658485565224 -0.0095121590753795508 0 0.00073058889555063962 -0.0099832995236552591 0 0.00046456059471013323 -0.010536120628563515 0 0.00073058889555063962 -0.0099832995236552591 0 0.0010410683057010155 -0.0094334488522705168 0 0.0010391188066575967 -0.010434755928728237 0 0.00040494658485565224 -0.0095121590753795508 0 0.00073058889555063962 -0.0099832995236552591 0 0.0010410683057010155 -0.0094334488522705168 0 0.00046456059471013323 -0.010536120628563515 0 0.0009769388808819582 -0.011415070033258558 0 0.00015786210536291575 -0.01177409015037425 0 0.00073058889555063962 -0.0099832995236552591 0 0.00046456059471013323 -0.010536120628563515 0 0.0010391188066575967 -0.010434755928728237 0 0.00046456059471013323 -0.010536120628563515 0 0.0010391188066575967 -0.010434755928728237 0 0.0009769388808819582 -0.011415070033258558 0 0.00046456059471013323 -0.010536120628563515 0 -0.00025470282618847868 -0.010774804398357702 0 0.00015786210536291575 -0.01177409015037425 0 -0.00017288510709325658 -0.0097488630993265608 0 -0.00060405949902463054 -0.01025492381274308 0 -0.00025470282618847868 -0.010774804398357702 0 -0.00060405949902463054 -0.01025492381274308 0 -0.00025470282618847868 -0.010774804398357702 0 -0.00096464607747080114 -0.010766536233393534 0 -0.00017288510709325658 -0.0097488630993265608 0 0.00046456059471013323 -0.010536120628563515 0 -0.00025470282618847868 -0.010774804398357702 0 -0.00025470282618847868 -0.010774804398357702 0 -0.00096464607747080114 -0.010766536233393534 0 -0.00046794229295261177 -0.011527808626019181 0 -0.00060405949902463054 -0.01025492381274308 0 -0.00096464607747080114 -0.010766536233393534 0 -0.0010075512597931215 -0.009719968167962216 0 -0.00096464607747080114 -0.010766536233393534 0 -0.0017995605356607195 -0.011121811706493812 0 -0.0017255890776136341 -0.010152240967464133 0 -0.00096464607747080114 -0.010766536233393534 0 -0.0017255890776136341 -0.010152240967464133 0 -0.0010075512597931215 -0.009719968167962216 0 -0.00096464607747080114 -0.010766536233393534 0 -0.0017995605356607195 -0.011121811706493812 0 -0.0010716156620627932 -0.011838605166662568 0 -0.0017995605356607195 -0.011121811706493812 0 -0.0024473205235011684 -0.010527036550390037 0 -0.0025861154066101136 -0.011316644276661831 0 -0.0017995605356607195 -0.011121811706493812 0 -0.0024473205235011684 -0.010527036550390037 0 -0.0017255890776136341 -0.010152240967464133 0 -0.0024473205235011684 -0.010527036550390037 0 -0.0017255890776136341 -0.010152240967464133 0 -0.0026271053978056281 -0.0093936523857947561 0 -0.0017255890776136341 -0.010152240967464133 0 -0.0026271053978056281 -0.0093936523857947561 0 -0.0017031553108661315 -0.0090943663456347756 0 -0.0010696563408121829 -0.008907303299242492 0 -0.0017031553108661315 -0.0090943663456347756 0 -0.0010075512597931215 -0.009719968167962216 0 -0.0010696563408121829 -0.008907303299242492 0 -0.00053223331573300952 -0.0087639310200636755 0 -0.0010075512597931215 -0.009719968167962216 0 -0.0017255890776136341 -0.010152240967464133 0 -0.0017031553108661315 -0.0090943663456347756 0 -0.0010075512597931215 -0.009719968167962216 0 -0.00019383273588995619 -0.0044465292213949669 0 7.804336687382014e-05 -0.0046581144523488733 0 -0.00033123981337553207 -0.0046920352258337048 0 7.804336687382014e-05 -0.0046581144523488733 0 -0.00033123981337553207 -0.0046920352258337048 0 0.00043505907645811936 -0.0051905425869897904 0 -0.00033123981337553207 -0.0046920352258337048 0 -6.1368138888076432e-06 -0.0056926427397886786 0 0.00043505907645811936 -0.0051905425869897904 0 -0.00037548337277875851 -0.0039780463838099559 0 -0.00053997724663701232 -0.003389204464319534 0 -0.00033123981337553207 -0.0046920352258337048 0 -0.00025755702980173524 -0.0068209815000397252 0 -0.00033123981337553207 -0.0046920352258337048 0 -6.1368138888076432e-06 -0.0056926427397886786 0 -0.00021835240652170532 -0.0050709870047881168 0 -0.00022239177849218755 -0.0048908630286280032 0 -6.1368138888076432e-06 -0.0056926427397886786 0 0.00043505907645811936 -0.0051905425869897904 0 0.00073228355007732648 -0.0059068836679953014 0 0.0015967225509859663 -0.0064531513635917 0 0.00073228355007732648 -0.0059068836679953014 0 0.0012387176052182228 -0.0059364904538799406 0 0.00043505907645811936 -0.0051905425869897904 0 0.00073228355007732648 -0.0059068836679953014 0 0.0012387176052182228 -0.0059364904538799406 0 7.804336687382014e-05 -0.0046581144523488733 0 0.00091384016671956661 -0.0051875125672871999 0 0.00045031639168134472 -0.0041281461757442491 0 7.804336687382014e-05 -0.0046581144523488733 0 0.00043505907645811936 -0.0051905425869897904 0 0.00091384016671956661 -0.0051875125672871999 0 0.00043505907645811936 -0.0051905425869897904 0 0.0012387176052182228 -0.0059364904538799406 0 0.00091384016671956661 -0.0051875125672871999 0 0.00091384016671956661 -0.0051875125672871999 0 0.0020173753179585623 -0.0064378801524324937 0 0.0019984399167090137 -0.0048051317715530435 0 0.00075302655110835151 -0.0074604365548734519 0 0.00068559863762016396 -0.0076063557247249983 0 0.0012387176052182228 -0.0059364904538799406 0 0.00091384016671956661 -0.0051875125672871999 0 0.0020173753179585623 -0.0064378801524324937 0 0.0020173753179585623 -0.0064378801524324937 0 0.0015574257504789915 -0.0083353868506616784 0 0.0026671680684460367 -0.0085656523631871592 0 0.0015967225509859663 -0.0064531513635917 0 0.0012387176052182228 -0.0059364904538799406 0 0.0020173753179585623 -0.0064378801524324937 0 0.0015967225509859663 -0.0064531513635917 0 0.0020173753179585623 -0.0064378801524324937 0 0.0015919292526748057 -0.0066526896429653093 0 0.0020173753179585623 -0.0064378801524324937 0 0.0015919292526748057 -0.0066526896429653093 0 0.001276188677029687 -0.0075146562006997743 0 0.00057790279829137824 -0.0074884310285525946 0 0.0015919292526748057 -0.0066526896429653093 0 0.001276188677029687 -0.0075146562006997743 0 0.0013780773684721741 -0.0063031482327345805 0 0.00057790279829137824 -0.0074884310285525946 0 0.0015919292526748057 -0.0066526896429653093 0 0.0020173753179585623 -0.0064378801524324937 0 0.001276188677029687 -0.0075146562006997743 0 0.0015574257504789915 -0.0083353868506616784 0 0.00081815118266247524 -0.0085336438150115258 0 0.001276188677029687 -0.0075146562006997743 0 0.0015574257504789915 -0.0083353868506616784 0 0.00081815118266247524 -0.0085336438150115258 0 0.0015574257504789915 -0.0083353868506616784 0 0.0010410683057010155 -0.0094334488522705168 0 0.0015574257504789915 -0.0083353868506616784 0 0.0018074012449815974 -0.0094136587960897706 0 0.0010410683057010155 -0.0094334488522705168 0 0.0015574257504789915 -0.0083353868506616784 0 0.0018074012449815974 -0.0094136587960897706 0 0.0026671680684460367 -0.0085656523631871592 0 0.0018074012449815974 -0.0094136587960897706 0 0.0018034067778637233 -0.010505690205674052 0 0.0027461042832848657 -0.010267505351358737 0 0.0018074012449815974 -0.0094136587960897706 0 0.0014296968076107704 -0.010043892592714515 0 0.0018034067778637233 -0.010505690205674052 0 0.0018074012449815974 -0.0094136587960897706 0 0.0014296968076107704 -0.010043892592714515 0 0.0010410683057010155 -0.0094334488522705168 0 0.0014296968076107704 -0.010043892592714515 0 0.0010410683057010155 -0.0094334488522705168 0 0.0010391188066575967 -0.010434755928728237 0 0.0013724518857963603 -0.010961956765279859 0 0.0018034067778637233 -0.010505690205674052 0 0.0017237663296854062 -0.012109951064694632 0 0.0014296968076107704 -0.010043892592714515 0 0.0010391188066575967 -0.010434755928728237 0 0.0013724518857963603 -0.010961956765279859 0 0.0010391188066575967 -0.010434755928728237 0 0.0013724518857963603 -0.010961956765279859 0 0.0009769388808819582 -0.011415070033258558 0 0.0014296968076107704 -0.010043892592714515 0 0.0013724518857963603 -0.010961956765279859 0 0.0018034067778637233 -0.010505690205674052 0 0.0018034067778637233 -0.010505690205674052 0 0.0022365194534986854 -0.010401666290445626 0 0.0017237663296854062 -0.012109951064694632 0 -0.00039765055424738653 -0.008325509315888685 0 -3.4477156508162633e-05 -0.0085685758460458828 0 -0.00041769556832986081 -0.0089603685374541383 0 0.0004615316639524463 -0.0080792179226112908 0 0.00037600279261628615 -0.0097022454761932757 0 0.00052332246853619129 -0.008104367901630315 0 0.0004615316639524463 -0.0080792179226112908 0 0.0019317367578700429 -0.0037836359674773591 0 0.0019984399167090137 -0.0048051317715530435 0 0.00045031639168134472 -0.0041281461757442491 0 0.0018074012449815974 -0.0094136587960897706 0 0.0027461042832848657 -0.010267505351358737 0 0.0026671680684460367 -0.0085656523631871592 0 0.0004615316639524463 -0.0080792179226112908 0 0.00068559863762016396 -0.0076063557247249983 0 0.0004615316639524463 -0.0080792179226112908 0 0.00049740188826242213 -0.0070631658216282001 0 0.00091384016671956661 -0.0051875125672871999 0 0.0019984399167090137 -0.0048051317715530435 0 0.00045031639168134472 -0.0041281461757442491 0 0.00017631479372746682 -0.0082427716655546976 0 -3.4477156508162633e-05 -0.0085685758460458828 0 0.00032049147868417737 -0.0086425752490757821 0 -0.00039765055424738653 -0.008325509315888685 0 0.00017631479372746682 -0.0082427716655546976 0 -3.4477156508162633e-05 -0.0085685758460458828 0 0.00057366134951037479 -0.0084679917730141226 0 0.00017631479372746682 -0.0082427716655546976 0 0.00032049147868417737 -0.0086425752490757821 0 0.00057366134951037479 -0.0084679917730141226 0 0.00052933128496386605 -0.0087314632986958459 0 0.00032049147868417737 -0.0086425752490757821 0 0.00057501303685184024 -0.0082280686475490975 0 0.00057366134951037479 -0.0084679917730141226 0 0.00017631479372746682 -0.0082427716655546976 0 -0.00020682331623066811 -0.0045148399455152734 0 7.804336687382014e-05 -0.0046581144523488733 0 0.00045031639168134472 -0.0041281461757442491 0 0.0004827131327614273 -0.0062849074864114521 0 0.00049740188826242213 -0.0070631658216282001 0 0.00065820429299014106 -0.0092874072990898164 0 0.00038447431833730632 -0.0093904110435752038 0 0.00049512348006580122 -0.0091854958666954881 0 0.00038447431833730632 -0.0093904110435752038 0 0.00049512348006580122 -0.0091854958666954881 0 0.00038372278281346208 -0.009020482003014153 0 0.00038447431833730632 -0.0093904110435752038 0 0.00038372278281346208 -0.009020482003014153 0 9.7878303062389231e-05 -0.0093440573253529488 0 0.00065820429299014106 -0.0092874072990898164 0 0.00049512348006580122 -0.0091854958666954881 0 0.00056639419527077298 -0.0089645142218858654 0 0.00049512348006580122 -0.0091854958666954881 0 0.00056639419527077298 -0.0089645142218858654 0 0.00038372278281346208 -0.009020482003014153 0 0.00056639419527077298 -0.0089645142218858654 0 0.00052933128496386605 -0.0087314632986958459 0 0.00038372278281346208 -0.009020482003014153 0 0.00052933128496386605 -0.0087314632986958459 0 0.00032049147868417737 -0.0086425752490757821 0 0.00038372278281346208 -0.009020482003014153 0 0.00032049147868417737 -0.0086425752490757821 0 0.00038372278281346208 -0.009020482003014153 0 8.0908505176345327e-05 -0.0088949948715732197 0 -3.4477156508162633e-05 -0.0085685758460458828 0 8.0908505176345327e-05 -0.0088949948715732197 0 -0.00041769556832986081 -0.0089603685374541383 0 8.0908505176345327e-05 -0.0088949948715732197 0 9.7878303062389231e-05 -0.0093440573253529488 0 -0.00041769556832986081 -0.0089603685374541383 0 -3.4477156508162633e-05 -0.0085685758460458828 0 0.00032049147868417737 -0.0086425752490757821 0 8.0908505176345327e-05 -0.0088949948715732197 0 0.00038372278281346208 -0.009020482003014153 0 8.0908505176345327e-05 -0.0088949948715732197 0 9.7878303062389231e-05 -0.0093440573253529488 0 9.7878303062389231e-05 -0.0093440573253529488 0 -0.00041769556832986081 -0.0089603685374541383 0 -0.00038028188243302054 -0.0098701679147618626 0 0.0017237663296854062 -0.012109951064694632 0 0.00080281042474769811 -0.01287812620924109 0 0.00065702607622420436 -0.012929305654373169 0 0.00037600279261628615 -0.0097022454761932757 0 0.00019458355340132692 -0.010658808559534079 0 0.0013724518857963603 -0.010961956765279859 0 0.0017237663296854062 -0.012109951064694632 0 0.0009769388808819582 -0.011415070033258558 0 0.0017237663296854062 -0.012109951064694632 0 0.0009769388808819582 -0.011415070033258558 0 0.00066161270312902159 -0.012435504063418656 0 0.0017237663296854062 -0.012109951064694632 0 0.00080281042474769811 -0.01287812620924109 0 0.00066161270312902159 -0.012435504063418656 0 0.00080281042474769811 -0.01287812620924109 0 0.00053611338292201458 -0.012849492682030323 0 0.00065702607622420436 -0.012929305654373169 0 0.00080281042474769811 -0.01287812620924109 0 0.00053611338292201458 -0.012849492682030323 0 0.00039884236024616011 -0.013483472391378287 0 0.00053611338292201458 -0.012849492682030323 0 1.0370355367904463e-08 -0.011293701534480624 0 1.054418785247156e-06 -0.013341057817855074 0 -2.3971877572164936e-06 -0.011284726868539192 0 -0.00038028188243302054 -0.0098701679147618626 0 2.1652952161129851e-06 -0.010839711075482079 0 0.00053611338292201458 -0.012849492682030323 0 1.0370355367904463e-08 -0.011293701534480624 0 0.00065702607622420436 -0.012929305654373169 0 5.6983082775530272e-07 -0.011289485879876208 0 0.00019458355340132692 -0.010658808559534079 0 9.7878303062389231e-05 -0.0093440573253529488 0 -0.00038028188243302054 -0.0098701679147618626 0 0.0003777946229719848 -0.010054463913029305 0 0.00038447431833730632 -0.0093904110435752038 0 9.7878303062389231e-05 -0.0093440573253529488 0 0.0003777946229719848 -0.010054463913029305 0 4.0616142169745201e-07 -0.01083259068717839 0 0.0003484067944313002 -0.0099995180620293268 0 -1.031956545301375e-06 -0.010831949967204485 0 5.2836241535395487e-07 -0.0093452419652502484 0 -4.6858824522369527e-05 -0.0088081965004418172 0 -0.00038028188243302054 -0.0098701679147618626 0 2.1652952161129851e-06 -0.010839711075482079 0 0.0003777946229719848 -0.010054463913029305 0 0.00026317004158634409 -0.0084356848219522811 0 5.2836241535395487e-07 -0.0093452419652502484 0 -4.6858824522369527e-05 -0.0088081965004418172 0 0.00051347299541272724 -0.0095487849606005707 0 0.0003484067944313002 -0.0099995180620293268 0 0.00065820429299014106 -0.0092874072990898164 0 0.00038447431833730632 -0.0093904110435752038 0 0.0003777946229719848 -0.010054463913029305 0 0.00031662345766263796 -0.0084787257126788876 0 0.00026317004158634409 -0.0084356848219522811 0 -4.6858824522369527e-05 -0.0088081965004418172 0 0.00031662345766263796 -0.0084787257126788876 0 0.00034042271519989735 -0.0084644954153823681 0 -4.6858824522369527e-05 -0.0088081965004418172 0 -0.00087942457734843855 -0.013051690645177944 0 -0.00043549698416860236 -0.012300481902346998 0 7.1197631417507313e-05 -0.012950844416550571 0 -0.00087942457734843855 -0.013051690645177944 0 7.1197631417507313e-05 -0.012950844416550571 0 -0.00017325273366325486 -0.014498877773005467 0 -0.00087942457734843855 -0.013051690645177944 0 -0.0018825442869683949 -0.012189122947714836 0 -0.0021567063268887261 -0.014311151025889696 0 -0.00087942457734843855 -0.013051690645177944 0 -0.0018825442869683949 -0.012189122947714836 0 -0.0010716156620627932 -0.011838605166662568 0 -0.0017995605356607195 -0.011121811706493812 0 -0.0018825442869683949 -0.012189122947714836 0 -0.0025861154066101136 -0.011316644276661831 0 -0.0017995605356607195 -0.011121811706493812 0 -0.0018825442869683949 -0.012189122947714836 0 -0.0010716156620627932 -0.011838605166662568 0 -0.00087942457734843855 -0.013051690645177944 0 -0.0010716156620627932 -0.011838605166662568 0 -0.00043549698416860236 -0.012300481902346998 0 -0.0010716156620627932 -0.011838605166662568 0 -0.00043549698416860236 -0.012300481902346998 0 -0.00046794229295261177 -0.011527808626019181 0 -0.00096464607747080114 -0.010766536233393534 0 -0.0010716156620627932 -0.011838605166662568 0 -0.00046794229295261177 -0.011527808626019181 0 -0.00043549698416860236 -0.012300481902346998 0 0.00015786210536291575 -0.01177409015037425 0 7.1197631417507313e-05 -0.012950844416550571 0 -0.00025470282618847868 -0.010774804398357702 0 -0.00046794229295261177 -0.011527808626019181 0 0.00015786210536291575 -0.01177409015037425 0 -0.00043549698416860236 -0.012300481902346998 0 -0.00046794229295261177 -0.011527808626019181 0 0.00015786210536291575 -0.01177409015037425 0 0.0009769388808819582 -0.011415070033258558 0 0.00015786210536291575 -0.01177409015037425 0 0.00066161270312902159 -0.012435504063418656 0 0.00080281042474769811 -0.01287812620924109 0 0.00066161270312902159 -0.012435504063418656 0 0.00039884236024616011 -0.013483472391378287 0 0.00015786210536291575 -0.01177409015037425 0 0.00066161270312902159 -0.012435504063418656 0 7.1197631417507313e-05 -0.012950844416550571 0 0.00066161270312902159 -0.012435504063418656 0 7.1197631417507313e-05 -0.012950844416550571 0 0.00039884236024616011 -0.013483472391378287 0 7.1197631417507313e-05 -0.012950844416550571 0 0.00039884236024616011 -0.013483472391378287 0 -0.00017325273366325486 -0.014498877773005467 0 0.00053611338292201458 -0.012849492682030323 0 0.00039884236024616011 -0.013483472391378287 0 1.054418785247156e-06 -0.013341057817855074 0 0.00039884236024616011 -0.013483472391378287 0 1.054418785247156e-06 -0.013341057817855074 0 1.2668515604503292e-06 -0.015393250099701867 0 0.00039884236024616011 -0.013483472391378287 0 1.2668515604503292e-06 -0.015393250099701867 0 -0.00017325273366325486 -0.014498877773005467 0 1.2668515604503292e-06 -0.015393250099701867 0 -0.00017325273366325486 -0.014498877773005467 0 -5.0232659042737143e-06 -0.017440150295376884 0 -0.00087942457734843855 -0.013051690645177944 0 -0.00017325273366325486 -0.014498877773005467 0 -0.0021567063268887261 -0.014311151025889696 0 -0.00017325273366325486 -0.014498877773005467 0 -5.0232659042737143e-06 -0.017440150295376884 0 -0.0021567063268887261 -0.014311151025889696 0 -2.1838026170978863e-06 -0.017447329070081383 0 -7.7421736073532112e-05 -0.018606318016093221 0 7.3606465666481672e-07 -0.01901931145180176 0 -2.1838026170978863e-06 -0.017447329070081383 0 -7.7421736073532112e-05 -0.018606318016093221 0 -0.00067315104525527683 -0.020447722268664238 0 -1.8217481633878216e-06 -0.017444239345394484 0 -0.0006980522103519146 -0.017241767356091633 0 -7.7421736073532112e-05 -0.018606318016093221 0 4.0021857334594155e-05 -0.01985086696574866 0 -0.00014065056602245059 -0.019758881806554416 0 -7.7421736073532112e-05 -0.018606318016093221 0 7.3606465666481672e-07 -0.01901931145180176 0 4.0021857334594155e-05 -0.01985086696574866 0 7.3606465666481672e-07 -0.01901931145180176 0 4.0021857334594155e-05 -0.01985086696574866 0 0.00012137795235950955 -0.02019661721618703 0 4.0021857334594155e-05 -0.01985086696574866 0 0.00017723541921426449 -0.020638818341445989 0 0.00012137795235950955 -0.02019661721618703 0 4.0021857334594155e-05 -0.01985086696574866 0 -0.00011714078273735127 -0.020179962275911217 0 -0.00014065056602245059 -0.019758881806554416 0 4.0021857334594155e-05 -0.01985086696574866 0 -0.00011714078273735127 -0.020179962275911217 0 5.4992164333023926e-05 -0.020488309505680348 0 -0.00011714078273735127 -0.020179962275911217 0 5.4992164333023926e-05 -0.020488309505680348 0 -0.00013613253240677545 -0.020682427379800927 0 4.0021857334594155e-05 -0.01985086696574866 0 5.4992164333023926e-05 -0.020488309505680348 0 0.00017723541921426449 -0.020638818341445989 0 -0.00082235414073094195 -0.018992639837687744 0 -0.00090101361932294166 -0.018813593698100903 0 -7.7421736073532112e-05 -0.018606318016093221 0 -0.00067315104525527683 -0.020447722268664238 0 -0.00038877305682351331 -0.020858605411280113 0 -7.7421736073532112e-05 -0.018606318016093221 0 -0.00014065056602245059 -0.019758881806554416 0 -0.00054631302846292666 -0.020467702479340502 0 -0.00011714078273735127 -0.020179962275911217 0 -0.00014065056602245059 -0.019758881806554416 0 -0.00054631302846292666 -0.020467702479340502 0 -0.00011714078273735127 -0.020179962275911217 0 -0.00054631302846292666 -0.020467702479340502 0 -0.00013613253240677545 -0.020682427379800927 0 -0.00054631302846292666 -0.020467702479340502 0 -0.00013613253240677545 -0.020682427379800927 0 -0.00036342561878512108 -0.021123267934031426 0 -0.0018825442869683949 -0.012189122947714836 0 -0.0021567063268887261 -0.014311151025889696 0 -0.0031799914824361731 -0.012129771496929773 0 -0.0006980522103519146 -0.017241767356091633 0 -0.0012171913779673057 -0.01704591619437917 0 -0.00090101361932294166 -0.018813593698100903 0 -0.0012171913779673057 -0.01704591619437917 0 -0.00067315104525527683 -0.020447722268664238 0 -0.00038877305682351331 -0.020858605411280113 0 -0.00027415081037448618 -0.022903496588102638 0 5.4992164333023926e-05 -0.020488309505680348 0 0.00020015103554779642 -0.020934481222869974 0 0.00017723541921426449 -0.020638818341445989 0 5.4992164333023926e-05 -0.020488309505680348 0 -0.00013613253240677545 -0.020682427379800927 0 0.00020015103554779642 -0.020934481222869974 0 -0.00013613253240677545 -0.020682427379800927 0 -0.00036342561878512108 -0.021123267934031426 0 0.00020015103554779642 -0.020934481222869974 0 -0.0018789491553733891 -0.017577802865087793 0 -0.0015974990270916009 -0.016099133111801785 0 0.00020015103554779642 -0.020934481222869974 0 0.00030861409330946082 -0.020807590998267875 0 0.00020829661799821934 -0.02084013293315392 0 -0.00036342561878512108 -0.021123267934031426 0 0.00020015103554779642 -0.020934481222869974 0 -0.00026476976709677291 -0.021566026454845302 0 -0.0012171913779673057 -0.01704591619437917 0 -0.0015365966518495122 -0.015399585132470282 0 -0.0018825442869683949 -0.012189122947714836 0 -0.0031799914824361731 -0.012129771496929773 0 -0.0025861154066101136 -0.011316644276661831 0 -0.0031799914824361731 -0.012129771496929773 0 -0.0034294188733618607 -0.010680445097447503 0 -0.0025861154066101136 -0.011316644276661831 0 -0.0012171913779673057 -0.01704591619437917 0 -0.0015974990270916009 -0.016099133111801785 0 0.00010793691858522955 -0.020927064677028023 0 1.5949268919732209e-05 -0.020895036579806094 0 7.4373029880028899e-05 -0.020817121049228546 0 0.00010793691858522955 -0.020927064677028023 0 0.00015129080547154444 -0.020863880740539683 0 7.4373029880028899e-05 -0.020817121049228546 0 0.00015129080547154444 -0.020863880740539683 0 0.00020015103554779642 -0.020934481222869974 0 0.00020829661799821934 -0.02084013293315392 0 0.00010793691858522955 -0.020927064677028023 0 0.00015129080547154444 -0.020863880740539683 0 0.00020015103554779642 -0.020934481222869974 0 0.00020015103554779642 -0.020934481222869974 0 0.00016227986596772264 -0.021083724471599747 0 0.00017723541921426449 -0.020638818341445989 0 0.00010793691858522955 -0.020927064677028023 0 0.00020015103554779642 -0.020934481222869974 0 0.00016227986596772264 -0.021083724471599747 0 0.00019855700836798177 -0.021864108671402205 0 0.00016104850574727341 -0.021913910304253419 0 0.00010793691858522955 -0.020927064677028023 0 0.00016227986596772264 -0.021083724471599747 0 -2.1136117355955546e-05 -0.021014367745316266 0 0.00016227986596772264 -0.021083724471599747 0 0.00013713952834566587 -0.021288119533565054 0 5.7624630060770087e-05 -0.021959931707612401 0 0.00016227986596772264 -0.021083724471599747 0 0.00013713952834566587 -0.021288119533565054 0 0.00017723541921426449 -0.020638818341445989 0 0.00013713952834566587 -0.021288119533565054 0 0.00017723541921426449 -0.020638818341445989 0 0.00012137795235950955 -0.02019661721618703 0 0.00013713952834566587 -0.021288119533565054 0 3.3242494375621438e-07 -0.020595765076620406 0 0.00012137795235950955 -0.02019661721618703 0 7.3606465666481672e-07 -0.01901931145180176 0 3.3242494375621438e-07 -0.020595765076620406 0 0.00012137795235950955 -0.02019661721618703 0 0.00013713952834566587 -0.021288119533565054 0 3.3242494375621438e-07 -0.020595765076620406 0 9.0242559155513897e-08 -0.022167020402008249 0 0.00013713952834566587 -0.021288119533565054 0 9.0242559155513897e-08 -0.022167020402008249 0 1.8160557236781659e-05 -0.021901206469590661 0 5.7998998768131884e-07 -0.022171492601683586 0 0.00024788126231795981 -0.022696577686964918 0 9.0242559155513897e-08 -0.022167020402008249 0 1.8160557236781659e-05 -0.021901206469590661 0 9.4526869127534789e-05 -0.02198218234809059 0 -3.3173178300835474e-07 -0.022170818999381513 0 -4.4480179322301667e-08 -0.02404872490887423 0 -5.4516506272530698e-05 -0.02410200534109792 0 1.8160557236781659e-05 -0.021901206469590661 0 9.4526869127534789e-05 -0.02198218234809059 0 0.0001171221791533691 -0.022134338796939559 0 1.8160557236781659e-05 -0.021901206469590661 0 0.0001171221791533691 -0.022134338796939559 0 7.7605984774864857e-05 -0.021923743691567101 0 0.0001171221791533691 -0.022134338796939559 0 0.00021461447512957193 -0.022367125792368398 0 7.7605984774864857e-05 -0.021923743691567101 0 0.00013713952834566587 -0.021288119533565054 0 1.8160557236781659e-05 -0.021901206469590661 0 7.7605984774864857e-05 -0.021923743691567101 0 0.00013713952834566587 -0.021288119533565054 0 7.7605984774864857e-05 -0.021923743691567101 0 5.7624630060770087e-05 -0.021959931707612401 0 1.8044722035422973e-06 -0.025926444341959499 0 0.00016068888317630865 -0.025382037695919433 0 0.00038311501245248301 -0.025213508257333758 0 -4.4480179322301667e-08 -0.02404872490887423 0 -5.4516506272530698e-05 -0.02410200534109792 0 0.00038311501245248301 -0.025213508257333758 0 9.4526869127534789e-05 -0.02198218234809059 0 0.0001171221791533691 -0.022134338796939559 0 0.00043522351709621154 -0.022774826216447538 0 -4.4480179322301667e-08 -0.02404872490887423 0 1.8044722035422973e-06 -0.025926444341959499 0 0.00038311501245248301 -0.025213508257333758 0 0.00024788126231795981 -0.022696577686964918 0 0.00013260836518688289 -0.022972887362630107 0 0.0001171221791533691 -0.022134338796939559 0 0.00021461447512957193 -0.022367125792368398 0 0.00043522351709621154 -0.022774826216447538 0 0.00021461447512957193 -0.022367125792368398 0 0.00043522351709621154 -0.022774826216447538 0 0.00040319064122849879 -0.022872717605958968 0 0.00013260836518688289 -0.022972887362630107 0 -2.2690288599869417e-05 -0.023034374942039283 0 0.00043522351709621154 -0.022774826216447538 0 0.00029288302156539017 -0.023469148367547144 0 5.8735032333224347e-05 -0.024281755172302751 0 0.00016068888317630865 -0.025382037695919433 0 0.00038311501245248301 -0.025213508257333758 0 5.8735032333224347e-05 -0.024281755172302751 0 0.00043522351709621154 -0.022774826216447538 0 0.00029288302156539017 -0.023469148367547144 0 0.00040319064122849879 -0.022872717605958968 0 0.00027162411280376003 -0.02295768508701946 0 0.00040319064122849879 -0.022872717605958968 0 0.00036199243764105637 -0.022810327960682587 0 0.00027162411280376003 -0.02295768508701946 0 0.00029288302156539017 -0.023469148367547144 0 0.00040319064122849879 -0.022872717605958968 0 0.00021461447512957193 -0.022367125792368398 0 0.00040319064122849879 -0.022872717605958968 0 0.00027591911067724933 -0.022638719771825796 0 -0.00020201401145504252 -0.020881082500771198 0 -0.00029581621314058522 -0.020910199069959338 0 -0.000158886319942418 -0.020959301026272428 0 -4.4542597649758772e-05 -0.022185417763247169 0 7.5069245269489203e-05 -0.022028808367521288 0 0.00040319064122849879 -0.022872717605958968 0 0.00036199243764105637 -0.022810327960682587 0 0.00027591911067724933 -0.022638719771825796 0 -0.00011991613726331689 -0.022592885440890741 0 -7.3698688527292769e-05 -0.02269482742053499 0 -4.2432860861467062e-05 -0.022671936688995278 0 0.00022754968293779094 -0.023305190147868589 0 0.00055697024878124848 -0.022849121300040607 0 -7.1321665010690426e-05 -0.022969377634671672 0 -4.4542597649758772e-05 -0.022185417763247169 0 -5.5493891690698681e-06 -0.022225830391834379 0 0.00055697024878124848 -0.022849121300040607 0 -4.2432860861467062e-05 -0.022671936688995278 0 -7.1321665010690426e-05 -0.022969377634671672 0 -0.0001254833291651962 -0.022485341133500085 0 -4.4542597649758772e-05 -0.022185417763247169 0 0.00021461447512957193 -0.022367125792368398 0 5.7624630060770087e-05 -0.021959931707612401 0 0.00027591911067724933 -0.022638719771825796 0 0.00016104850574727341 -0.021913910304253419 0 7.5069245269489203e-05 -0.022028808367521288 0 0.00021461447512957193 -0.022367125792368398 0 7.7605984774864857e-05 -0.021923743691567101 0 5.7624630060770087e-05 -0.021959931707612401 0 -0.00020201401145504252 -0.020881082500771198 0 -0.000158886319942418 -0.020959301026272428 0 -0.00012036584979010562 -0.020853370408717199 0 -0.000158886319942418 -0.020959301026272428 0 -5.9539766809522014e-05 -0.020913851620714307 0 -0.00012036584979010562 -0.020853370408717199 0 -2.1136117355955546e-05 -0.021014367745316266 0 -0.000158886319942418 -0.020959301026272428 0 -5.9539766809522014e-05 -0.020913851620714307 0 -2.1136117355955546e-05 -0.021014367745316266 0 -5.9539766809522014e-05 -0.020913851620714307 0 1.5949268919732209e-05 -0.020895036579806094 0 -5.9539766809522014e-05 -0.020913851620714307 0 1.5949268919732209e-05 -0.020895036579806094 0 -2.5594862547449551e-05 -0.020816987269591795 0 0.00010793691858522955 -0.020927064677028023 0 -2.1136117355955546e-05 -0.021014367745316266 0 1.5949268919732209e-05 -0.020895036579806094 0 1.5949268919732209e-05 -0.020895036579806094 0 -2.5594862547449551e-05 -0.020816987269591795 0 7.4373029880028899e-05 -0.020817121049228546 0 -2.5594862547449551e-05 -0.020816987269591795 0 1.9261955146498448e-05 -0.020744771831031256 0 -3.3137126747400605e-05 -0.020734315073132181 0 -2.5594862547449551e-05 -0.020816987269591795 0 1.9261955146498448e-05 -0.020744771831031256 0 7.4373029880028899e-05 -0.020817121049228546 0 -2.5594862547449551e-05 -0.020816987269591795 0 -8.2510663274460862e-05 -0.020754792485969183 0 -3.3137126747400605e-05 -0.020734315073132181 0 -5.9539766809522014e-05 -0.020913851620714307 0 -2.5594862547449551e-05 -0.020816987269591795 0 -0.00012036584979010562 -0.020853370408717199 0 -0.00012036584979010562 -0.020853370408717199 0 -8.2510663274460862e-05 -0.020754792485969183 0 -0.00018750189397805542 -0.020784823923911473 0 -0.00020201401145504252 -0.020881082500771198 0 -0.00012036584979010562 -0.020853370408717199 0 -0.00018750189397805542 -0.020784823923911473 0 -2.5594862547449551e-05 -0.020816987269591795 0 -0.00012036584979010562 -0.020853370408717199 0 -8.2510663274460862e-05 -0.020754792485969183 0 -0.00059515610989732941 -0.023120635235687165 0 -0.00035984504720380989 -0.022821862140201741 0 -0.00037553630125827017 -0.023055881532147663 0 -8.2510663274460862e-05 -0.020754792485969183 0 -7.9206513672997787e-05 -0.020664676745398899 0 -0.00018750189397805542 -0.020784823923911473 0 -0.00059767049656788795 -0.022949931022093265 0 -0.00021288175898708366 -0.022361068988018255 0 -8.2510663274460862e-05 -0.020754792485969183 0 -7.9206513672997787e-05 -0.020664676745398899 0 -4.9466219346764327e-05 -0.020675995267770336 0 -0.00059767049656788795 -0.022949931022093265 0 -0.00059918580007268976 -0.02293741051535339 0 -7.7202887302475591e-05 -0.020666412881962169 0 -4.9466219346764327e-05 -0.020675995267770336 0 -1.5577312523105075e-05 -0.020662145868116419 0 -4.9466219346764327e-05 -0.020675995267770336 0 -9.2479038677219505e-06 -0.020699858807989861 0 -3.3137126747400605e-05 -0.020734315073132181 0 -4.9466219346764327e-05 -0.020675995267770336 0 -9.2479038677219505e-06 -0.020699858807989861 0 -1.5577312523105075e-05 -0.020662145868116419 0 -9.2479038677219505e-06 -0.020699858807989861 0 1.9261955146498448e-05 -0.020744771831031256 0 3.2644489970646658e-05 -0.020682834880557433 0 -9.2479038677219505e-06 -0.020699858807989861 0 -1.5577312523105075e-05 -0.020662145868116419 0 3.2644489970646658e-05 -0.020682834880557433 0 -9.2479038677219505e-06 -0.020699858807989861 0 1.9261955146498448e-05 -0.020744771831031256 0 -3.3137126747400605e-05 -0.020734315073132181 0 -8.2510663274460862e-05 -0.020754792485969183 0 -4.9466219346764327e-05 -0.020675995267770336 0 -3.3137126747400605e-05 -0.020734315073132181 0 -0.00011991613726331689 -0.022592885440890741 0 -7.3698688527292769e-05 -0.02269482742053499 0 -0.00015958078610652741 -0.022777453837612545 0 -1.6288992275330135e-06 -0.022769174337173605 0 -7.3698688527292769e-05 -0.02269482742053499 0 -4.2432860861467062e-05 -0.022671936688995278 0 -1.6288992275330135e-06 -0.022769174337173605 0 -7.3698688527292769e-05 -0.02269482742053499 0 -0.00015958078610652741 -0.022777453837612545 0 -4.4542597649758772e-05 -0.022185417763247169 0 -0.00021288175898708366 -0.022361068988018255 0 -0.00020201401145504252 -0.020881082500771198 0 -0.00029581621314058522 -0.020910199069959338 0 -0.00018750189397805542 -0.020784823923911473 0 -0.00011991613726331689 -0.022592885440890741 0 -0.00015958078610652741 -0.022777453837612545 0 -0.00035984504720380989 -0.022821862140201741 0 -0.00015958078610652741 -0.022777453837612545 0 -0.00035984504720380989 -0.022821862140201741 0 -0.00020903661770828934 -0.023074798786722198 0 -0.00035984504720380989 -0.022821862140201741 0 -0.00037553630125827017 -0.023055881532147663 0 -0.00020903661770828934 -0.023074798786722198 0 -0.00037553630125827017 -0.023055881532147663 0 -0.00020903661770828934 -0.023074798786722198 0 -0.00035066354379407631 -0.023193540634152333 0 -1.6288992275330135e-06 -0.022769174337173605 0 -0.00015958078610652741 -0.022777453837612545 0 -0.00020903661770828934 -0.023074798786722198 0 -0.0001119845357647024 -0.023077394347147371 0 -0.00020903661770828934 -0.023074798786722198 0 -0.00011547796019085382 -0.02313635715528237 0 0.00052427434011748585 -0.024487593204385268 0 0.00053265648700672017 -0.024309795733010151 0 -0.00011308652941269522 -0.023212128721130036 0 -0.00016460033740786295 -0.023220570847588152 0 -6.3097647798651942e-05 -0.023264097493261093 0 -0.00020903661770828934 -0.023074798786722198 0 -0.00011547796019085382 -0.02313635715528237 0 -0.00017625960581074763 -0.023233523602684016 0 -0.00011547796019085382 -0.02313635715528237 0 -0.00011308652941269522 -0.023212128721130036 0 -0.00017625960581074763 -0.023233523602684016 0 -5.6929249410636658e-05 -0.024834672555929017 0 -6.878401154311073e-05 -0.024875866048886908 0 -0.00046465490422048863 -0.023787319473163177 0 -0.00051303363706459171 -0.023766844136518046 0 -0.00053985470879265639 -0.023796357779437154 0 -6.878401154311073e-05 -0.024875866048886908 0 -0.0005479648197900817 -0.024434013571187772 0 -6.878401154311073e-05 -0.024875866048886908 0 -0.00037713463717323561 -0.023873119279176382 0 -0.00020903661770828934 -0.023074798786722198 0 -0.00017625960581074763 -0.023233523602684016 0 -0.00035066354379407631 -0.023193540634152333 0 4.6453262713707617e-05 -0.035213088107883053 0 0.0005374623752744484 -0.03513380861871794 0 0.00028602748627260015 -0.034834275170014632 0 -6.878401154311073e-05 -0.024875866048886908 0 0.00068121672081201989 -0.026894033875270468 0 4.6453262713707617e-05 -0.035213088107883053 0 -0.00034156031434942976 -0.035065684070500633 0 -0.00017093636700163102 -0.034769073415444163 0 4.6453262713707617e-05 -0.035213088107883053 0 -0.00017093636700163102 -0.034769073415444163 0 0.00028602748627260015 -0.034834275170014632 0 -7.7202887302475591e-05 -0.020666412881962169 0 -1.5577312523105075e-05 -0.020662145868116419 0 2.8415709582587948e-05 -0.020616130257298162 0 -0.00056038847232089701 -0.023747788270795843 0 -0.00053985470879265639 -0.023796357779437154 0 -0.00061268509932539998 -0.023805995041702999 0 -0.00059767049656788795 -0.022949931022093265 0 -0.00087607022755940226 -0.022541485565783771 0 -7.7202887302475591e-05 -0.020666412881962169 0 3.3020241478648532e-05 -0.02053950431764014 0 2.8415709582587948e-05 -0.020616130257298162 0 -1.5577312523105075e-05 -0.020662145868116419 0 2.8415709582587948e-05 -0.020616130257298162 0 3.2644489970646658e-05 -0.020682834880557433 0 -0.00056038847232089701 -0.023747788270795843 0 -0.00051303363706459171 -0.023766844136518046 0 -0.00053985470879265639 -0.023796357779437154 0 -0.00059767049656788795 -0.022949931022093265 0 -0.00037713463717323561 -0.023873119279176382 0 -0.00059515610989732941 -0.023120635235687165 0 -0.00037553630125827017 -0.023055881532147663 0 -0.00035066354379407631 -0.023193540634152333 0 0.0005374623752744484 -0.03513380861871794 0 0.00071839604847865972 -0.034733499895735126 0 0.00028602748627260015 -0.034834275170014632 0 0.0005374623752744484 -0.03513380861871794 0 0.001049011716817096 -0.035040305911165075 0 0.00071839604847865972 -0.034733499895735126 0 -0.0005479648197900817 -0.024434013571187772 0 -0.00087607022755940226 -0.022541485565783771 0 -0.0011327113892811607 -0.020855585820811554 0 -0.00035544044832469302 -0.020720709227016423 0 -0.00057834784140534373 -0.020216880483135979 0 -0.00087607022755940226 -0.022541485565783771 0 -0.00069841277936176049 -0.020255588094872278 0 -0.00087607022755940226 -0.022541485565783771 0 -0.00086942444999335415 -0.023162569251852658 0 3.3020241478648532e-05 -0.02053950431764014 0 0.00014271163700244096 -0.020599369545825998 0 0.00013944304041673214 -0.020519066198813073 0 2.8415709582587948e-05 -0.020616130257298162 0 9.253255850255673e-05 -0.02066086774716144 0 0.00014271163700244096 -0.020599369545825998 0 3.3020241478648532e-05 -0.02053950431764014 0 2.8415709582587948e-05 -0.020616130257298162 0 0.00014271163700244096 -0.020599369545825998 0 2.8415709582587948e-05 -0.020616130257298162 0 9.253255850255673e-05 -0.02066086774716144 0 3.2644489970646658e-05 -0.020682834880557433 0 0.00014271163700244096 -0.020599369545825998 0 0.00027980917920899601 -0.020654089476689664 0 0.00016641994278720866 -0.020696329151882291 0 9.253255850255673e-05 -0.02066086774716144 0 0.00014271163700244096 -0.020599369545825998 0 0.00016641994278720866 -0.020696329151882291 0 -0.00069841277936176049 -0.020255588094872278 0 -0.00082169858416096162 -0.017959454145882344 0 0.00014271163700244096 -0.020599369545825998 0 0.00013944304041673214 -0.020519066198813073 0 0.00024492462882564416 -0.020497988520122998 0 -0.00035544044832469302 -0.020720709227016423 0 6.3599627478827184e-05 -0.020520130935289756 0 0.00041635299371275037 -0.020583283401973171 0 -0.00022660173928170448 -0.020400288185545151 0 -0.00035544044832469302 -0.020720709227016423 0 -0.00057834784140534373 -0.020216880483135979 0 -0.00022660173928170448 -0.020400288185545151 0 -0.00035544044832469302 -0.020720709227016423 0 6.3599627478827184e-05 -0.020520130935289756 0 6.3599627478827184e-05 -0.020520130935289756 0 0.00041635299371275037 -0.020583283401973171 0 0.00039618201362663587 -0.020492777677757115 0 -0.00086942276666542625 -0.018748691073880937 0 -1.7826666495998777e-05 -0.018684468133965969 0 -0.00098536639410400431 -0.01822308341708662 0 6.3599627478827184e-05 -0.020520130935289756 0 0.00039886006212263539 -0.020494618956498921 0 0.00035343267217651778 -0.02028973297217156 0 -0.0051280087133828891 -0.0071906339789463225 0 -0.0044077089322220606 -0.0078353995109553907 0 -0.0046761243832073255 -0.0085225695628968652 0 -0.00082169858416096162 -0.017959454145882344 0 -0.0017395312857215878 -0.015155740484036504 0 -0.00073838409511302805 -0.017955086793116627 0 -0.00077530764760128503 -0.017926743428292612 0 -0.00077530764760128503 -0.017926743428292612 0 -0.00070937115955385665 -0.018869353711866935 0 -0.0051280087133828891 -0.0071906339789463225 0 -0.0051629566210015833 -0.0070307706810433211 0 -0.0045731759374490963 -0.0069843684223485853 0 -0.00082169858416096162 -0.017959454145882344 0 -0.00077530764760128503 -0.017926743428292612 0 -0.0051280087133828891 -0.0071906339789463225 0 -0.0044676271050618204 -0.0071075256761798308 0 -0.0042732952486192813 -0.007449433528637737 0 -0.0051280087133828891 -0.0071906339789463225 0 -0.0045731759374490963 -0.0069843684223485853 0 -0.0044676271050618204 -0.0071075256761798308 0 -0.00077530764760128503 -0.017926743428292612 0 -0.0015862415218488833 -0.017068933026219021 0 -0.0015862415218488833 -0.017068933026219021 0 -0.0016053118414291879 -0.017040583858510091 0 -0.0051280087133828891 -0.0071906339789463225 0 -0.0044077089322220606 -0.0078353995109553907 0 -0.0042732952486192813 -0.007449433528637737 0 -0.0023858798394454433 -0.0067886961834593999 0 -0.0045736203338601414 -0.0069845568128391218 0 -0.0038301184290456466 -0.0073051843344426144 0 -0.00095433093068910486 -0.012593701201000104 0 -0.0015862415218488833 -0.017068933026219021 0 -0.0023858798394454433 -0.0067886961834593999 0 -0.0038301184290456466 -0.0073051843344426144 0 -0.0032407672616688011 -0.0077826319970253667 0 -0.0044676271050618204 -0.0071075256761798308 0 -0.0038301184290456466 -0.0073051843344426144 0 -0.0042732952486192813 -0.007449433528637737 0 -0.0045736203338601414 -0.0069845568128391218 0 -0.0044676271050618204 -0.0071075256761798308 0 -0.0038301184290456466 -0.0073051843344426144 0 -0.0038301184290456466 -0.0073051843344426144 0 -0.0040391102298819037 -0.0077201262875706816 0 -0.0042732952486192813 -0.007449433528637737 0 -0.0044077089322220606 -0.0078353995109553907 0 -0.0040391102298819037 -0.0077201262875706816 0 -0.0042732952486192813 -0.007449433528637737 0 -0.0044077089322220606 -0.0078353995109553907 0 -0.0041189125729938535 -0.0079766007404864295 0 -0.0042310915633782392 -0.0082475481160346094 0 -0.0044077089322220606 -0.0078353995109553907 0 -0.0040391102298819037 -0.0077201262875706816 0 -0.0041189125729938535 -0.0079766007404864295 0 -0.0040391102298819037 -0.0077201262875706816 0 -0.0041189125729938535 -0.0079766007404864295 0 -0.0037997770037447708 -0.0081026681152151277 0 -0.0040391102298819037 -0.0077201262875706816 0 -0.0032407672616688011 -0.0077826319970253667 0 -0.0037997770037447708 -0.0081026681152151277 0 -0.0038301184290456466 -0.0073051843344426144 0 -0.0040391102298819037 -0.0077201262875706816 0 -0.0032407672616688011 -0.0077826319970253667 0 -0.0040376899488527513 -0.0090564739241542902 0 -0.0043586503139563275 -0.0085820370024068549 0 -0.0042308020013067747 -0.0098733666172760408 0 -0.002258102053540849 -0.012874926826816522 0 -0.0020649567540905966 -0.013822519998223542 0 -0.0032407672616688011 -0.0077826319970253667 0 -0.0032165285801959188 -0.0085062083216432133 0 -0.0037997770037447708 -0.0081026681152151277 0 -0.0032165285801959188 -0.0085062083216432133 0 -0.0038919387311262999 -0.0085677063160645491 0 -0.0037997770037447708 -0.0081026681152151277 0 -0.0038919387311262999 -0.0085677063160645491 0 -0.0037997770037447708 -0.0081026681152151277 0 -0.0042310915633782392 -0.0082475481160346094 0 -0.0041189125729938535 -0.0079766007404864295 0 -0.0037997770037447708 -0.0081026681152151277 0 -0.0042310915633782392 -0.0082475481160346094 0 -0.0038919387311262999 -0.0085677063160645491 0 -0.0042310915633782392 -0.0082475481160346094 0 -0.0043586503139563275 -0.0085820370024068549 0 -0.0038919387311262999 -0.0085677063160645491 0 -0.0040376899488527513 -0.0090564739241542902 0 -0.0043586503139563275 -0.0085820370024068549 0 -0.0040376899488527513 -0.0090564739241542902 0 -0.0036481039091400716 -0.0090057640026175532 0 -0.0038065096986583309 -0.0095962868963202462 0 -0.0038919387311262999 -0.0085677063160645491 0 -0.0040376899488527513 -0.0090564739241542902 0 -0.0036481039091400716 -0.0090057640026175532 0 -0.0032165285801959188 -0.0085062083216432133 0 -0.0038919387311262999 -0.0085677063160645491 0 -0.0036481039091400716 -0.0090057640026175532 0 -0.0030470348110831886 -0.009665167196575928 0 -0.0032165285801959188 -0.0085062083216432133 0 -0.0036481039091400716 -0.0090057640026175532 0 -0.0013081109610546164 -0.016085286508423363 0 -0.0013187302472643973 -0.016521898380067873 0 -0.0016072693229379198 -0.015669979796816617 0 -0.00099657473730741116 -0.017368254408039085 0 -0.0013081109610546164 -0.016085286508423363 0 -0.0013187302472643973 -0.016521898380067873 0 -0.0043586503139563275 -0.0085820370024068549 0 -0.0046761243832073255 -0.0085225695628968652 0 -0.0042135907312193946 -0.010060772712779241 0 -0.00082169858416096162 -0.017959454145882344 0 -0.0010304499700675919 -0.017605695999847702 0 -0.0017395312857215878 -0.015155740484036504 0 -0.0020649567540905966 -0.013822519998223542 0 0.00014271163700244096 -0.020599369545825998 0 0.00024492462882564416 -0.020497988520122998 0 0.00027980917920899601 -0.020654089476689664 0 -0.0044077089322220606 -0.0078353995109553907 0 -0.0042310915633782392 -0.0082475481160346094 0 -0.0046761243832073255 -0.0085225695628968652 0 -0.0042310915633782392 -0.0082475481160346094 0 -0.0043586503139563275 -0.0085820370024068549 0 -0.0046761243832073255 -0.0085225695628968652 0 -0.0013081109610546164 -0.016085286508423363 0 -0.0016072693229379198 -0.015669979796816617 0 -0.001613399201447705 -0.014802450815484834 0 -0.0010304499700675919 -0.017605695999847702 0 -0.0015974990270916009 -0.016099133111801785 0 0.00027980917920899601 -0.020654089476689664 0 0.00022195566231037896 -0.020755991694874559 0 0.00016641994278720866 -0.020696329151882291 0 0.00027980917920899601 -0.020654089476689664 0 0.00022195566231037896 -0.020755991694874559 0 0.00030861409330946082 -0.020807590998267875 0 -0.0030470348110831886 -0.009665167196575928 0 -0.0040660295172661887 -0.010389366252623194 0 -0.0041002589894908025 -0.011085366123494573 0 -0.00099363640177990557 -0.012325414382090751 0 -0.0015365966518495122 -0.015399585132470282 0 -0.0030470348110831886 -0.009665167196575928 0 -0.0036481039091400716 -0.0090057640026175532 0 -0.0038065096986583309 -0.0095962868963202462 0 -0.0030470348110831886 -0.009665167196575928 0 -0.0038065096986583309 -0.0095962868963202462 0 -0.0040660295172661887 -0.010389366252623194 0 -0.0040376899488527513 -0.0090564739241542902 0 -0.0038065096986583309 -0.0095962868963202462 0 -0.0042308020013067747 -0.0098733666172760408 0 -0.0042286416201758872 -0.0098787368013160334 0 -0.0040660295172661887 -0.010389366252623194 0 -0.0041002589894908025 -0.011085366123494573 0 -0.0038065096986583309 -0.0095962868963202462 0 -0.0042308020013067747 -0.0098733666172760408 0 -0.0040660295172661887 -0.010389366252623194 0 -0.0020649567540905966 -0.013822519998223542 0 -0.0015365966518495122 -0.015399585132470282 0 -0.0020649567540905966 -0.013822519998223542 0 -0.0021167879796201183 -0.013686078520892207 0 -0.0024473205235011684 -0.010527036550390037 0 -0.0026271053978056281 -0.0093936523857947561 0 -0.0034294188733618607 -0.010680445097447503 0 -0.001559413571270106 -0.016536059003143953 0 -0.0015635662564073402 -0.016471808959580159 0 -0.0015692756978468705 -0.016479426830713132 0 -0.0016072693229379198 -0.015669979796816617 0 -0.0016981295070981142 -0.014916456365308145 0 -0.001613399201447705 -0.014802450815484834 0 -0.0015365966518495122 -0.015399585132470282 0 -0.0015974990270916009 -0.016099133111801785 0 -0.0024473205235011684 -0.010527036550390037 0 -0.0034294188733618607 -0.010680445097447503 0 -0.0025861154066101136 -0.011316644276661831 0 0.00022195566231037896 -0.020755991694874559 0 0.00030861409330946082 -0.020807590998267875 0 0.00020829661799821934 -0.02084013293315392 0 0.00022195566231037896 -0.020755991694874559 0 0.00020829661799821934 -0.02084013293315392 0 0.00014708649462023401 -0.020779270752649882 0 0.00015129080547154444 -0.020863880740539683 0 0.00020829661799821934 -0.02084013293315392 0 0.00014708649462023401 -0.020779270752649882 0 0.00015129080547154444 -0.020863880740539683 0 0.00014708649462023401 -0.020779270752649882 0 7.4373029880028899e-05 -0.020817121049228546 0 1.9261955146498448e-05 -0.020744771831031256 0 7.4373029880028899e-05 -0.020817121049228546 0 8.914292441791088e-05 -0.020730158003734837 0 0.00014708649462023401 -0.020779270752649882 0 7.4373029880028899e-05 -0.020817121049228546 0 8.914292441791088e-05 -0.020730158003734837 0 1.9261955146498448e-05 -0.020744771831031256 0 8.914292441791088e-05 -0.020730158003734837 0 3.2644489970646658e-05 -0.020682834880557433 0 9.253255850255673e-05 -0.02066086774716144 0 8.914292441791088e-05 -0.020730158003734837 0 3.2644489970646658e-05 -0.020682834880557433 0 9.253255850255673e-05 -0.02066086774716144 0 8.914292441791088e-05 -0.020730158003734837 0 0.00016641994278720866 -0.020696329151882291 0 0.00022195566231037896 -0.020755991694874559 0 0.00014708649462023401 -0.020779270752649882 0 0.00016641994278720866 -0.020696329151882291 0 0.00014708649462023401 -0.020779270752649882 0 8.914292441791088e-05 -0.020730158003734837 0 0.00016641994278720866 -0.020696329151882291 0 1.4548948231261141e-06 -0.034996033639461986 0 0.00018077880636982208 -0.034210460807033945 0 9.2670565143773595e-05 -0.034778091329624665 0 1.4548948231261141e-06 -0.034996033639461986 0 -4.5222224200537023e-07 -0.035000614076637598 0 9.2670565143773595e-05 -0.034778091329624665 0 0.00018077880636982208 -0.034210460807033945 0 -2.1326917643394115e-05 -0.034546960548201715 0 9.2670565143773595e-05 -0.034778091329624665 0 -0.00019076600784558007 -0.034640899021477795 0 -7.9416615955719372e-05 -0.03482096719185164 0 1.4548948231261141e-06 -0.034996033639461986 0 0.00018077880636982208 -0.034210460807033945 0 -2.2078107814948725e-06 -0.031256784445876609 0 0.00018077880636982208 -0.034210460807033945 0 -0.0002698396933851308 -0.033323784781207469 0 -0.00038029836461108112 -0.034083932954044459 0 0.00018077880636982208 -0.034210460807033945 0 -2.2078107814948725e-06 -0.031256784445876609 0 -0.0002698396933851308 -0.033323784781207469 0 -8.1900737015561124e-07 -0.031248433129247695 0 -0.00031885448947369485 -0.0308706924077265 0 -2.2078107814948725e-06 -0.031256784445876609 0 -0.0002698396933851308 -0.033323784781207469 0 -0.0011886213267405506 -0.033426234562706721 0 -0.0002698396933851308 -0.033323784781207469 0 -0.00038029836461108112 -0.034083932954044459 0 -0.0011886213267405506 -0.033426234562706721 0 -0.00038029836461108112 -0.034083932954044459 0 -0.000511441788430956 -0.034467359291206291 0 -0.00085734166532877424 -0.034181244818015474 0 -0.00026538313232136388 -0.034541925756498011 0 -0.00019076600784558007 -0.034640899021477795 0 0.00018077880636982208 -0.034210460807033945 0 -0.00038029836461108112 -0.034083932954044459 0 -2.1326917643394115e-05 -0.034546960548201715 0 -0.00018464229452200815 -0.034452343766844737 0 -0.000511441788430956 -0.034467359291206291 0 -0.00025082163773864074 -0.034728151215492664 0 -0.00038029836461108112 -0.034083932954044459 0 -0.00018464229452200815 -0.034452343766844737 0 -0.000511441788430956 -0.034467359291206291 0 -0.000511441788430956 -0.034467359291206291 0 -0.00099614500721716365 -0.034404684324094811 0 -0.00085734166532877424 -0.034181244818015474 0 -0.000511441788430956 -0.034467359291206291 0 -0.00099614500721716365 -0.034404684324094811 0 -0.00055223804785747138 -0.034784735164597971 0 -0.00099614500721716365 -0.034404684324094811 0 -0.001153619119273173 -0.034204093622894755 0 -0.00085734166532877424 -0.034181244818015474 0 -0.00047861970094027003 -0.030164366337569887 0 0.00014564738883957989 -0.027913510011825283 0 -0.00099614500721716365 -0.034404684324094811 0 -0.001153619119273173 -0.034204093622894755 0 -0.0011121576527147914 -0.034460358260953547 0 3.7939160239286863e-05 -0.029377609092787606 0 4.1823528998906694e-05 -0.029384579319388086 0 4.5191248855420064e-05 -0.02938245154590783 0 3.7939160239286863e-05 -0.029377609092787606 0 4.1823528998906694e-05 -0.029384579319388086 0 7.488358191597715e-05 -0.029364844369564679 0 -0.00038029836461108112 -0.034083932954044459 0 -0.00085734166532877424 -0.034181244818015474 0 -0.0011886213267405506 -0.033426234562706721 0 -0.001153619119273173 -0.034204093622894755 0 -0.00085734166532877424 -0.034181244818015474 0 -0.0011886213267405506 -0.033426234562706721 0 -0.00047861970094027003 -0.030164366337569887 0 -0.00031885448947369485 -0.0308706924077265 0 -1.1147161489776378e-06 -0.031246906619647959 0 4.5191248855420064e-05 -0.02938245154590783 0 1.0961660612757573e-06 -0.02952720698461803 0 1.0961660612757573e-06 -0.02952720698461803 0 0.00012368725242543845 -0.02910367369870271 0 -1.0736448352950778e-06 -0.027807297269060234 0 4.5191248855420064e-05 -0.02938245154590783 0 1.0961660612757573e-06 -0.02952720698461803 0 0.00012368725242543845 -0.02910367369870271 0 4.1823528998906694e-05 -0.029384579319388086 0 4.5191248855420064e-05 -0.02938245154590783 0 0.00012368725242543845 -0.02910367369870271 0 4.1823528998906694e-05 -0.029384579319388086 0 0.00012368725242543845 -0.02910367369870271 0 -0.00023682561359137866 -0.029226710046538582 0 -0.0012410684789944787 -0.024713184548678997 0 -0.00010961406192124864 -0.025052353846949232 0 -0.00048651064585608715 -0.023965389508419446 0 -0.0012410684789944787 -0.024713184548678997 0 -3.2484931379564864e-06 -0.027801650024700222 0 -4.5216116965964782e-05 -0.026034110191443617 0 0.00012368725242543845 -0.02910367369870271 0 -0.00023682561359137866 -0.029226710046538582 0 -1.0736448352950778e-06 -0.027807297269060234 0 -8.4614361956773419e-05 -0.02709626198044874 0 -2.8160565236581272e-07 -0.027803591092202016 0 1.8044722035422973e-06 -0.025926444341959499 0 -3.2484931379564864e-06 -0.027801650024700222 0 -4.5216116965964782e-05 -0.026034110191443617 0 1.8044722035422973e-06 -0.025926444341959499 0 0.00016068888317630865 -0.025382037695919433 0 -4.5216116965964782e-05 -0.026034110191443617 0 0.00016068888317630865 -0.025382037695919433 0 -0.00010961406192124864 -0.025052353846949232 0 5.8735032333224347e-05 -0.024281755172302751 0 0.00016068888317630865 -0.025382037695919433 0 -4.5216116965964782e-05 -0.026034110191443617 0 -0.00010961406192124864 -0.025052353846949232 0 -0.0012410684789944787 -0.024713184548678997 0 -4.5216116965964782e-05 -0.026034110191443617 0 -0.00010961406192124864 -0.025052353846949232 0 -0.00010961406192124864 -0.025052353846949232 0 5.8735032333224347e-05 -0.024281755172302751 0 -0.00048651064585608715 -0.023965389508419446 0 -0.00011520395630501315 -0.023945251349959781 0 5.8735032333224347e-05 -0.024281755172302751 0 -0.00048651064585608715 -0.023965389508419446 0 0.00029288302156539017 -0.023469148367547144 0 -0.00011520395630501315 -0.023945251349959781 0 5.8735032333224347e-05 -0.024281755172302751 0 0.00027162411280376003 -0.02295768508701946 0 0.00029288302156539017 -0.023469148367547144 0 -0.00011520395630501315 -0.023945251349959781 0 -0.0001254833291651962 -0.022485341133500085 0 -0.00018137215858523914 -0.022623817003501554 0 0.00022754968293779094 -0.023305190147868589 0 -0.00030886962203184956 -0.023292126713710594 0 -7.1321665010690426e-05 -0.022969377634671672 0 0.00022754968293779094 -0.023305190147868589 0 -0.00011520395630501315 -0.023945251349959781 0 -0.00030886962203184956 -0.023292126713710594 0 -0.00011520395630501315 -0.023945251349959781 0 -0.00030886962203184956 -0.023292126713710594 0 -0.00048651064585608715 -0.023965389508419446 0 4.1823528998906694e-05 -0.029384579319388086 0 -0.00023682561359137866 -0.029226710046538582 0 -0.00016177336073841945 -0.029579666503315106 0 -8.4614361956773419e-05 -0.02709626198044874 0 -4.049940632525701e-05 -0.026613398635310526 0 -0.0012410684789944787 -0.024713184548678997 0 -0.00048651064585608715 -0.023965389508419446 0 -0.0010432642684205611 -0.02309995718525882 0 -0.00022239274994591539 -0.026938569802263522 0 -4.049940632525701e-05 -0.026613398635310526 0 -0.00030886962203184956 -0.023292126713710594 0 -0.00048651064585608715 -0.023965389508419446 0 -0.0010432642684205611 -0.02309995718525882 0 3.7939160239286863e-05 -0.029377609092787606 0 7.488358191597715e-05 -0.029364844369564679 0 7.5731862145060784e-05 -0.029319851769801498 0 -4.049940632525701e-05 -0.026613398635310526 0 0.00014564738883957989 -0.027913510011825283 0 -5.9355985146508597e-05 -0.023076128480420795 0 -6.9023643604925004e-05 -0.023076746746444811 0 -5.3858036848770886e-05 -0.023081563721683917 0 -4.049940632525701e-05 -0.026613398635310526 0 0.00040087208237152858 -0.025150811588443411 0 -0.00030886962203184956 -0.023292126713710594 0 -0.00018487084239020133 -0.022629066950066522 0 -7.1321665010690426e-05 -0.022969377634671672 0 -0.00030886962203184956 -0.023292126713710594 0 -0.0010432642684205611 -0.02309995718525882 0 -0.00018487084239020133 -0.022629066950066522 0 -0.00018487084239020133 -0.022629066950066522 0 -4.2432860861467062e-05 -0.022671936688995278 0 -7.1321665010690426e-05 -0.022969377634671672 0 -7.1187881136431134e-05 -0.023090095530357378 0 -5.3858036848770886e-05 -0.023081563721683917 0 -6.1988600570647972e-05 -0.023130441438867801 0 -0.0001119845357647024 -0.023077394347147371 0 -6.9023643604925004e-05 -0.023076746746444811 0 -7.1187881136431134e-05 -0.023090095530357378 0 -1.6288992275330135e-06 -0.022769174337173605 0 -0.00018487084239020133 -0.022629066950066522 0 -4.2432860861467062e-05 -0.022671936688995278 0 0.00052427434011748585 -0.024487593204385268 0 0.00040087208237152858 -0.025150811588443411 0 -6.9023643604925004e-05 -0.023076746746444811 0 -7.1187881136431134e-05 -0.023090095530357378 0 -5.3858036848770886e-05 -0.023081563721683917 0 0.00014564738883957989 -0.027913510011825283 0 0.00080647253184008654 -0.026208604804171073 0 0.00014564738883957989 -0.027913510011825283 0 0.00068948492312927655 -0.028477316667252697 0 9.4281163244929307e-06 -0.023055811414667157 0 2.4971864797385953e-05 -0.02316279339652701 0 -6.1988600570647972e-05 -0.023130441438867801 0 -0.0001119845357647024 -0.023077394347147371 0 -7.1187881136431134e-05 -0.023090095530357378 0 -6.1988600570647972e-05 -0.023130441438867801 0 -0.0001119845357647024 -0.023077394347147371 0 -0.00011547796019085382 -0.02313635715528237 0 -6.1988600570647972e-05 -0.023130441438867801 0 -0.00011547796019085382 -0.02313635715528237 0 -0.00011308652941269522 -0.023212128721130036 0 -5.3256517556903489e-05 -0.023196235312564421 0 2.4971864797385953e-05 -0.02316279339652701 0 -6.1988600570647972e-05 -0.023130441438867801 0 -5.3256517556903489e-05 -0.023196235312564421 0 -0.00011547796019085382 -0.02313635715528237 0 -6.1988600570647972e-05 -0.023130441438867801 0 -5.3256517556903489e-05 -0.023196235312564421 0 -0.00011308652941269522 -0.023212128721130036 0 -5.3256517556903489e-05 -0.023196235312564421 0 -6.3097647798651942e-05 -0.023264097493261093 0 -5.3256517556903489e-05 -0.023196235312564421 0 -6.3097647798651942e-05 -0.023264097493261093 0 4.4579149322545337e-05 -0.023312121877420731 0 0.00068121672081201989 -0.026894033875270468 0 0.0016262851643046475 -0.028425780395455846 0 -0.00034156031434942976 -0.035065684070500633 0 -0.0006921404354795135 -0.034914228876481379 0 -0.0005640953845216551 -0.034774216056378128 0 0.0016262851643046475 -0.028425780395455846 0 0.0016168756020021925 -0.028454124971889993 0 -0.00069556308336085257 -0.034909013876837487 0 -0.00069667300949660042 -0.034863092875574556 0 -0.00078236979818954451 -0.034855078142272053 0 0.0016262851643046475 -0.028425780395455846 0 0.0016238964582387823 -0.02847059451872563 0 2.4971864797385953e-05 -0.02316279339652701 0 -5.3256517556903489e-05 -0.023196235312564421 0 4.4579149322545337e-05 -0.023312121877420731 0 0.00068948492312927655 -0.028477316667252697 0 0.0016262851643046475 -0.028425780395455846 0 -0.00098514025143482025 -0.034670822355664786 0 -0.00079821509423279563 -0.034810777214640008 0 -0.00080304100270233542 -0.034685764399173022 0 -0.00098514025143482025 -0.034670822355664786 0 -0.0008253901919731885 -0.034842133131094022 0 -0.00079821509423279563 -0.034810777214640008 0 -0.00079821509423279563 -0.034810777214640008 0 -0.00075998151376849548 -0.034850808594056565 0 -0.00077167732435673723 -0.034829895506319847 0 -0.00079821509423279563 -0.034810777214640008 0 -0.00078236979818954451 -0.034855078142272053 0 -0.00077167732435673723 -0.034829895506319847 0 -0.0008253901919731885 -0.034842133131094022 0 -0.00079821509423279563 -0.034810777214640008 0 -0.00078236979818954451 -0.034855078142272053 0 -0.00079821509423279563 -0.034810777214640008 0 -0.00070001669642792035 -0.034811325442410619 0 -0.00075998151376849548 -0.034850808594056565 0 -0.00079821509423279563 -0.034810777214640008 0 -0.00080304100270233542 -0.034685764399173022 0 -0.00070001669642792035 -0.034811325442410619 0 -0.00080304100270233542 -0.034685764399173022 0 -0.00093153384025575041 -0.034546189856596847 0 -0.00069646268174059541 -0.034502371485925963 0 -0.0011121576527147914 -0.034460358260953547 0 -0.00098514025143482025 -0.034670822355664786 0 -0.00093153384025575041 -0.034546189856596847 0 -0.00098514025143482025 -0.034670822355664786 0 -0.00080304100270233542 -0.034685764399173022 0 -0.00093153384025575041 -0.034546189856596847 0 -0.00099614500721716365 -0.034404684324094811 0 -0.0011121576527147914 -0.034460358260953547 0 -0.00093153384025575041 -0.034546189856596847 0 -0.00067856625470065805 -0.034577827176465431 0 -0.00057625022531160883 -0.034649035176015537 0 -0.00099614500721716365 -0.034404684324094811 0 -0.00093153384025575041 -0.034546189856596847 0 -0.00069646268174059541 -0.034502371485925963 0 -0.000511441788430956 -0.034467359291206291 0 -0.00055223804785747138 -0.034784735164597971 0 -0.00025082163773864074 -0.034728151215492664 0 -0.00055223804785747138 -0.034784735164597971 0 -0.00025082163773864074 -0.034728151215492664 0 -0.00020136301968514477 -0.034951337553163042 0 -0.00057625022531160883 -0.034649035176015537 0 -0.00041924040969115088 -0.034755054922841408 0 -0.00069646268174059541 -0.034502371485925963 0 -0.0004461580302957377 -0.034626214054541214 0 -0.00063561670899715123 -0.034694999827292163 0 -0.00080304100270233542 -0.034685764399173022 0 -0.00069646268174059541 -0.034502371485925963 0 -0.00063561670899715123 -0.034694999827292163 0 -0.00080304100270233542 -0.034685764399173022 0 -0.00063561670899715123 -0.034694999827292163 0 -0.00070001669642792035 -0.034811325442410619 0 -0.00063561670899715123 -0.034694999827292163 0 -0.00070001669642792035 -0.034811325442410619 0 -0.00048743551559086794 -0.034857402621764275 0 -0.00070001669642792035 -0.034811325442410619 0 -0.00060886482603803211 -0.034907445444288608 0 -0.00075998151376849548 -0.034850808594056565 0 -0.00070001669642792035 -0.034811325442410619 0 -0.00048743551559086794 -0.034857402621764275 0 -0.00060886482603803211 -0.034907445444288608 0 -0.00048743551559086794 -0.034857402621764275 0 -0.00031754850168032848 -0.035058978195851402 0 -0.00060886482603803211 -0.034907445444288608 0 -0.0004461580302957377 -0.034626214054541214 0 -0.00063561670899715123 -0.034694999827292163 0 -0.00048743551559086794 -0.034857402621764275 0 -0.00041924040969115088 -0.034755054922841408 0 -0.00033891038540846252 -0.034810324540063414 0 -0.0004461580302957377 -0.034626214054541214 0 -0.00048743551559086794 -0.034857402621764275 0 -0.00011609112331858872 -0.034926989331919837 0 -0.00048743551559086794 -0.034857402621764275 0 -0.00011609112331858872 -0.034926989331919837 0 -0.00031754850168032848 -0.035058978195851402 0 -4.0173892028356411e-08 -0.035000187848581797 0 -0.00011609112331858872 -0.034926989331919837 0 -0.00031754850168032848 -0.035058978195851402 0 -4.0173892028356411e-08 -0.035000187848581797 0 -1.3562545047602292e-07 -0.034999887970951438 0 -0.00011609112331858872 -0.034926989331919837 0 -1.3562545047602292e-07 -0.034999887970951438 0 -0.00011609112331858872 -0.034926989331919837 0 9.3543898801485307e-08 -0.034999642861492652 0 -0.00020136301968514477 -0.034951337553163042 0 9.3543898801485307e-08 -0.034999642861492652 0 -6.1865930906948442e-05 -0.034767356385629083 0 -0.00020136301968514477 -0.034951337553163042 0 -0.00011609112331858872 -0.034926989331919837 0 9.3543898801485307e-08 -0.034999642861492652 0 -0.00025082163773864074 -0.034728151215492664 0 -0.00020136301968514477 -0.034951337553163042 0 -6.1865930906948442e-05 -0.034767356385629083 0 -0.00018464229452200815 -0.034452343766844737 0 -0.00025082163773864074 -0.034728151215492664 0 -6.1865930906948442e-05 -0.034767356385629083 0 -7.693803672134404e-09 -0.034999646859868512 0 -7.9416615955719372e-05 -0.03482096719185164 0 -2.4156484709375985e-09 -0.034999983862005188 0 -4.3852763826965993e-06 -0.034986818409982232 0 -1.8046021910173592e-06 -0.034986810226502886 0 -4.3852763826965993e-06 -0.034986818409982232 0 -4.4783038537133528e-06 -0.034973606392946832 0 -1.8046021910173592e-06 -0.034986810226502886 0 -2.4156484709375985e-09 -0.034999983862005188 0 -4.3852763826965993e-06 -0.034986818409982232 0 -4.526393106148057e-09 -0.034999987360544778 0 3.8677402410373067e-10 -0.034999995481898 0 -4.526393106148057e-09 -0.034999987360544778 0 -3.7070548103557871e-06 -0.034991724108981236 0 -2.7915706565658279e-07 -0.034999611726261808 0 -0.00015252821970653302 -0.034854413578224087 0 -4.3852763826965993e-06 -0.034986818409982232 0 -4.526393106148057e-09 -0.034999987360544778 0 -3.7070548103557871e-06 -0.034991724108981236 0 -4.3852763826965993e-06 -0.034986818409982232 0 -3.7070548103557871e-06 -0.034991724108981236 0 -6.1582596030980696e-06 -0.034981471260569802 0 -0.00015252821970653302 -0.034854413578224087 0 -0.00028411165223399677 -0.034650687168594138 0 -0.00031754850168032848 -0.035058978195851402 0 -0.00060886482603803211 -0.034907445444288608 0 -0.00065723972396985715 -0.034960298753519276 0 -0.00060886482603803211 -0.034907445444288608 0 -0.00065723972396985715 -0.034960298753519276 0 -0.00075998151376849548 -0.034850808594056565 0 -6.1582596030980696e-06 -0.034981471260569802 0 -6.8535851370976821e-06 -0.034974269668021557 0 -6.2238762872157612e-06 -0.034978567423430793 0 -4.3852763826965993e-06 -0.034986818409982232 0 -6.1582596030980696e-06 -0.034981471260569802 0 -6.8535851370976821e-06 -0.034974269668021557 0 -4.3852763826965993e-06 -0.034986818409982232 0 -6.8535851370976821e-06 -0.034974269668021557 0 -4.4783038537133528e-06 -0.034973606392946832 0 -6.8535851370976821e-06 -0.034974269668021557 0 -4.4783038537133528e-06 -0.034973606392946832 0 -4.7295752357122595e-06 -0.034952892746364636 0 -4.4783038537133528e-06 -0.034973606392946832 0 -4.7295752357122595e-06 -0.034952892746364636 0 -1.7766804212335294e-06 -0.034955861979363061 0 -4.7295752357122595e-06 -0.034952892746364636 0 7.6429485994965842e-07 -0.034924305972582531 0 6.5573592481049589e-06 -0.034914370103707119 0 7.6429485994965842e-07 -0.034924305972582531 0 -6.2238762872157612e-06 -0.034978567423430793 0 3.1440419700839272e-05 -0.034992287351022208 0 -0.00035833961089082783 -0.034327708069602759 0 -0.00034673454593160436 -0.033808345839617768 0 -6.8535851370976821e-06 -0.034974269668021557 0 -4.7295752357122595e-06 -0.034952892746364636 0 -6.2238762872157612e-06 -0.034978567423430793 0 -4.7295752357122595e-06 -0.034952892746364636 0 7.6429485994965842e-07 -0.034924305972582531 0 -6.2238762872157612e-06 -0.034978567423430793 0 -0.00065723972396985715 -0.034960298753519276 0 -0.00079682968400210657 -0.034697169099773176 0 -0.00075998151376849548 -0.034850808594056565 0 -0.00028411165223399677 -0.034650687168594138 0 -0.00035833961089082783 -0.034327708069602759 0 -0.00075998151376849548 -0.034850808594056565 0 -0.00077167732435673723 -0.034829895506319847 0 -0.00073926287856514714 -0.034745967977190054 0 -0.00073896540980841134 -0.034809246552780719 0 -0.00077167732435673723 -0.034829895506319847 0 -0.00073926287856514714 -0.034745967977190054 0 -0.00078236979818954451 -0.034855078142272053 0 -0.00073896540980841134 -0.034809246552780719 0 -0.00077167732435673723 -0.034829895506319847 0 -0.00069667300949660042 -0.034863092875574556 0 -0.00078236979818954451 -0.034855078142272053 0 -0.00073896540980841134 -0.034809246552780719 0 -0.00073896540980841134 -0.034809246552780719 0 -0.00073926287856514714 -0.034745967977190054 0 -0.00068535198932980683 -0.034795730537979429 0 -0.00079682968400210657 -0.034697169099773176 0 -0.00073926287856514714 -0.034745967977190054 0 -0.00061856161119044027 -0.034581973386535361 0 -0.00079682968400210657 -0.034697169099773176 0 -0.00075998151376849548 -0.034850808594056565 0 -0.00073926287856514714 -0.034745967977190054 0 -0.00079682968400210657 -0.034697169099773176 0 -0.00061856161119044027 -0.034581973386535361 0 -0.00059104832978908129 -0.03430288344763327 0 -0.00061856161119044027 -0.034581973386535361 0 -0.00043432306013111897 -0.034550403353423104 0 -0.00059104832978908129 -0.03430288344763327 0 -0.00061856161119044027 -0.034581973386535361 0 -0.0005640953845216551 -0.034774216056378128 0 -0.00043432306013111897 -0.034550403353423104 0 -0.00073926287856514714 -0.034745967977190054 0 -0.0005640953845216551 -0.034774216056378128 0 -0.00068535198932980683 -0.034795730537979429 0 -0.00073926287856514714 -0.034745967977190054 0 -0.00061856161119044027 -0.034581973386535361 0 -0.0005640953845216551 -0.034774216056378128 0 -0.00069667300949660042 -0.034863092875574556 0 -0.0005640953845216551 -0.034774216056378128 0 -0.00068535198932980683 -0.034795730537979429 0 -0.0006921404354795135 -0.034914228876481379 0 -0.00069667300949660042 -0.034863092875574556 0 -0.0005640953845216551 -0.034774216056378128 0 -0.00069667300949660042 -0.034863092875574556 0 -0.00073896540980841134 -0.034809246552780719 0 -0.00068535198932980683 -0.034795730537979429 0 -0.00034156031434942976 -0.035065684070500633 0 -0.0005640953845216551 -0.034774216056378128 0 -0.00017093636700163102 -0.034769073415444163 0 -0.0005640953845216551 -0.034774216056378128 0 -0.00043432306013111897 -0.034550403353423104 0 -0.00017093636700163102 -0.034769073415444163 0 -0.00043432306013111897 -0.034550403353423104 0 -0.00059104832978908129 -0.03430288344763327 0 -0.00016542539517768059 -0.034342908219984723 0 -0.00043432306013111897 -0.034550403353423104 0 -0.00017093636700163102 -0.034769073415444163 0 -0.00016542539517768059 -0.034342908219984723 0 -0.00034673454593160436 -0.033808345839617768 0 -0.00024981470474995198 -0.032966926365534666 0 -0.00059104832978908129 -0.03430288344763327 0 -0.00016542539517768059 -0.034342908219984723 0 -0.00015131516127616894 -0.033946809373008063 0 7.6429485994965842e-07 -0.034924305972582531 0 3.1440419700839272e-05 -0.034992287351022208 0 2.5157940046748722e-05 -0.034813183614860715 0 3.1440419700839272e-05 -0.034992287351022208 0 2.5157940046748722e-05 -0.034813183614860715 0 0.00023712755843786654 -0.034986034653491524 0 2.5157940046748722e-05 -0.034813183614860715 0 0.00023712755843786654 -0.034986034653491524 0 0.00026808183970732189 -0.034718215410745316 0 2.5157940046748722e-05 -0.034813183614860715 0 0.00018346079547496073 -0.034373341808791161 0 0.00026808183970732189 -0.034718215410745316 0 7.6429485994965842e-07 -0.034924305972582531 0 2.5157940046748722e-05 -0.034813183614860715 0 6.5573592481049589e-06 -0.034914370103707119 0 2.5157940046748722e-05 -0.034813183614860715 0 1.4612980566431483e-05 -0.034885005762479472 0 6.5573592481049589e-06 -0.034914370103707119 0 1.4612980566431483e-05 -0.034885005762479472 0 3.6236360738230901e-06 -0.034916991423258804 0 1.0087805500609073e-05 -0.034913446759955245 0 1.4612980566431483e-05 -0.034885005762479472 0 -3.3017953943653046e-05 -0.034885537755745939 0 -9.827921027879319e-06 -0.03490620895433863 0 2.5157940046748722e-05 -0.034813183614860715 0 1.4612980566431483e-05 -0.034885005762479472 0 -3.3017953943653046e-05 -0.034885537755745939 0 -7.7522574307113226e-05 -0.03388744688490445 0 2.402175396736988e-05 -0.033647053150413248 0 -3.3017953943653046e-05 -0.034885537755745939 0 -2.5580689455951172e-05 -0.03491200875234423 0 -9.827921027879319e-06 -0.03490620895433863 0 -2.5580689455951172e-05 -0.03491200875234423 0 -9.827921027879319e-06 -0.03490620895433863 0 -1.0930435364059086e-05 -0.034921895334093046 0 -2.5580689455951172e-05 -0.03491200875234423 0 -1.0930435364059086e-05 -0.034921895334093046 0 -2.2596575927371428e-05 -0.034927073342394067 0 -1.0930435364059086e-05 -0.034921895334093046 0 -2.2596575927371428e-05 -0.034927073342394067 0 -9.7949426760354062e-06 -0.034937317261929668 0 -2.2596575927371428e-05 -0.034927073342394067 0 -9.7949426760354062e-06 -0.034937317261929668 0 -2.2127945641346509e-05 -0.034943550465869028 0 -2.0308237513252492e-06 -0.034943832009219626 0 1.8208245112146296e-07 -0.034932127829727259 0 4.5207966812649537e-06 -0.034944204909268452 0 -9.7949426760354062e-06 -0.034937317261929668 0 -2.0308237513252492e-06 -0.034943832009219626 0 -5.7578739919409517e-06 -0.034947802852313942 0 -9.7949426760354062e-06 -0.034937317261929668 0 -2.0308237513252492e-06 -0.034943832009219626 0 1.8208245112146296e-07 -0.034932127829727259 0 -1.0930435364059086e-05 -0.034921895334093046 0 -9.7949426760354062e-06 -0.034937317261929668 0 1.8208245112146296e-07 -0.034932127829727259 0 1.8208245112146296e-07 -0.034932127829727259 0 3.6236360738230901e-06 -0.034916991423258804 0 6.57991372282367e-06 -0.034929266354798739 0 -1.0930435364059086e-05 -0.034921895334093046 0 1.8208245112146296e-07 -0.034932127829727259 0 3.6236360738230901e-06 -0.034916991423258804 0 1.4612980566431483e-05 -0.034885005762479472 0 -9.827921027879319e-06 -0.03490620895433863 0 3.6236360738230901e-06 -0.034916991423258804 0 -9.827921027879319e-06 -0.03490620895433863 0 -1.0930435364059086e-05 -0.034921895334093046 0 3.6236360738230901e-06 -0.034916991423258804 0 3.6236360738230901e-06 -0.034916991423258804 0 6.57991372282367e-06 -0.034929266354798739 0 1.0087805500609073e-05 -0.034913446759955245 0 6.57991372282367e-06 -0.034929266354798739 0 4.5207966812649537e-06 -0.034944204909268452 0 7.7469607927656244e-06 -0.03493758206212623 0 6.57991372282367e-06 -0.034929266354798739 0 7.7469607927656244e-06 -0.03493758206212623 0 1.0087805500609073e-05 -0.034913446759955245 0 1.8208245112146296e-07 -0.034932127829727259 0 6.57991372282367e-06 -0.034929266354798739 0 4.5207966812649537e-06 -0.034944204909268452 0 -2.0308237513252492e-06 -0.034943832009219626 0 4.5207966812649537e-06 -0.034944204909268452 0 1.1443684927223703e-06 -0.034949134451648101 0 4.5207966812649537e-06 -0.034944204909268452 0 6.4304039031584525e-06 -0.034954810934152626 0 4.3312979042916406e-06 -0.034953722525094245 0 4.5207966812649537e-06 -0.034944204909268452 0 6.4304039031584525e-06 -0.034954810934152626 0 7.7469607927656244e-06 -0.03493758206212623 0 6.4304039031584525e-06 -0.034954810934152626 0 7.7469607927656244e-06 -0.03493758206212623 0 5.3271705658670952e-06 -0.034960139048605898 0 7.7469607927656244e-06 -0.03493758206212623 0 6.5573592481049589e-06 -0.034914370103707119 0 4.0523581475616983e-06 -0.034950306463876868 0 6.5573592481049589e-06 -0.034914370103707119 0 -1.7766804212335294e-06 -0.034955861979363061 0 4.0523581475616983e-06 -0.034950306463876868 0 1.4612980566431483e-05 -0.034885005762479472 0 1.0087805500609073e-05 -0.034913446759955245 0 6.5573592481049589e-06 -0.034914370103707119 0 7.7469607927656244e-06 -0.03493758206212623 0 1.0087805500609073e-05 -0.034913446759955245 0 6.5573592481049589e-06 -0.034914370103707119 0 -4.7295752357122595e-06 -0.034952892746364636 0 6.5573592481049589e-06 -0.034914370103707119 0 -1.7766804212335294e-06 -0.034955861979363061 0 -4.4783038537133528e-06 -0.034973606392946832 0 -1.7766804212335294e-06 -0.034955861979363061 0 4.8333683734659307e-07 -0.034972441690045424 0 -1.7766804212335294e-06 -0.034955861979363061 0 4.8333683734659307e-07 -0.034972441690045424 0 4.0523581475616983e-06 -0.034950306463876868 0 7.7469607927656244e-06 -0.03493758206212623 0 4.0523581475616983e-06 -0.034950306463876868 0 5.3271705658670952e-06 -0.034960139048605898 0 4.8333683734659307e-07 -0.034972441690045424 0 4.0523581475616983e-06 -0.034950306463876868 0 5.3271705658670952e-06 -0.034960139048605898 0 6.4304039031584525e-06 -0.034954810934152626 0 5.3271705658670952e-06 -0.034960139048605898 0 5.2572432871933948e-06 -0.034969473286116451 0 5.3271705658670952e-06 -0.034960139048605898 0 3.4565246063306367e-06 -0.034976802284323212 0 5.2572432871933948e-06 -0.034969473286116451 0 4.8333683734659307e-07 -0.034972441690045424 0 5.3271705658670952e-06 -0.034960139048605898 0 3.4565246063306367e-06 -0.034976802284323212 0 4.8333683734659307e-07 -0.034972441690045424 0 3.4565246063306367e-06 -0.034976802284323212 0 1.5350841793176897e-06 -0.034985799425010164 0 3.4565246063306367e-06 -0.034976802284323212 0 1.5350841793176897e-06 -0.034985799425010164 0 1.9284378310002217e-06 -0.034989815235355846 0 3.4565246063306367e-06 -0.034976802284323212 0 1.9284378310002217e-06 -0.034989815235355846 0 2.6664236666246001e-06 -0.034984998539028568 0 1.9284378310002217e-06 -0.034989815235355846 0 2.2305372966790783e-09 -0.034999980635514551 0 2.153438690461265e-09 -0.034999983110395115 0 1.5350841793176897e-06 -0.034985799425010164 0 1.9284378310002217e-06 -0.034989815235355846 0 2.2305372966790783e-09 -0.034999980635514551 0 1.5350841793176897e-06 -0.034985799425010164 0 2.2305372966790783e-09 -0.034999980635514551 0 -1.3468664191091024e-09 -0.034999980018927575 0 4.8333683734659307e-07 -0.034972441690045424 0 1.5350841793176897e-06 -0.034985799425010164 0 -1.3468664191091024e-09 -0.034999980018927575 0 4.8333683734659307e-07 -0.034972441690045424 0 -1.3468664191091024e-09 -0.034999980018927575 0 -1.8046021910173592e-06 -0.034986810226502886 0 -4.4783038537133528e-06 -0.034973606392946832 0 4.8333683734659307e-07 -0.034972441690045424 0 -1.8046021910173592e-06 -0.034986810226502886 0 -2.4156484709375985e-09 -0.034999983862005188 0 -1.3468664191091024e-09 -0.034999980018927575 0 -1.8046021910173592e-06 -0.034986810226502886 0 -0.00090187280499896176 -0.032131257266585715 0 0.00016021651187425826 -0.032159851885740789 0 -0.0011631882841714087 -0.030504006275211569 0 -0.00090187280499896176 -0.032131257266585715 0 -0.001115629664436313 -0.032645938415078422 0 -0.0016296450438927391 -0.030496468196636161 0 0.0003573242032033282 -0.020346688383654169 0 0.00010287956390072288 -0.020593567439189976 0 0.0003573242032033282 -0.020346688383654169 0 3.2605935354242949e-05 -0.020734565655260898 0 -0.00090187280499896176 -0.032131257266585715 0 -0.001115629664436313 -0.032645938415078422 0 -0.0003291908635125272 -0.032305220189776114 0 -0.00081467046229468537 -0.032507780834682254 0 -0.0003291908635125272 -0.032305220189776114 0 -0.00029418219542740281 -0.032822636527239706 0 0.001199453787494206 -0.034012719472208637 0 0.0012319235864260564 -0.03428556947715438 0 0.00095359828824565353 -0.034237917581167621 0 0.00016021651187425826 -0.032159851885740789 0 -0.0003291908635125272 -0.032305220189776114 0 0.00011431950306449864 -0.032775216635612239 0 -0.00090187280499896176 -0.032131257266585715 0 0.00016021651187425826 -0.032159851885740789 0 -0.0003291908635125272 -0.032305220189776114 0 -0.00029418219542740281 -0.032822636527239706 0 0.00011431950306449864 -0.032775216635612239 0 0.00015055161723932756 -0.033137096597338447 0 0.00011431950306449864 -0.032775216635612239 0 0.00015055161723932756 -0.033137096597338447 0 0.00077419284329628181 -0.033534914818772937 0 0.00016021651187425826 -0.032159851885740789 0 0.00011431950306449864 -0.032775216635612239 0 0.00077419284329628181 -0.033534914818772937 0 -0.0003291908635125272 -0.032305220189776114 0 -0.00029418219542740281 -0.032822636527239706 0 0.00011431950306449864 -0.032775216635612239 0 0.00015055161723932756 -0.033137096597338447 0 -0.00057664987376358551 -0.03335124803752143 0 0.00011036417669115317 -0.033526422384595772 0 -0.00029418219542740281 -0.032822636527239706 0 0.00015055161723932756 -0.033137096597338447 0 -0.00057664987376358551 -0.03335124803752143 0 0.0029839039090291237 -0.010628849874316755 0 0.002979148741205093 -0.01063596628273349 0 0.0029948618291670815 -0.01065013055515104 0 -0.00081467046229468537 -0.032507780834682254 0 -0.00029418219542740281 -0.032822636527239706 0 -0.00057664987376358551 -0.03335124803752143 0 0.0003573242032033282 -0.020346688383654169 0 0.001221114862937299 -0.022276301772962307 0 0.0003573242032033282 -0.020346688383654169 0 0.0018867707078056037 -0.01636821113209258 0 0.0029839039090291237 -0.010628849874316755 0 0.002979148741205093 -0.01063596628273349 0 0.0029624889914210903 -0.010615707983564331 0 0.002979148741205093 -0.01063596628273349 0 0.0029624889914210903 -0.010615707983564331 0 0.0029725263940394661 -0.010643433749921324 0 0.0029624889914210903 -0.010615707983564331 0 0.0029510142395657718 -0.010622372491877649 0 0.0029725263940394661 -0.010643433749921324 0 0.0018867707078056037 -0.01636821113209258 0 0.0029042273263353933 -0.013002337238201496 0 0.0029624889914210903 -0.010615707983564331 0 0.002918731958684413 -0.010586687518705094 0 0.0029510142395657718 -0.010622372491877649 0 0.0010064166651618627 -0.016530094140552246 0 0.0024073737526619475 -0.016023872291345716 0 0.0012011611769441165 -0.017415578434347028 0 0.0029042273263353933 -0.013002337238201496 0 0.001840852788285811 -0.01576899510258286 0 -0.00033245259465693096 -0.0067985318787829431 0 -0.00039527778092804378 -0.006806651159330661 0 -0.00035670224172830662 -0.0068572555182725772 0 -0.00033245259465693096 -0.0067985318787829431 0 -0.00034211157510515976 -0.0067376653457541704 0 -0.00039527778092804378 -0.006806651159330661 0 -0.00038853694029807479 -0.017034252277926508 0 0.0010064166651618627 -0.016530094140552246 0 0.0012011611769441165 -0.017415578434347028 0 0.001840852788285811 -0.01576899510258286 0 0.00010287956390072288 -0.020593567439189976 0 -0.00038853694029807479 -0.017034252277926508 0 0.0012011611769441165 -0.017415578434347028 0 2.8760965816503452e-07 -0.01880019441036172 0 -0.00039527778092804378 -0.006806651159330661 0 -0.00040679643915969723 -0.006868960180525456 0 -0.00045198279566672491 -0.0068809827188513785 0 -0.00040679643915969723 -0.006868960180525456 0 -0.00044340052109351463 -0.0069221257888459377 0 -0.00045198279566672491 -0.0068809827188513785 0 -0.00070166080391248855 -0.019479930901170953 0 0.00010287956390072288 -0.020593567439189976 0 -0.00039527778092804378 -0.006806651159330661 0 -0.00040679643915969723 -0.006868960180525456 0 -0.00035670224172830662 -0.0068572555182725772 0 -0.00040679643915969723 -0.006868960180525456 0 -0.00035670224172830662 -0.0068572555182725772 0 -0.00039955938834091304 -0.0069110254154489187 0 -0.00031527292677479695 -0.0069235823096550752 0 -0.00040837602688931175 -0.006958978258910742 0 -0.00035980378495148067 -0.0069045421405298096 0 -0.00032004365800321035 -0.0068754792140457302 0 -0.00035670224172830662 -0.0068572555182725772 0 -0.00035980378495148067 -0.0069045421405298096 0 -0.00035670224172830662 -0.0068572555182725772 0 -0.00035980378495148067 -0.0069045421405298096 0 -0.00039955938834091304 -0.0069110254154489187 0 -0.00040837602688931175 -0.006958978258910742 0 -0.00035980378495148067 -0.0069045421405298096 0 -0.00039955938834091304 -0.0069110254154489187 0 -0.00061723892915661177 -0.020211930586885498 0 -0.00045923750799258868 -0.020397673784054292 0 -0.00026694611349161324 -0.021771976278705751 0 -0.00081948315185375903 -0.019186229377296807 0 -0.00085489895033036875 -0.019143768581778946 0 -0.00077175004375670787 -0.019416335429416808 0 -0.00070166080391248855 -0.019479930901170953 0 -0.00054809961544226467 -0.020034904673126051 0 -0.00040679643915969723 -0.006868960180525456 0 -0.00044340052109351463 -0.0069221257888459377 0 -0.00039955938834091304 -0.0069110254154489187 0 -0.00040837602688931175 -0.006958978258910742 0 -0.00044340052109351463 -0.0069221257888459377 0 -0.00039955938834091304 -0.0069110254154489187 0 -0.00070166080391248855 -0.019479930901170953 0 -0.00070937115955385665 -0.018869353711866935 0 -1.7826666495998777e-05 -0.018684468133965969 0 -0.0011876876843877147 -0.0173054533444984 0 -0.00098536639410400431 -0.01822308341708662 0 -0.0015862415218488833 -0.017068933026219021 0 -0.00070166080391248855 -0.019479930901170953 0 -0.00054809961544226467 -0.020034904673126051 0 -0.00070937115955385665 -0.018869353711866935 0 6.3599627478827184e-05 -0.020520130935289756 0 0.00035343267217651778 -0.02028973297217156 0 -3.7184519112976538e-05 -0.020143121319036648 0 0.0015646799279142776 -0.034442927306450953 0 0.0012053236095517887 -0.034448686434262389 0 0.0013082778497896424 -0.034744941601106326 0 0.00021872395209086108 -0.019866505832138698 0 0.00035343267217651778 -0.02028973297217156 0 -3.7184519112976538e-05 -0.020143121319036648 0 -0.00022660173928170448 -0.020400288185545151 0 6.3599627478827184e-05 -0.020520130935289756 0 -3.7184519112976538e-05 -0.020143121319036648 0 -0.00022660173928170448 -0.020400288185545151 0 -3.7184519112976538e-05 -0.020143121319036648 0 -0.00057834784140534373 -0.020216880483135979 0 -3.7184519112976538e-05 -0.020143121319036648 0 -2.4135819808469908e-05 -0.01958093626813516 0 -0.00057834784140534373 -0.020216880483135979 0 -0.00023234685940086926 -0.022178800906826408 0 -0.00086942444999335415 -0.023162569251852658 0 0.00021872395209086108 -0.019866505832138698 0 -3.7184519112976538e-05 -0.020143121319036648 0 -2.4135819808469908e-05 -0.01958093626813516 0 -0.00054809961544226467 -0.020034904673126051 0 -0.00023234685940086926 -0.022178800906826408 0 -0.00054809961544226467 -0.020034904673126051 0 -0.00010755961749807176 -0.021362273112294359 0 0.0003661081329477925 -0.023871144015984645 0 -0.00010755961749807176 -0.021362273112294359 0 -0.00090187280499896176 -0.032131257266585715 0 -0.0014900807234277749 -0.030333669242332592 0 -0.0016296450438927391 -0.030496468196636161 0 -0.00045923750799258868 -0.020397673784054292 0 -8.4514089195094586e-05 -0.021560856525252515 0 -0.00026694611349161324 -0.021771976278705751 0 0.0020402586337562446 -0.028166233118152438 0 -0.00023234685940086926 -0.022178800906826408 0 -0.00019334656290283481 -0.021701012736621797 0 4.7491587969843965e-05 -0.022448808724924545 0 0.00024636185659874502 -0.02221873817702763 0 -0.00090187280499896176 -0.032131257266585715 0 -0.0013494664298067743 -0.030717692913538441 0 -0.0011631882841714087 -0.030504006275211569 0 -0.00010755961749807176 -0.021362273112294359 0 -0.00023234685940086926 -0.022178800906826408 0 -0.00010755961749807176 -0.021362273112294359 0 0.00010287956390072288 -0.020593567439189976 0 0.0012053236095517887 -0.034448686434262389 0 0.00099943755932382938 -0.034610445725055068 0 0.00095359828824565353 -0.034237917581167621 0 0.0015646799279142776 -0.034442927306450953 0 0.0012319235864260564 -0.03428556947715438 0 0.0012053236095517887 -0.034448686434262389 0 0.001199453787494206 -0.034012719472208637 0 0.0015646799279142776 -0.034442927306450953 0 0.0012319235864260564 -0.03428556947715438 0 0.0012319235864260564 -0.03428556947715438 0 0.0012053236095517887 -0.034448686434262389 0 0.00095359828824565353 -0.034237917581167621 0 0.001049011716817096 -0.035040305911165075 0 0.0013082778497896424 -0.034744941601106326 0 0.00099943755932382938 -0.034610445725055068 0 0.0012053236095517887 -0.034448686434262389 0 0.0013082778497896424 -0.034744941601106326 0 0.00099943755932382938 -0.034610445725055068 0 0.001049011716817096 -0.035040305911165075 0 0.00099943755932382938 -0.034610445725055068 0 0.00071839604847865972 -0.034733499895735126 0 0.00099943755932382938 -0.034610445725055068 0 0.00071839604847865972 -0.034733499895735126 0 0.00076443275237666488 -0.034450479717105124 0 0.00071839604847865972 -0.034733499895735126 0 0.00044990403150158394 -0.034487055858469201 0 0.00076443275237666488 -0.034450479717105124 0 0.00071839604847865972 -0.034733499895735126 0 0.00044990403150158394 -0.034487055858469201 0 0.00028602748627260015 -0.034834275170014632 0 0.00044990403150158394 -0.034487055858469201 0 0.00026530116654832929 -0.03414469778231824 0 0.00063253765376013627 -0.034155272688127451 0 0.00044990403150158394 -0.034487055858469201 0 0.00076443275237666488 -0.034450479717105124 0 0.00063253765376013627 -0.034155272688127451 0 0.00095359828824565353 -0.034237917581167621 0 0.00076443275237666488 -0.034450479717105124 0 0.00063253765376013627 -0.034155272688127451 0 0.00099943755932382938 -0.034610445725055068 0 0.00095359828824565353 -0.034237917581167621 0 0.00076443275237666488 -0.034450479717105124 0 -0.00017093636700163102 -0.034769073415444163 0 0.00028602748627260015 -0.034834275170014632 0 0.00011754210151242158 -0.034539886716701669 0 0.00044990403150158394 -0.034487055858469201 0 0.00028602748627260015 -0.034834275170014632 0 0.00011754210151242158 -0.034539886716701669 0 0.00044990403150158394 -0.034487055858469201 0 0.00011754210151242158 -0.034539886716701669 0 0.00026530116654832929 -0.03414469778231824 0 0.00011754210151242158 -0.034539886716701669 0 -0.00016542539517768059 -0.034342908219984723 0 0.00026530116654832929 -0.03414469778231824 0 -0.00017093636700163102 -0.034769073415444163 0 0.00011754210151242158 -0.034539886716701669 0 -0.00016542539517768059 -0.034342908219984723 0 -0.00016542539517768059 -0.034342908219984723 0 0.00026530116654832929 -0.03414469778231824 0 -0.00015131516127616894 -0.033946809373008063 0 0.00073653142611697646 -0.034892438815839408 0 0.00023712755843786654 -0.034986034653491524 0 0.00048352900307605017 -0.034752705012199528 0 -7.7681688730495829e-05 -0.031563757788660607 0 -0.00024981470474995198 -0.032966926365534666 0 0.00026530116654832929 -0.03414469778231824 0 0.00039385161455498142 -0.03363019939532888 0 -0.00015131516127616894 -0.033946809373008063 0 0.00023712755843786654 -0.034986034653491524 0 0.00026808183970732189 -0.034718215410745316 0 0.00048352900307605017 -0.034752705012199528 0 0.00095359828824565353 -0.034237917581167621 0 0.00082490112801249802 -0.033941857392710606 0 0.00063253765376013627 -0.034155272688127451 0 0.001199453787494206 -0.034012719472208637 0 0.00095359828824565353 -0.034237917581167621 0 0.00082490112801249802 -0.033941857392710606 0 0.00026530116654832929 -0.03414469778231824 0 0.00063253765376013627 -0.034155272688127451 0 0.00058263835834355211 -0.03385662946247462 0 0.00082490112801249802 -0.033941857392710606 0 0.00063253765376013627 -0.034155272688127451 0 0.00058263835834355211 -0.03385662946247462 0 0.00039385161455498142 -0.03363019939532888 0 0.00058263835834355211 -0.03385662946247462 0 0.00077419284329628181 -0.033534914818772937 0 0.00026530116654832929 -0.03414469778231824 0 0.00039385161455498142 -0.03363019939532888 0 0.00058263835834355211 -0.03385662946247462 0 0.00082490112801249802 -0.033941857392710606 0 0.00058263835834355211 -0.03385662946247462 0 0.00077419284329628181 -0.033534914818772937 0 0.0020402586337562446 -0.028166233118152438 0 0.002440099220338087 -0.029643505613977099 0 0.00015055161723932756 -0.033137096597338447 0 0.00077419284329628181 -0.033534914818772937 0 0.00047031904299313327 -0.033441949566737891 0 0.001199453787494206 -0.034012719472208637 0 0.00082490112801249802 -0.033941857392710606 0 0.00077419284329628181 -0.033534914818772937 0 0.00077419284329628181 -0.033534914818772937 0 0.00076966297618199402 -0.033564277719531375 0 0.00047031904299313327 -0.033441949566737891 0 0.00076966297618199402 -0.033564277719531375 0 0.00047031904299313327 -0.033441949566737891 0 0.00011036417669115317 -0.033526422384595772 0 0.00073653142611697646 -0.034892438815839408 0 0.0012858640088761612 -0.034654390102688837 0 0.00073885691199573997 -0.034666506055452011 0 0.0012858640088761612 -0.034654390102688837 0 0.0012753176352364342 -0.034477575283286863 0 0.00073885691199573997 -0.034666506055452011 0 0.00039385161455498142 -0.03363019939532888 0 0.00077419284329628181 -0.033534914818772937 0 0.00076966297618199402 -0.033564277719531375 0 0.0013818172195521007 -0.027547887217501513 0 0.00096162340818584276 -0.028527195282502395 0 -7.7681688730495829e-05 -0.031563757788660607 0 0.00032882887623333755 -0.029099798261528149 0 0.003127080727831342 -0.034292128910989469 0 0.0019195533144171666 -0.033940719719418005 0 0.00073885691199573997 -0.034666506055452011 0 0.0019195533144171666 -0.033940719719418005 0 0.0011649482774248659 -0.034077636305584656 0 0.00073885691199573997 -0.034666506055452011 0 0.0019195533144171666 -0.033940719719418005 0 0.0011649482774248659 -0.034077636305584656 0 0.0010730900420483989 -0.033385517463007365 0 0.0011649482774248659 -0.034077636305584656 0 0.0010730900420483989 -0.033385517463007365 0 0.00074518455756781166 -0.03436831015407598 0 0.0019195533144171666 -0.033940719719418005 0 0.0010730900420483989 -0.033385517463007365 0 0.0016411450315771481 -0.032535554088607227 0 0.0019195533144171666 -0.033940719719418005 0 0.0027647456216417718 -0.033285886003124834 0 0.0016411450315771481 -0.032535554088607227 0 0.0027647456216417718 -0.033285886003124834 0 0.0035768488473242334 -0.033543443374775959 0 0.0040479759591888279 -0.032651402308935394 0 0.003127080727831342 -0.034292128910989469 0 0.0035768488473242334 -0.033543443374775959 0 0.0028445803837548341 -0.03376637021031613 0 0.0019195533144171666 -0.033940719719418005 0 0.0027647456216417718 -0.033285886003124834 0 0.0028445803837548341 -0.03376637021031613 0 0.003127080727831342 -0.034292128910989469 0 0.0019195533144171666 -0.033940719719418005 0 0.0028445803837548341 -0.03376637021031613 0 0.0027647456216417718 -0.033285886003124834 0 0.0035768488473242334 -0.033543443374775959 0 0.0028445803837548341 -0.03376637021031613 0 0.00026808183970732189 -0.034718215410745316 0 0.00045237951699918249 -0.034575942552010464 0 0.00048352900307605017 -0.034752705012199528 0 0.00026808183970732189 -0.034718215410745316 0 0.00045237951699918249 -0.034575942552010464 0 0.00034555645333405759 -0.034488985825475493 0 0.00056975495562258834 -0.034558638177406467 0 0.00048352900307605017 -0.034752705012199528 0 0.00073885691199573997 -0.034666506055452011 0 0.00056975495562258834 -0.034558638177406467 0 0.00074518455756781166 -0.03436831015407598 0 0.00053444991871293048 -0.034402394917606632 0 0.00045237951699918249 -0.034575942552010464 0 0.00056975495562258834 -0.034558638177406467 0 0.00048352900307605017 -0.034752705012199528 0 0.00045237951699918249 -0.034575942552010464 0 0.00056975495562258834 -0.034558638177406467 0 0.00053444991871293048 -0.034402394917606632 0 0.00073653142611697646 -0.034892438815839408 0 0.00048352900307605017 -0.034752705012199528 0 0.00073885691199573997 -0.034666506055452011 0 0.00056975495562258834 -0.034558638177406467 0 0.00073885691199573997 -0.034666506055452011 0 0.00074518455756781166 -0.03436831015407598 0 0.0011649482774248659 -0.034077636305584656 0 0.00073885691199573997 -0.034666506055452011 0 0.00074518455756781166 -0.03436831015407598 0 0.00074518455756781166 -0.03436831015407598 0 0.00053444991871293048 -0.034402394917606632 0 0.00050892335277378435 -0.03426257128979647 0 0.0010730900420483989 -0.033385517463007365 0 0.00074518455756781166 -0.03436831015407598 0 -0.00030707345460356496 -0.032696882638806699 0 0.0010730900420483989 -0.033385517463007365 0 -0.00030707345460356496 -0.032696882638806699 0 0.0016411450315771481 -0.032535554088607227 0 0.00048740796130469912 -0.032830010841050833 0 0.00031706970945612363 -0.032456200196947255 0 0.00053444991871293048 -0.034402394917606632 0 0.00046564407128926386 -0.034330652643021993 0 0.00050892335277378435 -0.03426257128979647 0 0.00029551580317535852 -0.032505164156430892 0 0.00031706970945612363 -0.032456200196947255 0 0.00018346079547496073 -0.034373341808791161 0 0.00026808183970732189 -0.034718215410745316 0 0.00034555645333405759 -0.034488985825475493 0 0.00018346079547496073 -0.034373341808791161 0 0.00046564407128926386 -0.034330652643021993 0 0.00041932409985790666 -0.034025813594997012 0 0.000449720046830366 -0.034438090564854557 0 0.00046564407128926386 -0.034330652643021993 0 0.00034555645333405759 -0.034488985825475493 0 0.00045237951699918249 -0.034575942552010464 0 0.000449720046830366 -0.034438090564854557 0 0.00034555645333405759 -0.034488985825475493 0 0.00045237951699918249 -0.034575942552010464 0 0.00053444991871293048 -0.034402394917606632 0 0.000449720046830366 -0.034438090564854557 0 0.00053444991871293048 -0.034402394917606632 0 0.000449720046830366 -0.034438090564854557 0 0.00046564407128926386 -0.034330652643021993 0 0.00018346079547496073 -0.034373341808791161 0 0.00046564407128926386 -0.034330652643021993 0 0.00034555645333405759 -0.034488985825475493 0 2.402175396736988e-05 -0.033647053150413248 0 0.00040527069235001299 -0.032813016062925665 0 -3.3017953943653046e-05 -0.034885537755745939 0 -2.5580689455951172e-05 -0.03491200875234423 0 -4.7076344292488278e-05 -0.034917269021526608 0 0.00046564407128926386 -0.034330652643021993 0 0.00041932409985790666 -0.034025813594997012 0 0.00054271312992534545 -0.03422733473945147 0 -2.5580689455951172e-05 -0.03491200875234423 0 -2.2596575927371428e-05 -0.034927073342394067 0 -4.7076344292488278e-05 -0.034917269021526608 0 0.00040527069235001299 -0.032813016062925665 0 0.00031706970945612363 -0.032456200196947255 0 0.00031706970945612363 -0.032456200196947255 0 0.00068887030324501022 -0.030313577221047446 0 0.00064682083181324523 -0.031020314087998834 0 0.00055208065580396261 -0.030868269268613396 0 0.00033881143236971144 -0.031149868181731356 0 -0.00030707345460356496 -0.032696882638806699 0 0.0016411450315771481 -0.032535554088607227 0 0.001150748247598753 -0.030719122421922901 0 0.00040527069235001299 -0.032813016062925665 0 0.00065753076338331481 -0.032090796765120964 0 0.00064682083181324523 -0.031020314087998834 0 0.00045114113248383338 -0.031292298864081823 0 0.00033881143236971144 -0.031149868181731356 0 0.00077276273408382538 -0.03086212203989544 0 0.00050560160239642435 -0.031225974941132509 0 0.00075402329517553304 -0.031330151144159199 0 -2.2596575927371428e-05 -0.034927073342394067 0 -4.7076344292488278e-05 -0.034917269021526608 0 -2.2127945641346509e-05 -0.034943550465869028 0 0.00077276273408382538 -0.03086212203989544 0 0.00075402329517553304 -0.031330151144159199 0 0.0010126992712917741 -0.031240772768948502 0 0.00040527069235001299 -0.032813016062925665 0 0.00045535419156868061 -0.033102123661887743 0 0.0027647456216417718 -0.033285886003124834 0 0.0031295439242892118 -0.031213022414320665 0 0.0016411450315771481 -0.032535554088607227 0 0.0027647456216417718 -0.033285886003124834 0 0.0031295439242892118 -0.031213022414320665 0 0.0040479759591888279 -0.032651402308935394 0 0.0031295439242892118 -0.031213022414320665 0 0.0016411450315771481 -0.032535554088607227 0 0.001150748247598753 -0.030719122421922901 0 0.00068887030324501022 -0.030313577221047446 0 0.0013227494616823347 -0.027627358708844894 0 0.0031295439242892118 -0.031213022414320665 0 0.001150748247598753 -0.030719122421922901 0 0.0026089617449282666 -0.028735006448011843 0 0.00045114113248383338 -0.031292298864081823 0 0.00033881143236971144 -0.031149868181731356 0 0.00011165495015102066 -0.031447381883377895 0 0.0031295439242892118 -0.031213022414320665 0 0.0045954862857908278 -0.029099297154018194 0 0.0026089617449282666 -0.028735006448011843 0 0.0026379739039625034 -0.022534451237089359 0 0.0029177866312680425 -0.021807609645569298 0 0.0035442326667584046 -0.011182265781160746 0 0.0037135803395621733 -0.01095246870251344 0 0.0038182839670637529 -0.011332060568081354 0 0.0031295439242892118 -0.031213022414320665 0 0.0050989828680559554 -0.031440450481066827 0 0.0045954862857908278 -0.029099297154018194 0 0.0035442326667584046 -0.011182265781160746 0 0.0034472058309331409 -0.010995062370794836 0 0.0037135803395621733 -0.01095246870251344 0 0.0035442326667584046 -0.011182265781160746 0 0.0034472058309331409 -0.010995062370794836 0 0.0033559308789083268 -0.011205934189890372 0 0.0034472058309331409 -0.010995062370794836 0 0.0034831586365795097 -0.010802721191954042 0 0.0037135803395621733 -0.01095246870251344 0 0.0034831586365795097 -0.010802721191954042 0 0.0037135803395621733 -0.01095246870251344 0 0.0036207627911435183 -0.010594398457261974 0 0.0034472058309331409 -0.010995062370794836 0 0.0034831586365795097 -0.010802721191954042 0 0.0033138512893826225 -0.010864617281676337 0 0.0031295439242892118 -0.031213022414320665 0 0.0050989828680559554 -0.031440450481066827 0 0.0040479759591888279 -0.032651402308935394 0 0.0050989828680559554 -0.031440450481066827 0 0.0040479759591888279 -0.032651402308935394 0 0.0056101935854276806 -0.033770484452081029 0 0.0026379739039625034 -0.022534451237089359 0 0.0020818066737701107 -0.024461453092865119 0 0.0013818172195521007 -0.027547887217501513 0 0.0020818066737701107 -0.024461453092865119 0 0.0035768488473242334 -0.033543443374775959 0 0.0040479759591888279 -0.032651402308935394 0 0.0056101935854276806 -0.033770484452081029 0 0.003127080727831342 -0.034292128910989469 0 0.0035768488473242334 -0.033543443374775959 0 0.0056101935854276806 -0.033770484452081029 0 0.0012753176352364342 -0.034477575283286863 0 0.0019146146486831027 -0.034296706104997271 0 0.0019285704569969291 -0.034361203190127858 0 0.0034831586365795097 -0.010802721191954042 0 0.0034396211226963122 -0.010621676330885149 0 0.0036207627911435183 -0.010594398457261974 0 0.0034831586365795097 -0.010802721191954042 0 0.0034396211226963122 -0.010621676330885149 0 0.0033136403043172195 -0.010639360829239924 0 0.0028565760533509287 -0.023282558020803364 0 0.0021133732205619732 -0.02436138290515141 0 0.0029879030192971 -0.010685801565244357 0 0.0030044418544805098 -0.010684933130710374 0 0.0029863273292580379 -0.010660280106315376 0 0.0024773597772837965 -0.023767499105146823 0 0.0019893052011938491 -0.023867797807410603 0 0.0020121452523645588 -0.0239710537326134 0 0.0028565760533509287 -0.023282558020803364 0 0.0020818066737701107 -0.024461453092865119 0 0.0020818066737701107 -0.024461453092865119 0 0.0021133732205619732 -0.02436138290515141 0 0.0021133732205619732 -0.02436138290515141 0 0.001221114862937299 -0.022276301772962307 0 0.0030044418544805098 -0.010684933130710374 0 0.0029863273292580379 -0.010660280106315376 0 0.0029948618291670815 -0.01065013055515104 0 -0.00036007803100700719 -0.034126105044907637 0 -0.00057664987376358551 -0.03335124803752143 0 0.00011036417669115317 -0.033526422384595772 0 0.002979148741205093 -0.01063596628273349 0 0.0029863273292580379 -0.010660280106315376 0 0.0029948618291670815 -0.01065013055515104 0 0.00076966297618199402 -0.033564277719531375 0 -0.00036007803100700719 -0.034126105044907637 0 0.00011036417669115317 -0.033526422384595772 0 0.0012858640088761612 -0.034654390102688837 0 0.0012753176352364342 -0.034477575283286863 0 0.0019285704569969291 -0.034361203190127858 0 0.00032882887623333755 -0.029099798261528149 0 0.0021133732205619732 -0.02436138290515141 0 0.00015055161723932756 -0.033137096597338447 0 0.00047031904299313327 -0.033441949566737891 0 0.00011036417669115317 -0.033526422384595772 0 0.0029657532454549465 -0.010657241259145024 0 0.0029268892131107242 -0.010628946397720513 0 0.0029510142395657718 -0.010622372491877649 0 0.002918731958684413 -0.010586687518705094 0 0.0029268892131107242 -0.010628946397720513 0 0.0029510142395657718 -0.010622372491877649 0 0.0029657532454549465 -0.010657241259145024 0 0.0029510142395657718 -0.010622372491877649 0 0.0029725263940394661 -0.010643433749921324 0 0.002979148741205093 -0.01063596628273349 0 0.0029863273292580379 -0.010660280106315376 0 0.0029725263940394661 -0.010643433749921324 0 0.0029879030192971 -0.010685801565244357 0 0.0029863273292580379 -0.010660280106315376 0 0.002978424961944694 -0.010666203979289962 0 0.0029863273292580379 -0.010660280106315376 0 0.0029725263940394661 -0.010643433749921324 0 0.002978424961944694 -0.010666203979289962 0 0.0029657532454549465 -0.010657241259145024 0 0.0029725263940394661 -0.010643433749921324 0 0.002978424961944694 -0.010666203979289962 0 0.0029657532454549465 -0.010657241259145024 0 0.002978424961944694 -0.010666203979289962 0 0.0029792760699834595 -0.010683358410879966 0 0.0028565760533509287 -0.023282558020803364 0 0.0032854762878964505 -0.022268842663127893 0 0.0029879030192971 -0.010685801565244357 0 0.002978424961944694 -0.010666203979289962 0 0.0029792760699834595 -0.010683358410879966 0 0.0032854762878964505 -0.022268842663127893 0 0.0036585192485810766 -0.021258775522108055 0 0.0029657532454549465 -0.010657241259145024 0 0.0029792760699834595 -0.010683358410879966 0 0.0029700174841013707 -0.010700204987525608 0 0.0029657532454549465 -0.010657241259145024 0 0.0029268892131107242 -0.010628946397720513 0 0.0029700174841013707 -0.010700204987525608 0 0.0033136403043172195 -0.010639360829239924 0 0.0029700174841013707 -0.010700204987525608 0 0.0031146654962893017 -0.010873987131259793 0 0.0029700174841013707 -0.010700204987525608 0 0.0031146654962893017 -0.010873987131259793 0 0.0029705780527428988 -0.010932540448331352 0 0.0031146654962893017 -0.010873987131259793 0 0.0029705780527428988 -0.010932540448331352 0 0.0032010976690649571 -0.0110111211475822 0 0.0034472058309331409 -0.010995062370794836 0 0.0033138512893826225 -0.010864617281676337 0 0.0032010976690649571 -0.0110111211475822 0 0.0033136403043172195 -0.010639360829239924 0 0.0031146654962893017 -0.010873987131259793 0 0.0033138512893826225 -0.010864617281676337 0 0.0034831586365795097 -0.010802721191954042 0 0.0033136403043172195 -0.010639360829239924 0 0.0033138512893826225 -0.010864617281676337 0 0.0031146654962893017 -0.010873987131259793 0 0.0033138512893826225 -0.010864617281676337 0 0.0032010976690649571 -0.0110111211475822 0 0.0034472058309331409 -0.010995062370794836 0 0.0032010976690649571 -0.0110111211475822 0 0.0033559308789083268 -0.011205934189890372 0 0.0032010976690649571 -0.0110111211475822 0 0.0033559308789083268 -0.011205934189890372 0 0.0031138756931048954 -0.011240237233790633 0 0.002850320940153602 -0.011138309361635471 0 0.0029705780527428988 -0.010932540448331352 0 0.0031138756931048954 -0.011240237233790633 0 0.0029705780527428988 -0.010932540448331352 0 0.0032010976690649571 -0.0110111211475822 0 0.0031138756931048954 -0.011240237233790633 0 0.002850320940153602 -0.011138309361635471 0 0.0031138756931048954 -0.011240237233790633 0 0.0029781539986403495 -0.011418480334284485 0 0.0031138756931048954 -0.011240237233790633 0 0.0031733879713603231 -0.011543261632747421 0 0.0029781539986403495 -0.011418480334284485 0 0.0031138756931048954 -0.011240237233790633 0 0.0033322991993598072 -0.011425367996125193 0 0.0031733879713603231 -0.011543261632747421 0 0.0033559308789083268 -0.011205934189890372 0 0.0031138756931048954 -0.011240237233790633 0 0.0033322991993598072 -0.011425367996125193 0 0.0033559308789083268 -0.011205934189890372 0 0.0033322991993598072 -0.011425367996125193 0 0.0035147963840706543 -0.011380903209849242 0 0.0033605278398064478 -0.011595286378783118 0 0.0031984471381964665 -0.01171183154004239 0 0.0035106463050782266 -0.011729433290566386 0 0.0033322991993598072 -0.011425367996125193 0 0.0033605278398064478 -0.011595286378783118 0 0.0031733879713603231 -0.011543261632747421 0 0.0033605278398064478 -0.011595286378783118 0 0.0031733879713603231 -0.011543261632747421 0 0.0031984471381964665 -0.01171183154004239 0 0.0031733879713603231 -0.011543261632747421 0 0.0030332948066177992 -0.011591133380222393 0 0.0029781539986403495 -0.011418480334284485 0 0.0031733879713603231 -0.011543261632747421 0 0.0030332948066177992 -0.011591133380222393 0 0.0031984471381964665 -0.01171183154004239 0 0.003232153768681593 -0.011969188327146756 0 0.0034958271626185488 -0.011810518954871833 0 0.0034623139262242139 -0.012274691109158931 0 0.0035075969479462068 -0.01736967151427015 0 0.0034027165843506712 -0.016840218320943078 0 0.0030332948066177992 -0.011591133380222393 0 0.0031984471381964665 -0.01171183154004239 0 0.0028960847086207686 -0.011730060601802452 0 0.003232153768681593 -0.011969188327146756 0 0.0034958271626185488 -0.011810518954871833 0 0.0030071313483181249 -0.011785961630024953 0 0.0034958271626185488 -0.011810518954871833 0 0.0030071313483181249 -0.011785961630024953 0 0.0028960847086207686 -0.011730060601802452 0 0.003232153768681593 -0.011969188327146756 0 0.0034623139262242139 -0.012274691109158931 0 0.0028725217163587621 -0.01196011601943341 0 0.0027177885323566527 -0.01739555196246774 0 0.002089652395789602 -0.015158276468551257 0 0.0035075969479462068 -0.01736967151427015 0 0.0036076327758550095 -0.019072309532645479 0 0.0034958271626185488 -0.011810518954871833 0 0.0039106737478891923 -0.012025296355393211 0 0.004069974692679613 -0.011834642874535749 0 0.0034958271626185488 -0.011810518954871833 0 0.0039106737478891923 -0.012025296355393211 0 0.0038263899413665883 -0.01221695821200066 0 0.0034958271626185488 -0.011810518954871833 0 0.0038263899413665883 -0.01221695821200066 0 0.0034623139262242139 -0.012274691109158931 0 0.0027177885323566527 -0.01739555196246774 0 0.0039031810247639716 -0.020512257206267863 0 0.0024961441030999522 -0.017345744755841063 0 0.0026940455166323293 -0.017443245575905146 0 0.0025232163740089119 -0.0174766957530572 0 0.0038263899413665883 -0.01221695821200066 0 0.0034623139262242139 -0.012274691109158931 0 0.0040044891650581572 -0.01255387114909557 0 0.0024961441030999522 -0.017345744755841063 0 0.0022961119751762518 -0.017247687967809192 0 0.0023645183545528718 -0.017396508771572967 0 0.0024961441030999522 -0.017345744755841063 0 0.0024400130867759358 -0.017450579127063905 0 0.0025232163740089119 -0.0174766957530572 0 0.0024961441030999522 -0.017345744755841063 0 0.0024400130867759358 -0.017450579127063905 0 0.0023645183545528718 -0.017396508771572967 0 0.0024400130867759358 -0.017450579127063905 0 0.0023645183545528718 -0.017396508771572967 0 0.0023668207967296783 -0.017477659062999456 0 0.0052685494028493806 -0.026056511002626993 0 0.0060772804034064706 -0.026459438262863358 0 0.0055598545453756721 -0.026708610684610667 0 0.0052685494028493806 -0.026056511002626993 0 0.0055598545453756721 -0.026708610684610667 0 0.0050735346482847672 -0.026765748037386836 0 0.0052685494028493806 -0.026056511002626993 0 0.0060772804034064706 -0.026459438262863358 0 0.0060912201431441203 -0.025617938766968742 0 0.0060772804034064706 -0.026459438262863358 0 0.0060912201431441203 -0.025617938766968742 0 0.0066575814651387141 -0.026032076013994508 0 0.0060772804034064706 -0.026459438262863358 0 0.0059539572095087335 -0.027084125336227092 0 0.0069274474521154534 -0.027254262250759217 0 0.0060772804034064706 -0.026459438262863358 0 0.0059539572095087335 -0.027084125336227092 0 0.0055598545453756721 -0.026708610684610667 0 0.0059539572095087335 -0.027084125336227092 0 0.0055598545453756721 -0.026708610684610667 0 0.0054462611336805432 -0.027253547958248896 0 0.0055598545453756721 -0.026708610684610667 0 0.0051212619334633606 -0.02700024647226534 0 0.0050735346482847672 -0.026765748037386836 0 0.0054462611336805432 -0.027253547958248896 0 0.0051212619334633606 -0.02700024647226534 0 0.0050266130074525187 -0.027312462779260319 0 0.0055598545453756721 -0.026708610684610667 0 0.0054462611336805432 -0.027253547958248896 0 0.0051212619334633606 -0.02700024647226534 0 0.0041275119043504725 -0.021179793410242197 0 0.0042521289263800039 -0.021145134261981183 0 0.0052685494028493806 -0.026056511002626993 0 0.0050735346482847672 -0.026765748037386836 0 0.0043418560797786167 -0.027297290462824503 0 0.0051212619334633606 -0.02700024647226534 0 0.0050735346482847672 -0.026765748037386836 0 0.0043418560797786167 -0.027297290462824503 0 0.0051212619334633606 -0.02700024647226534 0 0.0043418560797786167 -0.027297290462824503 0 0.0050266130074525187 -0.027312462779260319 0 0.0039031810247639716 -0.020512257206267863 0 0.0042149813954228893 -0.019884315437461157 0 0.0040044891650581572 -0.01255387114909557 0 0.0040072789858291323 -0.012325936992061802 0 0.0041797469973532666 -0.012321687715291855 0 0.0039918133979020684 -0.012589590479117608 0 0.0041797469973532666 -0.012321687715291855 0 0.0040549467271211127 -0.012617723730282963 0 0.0039031810247639716 -0.020512257206267863 0 0.0042521289263800039 -0.021145134261981183 0 0.0038263899413665883 -0.01221695821200066 0 0.0040044891650581572 -0.01255387114909557 0 0.0040072789858291323 -0.012325936992061802 0 0.004017324321238247 -0.012210702147590605 0 0.0041797469973532666 -0.012321687715291855 0 0.0041354277592302912 -0.012100576663798709 0 0.0040072789858291323 -0.012325936992061802 0 0.004017324321238247 -0.012210702147590605 0 0.0041797469973532666 -0.012321687715291855 0 0.0038263899413665883 -0.01221695821200066 0 0.0040072789858291323 -0.012325936992061802 0 0.004017324321238247 -0.012210702147590605 0 0.0043486423171253718 -0.012193629977337117 0 0.0041797469973532666 -0.012321687715291855 0 0.0040549467271211127 -0.012617723730282963 0 0.0043486423171253718 -0.012193629977337117 0 0.0041797469973532666 -0.012321687715291855 0 0.0041354277592302912 -0.012100576663798709 0 0.0043486423171253718 -0.012193629977337117 0 0.0041354277592302912 -0.012100576663798709 0 0.0042432553714567018 -0.012028628818500262 0 0.0041354277592302912 -0.012100576663798709 0 0.0042432553714567018 -0.012028628818500262 0 0.004069974692679613 -0.011834642874535749 0 0.0043486423171253718 -0.012193629977337117 0 0.0042432553714567018 -0.012028628818500262 0 0.0043471856627839908 -0.011950523496231102 0 0.0039106737478891923 -0.012025296355393211 0 0.0041354277592302912 -0.012100576663798709 0 0.004069974692679613 -0.011834642874535749 0 0.0039106737478891923 -0.012025296355393211 0 0.004017324321238247 -0.012210702147590605 0 0.0041354277592302912 -0.012100576663798709 0 0.0039106737478891923 -0.012025296355393211 0 0.0038263899413665883 -0.01221695821200066 0 0.004017324321238247 -0.012210702147590605 0 0.0042432553714567018 -0.012028628818500262 0 0.004069974692679613 -0.011834642874535749 0 0.0043471856627839908 -0.011950523496231102 0 0.0036076327758550095 -0.019072309532645479 0 0.0033075887875214554 -0.022313722009695842 0 0.004069974692679613 -0.011834642874535749 0 0.0043471856627839908 -0.011950523496231102 0 0.0046186413884798201 -0.011835429968704892 0 0.0043486423171253718 -0.012193629977337117 0 0.0043471856627839908 -0.011950523496231102 0 0.0046186413884798201 -0.011835429968704892 0 0.0041275119043504725 -0.021179793410242197 0 0.0033075887875214554 -0.022313722009695842 0 0.0060912201431441203 -0.025617938766968742 0 0.0063830819660407791 -0.0248088059967723 0 0.0066575814651387141 -0.026032076013994508 0 0.0052685494028493806 -0.026056511002626993 0 0.0060912201431441203 -0.025617938766968742 0 0.0061829659734039567 -0.024817800228559235 0 0.0060912201431441203 -0.025617938766968742 0 0.0061829659734039567 -0.024817800228559235 0 0.0063830819660407791 -0.0248088059967723 0 0.0033075887875214554 -0.022313722009695842 0 0.0031225388519838977 -0.022821820102184222 0 0.0011264170479959954 -0.02298715696455057 0 0.0024619085294611191 -0.022928259074445165 0 0.0021609295187390298 -0.021623713647025158 0 0.003121156306170705 -0.022679149103817523 0 0.0029177866312680425 -0.021807609645569298 0 0.0038422948997184612 -0.011743663860755893 0 0.0038708022993984982 -0.011707930923470826 0 0.0035994140428927189 -0.011562876186829314 0 0.003121156306170705 -0.022679149103817523 0 0.0020636750128035174 -0.019998290698882901 0 0.0039195120293822093 -0.011760534453566222 0 0.0036073618370254653 -0.011599615486284397 0 0.0038182839670637529 -0.011332060568081354 0 0.0031225388519838977 -0.022821820102184222 0 0.003121156306170705 -0.022679149103817523 0 0.0033075887875214554 -0.022313722009695842 0 0.003121156306170705 -0.022679149103817523 0 0.0017819170464317331 -0.019173282587175888 0 0.0020636750128035174 -0.019998290698882901 0 0.0033605278398064478 -0.011595286378783118 0 0.0035106463050782266 -0.011729433290566386 0 0.0035994140428927189 -0.011562876186829314 0 0.0033322991993598072 -0.011425367996125193 0 0.0033605278398064478 -0.011595286378783118 0 0.0035994140428927189 -0.011562876186829314 0 0.0035106463050782266 -0.011729433290566386 0 0.0038422948997184612 -0.011743663860755893 0 0.0035994140428927189 -0.011562876186829314 0 0.0033322991993598072 -0.011425367996125193 0 0.0036073618370254653 -0.011599615486284397 0 0.0035147963840706543 -0.011380903209849242 0 0.0035442326667584046 -0.011182265781160746 0 0.0035147963840706543 -0.011380903209849242 0 0.0038182839670637529 -0.011332060568081354 0 0.0036073618370254653 -0.011599615486284397 0 0.0035147963840706543 -0.011380903209849242 0 0.0038182839670637529 -0.011332060568081354 0 0.0035442326667584046 -0.011182265781160746 0 0.0033559308789083268 -0.011205934189890372 0 0.0035147963840706543 -0.011380903209849242 0 0.0040835480356664049 -0.026742501090583681 0 0.0045954862857908278 -0.029099297154018194 0 0.0026089617449282666 -0.028735006448011843 0 0.00065753076338331481 -0.032090796765120964 0 0.00066460978840740959 -0.031964819164563799 0 0.00045114113248383338 -0.031292298864081823 0 0.00011165495015102066 -0.031447381883377895 0 0.0002466176917229751 -0.031585745490735902 0 0.00011165495015102066 -0.031447381883377895 0 0.0002466176917229751 -0.031585745490735902 0 8.6272587211305002e-05 -0.031695657349836079 0 0.0002466176917229751 -0.031585745490735902 0 0.00038767630596048898 -0.031759216578152387 0 0.00047576483528319108 -0.031641677347475181 0 0.0002466176917229751 -0.031585745490735902 0 0.00038767630596048898 -0.031759216578152387 0 0.00026259432653941508 -0.031778340189678483 0 0.00038767630596048898 -0.031759216578152387 0 0.00026259432653941508 -0.031778340189678483 0 0.00041908053276880168 -0.031898588772665659 0 0.00026259432653941508 -0.031778340189678483 0 8.6272587211305002e-05 -0.031695657349836079 0 8.753845626868588e-05 -0.031803484505881323 0 0.0002466176917229751 -0.031585745490735902 0 0.00026259432653941508 -0.031778340189678483 0 8.6272587211305002e-05 -0.031695657349836079 0 -0.00012987583389082843 -0.031763308581559832 0 0.00011165495015102066 -0.031447381883377895 0 8.6272587211305002e-05 -0.031695657349836079 0 0.003121156306170705 -0.022679149103817523 0 0.0013227494616823347 -0.027627358708844894 0 8.6272587211305002e-05 -0.031695657349836079 0 -5.4022909704309744e-05 -0.03180087257336478 0 8.753845626868588e-05 -0.031803484505881323 0 -0.00012987583389082843 -0.031763308581559832 0 8.6272587211305002e-05 -0.031695657349836079 0 -5.4022909704309744e-05 -0.03180087257336478 0 0.003121156306170705 -0.022679149103817523 0 0.0029145587579163471 -0.023251427687974741 0 0.00092436486604769276 -0.031495746838170323 0 0.00075402329517553304 -0.031330151144159199 0 0.0010126992712917741 -0.031240772768948502 0 0.00092436486604769276 -0.031495746838170323 0 0.00075402329517553304 -0.031330151144159199 0 0.00069626521169693022 -0.031596450302116559 0 0.00050560160239642435 -0.031225974941132509 0 0.0002466176917229751 -0.031585745490735902 0 0.00053369180353321055 -0.031476204020056686 0 0.00075402329517553304 -0.031330151144159199 0 0.00053369180353321055 -0.031476204020056686 0 0.00069626521169693022 -0.031596450302116559 0 0.00050560160239642435 -0.031225974941132509 0 0.00075402329517553304 -0.031330151144159199 0 0.00053369180353321055 -0.031476204020056686 0 0.0002466176917229751 -0.031585745490735902 0 0.00053369180353321055 -0.031476204020056686 0 0.00047576483528319108 -0.031641677347475181 0 0.00038767630596048898 -0.031759216578152387 0 0.00056445799835205498 -0.031791700632170031 0 0.00041908053276880168 -0.031898588772665659 0 0.00038767630596048898 -0.031759216578152387 0 0.00047576483528319108 -0.031641677347475181 0 0.00056445799835205498 -0.031791700632170031 0 0.00056445799835205498 -0.031791700632170031 0 0.00077098634002066341 -0.031749779444356342 0 0.00072204729396180094 -0.03189073062035002 0 0.00056445799835205498 -0.031791700632170031 0 0.00069626521169693022 -0.031596450302116559 0 0.00077098634002066341 -0.031749779444356342 0 0.00047576483528319108 -0.031641677347475181 0 0.00056445799835205498 -0.031791700632170031 0 0.00069626521169693022 -0.031596450302116559 0 0.00053369180353321055 -0.031476204020056686 0 0.00047576483528319108 -0.031641677347475181 0 0.00069626521169693022 -0.031596450302116559 0 0.00069626521169693022 -0.031596450302116559 0 0.00077098634002066341 -0.031749779444356342 0 0.00092040823351591066 -0.031684587822069295 0 0.00077098634002066341 -0.031749779444356342 0 0.00092040823351591066 -0.031684587822069295 0 0.00093126418699915087 -0.031887772546840026 0 0.00092040823351591066 -0.031684587822069295 0 0.00093126418699915087 -0.031887772546840026 0 0.001112542957431817 -0.031788687008177788 0 0.00092436486604769276 -0.031495746838170323 0 0.00092040823351591066 -0.031684587822069295 0 0.0010195209323698802 -0.031627045412863604 0 0.00092436486604769276 -0.031495746838170323 0 0.00069626521169693022 -0.031596450302116559 0 0.00092040823351591066 -0.031684587822069295 0 0.00093126418699915087 -0.031887772546840026 0 0.00081266627677995559 -0.032080781861040644 0 0.0010193100124454991 -0.032112176551531063 0 0.00077098634002066341 -0.031749779444356342 0 0.00093126418699915087 -0.031887772546840026 0 0.00072204729396180094 -0.03189073062035002 0 0.00072204729396180094 -0.03189073062035002 0 0.00081266627677995559 -0.032080781861040644 0 0.00057482230087470168 -0.031984591332315251 0 0.00093126418699915087 -0.031887772546840026 0 0.00072204729396180094 -0.03189073062035002 0 0.00081266627677995559 -0.032080781861040644 0 0.0020989083646052206 -0.028738230234898552 0 0.0020953774903422831 -0.027142884334145374 0 0.00057482230087470168 -0.031984591332315251 0 0.0006421735602883087 -0.032222860831414943 0 0.00028217263468550112 -0.032034483852921181 0 0.00081266627677995559 -0.032080781861040644 0 0.00057482230087470168 -0.031984591332315251 0 0.0006421735602883087 -0.032222860831414943 0 0.00056445799835205498 -0.031791700632170031 0 0.00072204729396180094 -0.03189073062035002 0 0.00057482230087470168 -0.031984591332315251 0 0.00057482230087470168 -0.031984591332315251 0 0.00041908053276880168 -0.031898588772665659 0 0.00028217263468550112 -0.032034483852921181 0 0.00056445799835205498 -0.031791700632170031 0 0.00057482230087470168 -0.031984591332315251 0 0.00041908053276880168 -0.031898588772665659 0 0.00092892854811651396 -0.032573299414803525 0 0.0010415939420815479 -0.032550656147584393 0 0.00086607885169696669 -0.032465182767640113 0 0.00092892854811651396 -0.032573299414803525 0 0.000991988029634039 -0.032663347604852282 0 0.00085521941669263293 -0.032661595612722173 0 0.00092892854811651396 -0.032573299414803525 0 0.000991988029634039 -0.032663347604852282 0 0.0010415939420815479 -0.032550656147584393 0 0.00081266627677995559 -0.032080781861040644 0 0.0010193100124454991 -0.032112176551531063 0 0.0010022078961157645 -0.032426313792292015 0 0.000991988029634039 -0.032663347604852282 0 0.0010415939420815479 -0.032550656147584393 0 0.0012133461526385116 -0.032618438303851881 0 0.0020989083646052206 -0.028738230234898552 0 0.0021231329596139094 -0.029607812267839349 0 0.00081266627677995559 -0.032080781861040644 0 0.0006421735602883087 -0.032222860831414943 0 0.0010022078961157645 -0.032426313792292015 0 0.0029145587579163471 -0.023251427687974741 0 0.0020953774903422831 -0.027142884334145374 0 0.003645087101390243 -0.026065187561364448 0 0.0033219795945502498 -0.025924626163144074 0 0.0036595426576031551 -0.025851878454196356 0 -5.7229446339481471e-05 -0.031800117535662691 0 8.753845626868588e-05 -0.031803484505881323 0 0.00030655202663702573 -0.031993455347041608 0 0.0031225388519838977 -0.022821820102184222 0 0.0030037528691722274 -0.025629980179870941 0 0.0037066641952299357 -0.026061664720505303 0 0.003645087101390243 -0.026065187561364448 0 0.0036595426576031551 -0.025851878454196356 0 0.0031225388519838977 -0.022821820102184222 0 0.0029145587579163471 -0.023251427687974741 0 0.0032594549825820489 -0.023404825596090174 0 0.0032851671166760029 -0.023516067945531106 0 0.0030601671205767933 -0.023413952772174552 0 0.0029145587579163471 -0.023251427687974741 0 0.0027194499839845463 -0.023394599655657558 0 0.00026259432653941508 -0.031778340189678483 0 8.753845626868588e-05 -0.031803484505881323 0 0.00030655202663702573 -0.031993455347041608 0 0.00026259432653941508 -0.031778340189678483 0 0.00041908053276880168 -0.031898588772665659 0 0.00030655202663702573 -0.031993455347041608 0 0.0018913827416775697 -0.027401843844231562 0 0.0020953774903422831 -0.027142884334145374 0 0.00092892854811651396 -0.032573299414803525 0 0.00086607885169696669 -0.032465182767640113 0 0.00085521941669263293 -0.032661595612722173 0 0.0020953774903422831 -0.027142884334145374 0 0.0026288540042452096 -0.02817871580542158 0 0.00086607885169696669 -0.032465182767640113 0 0.00085521941669263293 -0.032661595612722173 0 0.00066593056300912599 -0.032665480128860599 0 0.0033219795945502498 -0.025924626163144074 0 0.0036595426576031551 -0.025851878454196356 0 0.0036121972746229409 -0.025641275704281836 0 0.0030037528691722274 -0.025629980179870941 0 0.0026288540042452096 -0.02817871580542158 0 0.0060772804034064706 -0.026459438262863358 0 0.0066575814651387141 -0.026032076013994508 0 0.0069274474521154534 -0.027254262250759217 0 0.00066593056300912599 -0.032665480128860599 0 0.0007867554091512529 -0.032765084388752981 0 0.00072725208169757173 -0.032896401060439874 0 0.00070778147697593335 -0.032778882031743124 0 0.00067511762552774736 -0.032887290064258758 0 0.00072725208169757173 -0.032896401060439874 0 0.0026288540042452096 -0.02817871580542158 0 0.0026501304930617816 -0.029364046816015024 0 0.00085521941669263293 -0.032661595612722173 0 0.00066593056300912599 -0.032665480128860599 0 0.0007867554091512529 -0.032765084388752981 0 0.0008868690783940613 -0.032830674616926465 0 0.0007867554091512529 -0.032765084388752981 0 0.00072725208169757173 -0.032896401060439874 0 0.000991988029634039 -0.032663347604852282 0 0.00085521941669263293 -0.032661595612722173 0 0.0008868690783940613 -0.032830674616926465 0 0.00085521941669263293 -0.032661595612722173 0 0.0008868690783940613 -0.032830674616926465 0 0.0007867554091512529 -0.032765084388752981 0 0.0008868690783940613 -0.032830674616926465 0 0.00090218494478221491 -0.032991044935960806 0 0.00076628703734557709 -0.032995814177286864 0 0.0008868690783940613 -0.032830674616926465 0 0.00072725208169757173 -0.032896401060439874 0 0.00076628703734557709 -0.032995814177286864 0 0.00072725208169757173 -0.032896401060439874 0 0.00076628703734557709 -0.032995814177286864 0 0.00066611303128605521 -0.032973617055255255 0 0.00067511762552774736 -0.032887290064258758 0 0.00072725208169757173 -0.032896401060439874 0 0.00066611303128605521 -0.032973617055255255 0 0.000991988029634039 -0.032663347604852282 0 0.0010464973941796047 -0.032771128373073971 0 0.0012133461526385116 -0.032618438303851881 0 0.0010464973941796047 -0.032771128373073971 0 0.0011479551901183163 -0.032825980724382205 0 0.0012133461526385116 -0.032618438303851881 0 0.0011479551901183163 -0.032825980724382205 0 0.0012133461526385116 -0.032618438303851881 0 0.0012585721003366022 -0.03278523514978101 0 0.000991988029634039 -0.032663347604852282 0 0.0008868690783940613 -0.032830674616926465 0 0.0010464973941796047 -0.032771128373073971 0 0.0008868690783940613 -0.032830674616926465 0 0.0010464973941796047 -0.032771128373073971 0 0.0010150601080974795 -0.032909245062752564 0 0.0008868690783940613 -0.032830674616926465 0 0.0010150601080974795 -0.032909245062752564 0 0.00090218494478221491 -0.032991044935960806 0 0.0010464973941796047 -0.032771128373073971 0 0.0010150601080974795 -0.032909245062752564 0 0.0011479551901183163 -0.032825980724382205 0 0.0010150601080974795 -0.032909245062752564 0 0.0011408026335536737 -0.032959999081511329 0 0.0011479551901183163 -0.032825980724382205 0 0.0011408026335536737 -0.032959999081511329 0 0.0011479551901183163 -0.032825980724382205 0 0.001232795243024831 -0.032896767708694777 0 0.0011376346419084849 -0.033073940020841304 0 0.0010193885113862159 -0.033098739222563456 0 0.0011878833810637218 -0.033175582275366974 0 0.0010150601080974795 -0.032909245062752564 0 0.0011408026335536737 -0.032959999081511329 0 0.0010193885113862159 -0.033098739222563456 0 0.0011376346419084849 -0.033073940020841304 0 0.0011878833810637218 -0.033175582275366974 0 0.0012678656330939195 -0.033031709246795486 0 0.0011408026335536737 -0.032959999081511329 0 0.0011376346419084849 -0.033073940020841304 0 0.0012678656330939195 -0.033031709246795486 0 0.0011408026335536737 -0.032959999081511329 0 0.0011376346419084849 -0.033073940020841304 0 0.0010193885113862159 -0.033098739222563456 0 0.00090218494478221491 -0.032991044935960806 0 0.0010193885113862159 -0.033098739222563456 0 0.00083498932891215496 -0.033101670086024854 0 0.0010150601080974795 -0.032909245062752564 0 0.00090218494478221491 -0.032991044935960806 0 0.0010193885113862159 -0.033098739222563456 0 0.00092426340851229738 -0.033172941716592894 0 0.0010862370177259033 -0.033247255008132845 0 0.00096387111148376855 -0.033283048260281979 0 0.0010193885113862159 -0.033098739222563456 0 0.00092426340851229738 -0.033172941716592894 0 0.00083498932891215496 -0.033101670086024854 0 0.0010193885113862159 -0.033098739222563456 0 0.00092426340851229738 -0.033172941716592894 0 0.0010862370177259033 -0.033247255008132845 0 0.00092426340851229738 -0.033172941716592894 0 0.00080806898358945132 -0.033200850174251562 0 0.00096387111148376855 -0.033283048260281979 0 0.0010193885113862159 -0.033098739222563456 0 0.0010862370177259033 -0.033247255008132845 0 0.0011878833810637218 -0.033175582275366974 0 0.0010862370177259033 -0.033247255008132845 0 0.0011878833810637218 -0.033175582275366974 0 0.001298304474496779 -0.033269164957241269 0 0.00067997545693034575 -0.033063148682855259 0 0.00076628703734557709 -0.032995814177286864 0 0.00066611303128605521 -0.032973617055255255 0 0.00073090709903119019 -0.033088502692734591 0 0.00067997545693034575 -0.033063148682855259 0 0.00067058924696103146 -0.033134448130528314 0 0.00073090709903119019 -0.033088502692734591 0 0.00067997545693034575 -0.033063148682855259 0 0.00076628703734557709 -0.032995814177286864 0 0.00090218494478221491 -0.032991044935960806 0 0.00076628703734557709 -0.032995814177286864 0 0.00083498932891215496 -0.033101670086024854 0 0.00073090709903119019 -0.033088502692734591 0 0.00076628703734557709 -0.032995814177286864 0 0.00083498932891215496 -0.033101670086024854 0 0.00073090709903119019 -0.033088502692734591 0 0.00083498932891215496 -0.033101670086024854 0 0.00072751807360893136 -0.033178795473483631 0 0.00083498932891215496 -0.033101670086024854 0 0.00080806898358945132 -0.033200850174251562 0 0.00072751807360893136 -0.033178795473483631 0 0.00092426340851229738 -0.033172941716592894 0 0.00083498932891215496 -0.033101670086024854 0 0.00080806898358945132 -0.033200850174251562 0 0.00080806898358945132 -0.033200850174251562 0 0.00072751807360893136 -0.033178795473483631 0 0.00074463311267505339 -0.033231124054856974 0 0.00073090709903119019 -0.033088502692734591 0 0.00072751807360893136 -0.033178795473483631 0 0.00067058924696103146 -0.033134448130528314 0 0.00072751807360893136 -0.033178795473483631 0 0.0006605035941755176 -0.033207108730116196 0 0.00069906077291128342 -0.033241052080588175 0 0.00072751807360893136 -0.033178795473483631 0 0.00067058924696103146 -0.033134448130528314 0 0.0006605035941755176 -0.033207108730116196 0 0.0006605035941755176 -0.033207108730116196 0 0.00061190689454237318 -0.033175271562147182 0 0.0006129209141598833 -0.033241885838161317 0 0.00061190689454237318 -0.033175271562147182 0 0.00058414837079937183 -0.033229795403170254 0 0.0006129209141598833 -0.033241885838161317 0 0.00067058924696103146 -0.033134448130528314 0 0.0006605035941755176 -0.033207108730116196 0 0.00061190689454237318 -0.033175271562147182 0 0.00067058924696103146 -0.033134448130528314 0 0.00061190689454237318 -0.033175271562147182 0 0.00062855701703388674 -0.033080555250059776 0 0.00067997545693034575 -0.033063148682855259 0 0.00067058924696103146 -0.033134448130528314 0 0.00062855701703388674 -0.033080555250059776 0 0.00062855701703388674 -0.033080555250059776 0 0.00059721177102236959 -0.033032212646983992 0 0.00058388210161297105 -0.033116479187802181 0 0.00061190689454237318 -0.033175271562147182 0 0.00062855701703388674 -0.033080555250059776 0 0.00058388210161297105 -0.033116479187802181 0 0.00062855701703388674 -0.033080555250059776 0 0.00059721177102236959 -0.033032212646983992 0 0.00066611303128605521 -0.032973617055255255 0 0.00067997545693034575 -0.033063148682855259 0 0.00062855701703388674 -0.033080555250059776 0 0.00066611303128605521 -0.032973617055255255 0 0.00059721177102236959 -0.033032212646983992 0 0.00051420951350134101 -0.033068322337670125 0 0.00058388210161297105 -0.033116479187802181 0 0.00051420951350134101 -0.033068322337670125 0 0.00058388210161297105 -0.033116479187802181 0 0.00055541302446160509 -0.033168384624970224 0 0.00061190689454237318 -0.033175271562147182 0 0.00058388210161297105 -0.033116479187802181 0 0.00055541302446160509 -0.033168384624970224 0 0.00061190689454237318 -0.033175271562147182 0 0.00055541302446160509 -0.033168384624970224 0 0.00058414837079937183 -0.033229795403170254 0 0.00055541302446160509 -0.033168384624970224 0 0.00056009983089881556 -0.033246434791389896 0 0.00058414837079937183 -0.033229795403170254 0 0.00051420951350134101 -0.033068322337670125 0 0.00055541302446160509 -0.033168384624970224 0 0.00051696096634065312 -0.033216369792204541 0 0.00055579212078059022 -0.033480389037824514 0 0.00056993396368634492 -0.033437679192820396 0 0.00058937551003247627 -0.033454235156223262 0 0.00055541302446160509 -0.033168384624970224 0 0.00051696096634065312 -0.033216369792204541 0 0.00056009983089881556 -0.033246434791389896 0 0.00056993396368634492 -0.033437679192820396 0 0.00058937551003247627 -0.033454235156223262 0 0.00066986706667245769 -0.033402661087550502 0 0.0028688900542686679 -0.031314969471535642 0 0.0020309688469956366 -0.031623505202399795 0 0.0017639684999758987 -0.032397130876609254 0 0.001595365878894425 -0.03183256641410491 0 0.0012567985829270334 -0.032318160810834329 0 0.0028688900542686679 -0.031314969471535642 0 0.0020309688469956366 -0.031623505202399795 0 0.0023738729650441708 -0.030842766824604705 0 0.0020309688469956366 -0.031623505202399795 0 0.0017078574691367409 -0.030848860998100532 0 0.0023738729650441708 -0.030842766824604705 0 0.0023916831762012414 -0.02427558439750898 0 0.0029083182068862729 -0.022773120276877865 0 0.0017078574691367409 -0.030848860998100532 0 0.0026246526832812219 -0.030180959510007158 0 0.0029354884021093922 -0.029045159270279199 0 0.0023797069805132718 -0.01787627215442816 0 0.0025334408065564237 -0.017654616440309592 0 0.0023849091010480741 -0.017708149433804322 0 0.0017078574691367409 -0.030848860998100532 0 0.0023738729650441708 -0.030842766824604705 0 0.0026246526832812219 -0.030180959510007158 0 0.0028688900542686679 -0.031314969471535642 0 0.0023738729650441708 -0.030842766824604705 0 0.0026246526832812219 -0.030180959510007158 0 0.0040534218308904734 -0.030122783117317701 0 0.0028688900542686679 -0.031314969471535642 0 0.0026246526832812219 -0.030180959510007158 0 0.0040534218308904734 -0.030122783117317701 0 0.0026246526832812219 -0.030180959510007158 0 0.0031212720566978131 -0.029668500656671006 0 0.002038368290335762 -0.031107635071640639 0 0.0013023345314892196 -0.032405539649316348 0 0.002038368290335762 -0.031107635071640639 0 0.001595365878894425 -0.03183256641410491 0 0.0040534218308904734 -0.030122783117317701 0 0.003503443630970771 -0.029322567964662028 0 0.0041321249553307 -0.02901538202799776 0 0.0040534218308904734 -0.030122783117317701 0 0.003503443630970771 -0.029322567964662028 0 0.0031212720566978131 -0.029668500656671006 0 0.003503443630970771 -0.029322567964662028 0 0.0031212720566978131 -0.029668500656671006 0 0.0029354884021093922 -0.029045159270279199 0 0.0026246526832812219 -0.030180959510007158 0 0.0031212720566978131 -0.029668500656671006 0 0.0029354884021093922 -0.029045159270279199 0 0.003503443630970771 -0.029322567964662028 0 0.0029354884021093922 -0.029045159270279199 0 0.0034136047086232887 -0.028748066979006722 0 0.003503443630970771 -0.029322567964662028 0 0.0034136047086232887 -0.028748066979006722 0 0.0041321249553307 -0.02901538202799776 0 0.0034136047086232887 -0.028748066979006722 0 0.0040083908568092639 -0.028616269615862017 0 0.0041321249553307 -0.02901538202799776 0 0.0025334408065564237 -0.017654616440309592 0 0.0023849091010480741 -0.017708149433804322 0 0.0024542943915687675 -0.017614165463587128 0 0.0025334408065564237 -0.017654616440309592 0 0.0024542943915687675 -0.017614165463587128 0 0.0025275060280672374 -0.017554966358220511 0 0.0023849091010480741 -0.017708149433804322 0 0.0024542943915687675 -0.017614165463587128 0 0.0023793580066471922 -0.017613336999189697 0 0.0024382271319701772 -0.017548466639001808 0 0.0023299813938202699 -0.017550650852020015 0 0.0023668207967296783 -0.017477659062999456 0 0.0023793580066471922 -0.017613336999189697 0 0.0024382271319701772 -0.017548466639001808 0 0.0023299813938202699 -0.017550650852020015 0 0.0024542943915687675 -0.017614165463587128 0 0.0023793580066471922 -0.017613336999189697 0 0.0024382271319701772 -0.017548466639001808 0 0.0024542943915687675 -0.017614165463587128 0 0.0024382271319701772 -0.017548466639001808 0 0.0025275060280672374 -0.017554966358220511 0 0.0024382271319701772 -0.017548466639001808 0 0.0025275060280672374 -0.017554966358220511 0 0.0025232163740089119 -0.0174766957530572 0 0.0024382271319701772 -0.017548466639001808 0 0.0024400130867759358 -0.017450579127063905 0 0.0025232163740089119 -0.0174766957530572 0 0.0024382271319701772 -0.017548466639001808 0 0.0024400130867759358 -0.017450579127063905 0 0.0023668207967296783 -0.017477659062999456 0 0.0026940455166323293 -0.017443245575905146 0 0.0025275060280672374 -0.017554966358220511 0 0.0025232163740089119 -0.0174766957530572 0 0.0039031810247639716 -0.020512257206267863 0 0.0029083182068862729 -0.022773120276877865 0 0.0026940455166323293 -0.017443245575905146 0 0.0025334408065564237 -0.017654616440309592 0 0.0025275060280672374 -0.017554966358220511 0 0.0034136047086232887 -0.028748066979006722 0 0.0044253466676506311 -0.027360505924995823 0 0.0041516645536888615 -0.028230694381212038 0 0.0043458835230154287 -0.027086975460128147 0 0.0029354884021093922 -0.029045159270279199 0 0.0034136047086232887 -0.028748066979006722 0 0.0033731858416438643 -0.022963347073268348 0 0.0042521289263800039 -0.021145134261981183 0 0.0034136047086232887 -0.028748066979006722 0 0.0040083908568092639 -0.028616269615862017 0 0.0041516645536888615 -0.028230694381212038 0 0.0044253466676506311 -0.027360505924995823 0 0.0045326421986785917 -0.027873075145214352 0 0.0041516645536888615 -0.028230694381212038 0 0.0043458835230154287 -0.027086975460128147 0 0.0034136047086232887 -0.028748066979006722 0 0.0045372274869409854 -0.027174614479894603 0 0.0044253466676506311 -0.027360505924995823 0 0.0045326421986785917 -0.027873075145214352 0 0.0047436237453483123 -0.02769190777906903 0 0.0043365393746635618 -0.028472107407358865 0 0.0050284543279227253 -0.028024557060290993 0 0.0041321249553307 -0.02901538202799776 0 0.0045326421986785917 -0.027873075145214352 0 0.0041516645536888615 -0.028230694381212038 0 0.0045407993189208531 -0.028176034500960099 0 0.0041516645536888615 -0.028230694381212038 0 0.0045407993189208531 -0.028176034500960099 0 0.0043365393746635618 -0.028472107407358865 0 0.0040083908568092639 -0.028616269615862017 0 0.0041516645536888615 -0.028230694381212038 0 0.0043365393746635618 -0.028472107407358865 0 0.0045407993189208531 -0.028176034500960099 0 0.0043365393746635618 -0.028472107407358865 0 0.0050284543279227253 -0.028024557060290993 0 0.0045407993189208531 -0.028176034500960099 0 0.0047242902069547224 -0.02799343302046339 0 0.0050284543279227253 -0.028024557060290993 0 0.0045326421986785917 -0.027873075145214352 0 0.0045407993189208531 -0.028176034500960099 0 0.0047242902069547224 -0.02799343302046339 0 0.0047242902069547224 -0.02799343302046339 0 0.0050284543279227253 -0.028024557060290993 0 0.0048238537289940443 -0.027834028937187612 0 0.0043418560797786167 -0.027297290462824503 0 0.0050266130074525187 -0.027312462779260319 0 0.0051948554151326209 -0.027698601213813102 0 0.0044253466676506311 -0.027360505924995823 0 0.0047436237453483123 -0.02769190777906903 0 0.0051948554151326209 -0.027698601213813102 0 0.0048238537289940443 -0.027834028937187612 0 0.0047436237453483123 -0.02769190777906903 0 0.0051948554151326209 -0.027698601213813102 0 0.0050284543279227253 -0.028024557060290993 0 0.0048238537289940443 -0.027834028937187612 0 0.0051948554151326209 -0.027698601213813102 0 0.0042521289263800039 -0.021145134261981183 0 0.0044843115203849525 -0.021407572359136009 0 0.0045326421986785917 -0.027873075145214352 0 0.0048238537289940443 -0.027834028937187612 0 0.0047436237453483123 -0.02769190777906903 0 0.0045326421986785917 -0.027873075145214352 0 0.0047242902069547224 -0.02799343302046339 0 0.0048238537289940443 -0.027834028937187612 0 0.0069274474521154534 -0.027254262250759217 0 0.0058074313802737665 -0.027736086084608636 0 0.0054374964698076502 -0.028752659937160766 0 0.0054462611336805432 -0.027253547958248896 0 0.0050266130074525187 -0.027312462779260319 0 0.0051948554151326209 -0.027698601213813102 0 0.0059539572095087335 -0.027084125336227092 0 0.0054462611336805432 -0.027253547958248896 0 0.0058074313802737665 -0.027736086084608636 0 0.00070778147697593335 -0.032778882031743124 0 0.00067511762552774736 -0.032887290064258758 0 0.00059684835122332991 -0.032910707935434901 0 0.0054462611336805432 -0.027253547958248896 0 0.0058074313802737665 -0.027736086084608636 0 0.0051948554151326209 -0.027698601213813102 0 0.0026288540042452096 -0.02817871580542158 0 0.0023522067328329674 -0.02985711620439721 0 0.0050284543279227253 -0.028024557060290993 0 0.0051948554151326209 -0.027698601213813102 0 0.0053660055908827014 -0.028051518757047859 0 0.0058074313802737665 -0.027736086084608636 0 0.0051948554151326209 -0.027698601213813102 0 0.0053660055908827014 -0.028051518757047859 0 0.0059539572095087335 -0.027084125336227092 0 0.0069274474521154534 -0.027254262250759217 0 0.0058074313802737665 -0.027736086084608636 0 0.0058074313802737665 -0.027736086084608636 0 0.0053660055908827014 -0.028051518757047859 0 0.0054374964698076502 -0.028752659937160766 0 0.0050284543279227253 -0.028024557060290993 0 0.0053660055908827014 -0.028051518757047859 0 0.0054374964698076502 -0.028752659937160766 0 0.00067511762552774736 -0.032887290064258758 0 0.00059684835122332991 -0.032910707935434901 0 0.00066611303128605521 -0.032973617055255255 0 0.00059721177102236959 -0.033032212646983992 0 0.00059684835122332991 -0.032910707935434901 0 0.00066611303128605521 -0.032973617055255255 0 0.0038920671897127172 -0.030272180458176458 0 0.0050284543279227253 -0.028024557060290993 0 0.0054374964698076502 -0.028752659937160766 0 0.002038368290335762 -0.031107635071640639 0 0.0023522067328329674 -0.02985711620439721 0 0.00059721177102236959 -0.033032212646983992 0 0.00051420951350134101 -0.033068322337670125 0 0.00059684835122332991 -0.032910707935434901 0 0.002038368290335762 -0.031107635071640639 0 0.0029452097326188708 -0.02976167592134198 0 0.0040534218308904734 -0.030122783117317701 0 0.0050284543279227253 -0.028024557060290993 0 0.0041321249553307 -0.02901538202799776 0 0.0040083908568092639 -0.028616269615862017 0 0.0043365393746635618 -0.028472107407358865 0 0.0041321249553307 -0.02901538202799776 0 3.2068969437780248e-09 -0.034999995790613705 0 1.5222736184551475e-06 -0.034998395896739781 0 1.0409066980601116e-09 -0.034999997778889895 0 1.2826750114243124e-06 -0.034998726034816366 0 1.5222736184551475e-06 -0.034998395896739781 0 1.0409066980601116e-09 -0.034999997778889895 0 1.2826750114243124e-06 -0.034998726034816366 0 3.0940347675987798e-06 -0.034997480726152864 0 4.3316435181865114e-06 -0.034997094392978524 0 1.2826750114243124e-06 -0.034998726034816366 0 3.0940347675987798e-06 -0.034997480726152864 0 1.5222736184551475e-06 -0.034998395896739781 0 2.8193464166604503e-06 -0.034995867888600304 0 1.5222736184551475e-06 -0.034998395896739781 0 1.320297357329875e-06 -0.03499480337398074 0 3.0940347675987798e-06 -0.034997480726152864 0 2.8193464166604503e-06 -0.034995867888600304 0 1.5222736184551475e-06 -0.034998395896739781 0 3.2068969437780248e-09 -0.034999995790613705 0 1.5222736184551475e-06 -0.034998395896739781 0 1.320297357329875e-06 -0.03499480337398074 0 3.2068969437780248e-09 -0.034999995790613705 0 1.7562070048910361e-06 -0.034993431505165866 0 2.153438690461265e-09 -0.034999983110395115 0 3.2068969437780248e-09 -0.034999995790613705 0 1.7562070048910361e-06 -0.034993431505165866 0 1.320297357329875e-06 -0.03499480337398074 0 1.9284378310002217e-06 -0.034989815235355846 0 1.7562070048910361e-06 -0.034993431505165866 0 2.153438690461265e-09 -0.034999983110395115 0 1.9284378310002217e-06 -0.034989815235355846 0 1.7562070048910361e-06 -0.034993431505165866 0 2.6664236666246001e-06 -0.034984998539028568 0 2.6664236666246001e-06 -0.034984998539028568 0 1.320297357329875e-06 -0.03499480337398074 0 3.9431297389552385e-06 -0.03497792552952976 0 2.8193464166604503e-06 -0.034995867888600304 0 1.320297357329875e-06 -0.03499480337398074 0 6.7597916372084049e-06 -0.034997770275742426 0 1.7562070048910361e-06 -0.034993431505165866 0 2.6664236666246001e-06 -0.034984998539028568 0 1.320297357329875e-06 -0.03499480337398074 0 2.6804044274459498e-05 -0.034920281441202072 0 3.2736013661175523e-05 -0.034911888314976894 0 2.8193464166604503e-06 -0.034995867888600304 0 6.7597916372084049e-06 -0.034997770275742426 0 1.3293247845971468e-05 -0.034993631494900555 0 3.4565246063306367e-06 -0.034976802284323212 0 2.6664236666246001e-06 -0.034984998539028568 0 3.8385253081058915e-06 -0.034977350286460235 0 3.9431297389552385e-06 -0.03497792552952976 0 3.8385253081058915e-06 -0.034977350286460235 0 5.2572432871933948e-06 -0.034969473286116451 0 3.4565246063306367e-06 -0.034976802284323212 0 3.8385253081058915e-06 -0.034977350286460235 0 5.2572432871933948e-06 -0.034969473286116451 0 2.6664236666246001e-06 -0.034984998539028568 0 3.9431297389552385e-06 -0.03497792552952976 0 3.8385253081058915e-06 -0.034977350286460235 0 5.2572432871933948e-06 -0.034969473286116451 0 5.8749013343435467e-06 -0.034965231999547333 0 5.7069504163189048e-06 -0.034960553389249881 0 6.4304039031584525e-06 -0.034954810934152626 0 5.2572432871933948e-06 -0.034969473286116451 0 5.7069504163189048e-06 -0.034960553389249881 0 3.2736013661175523e-05 -0.034911888314976894 0 5.4596033533384698e-05 -0.034886135453785327 0 1.3293247845971468e-05 -0.034993631494900555 0 2.2220568453611881e-05 -0.034989548682676952 0 1.9376623269209002e-05 -0.034998352964514298 0 6.7597916372084049e-06 -0.034997770275742426 0 1.3293247845971468e-05 -0.034993631494900555 0 1.9376623269209002e-05 -0.034998352964514298 0 3.9431297389552385e-06 -0.03497792552952976 0 5.2572432871933948e-06 -0.034969473286116451 0 5.8749013343435467e-06 -0.034965231999547333 0 1.4412626488053141e-05 -0.034985491043643964 0 1.3293247845971468e-05 -0.034993631494900555 0 2.2220568453611881e-05 -0.034989548682676952 0 -4.8449145251113346e-05 -0.034699641139607301 0 -4.9182592639936528e-06 -0.034617326620474079 0 2.8193464166604503e-06 -0.034995867888600304 0 1.4412626488053141e-05 -0.034985491043643964 0 1.3293247845971468e-05 -0.034993631494900555 0 3.0940347675987798e-06 -0.034997480726152864 0 2.8193464166604503e-06 -0.034995867888600304 0 7.0631468674826454e-06 -0.03499826123217778 0 3.0940347675987798e-06 -0.034997480726152864 0 7.0631468674826454e-06 -0.03499826123217778 0 4.3316435181865114e-06 -0.034997094392978524 0 7.0631468674826454e-06 -0.03499826123217778 0 1.1655993000241566e-05 -0.034994517505689181 0 9.0223558796569062e-06 -0.034995180643922437 0 7.0631468674826454e-06 -0.03499826123217778 0 6.8085706083183823e-06 -0.034996116436828054 0 9.0223558796569062e-06 -0.034995180643922437 0 7.0631468674826454e-06 -0.03499826123217778 0 4.3316435181865114e-06 -0.034997094392978524 0 6.8085706083183823e-06 -0.034996116436828054 0 1.4412626488053141e-05 -0.034985491043643964 0 2.9716806491620101e-05 -0.034976039445132723 0 2.4382026634323729e-05 -0.034984836997208085 0 -4.9182592639936528e-06 -0.034617326620474079 0 0.0002321985430233593 -0.034294016216631029 0 7.0631468674826454e-06 -0.03499826123217778 0 1.4384601305030515e-05 -0.034995413333640688 0 1.1655993000241566e-05 -0.034994517505689181 0 2.9716806491620101e-05 -0.034976039445132723 0 3.1248657069704896e-05 -0.034988274426911985 0 2.4382026634323729e-05 -0.034984836997208085 0 0.00041407101991333282 -0.034019033639347177 0 0.00048790726091460697 -0.03368430733341557 0 0.0002321985430233593 -0.034294016216631029 0 0.00016947907368892017 -0.034665825587052314 0 -1.4762990943221499e-05 -0.034916795874155318 0 -9.7208012022147229e-06 -0.034914269080904559 0 -1.2706614627707472e-05 -0.034936377055251704 0 -9.7208012022147229e-06 -0.034914269080904559 0 -1.2706614627707472e-05 -0.034936377055251704 0 -6.5439203558240836e-07 -0.034935280749618561 0 0.0002321985430233593 -0.034294016216631029 0 0.00041407101991333282 -0.034019033639347177 0 -1.2706614627707472e-05 -0.034936377055251704 0 -4.6002954497297364e-06 -0.034944986183218771 0 -6.5439203558240836e-07 -0.034935280749618561 0 3.1248657069704896e-05 -0.034988274426911985 0 2.4382026634323729e-05 -0.034984836997208085 0 2.2220568453611881e-05 -0.034989548682676952 0 3.1248657069704896e-05 -0.034988274426911985 0 2.2220568453611881e-05 -0.034989548682676952 0 2.6538846330470951e-05 -0.034993403130291992 0 1.4412626488053141e-05 -0.034985491043643964 0 2.4382026634323729e-05 -0.034984836997208085 0 2.2220568453611881e-05 -0.034989548682676952 0 2.2220568453611881e-05 -0.034989548682676952 0 2.6538846330470951e-05 -0.034993403130291992 0 1.9376623269209002e-05 -0.034998352964514298 0 5.8749013343435467e-06 -0.034965231999547333 0 4.084811615938109e-06 -0.034958623943942696 0 9.9520990083971515e-07 -0.034957195257125664 0 5.4596033533384698e-05 -0.034886135453785327 0 0.00011002280871892604 -0.034839701296689368 0 2.6538846330470951e-05 -0.034993403130291992 0 1.9376623269209002e-05 -0.034998352964514298 0 3.2921746190210599e-05 -0.034999457121408201 0 5.8749013343435467e-06 -0.034965231999547333 0 5.7069504163189048e-06 -0.034960553389249881 0 4.084811615938109e-06 -0.034958623943942696 0 5.7069504163189048e-06 -0.034960553389249881 0 4.084811615938109e-06 -0.034958623943942696 0 4.3312979042916406e-06 -0.034953722525094245 0 6.4304039031584525e-06 -0.034954810934152626 0 5.7069504163189048e-06 -0.034960553389249881 0 4.3312979042916406e-06 -0.034953722525094245 0 4.5207966812649537e-06 -0.034944204909268452 0 4.3312979042916406e-06 -0.034953722525094245 0 1.1443684927223703e-06 -0.034949134451648101 0 4.3312979042916406e-06 -0.034953722525094245 0 1.1443684927223703e-06 -0.034949134451648101 0 3.7543572698703409e-07 -0.034953476895267767 0 4.084811615938109e-06 -0.034958623943942696 0 3.7543572698703409e-07 -0.034953476895267767 0 9.9520990083971515e-07 -0.034957195257125664 0 4.084811615938109e-06 -0.034958623943942696 0 4.3312979042916406e-06 -0.034953722525094245 0 3.7543572698703409e-07 -0.034953476895267767 0 1.1443684927223703e-06 -0.034949134451648101 0 3.7543572698703409e-07 -0.034953476895267767 0 -2.2367457718085182e-06 -0.034949170759559792 0 0.00016947907368892017 -0.034665825587052314 0 0.00011002280871892604 -0.034839701296689368 0 3.7543572698703409e-07 -0.034953476895267767 0 1.2243570219378883e-07 -0.03495392609789736 0 -3.2540235209914354e-06 -0.034951492205795964 0 -9.6901276894549742e-06 -0.03495120705255695 0 -4.6002954497297364e-06 -0.034944986183218771 0 -3.2540235209914354e-06 -0.034951492205795964 0 0.00011002280871892604 -0.034839701296689368 0 0.00010356256045870071 -0.034841030130031328 0 -1.2706614627707472e-05 -0.034936377055251704 0 -9.6901276894549742e-06 -0.03495120705255695 0 -4.6002954497297364e-06 -0.034944986183218771 0 3.1248657069704896e-05 -0.034988274426911985 0 2.6538846330470951e-05 -0.034993403130291992 0 3.2921746190210599e-05 -0.034999457121408201 0 0.00010952782831156877 -0.034842643729586495 0 0.00011002280871892604 -0.034839701296689368 0 -4.6002954497297364e-06 -0.034944986183218771 0 -3.3916822169631518e-06 -0.034951028511440003 0 -6.5439203558240836e-07 -0.034935280749618561 0 -4.6002954497297364e-06 -0.034944986183218771 0 -3.2540235209914354e-06 -0.034951492205795964 0 -3.3916822169631518e-06 -0.034951028511440003 0 0.00048972263667949412 -0.033384138957053985 0 0.00048790726091460697 -0.03368430733341557 0 -3.2540235209914354e-06 -0.034951492205795964 0 -5.7578739919409517e-06 -0.034947802852313942 0 -2.2367457718085182e-06 -0.034949170759559792 0 3.7543572698703409e-07 -0.034953476895267767 0 -3.2540235209914354e-06 -0.034951492205795964 0 -2.2367457718085182e-06 -0.034949170759559792 0 -3.2540235209914354e-06 -0.034951492205795964 0 -5.7578739919409517e-06 -0.034947802852313942 0 -3.3916822169631518e-06 -0.034951028511440003 0 -2.0308237513252492e-06 -0.034943832009219626 0 1.1443684927223703e-06 -0.034949134451648101 0 -2.2367457718085182e-06 -0.034949170759559792 0 -2.0308237513252492e-06 -0.034943832009219626 0 -5.7578739919409517e-06 -0.034947802852313942 0 -2.2367457718085182e-06 -0.034949170759559792 0 0.00045535419156868061 -0.033102123661887743 0 0.00048972263667949412 -0.033384138957053985 0 -5.7578739919409517e-06 -0.034947802852313942 0 -2.2127945641346509e-05 -0.034943550465869028 0 -3.3916822169631518e-06 -0.034951028511440003 0 0.0010126992712917741 -0.031240772768948502 0 0.0011215909937139594 -0.031540498451219971 0 0.0012734513952341476 -0.03165529064064327 0 -9.7949426760354062e-06 -0.034937317261929668 0 -5.7578739919409517e-06 -0.034947802852313942 0 -2.2127945641346509e-05 -0.034943550465869028 0 0.00092436486604769276 -0.031495746838170323 0 0.0010126992712917741 -0.031240772768948502 0 0.0011215909937139594 -0.031540498451219971 0 0.0011215909937139594 -0.031540498451219971 0 0.0010195209323698802 -0.031627045412863604 0 0.001112542957431817 -0.031788687008177788 0 0.0011215909937139594 -0.031540498451219971 0 0.001112542957431817 -0.031788687008177788 0 0.0013898279030752723 -0.032031495034946345 0 0.0011215909937139594 -0.031540498451219971 0 0.0012734513952341476 -0.03165529064064327 0 0.0013711827471294528 -0.032097979939289055 0 0.00092436486604769276 -0.031495746838170323 0 0.0011215909937139594 -0.031540498451219971 0 0.0010195209323698802 -0.031627045412863604 0 0.00064396775225658239 -0.032463748317581982 0 0.00066358732641136017 -0.032824699964503649 0 0.00092040823351591066 -0.031684587822069295 0 0.0010195209323698802 -0.031627045412863604 0 0.001112542957431817 -0.031788687008177788 0 0.00093126418699915087 -0.031887772546840026 0 0.001112542957431817 -0.031788687008177788 0 0.0011355313878861854 -0.032001882307809024 0 0.00093126418699915087 -0.031887772546840026 0 0.0011355313878861854 -0.032001882307809024 0 0.0010193100124454991 -0.032112176551531063 0 0.0011355313878861854 -0.032001882307809024 0 0.0010193100124454991 -0.032112176551531063 0 0.0012309114244690232 -0.032192486801883045 0 0.0011355313878861854 -0.032001882307809024 0 0.0013898279030752723 -0.032031495034946345 0 0.0012309114244690232 -0.032192486801883045 0 0.001112542957431817 -0.031788687008177788 0 0.0011355313878861854 -0.032001882307809024 0 0.0013898279030752723 -0.032031495034946345 0 0.0012734513952341476 -0.03165529064064327 0 0.0015428022315102678 -0.032114314626841042 0 0.0013711827471294528 -0.032097979939289055 0 0.00066358732641136017 -0.032824699964503649 0 0.00063549206448555652 -0.033838314477416413 0 0.0013898279030752723 -0.032031495034946345 0 0.0015397861076137677 -0.03242081007604132 0 0.0012309114244690232 -0.032192486801883045 0 0.0018260399918222146 -0.032587128610778553 0 0.0013711827471294528 -0.032097979939289055 0 0.0016445798447122086 -0.032679009204065038 0 0.0015397861076137677 -0.03242081007604132 0 0.0012643040277348474 -0.032399298084590487 0 0.0012309114244690232 -0.032192486801883045 0 0.0013898279030752723 -0.032031495034946345 0 0.0015397861076137677 -0.03242081007604132 0 0.0016791518320568317 -0.032607786092512067 0 0.0018260399918222146 -0.032587128610778553 0 0.0015428022315102678 -0.032114314626841042 0 0.0013711827471294528 -0.032097979939289055 0 0.0015397861076137677 -0.03242081007604132 0 0.0013984851316481931 -0.032490270890107996 0 0.0012643040277348474 -0.032399298084590487 0 0.0015397861076137677 -0.03242081007604132 0 0.0013984851316481931 -0.032490270890107996 0 0.0015693306021208094 -0.032668889513738412 0 0.0013984851316481931 -0.032490270890107996 0 0.0012643040277348474 -0.032399298084590487 0 0.0014054585152201433 -0.032663414590124701 0 0.0012643040277348474 -0.032399298084590487 0 0.0010022078961157645 -0.032426313792292015 0 0.0014054585152201433 -0.032663414590124701 0 0.0010193100124454991 -0.032112176551531063 0 0.0010022078961157645 -0.032426313792292015 0 0.0012309114244690232 -0.032192486801883045 0 0.0012643040277348474 -0.032399298084590487 0 0.0010022078961157645 -0.032426313792292015 0 0.0012309114244690232 -0.032192486801883045 0 0.0012133461526385116 -0.032618438303851881 0 0.001327133322275049 -0.032732325917935894 0 0.0012585721003366022 -0.03278523514978101 0 0.0021231329596139094 -0.029607812267839349 0 0.0021549340812971629 -0.029892966664141936 0 0.0012133461526385116 -0.032618438303851881 0 0.001327133322275049 -0.032732325917935894 0 0.0014054585152201433 -0.032663414590124701 0 0.001327133322275049 -0.032732325917935894 0 0.0014241688067287105 -0.03272453840238939 0 0.0013527718038561661 -0.032880004571324409 0 0.001327133322275049 -0.032732325917935894 0 0.0012585721003366022 -0.03278523514978101 0 0.0013527718038561661 -0.032880004571324409 0 0.001327133322275049 -0.032732325917935894 0 0.0014054585152201433 -0.032663414590124701 0 0.0014241688067287105 -0.03272453840238939 0 0.0014877186642996566 -0.032692809103918648 0 0.0014241688067287105 -0.03272453840238939 0 0.0015139158878295859 -0.032947944182613029 0 0.0013984851316481931 -0.032490270890107996 0 0.0014054585152201433 -0.032663414590124701 0 0.0015693306021208094 -0.032668889513738412 0 0.0014054585152201433 -0.032663414590124701 0 0.0015693306021208094 -0.032668889513738412 0 0.0014241688067287105 -0.03272453840238939 0 0.00065282198116715408 -0.033857390814236339 0 0.00069253645453887247 -0.03383016948464028 0 0.000662109626752248 -0.033751035915044705 0 0.00065282198116715408 -0.033857390814236339 0 0.0015397861076137677 -0.03242081007604132 0 0.0016791518320568317 -0.032607786092512067 0 0.0015740962917877121 -0.032661311131192812 0 0.00063549206448555652 -0.033838314477416413 0 0.00065282198116715408 -0.033857390814236339 0 0.0014241688067287105 -0.03272453840238939 0 0.0015139158878295859 -0.032947944182613029 0 0.0013527718038561661 -0.032880004571324409 0 0.00065282198116715408 -0.033857390814236339 0 0.00065267064739004798 -0.034014735968205638 0 0.0015139158878295859 -0.032947944182613029 0 0.0013527718038561661 -0.032880004571324409 0 0.0014074989955222851 -0.033059749406422666 0 0.0012585721003366022 -0.03278523514978101 0 0.0013527718038561661 -0.032880004571324409 0 0.001232795243024831 -0.032896767708694777 0 0.0011479551901183163 -0.032825980724382205 0 0.0012585721003366022 -0.03278523514978101 0 0.001232795243024831 -0.032896767708694777 0 0.0011408026335536737 -0.032959999081511329 0 0.001232795243024831 -0.032896767708694777 0 0.0012678656330939195 -0.033031709246795486 0 0.0013527718038561661 -0.032880004571324409 0 0.001232795243024831 -0.032896767708694777 0 0.0012678656330939195 -0.033031709246795486 0 0.0013527718038561661 -0.032880004571324409 0 0.0012678656330939195 -0.033031709246795486 0 0.0014074989955222851 -0.033059749406422666 0 0.0012678656330939195 -0.033031709246795486 0 0.0013077028398614464 -0.033154385680402583 0 0.0014074989955222851 -0.033059749406422666 0 0.0011878833810637218 -0.033175582275366974 0 0.0012678656330939195 -0.033031709246795486 0 0.0013077028398614464 -0.033154385680402583 0 0.0011878833810637218 -0.033175582275366974 0 0.0013077028398614464 -0.033154385680402583 0 0.001298304474496779 -0.033269164957241269 0 0.0013077028398614464 -0.033154385680402583 0 0.001298304474496779 -0.033269164957241269 0 0.0014182241851246821 -0.033175292929387409 0 0.0014301738068415279 -0.033266880118669483 0 0.0014182241851246821 -0.033175292929387409 0 0.0015374019423710793 -0.033194110824610913 0 0.0014301738068415279 -0.033266880118669483 0 0.0015374019423710793 -0.033194110824610913 0 0.0015498109609148041 -0.033281708117084356 0 0.001298304474496779 -0.033269164957241269 0 0.0014301738068415279 -0.033266880118669483 0 0.0014182241851246821 -0.033175292929387409 0 0.0013077028398614464 -0.033154385680402583 0 0.0014182241851246821 -0.033175292929387409 0 0.0014074989955222851 -0.033059749406422666 0 0.0014182241851246821 -0.033175292929387409 0 0.0014074989955222851 -0.033059749406422666 0 0.0015429852824404 -0.033195043761893882 0 0.00072099607002624447 -0.034233377298807557 0 0.0006414844176654182 -0.034258217884654163 0 0.0015139158878295859 -0.032947944182613029 0 0.0014074989955222851 -0.033059749406422666 0 0.0015429852824404 -0.033195043761893882 0 0.00065267064739004798 -0.034014735968205638 0 0.0006414844176654182 -0.034258217884654163 0 -4.9840302796224154e-05 -0.034926946120590774 0 -1.7917719464296687e-05 -0.03494045808586084 0 -1.6730680541470593e-05 -0.034968960272849403 0 -4.9840302796224154e-05 -0.034926946120590774 0 -1.6730680541470593e-05 -0.034968960272849403 0 -3.1188570339730163e-05 -0.034998804467574675 0 -1.7917719464296687e-05 -0.03494045808586084 0 -2.3131076231695075e-06 -0.034953166046405658 0 -1.6730680541470593e-05 -0.034968960272849403 0 -2.3131076231695075e-06 -0.034953166046405658 0 2.3462511034499009e-05 -0.034912446846679511 0 -1.7524665421104875e-06 -0.034930957984178154 0 -1.7917719464296687e-05 -0.03494045808586084 0 -2.3131076231695075e-06 -0.034953166046405658 0 -1.7524665421104875e-06 -0.034930957984178154 0 -2.3131076231695075e-06 -0.034953166046405658 0 -1.6730680541470593e-05 -0.034968960272849403 0 1.0535788529459393e-05 -0.034984183053428188 0 -1.6730680541470593e-05 -0.034968960272849403 0 -3.1188570339730163e-05 -0.034998804467574675 0 3.7095413131152152e-06 -0.034997056823022274 0 -1.6730680541470593e-05 -0.034968960272849403 0 3.7095413131152152e-06 -0.034997056823022274 0 1.0535788529459393e-05 -0.034984183053428188 0 0.0006414844176654182 -0.034258217884654163 0 0.00039924267607053697 -0.034424328591603465 0 0.00018579115178038791 -0.034963665947223818 0 0.00023377259032284452 -0.034934296126411524 0 0.00020585608958353165 -0.034903669477821461 0 0.00039924267607053697 -0.034424328591603465 0 0.00062314330152335006 -0.034281503178527926 0 0.00056110811776397137 -0.034270550922082359 0 0.00078430100955900121 -0.03430346848096797 0 0.00058401550218250772 -0.03443420376904599 0 0.0006414844176654182 -0.034258217884654163 0 0.00062314330152335006 -0.034281503178527926 0 3.7095413131152152e-06 -0.034997056823022274 0 1.0535788529459393e-05 -0.034984183053428188 0 1.3280780832135661e-05 -0.034986960099977739 0 0.00039924267607053697 -0.034424328591603465 0 0.00016617152230957445 -0.03467807686167218 0 0.00018579115178038791 -0.034963665947223818 0 7.9246200680413808e-05 -0.034948149048575829 0 0.00012563310581362899 -0.034899378646359183 0 0.00039924267607053697 -0.034424328591603465 0 0.00020858611391109339 -0.034586652588418011 0 1.6703133938320954e-05 -0.034984449779268297 0 1.3280780832135661e-05 -0.034986960099977739 0 1.1380459809736174e-05 -0.034986043729172703 0 -2.3131076231695075e-06 -0.034953166046405658 0 1.0535788529459393e-05 -0.034984183053428188 0 2.3462511034499009e-05 -0.034912446846679511 0 0.00030768569546334444 -0.034629417697930813 0 0.00031631215057963954 -0.034560004149819752 0 1.0535788529459393e-05 -0.034984183053428188 0 1.2105111610628514e-05 -0.03498770252944082 0 1.3280780832135661e-05 -0.034986960099977739 0 1.0535788529459393e-05 -0.034984183053428188 0 1.2105111610628514e-05 -0.03498770252944082 0 1.402965088119577e-05 -0.03498890454757831 0 1.2105111610628514e-05 -0.03498770252944082 0 1.2290787844640196e-05 -0.034989551843904731 0 9.8430215032297715e-06 -0.034991756628299689 0 1.3679624050496299e-05 -0.034991412597311956 0 1.402965088119577e-05 -0.03498890454757831 0 1.4352971292848166e-05 -0.034992237178019525 0 1.2105111610628514e-05 -0.03498770252944082 0 1.2290787844640196e-05 -0.034989551843904731 0 1.402965088119577e-05 -0.03498890454757831 0 0.00031631215057963954 -0.034560004149819752 0 0.0003401136137166661 -0.034329804225244502 0 1.2329120129306754e-05 -0.034990768834466834 0 1.1288208866694825e-05 -0.034992845227205964 0 9.8430215032297715e-06 -0.034991756628299689 0 1.2290787844640196e-05 -0.034989551843904731 0 1.2329120129306754e-05 -0.034990768834466834 0 9.8430215032297715e-06 -0.034991756628299689 0 1.2329120129306754e-05 -0.034990768834466834 0 1.3679624050496299e-05 -0.034991412597311956 0 1.1288208866694825e-05 -0.034992845227205964 0 1.2329120129306754e-05 -0.034990768834466834 0 1.3679624050496299e-05 -0.034991412597311956 0 1.402965088119577e-05 -0.03498890454757831 0 1.2290787844640196e-05 -0.034989551843904731 0 1.2329120129306754e-05 -0.034990768834466834 0 1.402965088119577e-05 -0.03498890454757831 0 -1.7524665421104875e-06 -0.034930957984178154 0 -2.2138514307507607e-05 -0.03491191217932571 0 -2.0523371154403933e-05 -0.034879741373427406 0 -6.3657253357323094e-05 -0.034832664744371446 0 -4.9840302796224154e-05 -0.034926946120590774 0 -2.0523371154403933e-05 -0.034879741373427406 0 2.3462511034499009e-05 -0.034912446846679511 0 -1.7524665421104875e-06 -0.034930957984178154 0 -5.0516678097002034e-05 -0.034837919467235252 0 0.00061074109291807399 -0.034201159831020102 0 0.00061705233407571716 -0.034113219642422012 0 2.3462511034499009e-05 -0.034912446846679511 0 -5.0516678097002034e-05 -0.034837919467235252 0 1.0704995798561913e-05 -0.034797940551222907 0 -1.7917719464296687e-05 -0.03494045808586084 0 -1.7524665421104875e-06 -0.034930957984178154 0 -2.2138514307507607e-05 -0.03491191217932571 0 -4.9840302796224154e-05 -0.034926946120590774 0 -1.7917719464296687e-05 -0.03494045808586084 0 -2.2138514307507607e-05 -0.03491191217932571 0 -4.9840302796224154e-05 -0.034926946120590774 0 -2.2138514307507607e-05 -0.03491191217932571 0 -2.0523371154403933e-05 -0.034879741373427406 0 -5.0516678097002034e-05 -0.034837919467235252 0 1.0704995798561913e-05 -0.034797940551222907 0 -4.5645885612080565e-05 -0.034769476953051576 0 0.00063549206448555652 -0.033838314477416413 0 0.00061705233407571716 -0.034113219642422012 0 -4.5972044640810416e-05 -0.034823535272744538 0 -6.3657253357323094e-05 -0.034832664744371446 0 -2.0523371154403933e-05 -0.034879741373427406 0 -0.00010043481792854712 -0.034735290192661437 0 -5.0516678097002034e-05 -0.034837919467235252 0 -4.5645885612080565e-05 -0.034769476953051576 0 0.00041407101991333282 -0.034019033639347177 0 0.00063549206448555652 -0.033838314477416413 0 -4.2773054856908897e-05 -0.034706376060123979 0 -0.00010043481792854712 -0.034735290192661437 0 -4.5645885612080565e-05 -0.034769476953051576 0 0.00041407101991333282 -0.034019033639347177 0 0.0003401136137166661 -0.034329804225244502 0 0.0002321985430233593 -0.034294016216631029 0 0.0003401136137166661 -0.034329804225244502 0 -4.2773054856908897e-05 -0.034706376060123979 0 1.0704995798561913e-05 -0.034797940551222907 0 -4.5645885612080565e-05 -0.034769476953051576 0 0.00038007518369363768 -0.033751687563995707 0 0.00017988325140578346 -0.033852764192221468 0 0.00047145608217153952 -0.034327259603721731 0 1.4384601305030515e-05 -0.034995413333640688 0 1.4044494416487158e-05 -0.034992347957972222 0 1.1655993000241566e-05 -0.034994517505689181 0 1.1655993000241566e-05 -0.034994517505689181 0 1.1288208866694825e-05 -0.034992845227205964 0 9.0223558796569062e-06 -0.034995180643922437 0 1.1655993000241566e-05 -0.034994517505689181 0 1.1288208866694825e-05 -0.034992845227205964 0 1.2648722428321065e-05 -0.034992764418044824 0 1.3679624050496299e-05 -0.034991412597311956 0 1.1288208866694825e-05 -0.034992845227205964 0 1.2648722428321065e-05 -0.034992764418044824 0 1.4044494416487158e-05 -0.034992347957972222 0 1.1655993000241566e-05 -0.034994517505689181 0 1.2648722428321065e-05 -0.034992764418044824 0 1.3679624050496299e-05 -0.034991412597311956 0 1.4044494416487158e-05 -0.034992347957972222 0 1.2648722428321065e-05 -0.034992764418044824 0 0.00034180075481368623 -0.034339730677572636 0 0.0003401136137166661 -0.034329804225244502 0 8.4413691705394862e-06 -0.03499425538757945 0 5.6701883120079429e-06 -0.034995132778428882 0 9.8430215032297715e-06 -0.034991756628299689 0 1.1288208866694825e-05 -0.034992845227205964 0 8.4413691705394862e-06 -0.03499425538757945 0 9.0223558796569062e-06 -0.034995180643922437 0 1.1288208866694825e-05 -0.034992845227205964 0 8.4413691705394862e-06 -0.03499425538757945 0 9.8430215032297715e-06 -0.034991756628299689 0 6.8085706083183823e-06 -0.034996116436828054 0 8.4413691705394862e-06 -0.03499425538757945 0 9.0223558796569062e-06 -0.034995180643922437 0 6.8085706083183823e-06 -0.034996116436828054 0 8.4413691705394862e-06 -0.03499425538757945 0 5.6701883120079429e-06 -0.034995132778428882 0 4.3316435181865114e-06 -0.034997094392978524 0 6.8085706083183823e-06 -0.034996116436828054 0 5.6701883120079429e-06 -0.034995132778428882 0 4.3316435181865114e-06 -0.034997094392978524 0 5.6701883120079429e-06 -0.034995132778428882 0 2.9843314489100879e-06 -0.034997203463506668 0 5.6701883120079429e-06 -0.034995132778428882 0 8.7552963811317883e-06 -0.034991564991947791 0 4.9481685187700917e-06 -0.034994276642179349 0 5.6701883120079429e-06 -0.034995132778428882 0 9.8430215032297715e-06 -0.034991756628299689 0 8.7552963811317883e-06 -0.034991564991947791 0 1.2105111610628514e-05 -0.03498770252944082 0 9.8430215032297715e-06 -0.034991756628299689 0 8.7552963811317883e-06 -0.034991564991947791 0 1.2105111610628514e-05 -0.03498770252944082 0 8.7552963811317883e-06 -0.034991564991947791 0 1.3280780832135661e-05 -0.034986960099977739 0 8.7552963811317883e-06 -0.034991564991947791 0 1.3280780832135661e-05 -0.034986960099977739 0 8.1386349754048189e-06 -0.034990172483776463 0 1.3280780832135661e-05 -0.034986960099977739 0 1.1380459809736174e-05 -0.034986043729172703 0 8.1386349754048189e-06 -0.034990172483776463 0 0.00016617152230957445 -0.03467807686167218 0 5.533625356037805e-05 -0.034854336815629577 0 1.1380459809736174e-05 -0.034986043729172703 0 8.1386349754048189e-06 -0.034990172483776463 0 3.8126973725529581e-06 -0.034992191658150103 0 4.9481685187700917e-06 -0.034994276642179349 0 8.1386349754048189e-06 -0.034990172483776463 0 3.8126973725529581e-06 -0.034992191658150103 0 8.7552963811317883e-06 -0.034991564991947791 0 4.9481685187700917e-06 -0.034994276642179349 0 8.1386349754048189e-06 -0.034990172483776463 0 4.9481685187700917e-06 -0.034994276642179349 0 2.1390627629254396e-06 -0.034997086252904042 0 3.8126973725529581e-06 -0.034992191658150103 0 3.8186971404565206e-11 -0.034999996984642748 0 2.1390627629254396e-06 -0.034997086252904042 0 3.8126973725529581e-06 -0.034992191658150103 0 3.8186971404565206e-11 -0.034999996984642748 0 1.733739135436301e-09 -0.034999991549859263 0 3.8126973725529581e-06 -0.034992191658150103 0 3.8186971404565206e-11 -0.034999996984642748 0 2.1390627629254396e-06 -0.034997086252904042 0 3.4690117363448242e-09 -0.034999993513310887 0 1.7895155493868464e-09 -0.034999997904304796 0 8.9646197675175703e-07 -0.034999606036771505 0 2.1390627629254396e-06 -0.034997086252904042 0 3.4690117363448242e-09 -0.034999993513310887 0 2.9843314489100879e-06 -0.034997203463506668 0 5.6701883120079429e-06 -0.034995132778428882 0 4.9481685187700917e-06 -0.034994276642179349 0 2.9843314489100879e-06 -0.034997203463506668 0 4.9481685187700917e-06 -0.034994276642179349 0 2.1390627629254396e-06 -0.034997086252904042 0 2.9843314489100879e-06 -0.034997203463506668 0 1.5326083786758019e-06 -0.034999645060360754 0 8.9646197675175703e-07 -0.034999606036771505 0 1.2826750114243124e-06 -0.034998726034816366 0 4.3316435181865114e-06 -0.034997094392978524 0 1.1514176187603678e-06 -0.03499872622108801 0 -3.6606423567104178e-11 -0.034999999180366496 0 1.1514176187603678e-06 -0.03499872622108801 0 1.0409066980601116e-09 -0.034999997778889895 0 1.2826750114243124e-06 -0.034998726034816366 0 1.1514176187603678e-06 -0.03499872622108801 0 1.0409066980601116e-09 -0.034999997778889895 0 2.0490387538480119e-05 -0.034984295382744071 0 1.1665984491249741e-08 -0.034999961150949221 0 1.3638810087148912e-05 -0.034999973888949119 0 2.0490387538480119e-05 -0.034984295382744071 0 4.2498685272934039e-05 -0.034995951257889721 0 1.3638810087148912e-05 -0.034999973888949119 0 2.0490387538480119e-05 -0.034984295382744071 0 1.6200201084263888e-05 -0.03497861261292344 0 3.152464770543601e-05 -0.034962203919545208 0 2.0490387538480119e-05 -0.034984295382744071 0 1.1665984491249741e-08 -0.034999961150949221 0 1.6200201084263888e-05 -0.03497861261292344 0 8.6030477636976372e-05 -0.034971478561716722 0 4.2498685272934039e-05 -0.034995951257889721 0 0.00013386730543574969 -0.035021768212044412 0 0.0001941026225715148 -0.034895522320192461 0 3.6296426605043134e-05 -0.034923720553521852 0 4.2491874418931831e-05 -0.034939317792191241 0 2.0490387538480119e-05 -0.034984295382744071 0 3.152464770543601e-05 -0.034962203919545208 0 4.3330482213491455e-05 -0.03497057911754025 0 3.152464770543601e-05 -0.034962203919545208 0 4.6392806646118152e-05 -0.034954765730701561 0 4.2491874418931831e-05 -0.034939317792191241 0 3.152464770543601e-05 -0.034962203919545208 0 4.6392806646118152e-05 -0.034954765730701561 0 4.3330482213491455e-05 -0.03497057911754025 0 4.6392806646118152e-05 -0.034954765730701561 0 7.5347835700680514e-05 -0.034949423588024914 0 4.2491874418931831e-05 -0.034939317792191241 0 4.6392806646118152e-05 -0.034954765730701561 0 7.5347835700680514e-05 -0.034949423588024914 0 4.3330482213491455e-05 -0.03497057911754025 0 7.5347835700680514e-05 -0.034949423588024914 0 8.6030477636976372e-05 -0.034971478561716722 0 4.3330482213491455e-05 -0.03497057911754025 0 8.6030477636976372e-05 -0.034971478561716722 0 4.3330482213491455e-05 -0.03497057911754025 0 4.2498685272934039e-05 -0.034995951257889721 0 2.0490387538480119e-05 -0.034984295382744071 0 4.3330482213491455e-05 -0.03497057911754025 0 4.2498685272934039e-05 -0.034995951257889721 0 5.5841413436129112e-05 -0.034920038216222762 0 0.00011458037182572501 -0.034837954069334792 0 -1.4695342462767792e-05 -0.034881193330723016 0 2.2832062224475698e-05 -0.034843677525544237 0 1.9496236761276442e-05 -0.034770083503471626 0 4.2498685272934039e-05 -0.034995951257889721 0 1.3638810087148912e-05 -0.034999973888949119 0 2.5045013415394438e-05 -0.035025481823378675 0 4.2498685272934039e-05 -0.034995951257889721 0 2.5045013415394438e-05 -0.035025481823378675 0 0.00013386730543574969 -0.035021768212044412 0 1.0896549973142308e-08 -0.035000026314158189 0 1.3638810087148912e-05 -0.034999973888949119 0 2.5045013415394438e-05 -0.035025481823378675 0 1.1665984491249741e-08 -0.034999961150949221 0 1.0896549973142308e-08 -0.035000026314158189 0 1.3638810087148912e-05 -0.034999973888949119 0 -3.9236217512319263e-08 -0.034999902006485749 0 -3.5383371609792287e-06 -0.034948306355228546 0 -1.4695342462767792e-05 -0.034881193330723016 0 1.0896549973142308e-08 -0.035000026314158189 0 5.067641398568398e-10 -0.035000017644816139 0 2.5045013415394438e-05 -0.035025481823378675 0 7.0210132921576367e-08 -0.034999843642145041 0 5.5841413436129112e-05 -0.034920038216222762 0 -3.9236217512319263e-08 -0.034999902006485749 0 -7.2269453946627725e-09 -0.034999990580009188 0 -3.5383371609792287e-06 -0.034948306355228546 0 -7.2269453946627725e-09 -0.034999990580009188 0 -3.5383371609792287e-06 -0.034948306355228546 0 5.8723373156946844e-06 -0.034946375820233563 0 7.8677624308091358e-08 -0.034999627666351958 0 5.533625356037805e-05 -0.034854336815629577 0 -3.5383371609792287e-06 -0.034948306355228546 0 5.8723373156946844e-06 -0.034946375820233563 0 2.8786202487059955e-05 -0.034894956719139461 0 -1.4695342462767792e-05 -0.034881193330723016 0 2.2832062224475698e-05 -0.034843677525544237 0 2.8786202487059955e-05 -0.034894956719139461 0 -3.5383371609792287e-06 -0.034948306355228546 0 -1.4695342462767792e-05 -0.034881193330723016 0 2.8786202487059955e-05 -0.034894956719139461 0 2.2832062224475698e-05 -0.034843677525544237 0 2.8786202487059955e-05 -0.034894956719139461 0 6.5559046528570005e-05 -0.034824137757251697 0 7.9246200680413808e-05 -0.034948149048575829 0 5.8723373156946844e-06 -0.034946375820233563 0 2.8786202487059955e-05 -0.034894956719139461 0 7.9246200680413808e-05 -0.034948149048575829 0 9.3841309031881097e-05 -0.03486923961272706 0 0.00012563310581362899 -0.034899378646359183 0 7.9246200680413808e-05 -0.034948149048575829 0 2.8786202487059955e-05 -0.034894956719139461 0 9.3841309031881097e-05 -0.03486923961272706 0 2.8786202487059955e-05 -0.034894956719139461 0 9.3841309031881097e-05 -0.03486923961272706 0 6.5559046528570005e-05 -0.034824137757251697 0 9.3841309031881097e-05 -0.03486923961272706 0 0.00010926281230593082 -0.034795201227873107 0 0.00013467818497920646 -0.034820573798089297 0 9.3841309031881097e-05 -0.03486923961272706 0 6.5559046528570005e-05 -0.034824137757251697 0 0.00010926281230593082 -0.034795201227873107 0 6.5559046528570005e-05 -0.034824137757251697 0 0.00010926281230593082 -0.034795201227873107 0 8.1129914007716154e-05 -0.034754653092971828 0 6.5559046528570005e-05 -0.034824137757251697 0 8.1129914007716154e-05 -0.034754653092971828 0 1.9496236761276442e-05 -0.034770083503471626 0 0.00010926281230593082 -0.034795201227873107 0 8.1129914007716154e-05 -0.034754653092971828 0 0.0001278085013253825 -0.034718464070012334 0 2.2832062224475698e-05 -0.034843677525544237 0 6.5559046528570005e-05 -0.034824137757251697 0 1.9496236761276442e-05 -0.034770083503471626 0 0.0001941026225715148 -0.034895522320192461 0 0.00035610158861644649 -0.034874679816920565 0 0.00017751154293416604 -0.034768201404026457 0 6.3845489569934786e-05 -0.034947716932636624 0 2.3875424745343309e-05 -0.034938988691446245 0 7.5347835700680514e-05 -0.034949423588024914 0 0.0001941026225715148 -0.034895522320192461 0 4.2491874418931831e-05 -0.034939317792191241 0 0.00013386730543574969 -0.035021768212044412 0 0.0001941026225715148 -0.034895522320192461 0 0.00035610158861644649 -0.034874679816920565 0 8.6030477636976372e-05 -0.034971478561716722 0 0.00013386730543574969 -0.035021768212044412 0 0.0001941026225715148 -0.034895522320192461 0 7.5347835700680514e-05 -0.034949423588024914 0 8.6030477636976372e-05 -0.034971478561716722 0 0.0001941026225715148 -0.034895522320192461 0 0.00011458037182572501 -0.034837954069334792 0 0.00018264751759238285 -0.034741796212270436 0 8.1129914007716154e-05 -0.034754653092971828 0 1.9496236761276442e-05 -0.034770083503471626 0 8.5951009513394878e-05 -0.034659494052651278 0 8.1129914007716154e-05 -0.034754653092971828 0 8.5951009513394878e-05 -0.034659494052651278 0 0.0001278085013253825 -0.034718464070012334 0 0.00015246815743283598 -0.034646203323401244 0 0.00018404414115613232 -0.034680816937979385 0 0.0001278085013253825 -0.034718464070012334 0 8.5951009513394878e-05 -0.034659494052651278 0 0.00015246815743283598 -0.034646203323401244 0 0.0001278085013253825 -0.034718464070012334 0 0.00018404414115613232 -0.034680816937979385 0 0.00025040688202205593 -0.034637833087008983 0 0.00019713240661613782 -0.034608789602016472 0 0.00015246815743283598 -0.034646203323401244 0 0.00018404414115613232 -0.034680816937979385 0 0.00019713240661613782 -0.034608789602016472 0 0.00018404414115613232 -0.034680816937979385 0 0.00022326642494172071 -0.034740310476881045 0 0.00025040688202205593 -0.034637833087008983 0 0.00018404414115613232 -0.034680816937979385 0 0.00022326642494172071 -0.034740310476881045 0 0.00016273231202053003 -0.034765380643752737 0 0.00022326642494172071 -0.034740310476881045 0 0.00019557492667774025 -0.0347850399152888 0 0.00021775157722332743 -0.034812245149293826 0 0.00022326642494172071 -0.034740310476881045 0 0.00016273231202053003 -0.034765380643752737 0 0.00019557492667774025 -0.0347850399152888 0 0.00016273231202053003 -0.034765380643752737 0 0.00016749580921512146 -0.034809974878369308 0 0.00019557492667774025 -0.0347850399152888 0 0.00018404414115613232 -0.034680816937979385 0 0.00016273231202053003 -0.034765380643752737 0 0.0001278085013253825 -0.034718464070012334 0 0.00010926281230593082 -0.034795201227873107 0 0.00016273231202053003 -0.034765380643752737 0 0.0001278085013253825 -0.034718464070012334 0 0.00010926281230593082 -0.034795201227873107 0 0.00016273231202053003 -0.034765380643752737 0 0.00013467818497920646 -0.034820573798089297 0 0.00013467818497920646 -0.034820573798089297 0 0.00016749580921512146 -0.034809974878369308 0 0.0001441321158979706 -0.034855474422419847 0 0.00016273231202053003 -0.034765380643752737 0 0.00013467818497920646 -0.034820573798089297 0 0.00016749580921512146 -0.034809974878369308 0 0.0001441321158979706 -0.034855474422419847 0 0.00016391467890989369 -0.034877192989214899 0 0.00018429275824275666 -0.034842317154254863 0 0.00016749580921512146 -0.034809974878369308 0 0.0001441321158979706 -0.034855474422419847 0 0.00018429275824275666 -0.034842317154254863 0 9.3841309031881097e-05 -0.03486923961272706 0 0.00013467818497920646 -0.034820573798089297 0 0.0001441321158979706 -0.034855474422419847 0 0.0001441321158979706 -0.034855474422419847 0 0.00012563310581362899 -0.034899378646359183 0 0.00016391467890989369 -0.034877192989214899 0 0.00018579115178038791 -0.034963665947223818 0 0.00012563310581362899 -0.034899378646359183 0 0.00017555798329435191 -0.034907298081128781 0 9.3841309031881097e-05 -0.03486923961272706 0 0.0001441321158979706 -0.034855474422419847 0 0.00012563310581362899 -0.034899378646359183 0 0.00012563310581362899 -0.034899378646359183 0 0.00016391467890989369 -0.034877192989214899 0 0.00017555798329435191 -0.034907298081128781 0 0.00016391467890989369 -0.034877192989214899 0 0.00017555798329435191 -0.034907298081128781 0 0.00019213677891881441 -0.034879347866658583 0 0.00023377259032284452 -0.034934296126411524 0 0.00020585608958353165 -0.034903669477821461 0 0.00022674929695767223 -0.034866353100346213 0 0.00062314330152335006 -0.034281503178527926 0 0.0006388008398488436 -0.034345426248770676 0 0.00018579115178038791 -0.034963665947223818 0 0.00017555798329435191 -0.034907298081128781 0 0.00020585608958353165 -0.034903669477821461 0 0.00020585608958353165 -0.034903669477821461 0 0.00019213677891881441 -0.034879347866658583 0 0.00022674929695767223 -0.034866353100346213 0 0.00017555798329435191 -0.034907298081128781 0 0.00020585608958353165 -0.034903669477821461 0 0.00019213677891881441 -0.034879347866658583 0 0.00016391467890989369 -0.034877192989214899 0 0.00019213677891881441 -0.034879347866658583 0 0.00018429275824275666 -0.034842317154254863 0 0.00019213677891881441 -0.034879347866658583 0 0.00022674929695767223 -0.034866353100346213 0 0.00020409652165587992 -0.034850569387359684 0 0.00022674929695767223 -0.034866353100346213 0 0.00020409652165587992 -0.034850569387359684 0 0.00021775157722332743 -0.034812245149293826 0 0.0006388008398488436 -0.034345426248770676 0 0.00063372543051613383 -0.034379349338196544 0 0.00022158763633176579 -0.034856825300550918 0 0.00021775157722332743 -0.034812245149293826 0 0.00026307835645786028 -0.034830280322821684 0 0.00019213677891881441 -0.034879347866658583 0 0.00020409652165587992 -0.034850569387359684 0 0.00018429275824275666 -0.034842317154254863 0 0.00020409652165587992 -0.034850569387359684 0 0.00018429275824275666 -0.034842317154254863 0 0.00021775157722332743 -0.034812245149293826 0 0.00018429275824275666 -0.034842317154254863 0 0.00019557492667774025 -0.0347850399152888 0 0.00021775157722332743 -0.034812245149293826 0 0.00016749580921512146 -0.034809974878369308 0 0.00018429275824275666 -0.034842317154254863 0 0.00019557492667774025 -0.0347850399152888 0 0.00022326642494172071 -0.034740310476881045 0 0.00021775157722332743 -0.034812245149293826 0 0.00028170881544789197 -0.034783934077167948 0 0.00028170881544789197 -0.034783934077167948 0 0.00026307835645786028 -0.034830280322821684 0 0.00033698598937824219 -0.034872229813433332 0 0.00021775157722332743 -0.034812245149293826 0 0.00028170881544789197 -0.034783934077167948 0 0.00026307835645786028 -0.034830280322821684 0 0.00022158763633176579 -0.034856825300550918 0 0.00026307835645786028 -0.034830280322821684 0 0.00033698598937824219 -0.034872229813433332 0 0.00062314330152335006 -0.034281503178527926 0 0.00067780674606781276 -0.034313135735790999 0 0.0006388008398488436 -0.034345426248770676 0 0.00067780674606781276 -0.034313135735790999 0 0.00060998071061858783 -0.034336639956102172 0 0.00060581345270976006 -0.03430676572325015 0 0.00065015141815640909 -0.034310534971850611 0 0.0014301738068415279 -0.033266880118669483 0 0.0015498109609148041 -0.033281708117084356 0 0.0013449604661212153 -0.033415437277166067 0 0.001298304474496779 -0.033269164957241269 0 0.0013449604661212153 -0.033415437277166067 0 0.0010887519892206173 -0.033392083185983849 0 0.00067780674606781276 -0.034313135735790999 0 0.00066784633163757096 -0.034150036940829423 0 0.001298304474496779 -0.033269164957241269 0 0.0014301738068415279 -0.033266880118669483 0 0.0013449604661212153 -0.033415437277166067 0 0.00067780674606781276 -0.034313135735790999 0 0.00052139335040799265 -0.034464434349285207 0 0.00033698598937824219 -0.034872229813433332 0 0.0003628081541649434 -0.034746034616466102 0 0.00048091009949904645 -0.034788190277746663 0 0.00028170881544789197 -0.034783934077167948 0 0.00033698598937824219 -0.034872229813433332 0 0.0003628081541649434 -0.034746034616466102 0 0.0003628081541649434 -0.034746034616466102 0 0.00028887098866214411 -0.034709063998325677 0 0.00033667791173248868 -0.034638296872757594 0 0.0003628081541649434 -0.034746034616466102 0 0.00033667791173248868 -0.034638296872757594 0 0.00042817159250118302 -0.034649656591654858 0 0.00028170881544789197 -0.034783934077167948 0 0.0003628081541649434 -0.034746034616466102 0 0.00028887098866214411 -0.034709063998325677 0 0.00022326642494172071 -0.034740310476881045 0 0.00028887098866214411 -0.034709063998325677 0 0.00025040688202205593 -0.034637833087008983 0 0.00022326642494172071 -0.034740310476881045 0 0.00028170881544789197 -0.034783934077167948 0 0.00028887098866214411 -0.034709063998325677 0 0.00025040688202205593 -0.034637833087008983 0 0.00033667791173248868 -0.034638296872757594 0 0.0003122391416003087 -0.034536979283118857 0 0.00028887098866214411 -0.034709063998325677 0 0.00025040688202205593 -0.034637833087008983 0 0.00033667791173248868 -0.034638296872757594 0 0.00033667791173248868 -0.034638296872757594 0 0.00039199976879789066 -0.034529160142556158 0 0.0003122391416003087 -0.034536979283118857 0 0.00033667791173248868 -0.034638296872757594 0 0.00039199976879789066 -0.034529160142556158 0 0.00042817159250118302 -0.034649656591654858 0 0.00039199976879789066 -0.034529160142556158 0 0.00032857009414178273 -0.03441030024214789 0 0.00041087090082321922 -0.034343775128882474 0 0.00039199976879789066 -0.034529160142556158 0 0.0003122391416003087 -0.034536979283118857 0 0.00032857009414178273 -0.03441030024214789 0 0.0003122391416003087 -0.034536979283118857 0 0.00027120311809931367 -0.03444816242628819 0 0.00022579633919145837 -0.034489872745540454 0 0.00025040688202205593 -0.034637833087008983 0 0.0003122391416003087 -0.034536979283118857 0 0.00024135070501595641 -0.034565542767091992 0 0.00024640494675623535 -0.03463938480185777 0 0.00023232180807652807 -0.034642969473465554 0 0.00027120311809931367 -0.03444816242628819 0 0.00023111491067259694 -0.0344365128763824 0 0.00022579633919145837 -0.034489872745540454 0 0.0003122391416003087 -0.034536979283118857 0 0.00027120311809931367 -0.03444816242628819 0 0.00032857009414178273 -0.03441030024214789 0 0.00027120311809931367 -0.03444816242628819 0 0.00027398605358587363 -0.034375578774820184 0 0.00032857009414178273 -0.03441030024214789 0 0.00027120311809931367 -0.03444816242628819 0 0.00027398605358587363 -0.034375578774820184 0 0.00023111491067259694 -0.0344365128763824 0 0.00027398605358587363 -0.034375578774820184 0 0.00032857009414178273 -0.03441030024214789 0 0.00033220477435099154 -0.03430732791365227 0 0.00032857009414178273 -0.03441030024214789 0 0.00033220477435099154 -0.03430732791365227 0 0.00041087090082321922 -0.034343775128882474 0 0.00033220477435099154 -0.03430732791365227 0 0.00029929906771393526 -0.034315036330641951 0 0.00041886843637378609 -0.034175326351202989 0 0.00034494986049312185 -0.03424362192423959 0 0.00029929906771393526 -0.034315036330641951 0 0.00041886843637378609 -0.034175326351202989 0 0.00027398605358587363 -0.034375578774820184 0 0.00029929906771393526 -0.034315036330641951 0 0.00020687720681816083 -0.034406887036138624 0 0.00027398605358587363 -0.034375578774820184 0 0.00033220477435099154 -0.03430732791365227 0 0.00029929906771393526 -0.034315036330641951 0 0.00029929906771393526 -0.034315036330641951 0 0.00020687720681816083 -0.034406887036138624 0 0.00018649944607688511 -0.034359753741057819 0 0.00025439627786440737 -0.034393923790258928 0 0.00029929906771393526 -0.034315036330641951 0 0.00018812683473947212 -0.034512095095575658 0 0.00019248093342434029 -0.034432748424941255 0 0.00016682669711082346 -0.034447992590744311 0 0.00016682669711082346 -0.034447992590744311 0 0.00013831290956932912 -0.034469828541657158 0 0.00020687720681816083 -0.034406887036138624 0 0.00018649944607688511 -0.034359753741057819 0 0.00013696340129529166 -0.03444229123104068 0 0.00018649944607688511 -0.034359753741057819 0 0.00013696340129529166 -0.03444229123104068 0 9.8624728011867231e-05 -0.034435154841809389 0 0.00020687720681816083 -0.034406887036138624 0 0.00013696340129529166 -0.03444229123104068 0 0.00016167773478624871 -0.034459180358729989 0 0.00016167773478624871 -0.034459180358729989 0 0.00017763259084099396 -0.03447993617003705 0 0.00010593640883328145 -0.034494885720259605 0 0.00016167773478624871 -0.034459180358729989 0 0.00019182403226676261 -0.034464844217341875 0 0.00017763259084099396 -0.03447993617003705 0 0.00027398605358587363 -0.034375578774820184 0 0.00020687720681816083 -0.034406887036138624 0 0.00023111491067259694 -0.0344365128763824 0 0.00020687720681816083 -0.034406887036138624 0 0.00016167773478624871 -0.034459180358729989 0 0.00019182403226676261 -0.034464844217341875 0 0.00020687720681816083 -0.034406887036138624 0 0.00023111491067259694 -0.0344365128763824 0 0.00019182403226676261 -0.034464844217341875 0 0.00023232180807652807 -0.034642969473465554 0 0.00021517245503811569 -0.034659828270432215 0 0.00019182403226676261 -0.034464844217341875 0 0.00022579633919145837 -0.034489872745540454 0 0.0001774064858914613 -0.034476459248376778 0 0.00024135070501595641 -0.034565542767091992 0 0.00019713240661613782 -0.034608789602016472 0 0.0001688546751907956 -0.034563515148362346 0 0.00021662412198943435 -0.034656967374125269 0 0.00021517245503811569 -0.034659828270432215 0 0.00023111491067259694 -0.0344365128763824 0 0.00019182403226676261 -0.034464844217341875 0 0.00022579633919145837 -0.034489872745540454 0 0.00025040688202205593 -0.034637833087008983 0 0.00024135070501595641 -0.034565542767091992 0 0.00019713240661613782 -0.034608789602016472 0 0.00021517245503811569 -0.034659828270432215 0 0.00016672506498100712 -0.034620068665655854 0 0.00018264751759238285 -0.034741796212270436 0 0.00021517245503811569 -0.034659828270432215 0 8.5951009513394878e-05 -0.034659494052651278 0 0.00015246815743283598 -0.034646203323401244 0 0.0001688546751907956 -0.034563515148362346 0 0.00015246815743283598 -0.034646203323401244 0 0.00019713240661613782 -0.034608789602016472 0 0.0001688546751907956 -0.034563515148362346 0 0.00035610158861644649 -0.034874679816920565 0 0.00056378282317399108 -0.034706961725504408 0 0.00027635478543476121 -0.034636228486612741 0 0.00035610158861644649 -0.034874679816920565 0 0.00017751154293416604 -0.034768201404026457 0 0.00027635478543476121 -0.034636228486612741 0 0.00017751154293416604 -0.034768201404026457 0 0.00012751698934527919 -0.034663370812689692 0 0.00027635478543476121 -0.034636228486612741 0 0.0001941026225715148 -0.034895522320192461 0 0.00017751154293416604 -0.034768201404026457 0 2.2726958958479762e-05 -0.034768278747644613 0 0.00017751154293416604 -0.034768201404026457 0 0.00012751698934527919 -0.034663370812689692 0 8.4965182872568106e-05 -0.034709769113773846 0 0.00016672506498100712 -0.034620068665655854 0 0.00011875243374526418 -0.034600830842260524 0 0.00012751698934527919 -0.034663370812689692 0 0.00027635478543476121 -0.034636228486612741 0 4.9905057500461584e-05 -0.034540024230616605 0 0.00010593640883328145 -0.034494885720259605 0 8.9709966781709069e-05 -0.034484508479932084 0 4.9905057500461584e-05 -0.034540024230616605 0 0.00013696340129529166 -0.03444229123104068 0 0.00016167773478624871 -0.034459180358729989 0 0.00010593640883328145 -0.034494885720259605 0 0.00013696340129529166 -0.03444229123104068 0 0.00010593640883328145 -0.034494885720259605 0 8.9709966781709069e-05 -0.034484508479932084 0 0.00013696340129529166 -0.03444229123104068 0 9.8624728011867231e-05 -0.034435154841809389 0 8.9709966781709069e-05 -0.034484508479932084 0 0.00010112584073206364 -0.034573701774142693 0 0.00018812683473947212 -0.034512095095575658 0 8.6242488893348906e-05 -0.034589555559543572 0 8.6242488893348906e-05 -0.034589555559543572 0 7.5502451812359264e-05 -0.034535354523882934 0 7.463736985847517e-05 -0.034574670828394841 0 6.7520652345266527e-05 -0.034606944182042521 0 8.6242488893348906e-05 -0.034589555559543572 0 7.463736985847517e-05 -0.034574670828394841 0 0.00010112584073206364 -0.034573701774142693 0 6.7520652345266527e-05 -0.034606944182042521 0 8.6242488893348906e-05 -0.034589555559543572 0 0.00013831290956932912 -0.034469828541657158 0 0.00013153487046323268 -0.0344785594027672 0 9.8624728011867231e-05 -0.034435154841809389 0 8.9709966781709069e-05 -0.034484508479932084 0 6.5110121485451573e-05 -0.034513954576734902 0 9.8624728011867231e-05 -0.034435154841809389 0 6.5110121485451573e-05 -0.034513954576734902 0 7.5502451812359264e-05 -0.034535354523882934 0 7.5502451812359264e-05 -0.034535354523882934 0 0.00010007883316192153 -0.034545900937771698 0 3.1829759872821075e-05 -0.03452143422945992 0 3.0281655855178082e-05 -0.034825314856471681 0 2.3491986128330052e-05 -0.034856221829037269 0 6.5110121485451573e-05 -0.034513954576734902 0 7.5502451812359264e-05 -0.034535354523882934 0 3.1829759872821075e-05 -0.03452143422945992 0 7.5502451812359264e-05 -0.034535354523882934 0 7.463736985847517e-05 -0.034574670828394841 0 0.00010007883316192153 -0.034545900937771698 0 8.9552124522896971e-05 -0.034610302495264235 0 7.463736985847517e-05 -0.034574670828394841 0 0.00010007883316192153 -0.034545900937771698 0 6.7520652345266527e-05 -0.034606944182042521 0 8.9552124522896971e-05 -0.034610302495264235 0 7.463736985847517e-05 -0.034574670828394841 0 0.00014412610724308931 -0.034664993534146996 0 8.9552124522896971e-05 -0.034610302495264235 0 0.00010007883316192153 -0.034545900937771698 0 3.5874012653017654e-05 -0.034822067327056366 0 3.0281655855178082e-05 -0.034825314856471681 0 2.0243291561358377e-11 -0.035000037309073563 0 2.9508916942314354e-06 -0.035001176184552889 0 3.3185725508459262e-09 -0.034999992661676603 0 3.3185725508459262e-09 -0.034999992661676603 0 1.1416676101988743e-06 -0.035000485583634798 0 4.3019720538889244e-11 -0.035000004870882243 0 2.9508916942314354e-06 -0.035001176184552889 0 1.1416676101988743e-06 -0.035000485583634798 0 3.3793638697062505e-07 -0.035000041104513734 0 2.9508916942314354e-06 -0.035001176184552889 0 3.3185725508459262e-09 -0.034999992661676603 0 1.1416676101988743e-06 -0.035000485583634798 0 1.1416676101988743e-06 -0.035000485583634798 0 3.3793638697062505e-07 -0.035000041104513734 0 4.3019720538889244e-11 -0.035000004870882243 0 8.9709966781709069e-05 -0.034484508479932084 0 6.5110121485451573e-05 -0.034513954576734902 0 4.9905057500461584e-05 -0.034540024230616605 0 6.5110121485451573e-05 -0.034513954576734902 0 4.9905057500461584e-05 -0.034540024230616605 0 3.1829759872821075e-05 -0.03452143422945992 0 0.00012751698934527919 -0.034663370812689692 0 4.9905057500461584e-05 -0.034540024230616605 0 5.9625556528083924e-05 -0.034637883149125831 0 3.1829759872821075e-05 -0.03452143422945992 0 5.9625556528083924e-05 -0.034637883149125831 0 4.5945274703413501e-05 -0.034674233185026021 0 4.9905057500461584e-05 -0.034540024230616605 0 3.1829759872821075e-05 -0.03452143422945992 0 5.9625556528083924e-05 -0.034637883149125831 0 0.00017751154293416604 -0.034768201404026457 0 8.4965182872568106e-05 -0.034709769113773846 0 2.2726958958479762e-05 -0.034768278747644613 0 3.1829759872821075e-05 -0.03452143422945992 0 4.5945274703413501e-05 -0.034674233185026021 0 2.2726958958479762e-05 -0.034768278747644613 0 2.3491986128330052e-05 -0.034856221829037269 0 2.3875424745343309e-05 -0.034938988691446245 0 0.00012751698934527919 -0.034663370812689692 0 5.9625556528083924e-05 -0.034637883149125831 0 8.4965182872568106e-05 -0.034709769113773846 0 4.5945274703413501e-05 -0.034674233185026021 0 8.4965182872568106e-05 -0.034709769113773846 0 2.2726958958479762e-05 -0.034768278747644613 0 5.9625556528083924e-05 -0.034637883149125831 0 4.5945274703413501e-05 -0.034674233185026021 0 8.4965182872568106e-05 -0.034709769113773846 0 2.3875424745343309e-05 -0.034938988691446245 0 2.3926380158932726e-05 -0.034939055024088415 0 1.6200201084263888e-05 -0.03497861261292344 0 3.152464770543601e-05 -0.034962203919545208 0 3.8503318763496366e-05 -0.034947721424519185 0 3.152464770543601e-05 -0.034962203919545208 0 3.8503318763496366e-05 -0.034947721424519185 0 4.2491874418931831e-05 -0.034939317792191241 0 1.1665984491249741e-08 -0.034999961150949221 0 1.6200201084263888e-05 -0.03497861261292344 0 4.2558842936714658e-09 -0.034999958721831329 0 2.3875424745343309e-05 -0.034938988691446245 0 8.4061146884488044e-08 -0.034999850064383733 0 3.3793638697062505e-07 -0.035000041104513734 0 2.1328155445149703e-07 -0.035000010747203401 0 4.3019720538889244e-11 -0.035000004870882243 0 1.6200201084263888e-05 -0.03497861261292344 0 3.8503318763496366e-05 -0.034947721424519185 0 4.2558842936714658e-09 -0.034999958721831329 0 0.00057685371933045826 -0.033319543696136412 0 0.00055938310158766709 -0.033357804218613001 0 0.00054949764107450102 -0.03333442737430023 0 0.00057685371933045826 -0.033319543696136412 0 0.00056976003577958751 -0.033320857540668394 0 0.00057488000688894986 -0.033305390217812675 0 0.00057685371933045826 -0.033319543696136412 0 0.00054949764107450102 -0.03333442737430023 0 0.00056976003577958751 -0.033320857540668394 0 0.00057685371933045826 -0.033319543696136412 0 0.00061060020928642694 -0.033325112291082891 0 0.00055938310158766709 -0.033357804218613001 0 0.00057685371933045826 -0.033319543696136412 0 0.00061060020928642694 -0.033325112291082891 0 0.00062799616374296626 -0.033296117983643368 0 0.00055938310158766709 -0.033357804218613001 0 0.00054949764107450102 -0.03333442737430023 0 0.00051766434506303916 -0.033350993407402711 0 0.00054949764107450102 -0.03333442737430023 0 0.00055251253196894634 -0.033312036050246845 0 0.00051766434506303916 -0.033350993407402711 0 0.00055251253196894634 -0.033312036050246845 0 0.00056493987497145931 -0.033322026270711763 0 0.00059929298675734811 -0.033319321417051004 0 0.00054949764107450102 -0.03333442737430023 0 0.00055251253196894634 -0.033312036050246845 0 0.00056493987497145931 -0.033322026270711763 0 0.00055251253196894634 -0.033312036050246845 0 0.00061311681138456232 -0.033298602004881488 0 0.00059929298675734811 -0.033319321417051004 0 0.00061311681138456232 -0.033298602004881488 0 0.0006383294620798931 -0.033261205171858578 0 0.00067292060137028791 -0.033284934363129973 0 0.00055251253196894634 -0.033312036050246845 0 0.00061311681138456232 -0.033298602004881488 0 0.00058910852925495027 -0.033281932202116372 0 0.00061311681138456232 -0.033298602004881488 0 0.0006383294620798931 -0.033261205171858578 0 0.00058910852925495027 -0.033281932202116372 0 0.00061311681138456232 -0.033298602004881488 0 0.00065660424476234199 -0.033321114782367517 0 0.00059929298675734811 -0.033319321417051004 0 0.00061311681138456232 -0.033298602004881488 0 0.00065660424476234199 -0.033321114782367517 0 0.00067292060137028791 -0.033284934363129973 0 0.00065660424476234199 -0.033321114782367517 0 0.00059929298675734811 -0.033319321417051004 0 0.00066020399262294038 -0.033332402460756382 0 0.00059929298675734811 -0.033319321417051004 0 0.00066020399262294038 -0.033332402460756382 0 0.00061426700482835651 -0.033321793905483663 0 0.00054949764107450102 -0.03333442737430023 0 0.00056493987497145931 -0.033322026270711763 0 0.00056976003577958751 -0.033320857540668394 0 0.00056493987497145931 -0.033322026270711763 0 0.00059929298675734811 -0.033319321417051004 0 0.00056976003577958751 -0.033320857540668394 0 0.00059929298675734811 -0.033319321417051004 0 0.00056976003577958751 -0.033320857540668394 0 0.00061426700482835651 -0.033321793905483663 0 0.00056976003577958751 -0.033320857540668394 0 0.00058049921275650832 -0.033314982183483735 0 0.00057488000688894986 -0.033305390217812675 0 0.00056976003577958751 -0.033320857540668394 0 0.00058049921275650832 -0.033314982183483735 0 0.00061426700482835651 -0.033321793905483663 0 0.00058049921275650832 -0.033314982183483735 0 0.00060173983064927431 -0.033329022322655541 0 0.00056720676498519065 -0.03329146076151402 0 0.00058049921275650832 -0.033314982183483735 0 0.00056720676498519065 -0.03329146076151402 0 0.00057488000688894986 -0.033305390217812675 0 0.00066020399262294038 -0.033332402460756382 0 0.00066819740091483609 -0.033322478676160873 0 0.00061426700482835651 -0.033321793905483663 0 0.00058049921275650832 -0.033314982183483735 0 0.00061426700482835651 -0.033321793905483663 0 0.00060173983064927431 -0.033329022322655541 0 0.00066819740091483609 -0.033322478676160873 0 0.00061426700482835651 -0.033321793905483663 0 0.00060173983064927431 -0.033329022322655541 0 0.00066819740091483609 -0.033322478676160873 0 0.00060173983064927431 -0.033329022322655541 0 0.00069604554398984932 -0.033317203479388657 0 0.00056993396368634492 -0.033437679192820396 0 0.00060173983064927431 -0.033329022322655541 0 0.00066986706667245769 -0.033402661087550502 0 0.00060173983064927431 -0.033329022322655541 0 0.00066986706667245769 -0.033402661087550502 0 0.00069604554398984932 -0.033317203479388657 0 0.0013023345314892196 -0.032405539649316348 0 0.0011183379720090553 -0.032723593746411005 0 0.00051696096634065312 -0.033216369792204541 0 0.00060173983064927431 -0.033329022322655541 0 0.00055822386279925711 -0.033273144018349667 0 0.00060173983064927431 -0.033329022322655541 0 0.00056720676498519065 -0.03329146076151402 0 0.00055822386279925711 -0.033273144018349667 0 0.00056720676498519065 -0.03329146076151402 0 0.00055822386279925711 -0.033273144018349667 0 0.00056009983089881556 -0.033246434791389896 0 0.00051696096634065312 -0.033216369792204541 0 0.00055822386279925711 -0.033273144018349667 0 0.00056009983089881556 -0.033246434791389896 0 0.00056009983089881556 -0.033246434791389896 0 0.00058414837079937183 -0.033229795403170254 0 0.00058050164756969012 -0.033272149471199781 0 0.00058414837079937183 -0.033229795403170254 0 0.00058050164756969012 -0.033272149471199781 0 0.0006129209141598833 -0.033241885838161317 0 0.00058050164756969012 -0.033272149471199781 0 0.00059990662927656585 -0.033287317054361824 0 0.0006129209141598833 -0.033241885838161317 0 0.00056720676498519065 -0.03329146076151402 0 0.00056009983089881556 -0.033246434791389896 0 0.00058050164756969012 -0.033272149471199781 0 0.00056720676498519065 -0.03329146076151402 0 0.00058050164756969012 -0.033272149471199781 0 0.00057488000688894986 -0.033305390217812675 0 0.00057685371933045826 -0.033319543696136412 0 0.00057488000688894986 -0.033305390217812675 0 0.00059990662927656585 -0.033287317054361824 0 0.00058050164756969012 -0.033272149471199781 0 0.00057488000688894986 -0.033305390217812675 0 0.00059990662927656585 -0.033287317054361824 0 0.00057685371933045826 -0.033319543696136412 0 0.00062799616374296626 -0.033296117983643368 0 0.00059990662927656585 -0.033287317054361824 0 0.00062799616374296626 -0.033296117983643368 0 0.00059990662927656585 -0.033287317054361824 0 0.00064348355346966661 -0.03326138751878157 0 0.00059990662927656585 -0.033287317054361824 0 0.00064348355346966661 -0.03326138751878157 0 0.0006129209141598833 -0.033241885838161317 0 0.0006605035941755176 -0.033207108730116196 0 0.00064348355346966661 -0.03326138751878157 0 0.0006129209141598833 -0.033241885838161317 0 0.0006605035941755176 -0.033207108730116196 0 0.00064348355346966661 -0.03326138751878157 0 0.00069906077291128342 -0.033241052080588175 0 0.00064348355346966661 -0.03326138751878157 0 0.00069906077291128342 -0.033241052080588175 0 0.00066950131316922132 -0.033274798029461497 0 0.00069906077291128342 -0.033241052080588175 0 0.00071054132955832613 -0.033271025364496776 0 0.00066950131316922132 -0.033274798029461497 0 0.00069906077291128342 -0.033241052080588175 0 0.00072478273139646508 -0.033250306682015757 0 0.00071054132955832613 -0.033271025364496776 0 0.00069906077291128342 -0.033241052080588175 0 0.00074463311267505339 -0.033231124054856974 0 0.00072478273139646508 -0.033250306682015757 0 0.00072751807360893136 -0.033178795473483631 0 0.00069906077291128342 -0.033241052080588175 0 0.00074463311267505339 -0.033231124054856974 0 0.00080806898358945132 -0.033200850174251562 0 0.00074463311267505339 -0.033231124054856974 0 0.000752249558154456 -0.033256734834673937 0 0.00074463311267505339 -0.033231124054856974 0 0.000752249558154456 -0.033256734834673937 0 0.00074213302839450394 -0.033255395975270663 0 0.00074463311267505339 -0.033231124054856974 0 0.00072478273139646508 -0.033250306682015757 0 0.00074213302839450394 -0.033255395975270663 0 0.00050474101367785438 -0.03385753597722102 0 0.00049664557322118394 -0.033976249934644771 0 0.00080806898358945132 -0.033200850174251562 0 0.00081753555674644396 -0.033368598878632964 0 0.00096387111148376855 -0.033283048260281979 0 0.00049664557322118394 -0.033976249934644771 0 0.00049757265605194991 -0.0339754823822635 0 0.00072478273139646508 -0.033250306682015757 0 0.00074213302839450394 -0.033255395975270663 0 0.00071054132955832613 -0.033271025364496776 0 0.00074473084855193779 -0.033255253275798029 0 0.00074213302839450394 -0.033255395975270663 0 0.00071054132955832613 -0.033271025364496776 0 0.00049664557322118394 -0.033976249934644771 0 0.00056534187532562342 -0.033995827399378391 0 0.00074473084855193779 -0.033255253275798029 0 0.00071054132955832613 -0.033271025364496776 0 0.00070475802949670607 -0.033308907640989378 0 0.00071054132955832613 -0.033271025364496776 0 0.00066758171955059445 -0.033302552767809017 0 0.00070475802949670607 -0.033308907640989378 0 0.00067359205442482715 -0.034922676401628931 0 0.00058240047655542789 -0.034828527029994054 0 0.0006676147552972738 -0.034762201589363072 0 0.00061060020928642694 -0.033325112291082891 0 0.00062799616374296626 -0.033296117983643368 0 0.00066758171955059445 -0.033302552767809017 0 0.00062799616374296626 -0.033296117983643368 0 0.00064348355346966661 -0.03326138751878157 0 0.00066950131316922132 -0.033274798029461497 0 0.00062799616374296626 -0.033296117983643368 0 0.00066758171955059445 -0.033302552767809017 0 0.00066950131316922132 -0.033274798029461497 0 0.00071054132955832613 -0.033271025364496776 0 0.00066758171955059445 -0.033302552767809017 0 0.00066950131316922132 -0.033274798029461497 0 0.0010862370177259033 -0.033247255008132845 0 0.001298304474496779 -0.033269164957241269 0 0.0010887519892206173 -0.033392083185983849 0 0.00081753555674644396 -0.033368598878632964 0 0.0010887519892206173 -0.033392083185983849 0 0.00096387111148376855 -0.033283048260281979 0 0.00049664557322118394 -0.033976249934644771 0 0.00066784633163757096 -0.034150036940829423 0 0.00067359205442482715 -0.034922676401628931 0 0.00049719227134197453 -0.034907310360768135 0 0.00058240047655542789 -0.034828527029994054 0 0.0010862370177259033 -0.033247255008132845 0 0.0010887519892206173 -0.033392083185983849 0 0.00096387111148376855 -0.033283048260281979 0 0.0003242737881027555 -0.034890514146666385 0 0.00049719227134197453 -0.034907310360768135 0 0.00048091009949904645 -0.034788190277746663 0 0.00049719227134197453 -0.034907310360768135 0 0.00058240047655542789 -0.034828527029994054 0 0.00048091009949904645 -0.034788190277746663 0 0.0003628081541649434 -0.034746034616466102 0 0.00048091009949904645 -0.034788190277746663 0 0.00042817159250118302 -0.034649656591654858 0 0.00048091009949904645 -0.034788190277746663 0 0.00055652303797605661 -0.034691902530579861 0 0.00042817159250118302 -0.034649656591654858 0 0.00058240047655542789 -0.034828527029994054 0 0.00048091009949904645 -0.034788190277746663 0 0.00055652303797605661 -0.034691902530579861 0 0.00055652303797605661 -0.034691902530579861 0 0.0006676147552972738 -0.034762201589363072 0 0.00067139684491053096 -0.034592310935707984 0 0.00058240047655542789 -0.034828527029994054 0 0.00055652303797605661 -0.034691902530579861 0 0.0006676147552972738 -0.034762201589363072 0 0.00055652303797605661 -0.034691902530579861 0 0.00067139684491053096 -0.034592310935707984 0 0.00050904654487622973 -0.034501404405988319 0 0.00055652303797605661 -0.034691902530579861 0 0.00042817159250118302 -0.034649656591654858 0 0.00050904654487622973 -0.034501404405988319 0 0.00039199976879789066 -0.034529160142556158 0 0.00042817159250118302 -0.034649656591654858 0 0.00050904654487622973 -0.034501404405988319 0 0.00061060020928642694 -0.033325112291082891 0 0.00066758171955059445 -0.033302552767809017 0 0.00063985881892720706 -0.033343937771808961 0 0.00070475802949670607 -0.033308907640989378 0 0.00070018058096852568 -0.0333749675550776 0 0.00063985881892720706 -0.033343937771808961 0 0.00056534187532562342 -0.033995827399378391 0 0.0006031278426947695 -0.033980155289892587 0 0.00066758171955059445 -0.033302552767809017 0 0.00070475802949670607 -0.033308907640989378 0 0.00063985881892720706 -0.033343937771808961 0 0.00070018058096852568 -0.0333749675550776 0 0.00063985881892720706 -0.033343937771808961 0 0.00059213334898574862 -0.033444170762500849 0 0.00055938310158766709 -0.033357804218613001 0 0.00063985881892720706 -0.033343937771808961 0 0.00059213334898574862 -0.033444170762500849 0 0.00061060020928642694 -0.033325112291082891 0 0.00055938310158766709 -0.033357804218613001 0 0.00063985881892720706 -0.033343937771808961 0 0.0006031278426947695 -0.033980155289892587 0 0.00062045531161667052 -0.033958507227327121 0 0.00070018058096852568 -0.0333749675550776 0 0.00059213334898574862 -0.033444170762500849 0 0.00072283281005775576 -0.033528987143366218 0 0.00059213334898574862 -0.033444170762500849 0 0.00058768679327735149 -0.033656421171845689 0 0.00072283281005775576 -0.033528987143366218 0 0.00058768679327735149 -0.033656421171845689 0 0.00072283281005775576 -0.033528987143366218 0 0.00062284250340445785 -0.033969573261931993 0 0.00062045531161667052 -0.033958507227327121 0 0.00062297717910277963 -0.033949556304251102 0 0.00059213334898574862 -0.033444170762500849 0 0.00058768679327735149 -0.033656421171845689 0 0.00053288987780928667 -0.033563439006291697 0 0.00059213334898574862 -0.033444170762500849 0 0.00053288987780928667 -0.033563439006291697 0 0.00051582080550548214 -0.033424403321122668 0 0.00039199976879789066 -0.034529160142556158 0 0.00050904654487622973 -0.034501404405988319 0 0.00041087090082321922 -0.034343775128882474 0 0.00067139684491053096 -0.034592310935707984 0 0.00068108399213458247 -0.034378888657577912 0 0.00050904654487622973 -0.034501404405988319 0 0.00068108399213458247 -0.034378888657577912 0 0.00051843515124452789 -0.034244190518817955 0 0.00062284250340445785 -0.033969573261931993 0 0.00068108399213458247 -0.034378888657577912 0 0.00050904654487622973 -0.034501404405988319 0 0.00051843515124452789 -0.034244190518817955 0 0.00050904654487622973 -0.034501404405988319 0 0.00051843515124452789 -0.034244190518817955 0 0.00041087090082321922 -0.034343775128882474 0 0.00033220477435099154 -0.03430732791365227 0 0.00041087090082321922 -0.034343775128882474 0 0.00041886843637378609 -0.034175326351202989 0 0.00051843515124452789 -0.034244190518817955 0 0.00041087090082321922 -0.034343775128882474 0 0.00041886843637378609 -0.034175326351202989 0 0.00051843515124452789 -0.034244190518817955 0 0.00041886843637378609 -0.034175326351202989 0 0.00062284250340445785 -0.033969573261931993 0 0.00044843376368278924 -0.034093518426086829 0 0.00041886843637378609 -0.034175326351202989 0 0.00062284250340445785 -0.033969573261931993 0 0.00051804796280003945 -0.033960104077398648 0 0.00044843376368278924 -0.034093518426086829 0 0.00062284250340445785 -0.033969573261931993 0 0.00044843376368278924 -0.034093518426086829 0 0.00034494986049312185 -0.03424362192423959 0 0.00041886843637378609 -0.034175326351202989 0 0.00053288987780928667 -0.033563439006291697 0 0.00054689704137485782 -0.033775452695212087 0 0.00048627055226591612 -0.033514418144340044 0 0.00058768679327735149 -0.033656421171845689 0 0.00053288987780928667 -0.033563439006291697 0 0.00054689704137485782 -0.033775452695212087 0 0.00054689704137485782 -0.033775452695212087 0 0.00051269428863369242 -0.033715113994334044 0 0.00048627055226591612 -0.033514418144340044 0 0.00058768679327735149 -0.033656421171845689 0 0.00054689704137485782 -0.033775452695212087 0 0.00062284250340445785 -0.033969573261931993 0 0.00051804796280003945 -0.033960104077398648 0 0.00054689704137485782 -0.033775452695212087 0 0.00062284250340445785 -0.033969573261931993 0 0.00051804796280003945 -0.033960104077398648 0 0.00054689704137485782 -0.033775452695212087 0 0.00051269428863369242 -0.033715113994334044 0 0.00050920595160436073 -0.033847715888330666 0 0.00051269428863369242 -0.033715113994334044 0 0.000479156738993756 -0.033680885600213581 0 0.00051269428863369242 -0.033715113994334044 0 0.000479156738993756 -0.033680885600213581 0 0.00045195213046371826 -0.033484733599570229 0 0.000479156738993756 -0.033680885600213581 0 0.00041800374884211979 -0.033497764054717744 0 0.00045195213046371826 -0.033484733599570229 0 0.00043431172319432983 -0.033739378749733616 0 0.000479156738993756 -0.033680885600213581 0 0.00041800374884211979 -0.033497764054717744 0 0.00041800374884211979 -0.033497764054717744 0 0.00045195213046371826 -0.033484733599570229 0 0.00039697875621820555 -0.033328602009850168 0 0.00045195213046371826 -0.033484733599570229 0 0.00044721928035983154 -0.03337825186277868 0 0.00048627055226591612 -0.033514418144340044 0 0.00045195213046371826 -0.033484733599570229 0 0.00044721928035983154 -0.03337825186277868 0 0.00039697875621820555 -0.033328602009850168 0 0.00051269428863369242 -0.033715113994334044 0 0.00045195213046371826 -0.033484733599570229 0 0.00048627055226591612 -0.033514418144340044 0 0.00053288987780928667 -0.033563439006291697 0 0.00048627055226591612 -0.033514418144340044 0 0.00051582080550548214 -0.033424403321122668 0 0.00048627055226591612 -0.033514418144340044 0 0.0004803846747501674 -0.033372102813491678 0 0.00051582080550548214 -0.033424403321122668 0 0.00044721928035983154 -0.03337825186277868 0 0.00048627055226591612 -0.033514418144340044 0 0.0004803846747501674 -0.033372102813491678 0 0.00044721928035983154 -0.03337825186277868 0 0.0004803846747501674 -0.033372102813491678 0 0.00047700748953683473 -0.033322512680153966 0 0.0004803846747501674 -0.033372102813491678 0 0.00051392690067635289 -0.033320006016279491 0 0.00047700748953683473 -0.033322512680153966 0 0.0004803846747501674 -0.033372102813491678 0 0.00051766434506303916 -0.033350993407402711 0 0.00051392690067635289 -0.033320006016279491 0 0.0004803846747501674 -0.033372102813491678 0 0.00051766434506303916 -0.033350993407402711 0 0.00051582080550548214 -0.033424403321122668 0 0.00055938310158766709 -0.033357804218613001 0 0.00051766434506303916 -0.033350993407402711 0 0.00051582080550548214 -0.033424403321122668 0 0.00055938310158766709 -0.033357804218613001 0 0.00059213334898574862 -0.033444170762500849 0 0.00051582080550548214 -0.033424403321122668 0 0.00060501548177963223 -0.033247852781802499 0 0.00057066894847279193 -0.033237579107350659 0 0.00063565606721475195 -0.03319577632369014 0 0.00060501548177963223 -0.033247852781802499 0 0.00055335258399595046 -0.033283447479786711 0 0.00057066894847279193 -0.033237579107350659 0 0.00060501548177963223 -0.033247852781802499 0 0.00063565606721475195 -0.03319577632369014 0 0.00067453791423916843 -0.033204133929097615 0 0.00060501548177963223 -0.033247852781802499 0 0.0006383294620798931 -0.033261205171858578 0 0.00067453791423916843 -0.033204133929097615 0 0.00060501548177963223 -0.033247852781802499 0 0.00058910852925495027 -0.033281932202116372 0 0.00055335258399595046 -0.033283447479786711 0 0.00060501548177963223 -0.033247852781802499 0 0.0006383294620798931 -0.033261205171858578 0 0.00058910852925495027 -0.033281932202116372 0 0.00055251253196894634 -0.033312036050246845 0 0.00058910852925495027 -0.033281932202116372 0 0.00055335258399595046 -0.033283447479786711 0 0.00055251253196894634 -0.033312036050246845 0 0.00051766434506303916 -0.033350993407402711 0 0.00051392690067635289 -0.033320006016279491 0 0.00055251253196894634 -0.033312036050246845 0 0.00051392690067635289 -0.033320006016279491 0 0.00055335258399595046 -0.033283447479786711 0 0.00055335258399595046 -0.033283447479786711 0 0.00051675278209614044 -0.03328758237046732 0 0.00057066894847279193 -0.033237579107350659 0 0.00051392690067635289 -0.033320006016279491 0 0.00055335258399595046 -0.033283447479786711 0 0.00051675278209614044 -0.03328758237046732 0 0.00051675278209614044 -0.03328758237046732 0 0.00053320302543670363 -0.033216265948701508 0 0.00057066894847279193 -0.033237579107350659 0 0.00051392690067635289 -0.033320006016279491 0 0.00051675278209614044 -0.03328758237046732 0 0.00047700748953683473 -0.033322512680153966 0 0.00051675278209614044 -0.03328758237046732 0 0.00047700748953683473 -0.033322512680153966 0 0.00045959908139874 -0.033284823118297453 0 0.00044721928035983154 -0.03337825186277868 0 0.00047700748953683473 -0.033322512680153966 0 0.00045959908139874 -0.033284823118297453 0 0.00051675278209614044 -0.03328758237046732 0 0.00053320302543670363 -0.033216265948701508 0 0.00045959908139874 -0.033284823118297453 0 0.00059643581302483472 -0.033188350941562687 0 0.00053320302543670363 -0.033216265948701508 0 0.00057066894847279193 -0.033237579107350659 0 0.00059643581302483472 -0.033188350941562687 0 0.00053320302543670363 -0.033216265948701508 0 0.00066441360786025257 -0.033102833405597457 0 0.00059643581302483472 -0.033188350941562687 0 0.00057066894847279193 -0.033237579107350659 0 0.00063565606721475195 -0.03319577632369014 0 0.00063565606721475195 -0.03319577632369014 0 0.00066441360786025257 -0.033102833405597457 0 0.00072104678077898837 -0.033123016457354167 0 0.00059643581302483472 -0.033188350941562687 0 0.00063565606721475195 -0.03319577632369014 0 0.00066441360786025257 -0.033102833405597457 0 0.00053320302543670363 -0.033216265948701508 0 0.00056551807425968357 -0.03312896637502543 0 0.00042907805746997604 -0.033238861637451267 0 0.00053320302543670363 -0.033216265948701508 0 0.00066441360786025257 -0.033102833405597457 0 0.00056551807425968357 -0.03312896637502543 0 0.00066441360786025257 -0.033102833405597457 0 0.00056551807425968357 -0.03312896637502543 0 0.00068311450740182679 -0.03297904604219544 0 0.00044721928035983154 -0.03337825186277868 0 0.00045959908139874 -0.033284823118297453 0 0.00039697875621820555 -0.033328602009850168 0 0.00053320302543670363 -0.033216265948701508 0 0.00045959908139874 -0.033284823118297453 0 0.00042907805746997604 -0.033238861637451267 0 0.00042907805746997604 -0.033238861637451267 0 0.00039697875621820555 -0.033328602009850168 0 0.00031370360284060407 -0.03325248903671011 0 0.00045959908139874 -0.033284823118297453 0 0.00042907805746997604 -0.033238861637451267 0 0.00039697875621820555 -0.033328602009850168 0 0.00044315304417470844 -0.032270727539795381 0 0.00031370360284060407 -0.03325248903671011 0 0.00056101859747596317 -0.03294740649612244 0 0.00041800374884211979 -0.033497764054717744 0 0.00039697875621820555 -0.033328602009850168 0 0.00031370360284060407 -0.03325248903671011 0 0.00042907805746997604 -0.033238861637451267 0 0.00031370360284060407 -0.03325248903671011 0 0.00056101859747596317 -0.03294740649612244 0 0.0003268832514291488 -0.033605361707882787 0 0.00041800374884211979 -0.033497764054717744 0 0.00031370360284060407 -0.03325248903671011 0 0.00068311450740182679 -0.03297904604219544 0 0.00056101859747596317 -0.03294740649612244 0 0.00071358759347422561 -0.032826540239473352 0 0.00056551807425968357 -0.03312896637502543 0 0.00042907805746997604 -0.033238861637451267 0 0.00056101859747596317 -0.03294740649612244 0 0.00056551807425968357 -0.03312896637502543 0 0.00068311450740182679 -0.03297904604219544 0 0.00056101859747596317 -0.03294740649612244 0 0.00066223229937098776 -0.032750041251717738 0 0.00056101859747596317 -0.03294740649612244 0 0.00071358759347422561 -0.032826540239473352 0 0.00066223229937098776 -0.032750041251717738 0 0.00074561731985536015 -0.032680365732068464 0 0.00071358759347422561 -0.032826540239473352 0 0.00071358759347422561 -0.032826540239473352 0 0.00081085951394832057 -0.032734431434834441 0 0.00082000359490951502 -0.032833656176044411 0 0.00074561731985536015 -0.032680365732068464 0 0.00071358759347422561 -0.032826540239473352 0 0.00081085951394832057 -0.032734431434834441 0 0.00068311450740182679 -0.03297904604219544 0 0.00071358759347422561 -0.032826540239473352 0 0.00082000359490951502 -0.032833656176044411 0 0.00082000359490951502 -0.032833656176044411 0 0.00098644094938178336 -0.032727457152503171 0 0.00087335051149544708 -0.032876219353383369 0 0.00081085951394832057 -0.032734431434834441 0 0.00082000359490951502 -0.032833656176044411 0 0.00092463883599398766 -0.032672032255727207 0 0.001084520326714954 -0.032585124248441351 0 0.00098644094938178336 -0.032727457152503171 0 0.0011982239520662173 -0.032620057002804667 0 0.001084520326714954 -0.032585124248441351 0 0.00092463883599398766 -0.032672032255727207 0 0.00098644094938178336 -0.032727457152503171 0 0.00098644094938178336 -0.032727457152503171 0 0.0010332449722496983 -0.03277927144053501 0 0.0011982239520662173 -0.032620057002804667 0 0.00082000359490951502 -0.032833656176044411 0 0.00092463883599398766 -0.032672032255727207 0 0.00098644094938178336 -0.032727457152503171 0 0.00098644094938178336 -0.032727457152503171 0 0.0010332449722496983 -0.03277927144053501 0 0.00087335051149544708 -0.032876219353383369 0 0.0010332449722496983 -0.03277927144053501 0 0.0009175775934488088 -0.032903887912103101 0 0.00096876869507487022 -0.032918657132755089 0 0.0010332449722496983 -0.03277927144053501 0 0.0009175775934488088 -0.032903887912103101 0 0.00087335051149544708 -0.032876219353383369 0 0.0009175775934488088 -0.032903887912103101 0 0.00087335051149544708 -0.032876219353383369 0 0.00078461139642667648 -0.033019676011545825 0 0.00076110043077050435 -0.032967614059435331 0 0.00087335051149544708 -0.032876219353383369 0 0.00078461139642667648 -0.033019676011545825 0 0.00066441360786025257 -0.033102833405597457 0 0.00076110043077050435 -0.032967614059435331 0 0.00078461139642667648 -0.033019676011545825 0 0.00066441360786025257 -0.033102833405597457 0 0.00068311450740182679 -0.03297904604219544 0 0.00076110043077050435 -0.032967614059435331 0 0.00068311450740182679 -0.03297904604219544 0 0.00082000359490951502 -0.032833656176044411 0 0.00076110043077050435 -0.032967614059435331 0 0.00082000359490951502 -0.032833656176044411 0 0.00076110043077050435 -0.032967614059435331 0 0.00087335051149544708 -0.032876219353383369 0 0.0013249763557521711 -0.032539169392850634 0 0.0013490081820109285 -0.032583575109813911 0 0.0011982239520662173 -0.032620057002804667 0 0.0013490081820109285 -0.032583575109813911 0 0.0011982239520662173 -0.032620057002804667 0 0.0012975289613278193 -0.032591211164235863 0 0.0010332449722496983 -0.03277927144053501 0 0.0011982239520662173 -0.032620057002804667 0 0.0011745982172978809 -0.032712223253628263 0 0.0011982239520662173 -0.032620057002804667 0 0.0011745982172978809 -0.032712223253628263 0 0.0012975289613278193 -0.032591211164235863 0 0.0010332449722496983 -0.03277927144053501 0 0.0011745982172978809 -0.032712223253628263 0 0.00096876869507487022 -0.032918657132755089 0 0.0011745982172978809 -0.032712223253628263 0 0.0012975289613278193 -0.032591211164235863 0 0.0014070348862280197 -0.032493628320901094 0 0.0013490081820109285 -0.032583575109813911 0 0.0012975289613278193 -0.032591211164235863 0 0.0014070348862280197 -0.032493628320901094 0 0.0013490081820109285 -0.032583575109813911 0 0.0014070348862280197 -0.032493628320901094 0 0.0014135127586462788 -0.032567300764781794 0 0.0014070348862280197 -0.032493628320901094 0 0.0012854961025782657 -0.032744087027871328 0 0.001672886026492972 -0.032175690266135051 0 0.0011745982172978809 -0.032712223253628263 0 0.0014070348862280197 -0.032493628320901094 0 0.0012854961025782657 -0.032744087027871328 0 0.0012854961025782657 -0.032744087027871328 0 0.0010611384025877362 -0.032905655291144281 0 0.001102373474516416 -0.033039026956465357 0 0.0011745982172978809 -0.032712223253628263 0 0.0012854961025782657 -0.032744087027871328 0 0.0010611384025877362 -0.032905655291144281 0 0.0011745982172978809 -0.032712223253628263 0 0.0010611384025877362 -0.032905655291144281 0 0.00096876869507487022 -0.032918657132755089 0 0.0010611384025877362 -0.032905655291144281 0 0.001102373474516416 -0.033039026956465357 0 0.00096577441350380626 -0.033061410349785832 0 0.00096917198323710611 -0.033150309063292721 0 0.001102373474516416 -0.033039026956465357 0 0.00096577441350380626 -0.033061410349785832 0 0.00096917198323710611 -0.033150309063292721 0 0.001102373474516416 -0.033039026956465357 0 0.001142717461725523 -0.033188462321358192 0 0.001102373474516416 -0.033039026956465357 0 0.0012976512523213575 -0.033010379597205208 0 0.001142717461725523 -0.033188462321358192 0 0.0012854961025782657 -0.032744087027871328 0 0.0012976512523213575 -0.033010379597205208 0 0.0016842136615529545 -0.032896291585502155 0 0.0012854961025782657 -0.032744087027871328 0 0.001102373474516416 -0.033039026956465357 0 0.0012976512523213575 -0.033010379597205208 0 0.00081972040165232199 -0.03304621565652574 0 0.00072104678077898837 -0.033123016457354167 0 0.0007636718590634708 -0.033152456979312031 0 0.00081972040165232199 -0.03304621565652574 0 0.00087674197225048748 -0.033046279628621729 0 0.0007636718590634708 -0.033152456979312031 0 0.00066441360786025257 -0.033102833405597457 0 0.00072104678077898837 -0.033123016457354167 0 0.00078461139642667648 -0.033019676011545825 0 0.00081972040165232199 -0.03304621565652574 0 0.00072104678077898837 -0.033123016457354167 0 0.00078461139642667648 -0.033019676011545825 0 0.0009175775934488088 -0.032903887912103101 0 0.00081972040165232199 -0.03304621565652574 0 0.00078461139642667648 -0.033019676011545825 0 0.0009175775934488088 -0.032903887912103101 0 0.00081972040165232199 -0.03304621565652574 0 0.00096876869507487022 -0.032918657132755089 0 0.0010611384025877362 -0.032905655291144281 0 0.00096876869507487022 -0.032918657132755089 0 0.00087674197225048748 -0.033046279628621729 0 0.00081972040165232199 -0.03304621565652574 0 0.00096876869507487022 -0.032918657132755089 0 0.00087674197225048748 -0.033046279628621729 0 0.00087674197225048748 -0.033046279628621729 0 0.0008444183699716862 -0.033159113231442272 0 0.0007636718590634708 -0.033152456979312031 0 0.00087674197225048748 -0.033046279628621729 0 0.00096577441350380626 -0.033061410349785832 0 0.0008444183699716862 -0.033159113231442272 0 0.0010611384025877362 -0.032905655291144281 0 0.00087674197225048748 -0.033046279628621729 0 0.00096577441350380626 -0.033061410349785832 0 0.00096917198323710611 -0.033150309063292721 0 0.0008444183699716862 -0.033159113231442272 0 0.0008800037254631265 -0.033203599890242991 0 0.00096917198323710611 -0.033150309063292721 0 0.00096577441350380626 -0.033061410349785832 0 0.0008444183699716862 -0.033159113231442272 0 0.0008444183699716862 -0.033159113231442272 0 0.0007672959578848786 -0.033212498053683863 0 0.0007636718590634708 -0.033152456979312031 0 0.0007672959578848786 -0.033212498053683863 0 0.0007636718590634708 -0.033152456979312031 0 0.00070385081687533431 -0.033232069129887486 0 0.00063565606721475195 -0.03319577632369014 0 0.00072104678077898837 -0.033123016457354167 0 0.00067453791423916843 -0.033204133929097615 0 0.00072104678077898837 -0.033123016457354167 0 0.0007636718590634708 -0.033152456979312031 0 0.00067453791423916843 -0.033204133929097615 0 0.0006383294620798931 -0.033261205171858578 0 0.00067453791423916843 -0.033204133929097615 0 0.00070385081687533431 -0.033232069129887486 0 0.0007636718590634708 -0.033152456979312031 0 0.00067453791423916843 -0.033204133929097615 0 0.00070385081687533431 -0.033232069129887486 0 0.0006383294620798931 -0.033261205171858578 0 0.00070385081687533431 -0.033232069129887486 0 0.00067292060137028791 -0.033284934363129973 0 0.00070385081687533431 -0.033232069129887486 0 0.00067292060137028791 -0.033284934363129973 0 0.00073662269296485481 -0.033268873395682068 0 0.0007672959578848786 -0.033212498053683863 0 0.00070385081687533431 -0.033232069129887486 0 0.00073662269296485481 -0.033268873395682068 0 0.0007672959578848786 -0.033212498053683863 0 0.00073662269296485481 -0.033268873395682068 0 0.000808574050457746 -0.033233589884074391 0 0.00073662269296485481 -0.033268873395682068 0 0.00070791040699823694 -0.033316439573955782 0 0.00078196222367889331 -0.033308030269986501 0 0.00065660424476234199 -0.033321114782367517 0 0.00067292060137028791 -0.033284934363129973 0 0.00070791040699823694 -0.033316439573955782 0 0.00067292060137028791 -0.033284934363129973 0 0.00073662269296485481 -0.033268873395682068 0 0.00070791040699823694 -0.033316439573955782 0 0.00065660424476234199 -0.033321114782367517 0 0.00066020399262294038 -0.033332402460756382 0 0.00069778980611808687 -0.033345347969214907 0 0.00065660424476234199 -0.033321114782367517 0 0.00070791040699823694 -0.033316439573955782 0 0.00069778980611808687 -0.033345347969214907 0 0.00070791040699823694 -0.033316439573955782 0 0.00069778980611808687 -0.033345347969214907 0 0.00073513501340739796 -0.033350310922344695 0 0.00070791040699823694 -0.033316439573955782 0 0.00073513501340739796 -0.033350310922344695 0 0.00078196222367889331 -0.033308030269986501 0 0.00069778980611808687 -0.033345347969214907 0 0.00072369591438171575 -0.033376664425843 0 0.00070857272397648096 -0.033352989176704158 0 0.00069778980611808687 -0.033345347969214907 0 0.00073513501340739796 -0.033350310922344695 0 0.00072369591438171575 -0.033376664425843 0 0.00073513501340739796 -0.033350310922344695 0 0.00072369591438171575 -0.033376664425843 0 0.00073773258885211025 -0.033404387349513613 0 0.00072369591438171575 -0.033376664425843 0 0.00073773258885211025 -0.033404387349513613 0 0.00072650124848631893 -0.033397089238440605 0 0.00072369591438171575 -0.033376664425843 0 0.00070857272397648096 -0.033352989176704158 0 0.00072650124848631893 -0.033397089238440605 0 0.00066020399262294038 -0.033332402460756382 0 0.00069778980611808687 -0.033345347969214907 0 0.00070857272397648096 -0.033352989176704158 0 0.00082936894246634079 -0.033389384284566163 0 0.00081845548373855079 -0.033435172519947182 0 0.00073773258885211025 -0.033404387349513613 0 0.00082936894246634079 -0.033389384284566163 0 0.00081845548373855079 -0.033435172519947182 0 0.00091156389076102408 -0.033403967241653752 0 0.00081845548373855079 -0.033435172519947182 0 0.00091156389076102408 -0.033403967241653752 0 0.00090400056122204742 -0.03344971545447735 0 0.00081845548373855079 -0.033435172519947182 0 0.00090400056122204742 -0.03344971545447735 0 0.00085303119806940807 -0.033484666710404572 0 0.00081845548373855079 -0.033435172519947182 0 0.00073773258885211025 -0.033404387349513613 0 0.00065141569485362366 -0.03346774316111379 0 0.00082936894246634079 -0.033389384284566163 0 0.00073773258885211025 -0.033404387349513613 0 0.00079753808806819313 -0.033355383872948369 0 0.00073513501340739796 -0.033350310922344695 0 0.00079753808806819313 -0.033355383872948369 0 0.00078196222367889331 -0.033308030269986501 0 0.00073513501340739796 -0.033350310922344695 0 0.00073773258885211025 -0.033404387349513613 0 0.00079753808806819313 -0.033355383872948369 0 0.00079753808806819313 -0.033355383872948369 0 0.00084633474625358119 -0.033313247683771786 0 0.00078196222367889331 -0.033308030269986501 0 0.00079753808806819313 -0.033355383872948369 0 0.00089737245028229671 -0.033345045479024817 0 0.00084633474625358119 -0.033313247683771786 0 0.00082936894246634079 -0.033389384284566163 0 0.00079753808806819313 -0.033355383872948369 0 0.00089737245028229671 -0.033345045479024817 0 0.00082936894246634079 -0.033389384284566163 0 0.00089737245028229671 -0.033345045479024817 0 0.00091156389076102408 -0.033403967241653752 0 0.00089737245028229671 -0.033345045479024817 0 0.00084633474625358119 -0.033313247683771786 0 0.00094830196178887838 -0.033268785481461415 0 0.00085546962326976629 -0.033264863357204841 0 0.0008800037254631265 -0.033203599890242991 0 0.00094830196178887838 -0.033268785481461415 0 0.00084633474625358119 -0.033313247683771786 0 0.00085546962326976629 -0.033264863357204841 0 0.00094830196178887838 -0.033268785481461415 0 0.00073662269296485481 -0.033268873395682068 0 0.00078196222367889331 -0.033308030269986501 0 0.000808574050457746 -0.033233589884074391 0 0.00085546962326976629 -0.033264863357204841 0 0.00078196222367889331 -0.033308030269986501 0 0.000808574050457746 -0.033233589884074391 0 0.00084633474625358119 -0.033313247683771786 0 0.00085546962326976629 -0.033264863357204841 0 0.00078196222367889331 -0.033308030269986501 0 0.0008444183699716862 -0.033159113231442272 0 0.0007672959578848786 -0.033212498053683863 0 0.000808574050457746 -0.033233589884074391 0 0.0008444183699716862 -0.033159113231442272 0 0.000808574050457746 -0.033233589884074391 0 0.0008800037254631265 -0.033203599890242991 0 0.00085546962326976629 -0.033264863357204841 0 0.000808574050457746 -0.033233589884074391 0 0.0008800037254631265 -0.033203599890242991 0 0.00096917198323710611 -0.033150309063292721 0 0.0008800037254631265 -0.033203599890242991 0 0.00094830196178887838 -0.033268785481461415 0 0.00096917198323710611 -0.033150309063292721 0 0.001142717461725523 -0.033188462321358192 0 0.00094830196178887838 -0.033268785481461415 0 0.001142717461725523 -0.033188462321358192 0 0.00094830196178887838 -0.033268785481461415 0 0.00107157733200211 -0.033327412118750011 0 0.001142717461725523 -0.033188462321358192 0 0.0012951772151718231 -0.033368158337491093 0 0.00107157733200211 -0.033327412118750011 0 0.0012976512523213575 -0.033010379597205208 0 0.001142717461725523 -0.033188462321358192 0 0.0013995680904482347 -0.033153449521431504 0 0.001142717461725523 -0.033188462321358192 0 0.0013995680904482347 -0.033153449521431504 0 0.0012951772151718231 -0.033368158337491093 0 0.0012951772151718231 -0.033368158337491093 0 0.0013059413402461289 -0.033573466387923863 0 0.0016464955684425322 -0.033548220310467995 0 0.0012951772151718231 -0.033368158337491093 0 0.0010464444847715197 -0.033441697759205281 0 0.0013059413402461289 -0.033573466387923863 0 0.0010464444847715197 -0.033441697759205281 0 0.00095526512291334059 -0.033565624532206205 0 0.0013059413402461289 -0.033573466387923863 0 0.00089737245028229671 -0.033345045479024817 0 0.00094830196178887838 -0.033268785481461415 0 0.00097674135282911547 -0.033366821325007956 0 0.00097674135282911547 -0.033366821325007956 0 0.00107157733200211 -0.033327412118750011 0 0.0010464444847715197 -0.033441697759205281 0 0.00094830196178887838 -0.033268785481461415 0 0.00097674135282911547 -0.033366821325007956 0 0.00107157733200211 -0.033327412118750011 0 0.00089737245028229671 -0.033345045479024817 0 0.00097674135282911547 -0.033366821325007956 0 0.00091156389076102408 -0.033403967241653752 0 0.0012951772151718231 -0.033368158337491093 0 0.00107157733200211 -0.033327412118750011 0 0.0010464444847715197 -0.033441697759205281 0 0.00097674135282911547 -0.033366821325007956 0 0.0010464444847715197 -0.033441697759205281 0 0.00091156389076102408 -0.033403967241653752 0 0.0010464444847715197 -0.033441697759205281 0 0.00091156389076102408 -0.033403967241653752 0 0.00090400056122204742 -0.03344971545447735 0 0.0010464444847715197 -0.033441697759205281 0 0.00090400056122204742 -0.03344971545447735 0 0.00096094158255063955 -0.033483007335435785 0 0.0010464444847715197 -0.033441697759205281 0 0.00096094158255063955 -0.033483007335435785 0 0.00095526512291334059 -0.033565624532206205 0 0.00090400056122204742 -0.03344971545447735 0 0.00093419799245009921 -0.033510962949979149 0 0.00085303119806940807 -0.033484666710404572 0 0.00090400056122204742 -0.03344971545447735 0 0.00096094158255063955 -0.033483007335435785 0 0.00093419799245009921 -0.033510962949979149 0 0.00093419799245009921 -0.033510962949979149 0 0.00095526512291334059 -0.033565624532206205 0 0.00085303119806940807 -0.033484666710404572 0 0.00096094158255063955 -0.033483007335435785 0 0.00093419799245009921 -0.033510962949979149 0 0.00095526512291334059 -0.033565624532206205 0 0.0023135046164549787 -0.026677618451023562 0 0.0011581688510590104 -0.025880277190601573 0 0.0020496538289290472 -0.018413800283327748 0 0.0019062079997949632 -0.018308303057733732 0 0.0017799974153211249 -0.018457678154224503 0 0.0020496538289290472 -0.018413800283327748 0 0.0020106596688484074 -0.018266515236306392 0 0.0020850248482348903 -0.018193524811273228 0 0.0020496538289290472 -0.018413800283327748 0 0.0019062079997949632 -0.018308303057733732 0 0.0020106596688484074 -0.018266515236306392 0 0.0017799974153211249 -0.018457678154224503 0 0.0017609058379515236 -0.018223194378984522 0 0.001581066477583881 -0.018312233026038627 0 0.0019062079997949632 -0.018308303057733732 0 0.0017799974153211249 -0.018457678154224503 0 0.0017609058379515236 -0.018223194378984522 0 0.0017609058379515236 -0.018223194378984522 0 0.0018146971282577849 -0.018061051909430224 0 0.0019577256300911967 -0.018149232494453806 0 0.0019062079997949632 -0.018308303057733732 0 0.0017609058379515236 -0.018223194378984522 0 0.0019577256300911967 -0.018149232494453806 0 0.0017609058379515236 -0.018223194378984522 0 0.0018146971282577849 -0.018061051909430224 0 0.0016416382468793895 -0.018041720878525836 0 0.0020106596688484074 -0.018266515236306392 0 0.0019577256300911967 -0.018149232494453806 0 0.0020850248482348903 -0.018193524811273228 0 0.0019062079997949632 -0.018308303057733732 0 0.0020106596688484074 -0.018266515236306392 0 0.0019577256300911967 -0.018149232494453806 0 0.0019577256300911967 -0.018149232494453806 0 0.0020850248482348903 -0.018193524811273228 0 0.0021012200272193275 -0.018021015834731306 0 0.0020850248482348903 -0.018193524811273228 0 0.0022271182604946516 -0.018122190106209187 0 0.0021012200272193275 -0.018021015834731306 0 0.0020496538289290472 -0.018413800283327748 0 0.0020850248482348903 -0.018193524811273228 0 0.0022271182604946516 -0.018122190106209187 0 0.0017639684999758987 -0.032397130876609254 0 0.000665195930875289 -0.032510346330444063 0 0.00080280632543220504 -0.033246283428008394 0 0.0020309688469956366 -0.031623505202399795 0 0.0017639684999758987 -0.032397130876609254 0 0.000665195930875289 -0.032510346330444063 0 0.00066986706667245769 -0.033402661087550502 0 0.00080280632543220504 -0.033246283428008394 0 0.00069604554398984932 -0.033317203479388657 0 0.0012567985829270334 -0.032318160810834329 0 0.0011105686126765104 -0.03250801638426172 0 0.00066819740091483609 -0.033322478676160873 0 0.00069604554398984932 -0.033317203479388657 0 0.00073571964254904101 -0.033318270219997219 0 0.00080280632543220504 -0.033246283428008394 0 0.00069604554398984932 -0.033317203479388657 0 0.00073571964254904101 -0.033318270219997219 0 0.00066819740091483609 -0.033322478676160873 0 0.00073571964254904101 -0.033318270219997219 0 0.00070857272397648096 -0.033352989176704158 0 0.00066020399262294038 -0.033332402460756382 0 0.00066819740091483609 -0.033322478676160873 0 0.00070857272397648096 -0.033352989176704158 0 0.00080280632543220504 -0.033246283428008394 0 0.00073571964254904101 -0.033318270219997219 0 0.00072650124848631893 -0.033397089238440605 0 0.00073571964254904101 -0.033318270219997219 0 0.00070857272397648096 -0.033352989176704158 0 0.00072650124848631893 -0.033397089238440605 0 0.00080280632543220504 -0.033246283428008394 0 0.00072650124848631893 -0.033397089238440605 0 0.00065141569485362366 -0.03346774316111379 0 0.00073773258885211025 -0.033404387349513613 0 0.00072650124848631893 -0.033397089238440605 0 0.00065141569485362366 -0.03346774316111379 0 0.0023135046164549787 -0.026677618451023562 0 0.0021685241181785692 -0.025517258337773074 0 0.00011405715172804835 -0.033556644829898223 0 0.000665195930875289 -0.032510346330444063 0 0.00080280632543220504 -0.033246283428008394 0 0.00011405715172804835 -0.033556644829898223 0 0.00080280632543220504 -0.033246283428008394 0 0.00065141569485362366 -0.03346774316111379 0 0.00081845548373855079 -0.033435172519947182 0 0.00065141569485362366 -0.03346774316111379 0 0.00085303119806940807 -0.033484666710404572 0 0.00095526512291334059 -0.033565624532206205 0 0.00065141569485362366 -0.03346774316111379 0 0.00085303119806940807 -0.033484666710404572 0 0.0023135046164549787 -0.026677618451023562 0 0.0020149267159393501 -0.026961434146586596 0 -0.001937665861599738 -0.01932264517005447 0 -0.0005847613182784155 -0.019923099139778661 0 -0.00264397241529307 -0.02071143470327309 0 -0.001937665861599738 -0.01932264517005447 0 -0.0005847613182784155 -0.019923099139778661 0 -0.0010850241343010108 -0.018486461769739143 0 -0.0005847613182784155 -0.019923099139778661 0 -0.00264397241529307 -0.02071143470327309 0 -0.00078513801680433299 -0.021682745699047198 0 -0.00264397241529307 -0.02071143470327309 0 -0.003937944302817944 -0.02066889618507416 0 -0.0043773515727612922 -0.022449380159135311 0 -0.003937944302817944 -0.02066889618507416 0 -0.0050815936557699155 -0.020680432073736241 0 -0.0043773515727612922 -0.022449380159135311 0 -0.0050815936557699155 -0.020680432073736241 0 -0.0036571937314611009 -0.018921200142775596 0 -0.0057654389484234044 -0.018517847228412154 0 -0.003937944302817944 -0.02066889618507416 0 -0.0050815936557699155 -0.020680432073736241 0 -0.0036571937314611009 -0.018921200142775596 0 -0.00264397241529307 -0.02071143470327309 0 -0.003937944302817944 -0.02066889618507416 0 -0.0036571937314611009 -0.018921200142775596 0 -0.001937665861599738 -0.01932264517005447 0 -0.00264397241529307 -0.02071143470327309 0 -0.0036571937314611009 -0.018921200142775596 0 -0.0036571937314611009 -0.018921200142775596 0 -0.0019051775026217575 -0.017952333766767983 0 -0.003173330521986917 -0.016338648300134501 0 -0.0036571937314611009 -0.018921200142775596 0 -0.0047164916997293775 -0.017208834990216231 0 -0.003173330521986917 -0.016338648300134501 0 -0.0036571937314611009 -0.018921200142775596 0 -0.0047164916997293775 -0.017208834990216231 0 -0.0057654389484234044 -0.018517847228412154 0 -0.0013253604265635491 -0.016965619521571867 0 -0.0019051775026217575 -0.017952333766767983 0 -0.003173330521986917 -0.016338648300134501 0 -0.0013253604265635491 -0.016965619521571867 0 -0.0019051775026217575 -0.017952333766767983 0 -0.00093191832650258745 -0.017557262932987861 0 -0.001937665861599738 -0.01932264517005447 0 -0.0019051775026217575 -0.017952333766767983 0 -0.0010850241343010108 -0.018486461769739143 0 -0.001937665861599738 -0.01932264517005447 0 -0.0036571937314611009 -0.018921200142775596 0 -0.0019051775026217575 -0.017952333766767983 0 -0.0005847613182784155 -0.019923099139778661 0 -0.0010850241343010108 -0.018486461769739143 0 -0.00032179266966940521 -0.01770541482640485 0 -0.0019051775026217575 -0.017952333766767983 0 -0.0010850241343010108 -0.018486461769739143 0 -0.00093191832650258745 -0.017557262932987861 0 -0.0010850241343010108 -0.018486461769739143 0 -0.00032179266966940521 -0.01770541482640485 0 -0.00093191832650258745 -0.017557262932987861 0 -0.00032179266966940521 -0.01770541482640485 0 -0.00093191832650258745 -0.017557262932987861 0 -0.00046896942195296694 -0.016719639054663095 0 -0.0013253604265635491 -0.016965619521571867 0 -0.00093191832650258745 -0.017557262932987861 0 -0.00046896942195296694 -0.016719639054663095 0 -0.0013253604265635491 -0.016965619521571867 0 -0.00046896942195296694 -0.016719639054663095 0 -0.0010572902397785516 -0.015936924365397065 0 0.00038888375919863725 -0.018142032988215782 0 0.00093818985190704705 -0.017418380994069962 0 9.4935484756831791e-06 -0.016798762274985828 0 0.000374758969823056 -0.017024784106922597 0 0.0002786917874955022 -0.015988425365227928 0 -0.0005847613182784155 -0.019923099139778661 0 0.0014470758826233749 -0.01788722267074562 0 0.0014380337671165077 -0.018175146171606614 0 -0.0005847613182784155 -0.019923099139778661 0 0.000374758969823056 -0.017024784106922597 0 0.0014024752132828233 -0.016379269418892329 0 -0.0005847613182784155 -0.019923099139778661 0 -0.00032179266966940521 -0.01770541482640485 0 0.000374758969823056 -0.017024784106922597 0 -0.00032179266966940521 -0.01770541482640485 0 9.4935484756831791e-06 -0.016798762274985828 0 0.000374758969823056 -0.017024784106922597 0 -0.00032179266966940521 -0.01770541482640485 0 -0.00046896942195296694 -0.016719639054663095 0 9.4935484756831791e-06 -0.016798762274985828 0 0.000374758969823056 -0.017024784106922597 0 0.0014024752132828233 -0.016379269418892329 0 0.0008204182901594407 -0.016177969383524372 0 0.0017609058379515236 -0.018223194378984522 0 0.0016416382468793895 -0.018041720878525836 0 0.0015937966982863495 -0.018199091557924933 0 0.0014380337671165077 -0.018175146171606614 0 0.0016416382468793895 -0.018041720878525836 0 0.0015937966982863495 -0.018199091557924933 0 0.0014470758826233749 -0.01788722267074562 0 0.0014380337671165077 -0.018175146171606614 0 0.0016416382468793895 -0.018041720878525836 0 0.0014380337671165077 -0.018175146171606614 0 0.0015937966982863495 -0.018199091557924933 0 0.001581066477583881 -0.018312233026038627 0 0.0017609058379515236 -0.018223194378984522 0 0.0015937966982863495 -0.018199091557924933 0 0.001581066477583881 -0.018312233026038627 0 0.0017799974153211249 -0.018457678154224503 0 0.001581066477583881 -0.018312233026038627 0 0.0015067914518489822 -0.018489543786061782 0 -0.00019864203688115236 -0.022382393078847772 0 -0.00031912980034194471 -0.025080136181906673 0 0.0011581688510590104 -0.025880277190601573 0 -0.00031912980034194471 -0.025080136181906673 0 0.0014380337671165077 -0.018175146171606614 0 0.001581066477583881 -0.018312233026038627 0 0.0015067914518489822 -0.018489543786061782 0 -0.0005847613182784155 -0.019923099139778661 0 0.0018110185730748055 -0.021210999912760098 0 -0.00078513801680433299 -0.021682745699047198 0 -0.0005847613182784155 -0.019923099139778661 0 0.0014380337671165077 -0.018175146171606614 0 0.0018110185730748055 -0.021210999912760098 0 -0.00040166135826129177 -0.024570106421155039 0 0.0020832838210290499 -0.022192541970694257 0 -0.0012002192690637819 -0.02245999631042386 0 -0.00040166135826129177 -0.024570106421155039 0 0.0020832838210290499 -0.022192541970694257 0 0.0023083193770719029 -0.025516412761226147 0 -0.00031912980034194471 -0.025080136181906673 0 -0.0010570306872674491 -0.024477922960139991 0 0.0012951772151718231 -0.033368158337491093 0 0.0016464955684425322 -0.033548220310467995 0 0.0016376047363241364 -0.033240378949540905 0 -0.00031912980034194471 -0.025080136181906673 0 0.00041962311461731292 -0.027892105573392622 0 0.0013995680904482347 -0.033153449521431504 0 0.0016376047363241364 -0.033240378949540905 0 0.0016842136615529545 -0.032896291585502155 0 0.0013995680904482347 -0.033153449521431504 0 0.0012951772151718231 -0.033368158337491093 0 0.0016376047363241364 -0.033240378949540905 0 -0.00040166135826129177 -0.024570106421155039 0 0.0023083193770719029 -0.025516412761226147 0 0.00060256604794611888 -0.026905072796838757 0 0.0023083193770719029 -0.025516412761226147 0 0.00060256604794611888 -0.026905072796838757 0 0.0023136950566421833 -0.028951539627864144 0 -0.00040166135826129177 -0.024570106421155039 0 0.00060256604794611888 -0.026905072796838757 0 -0.0010414862400741809 -0.026642420263703896 0 -0.0010414862400741809 -0.026642420263703896 0 -0.0027529354664146857 -0.025925799995757746 0 -0.0020755937599031549 -0.024970804316801588 0 -0.0010414862400741809 -0.026642420263703896 0 -0.0027529354664146857 -0.025925799995757746 0 -0.0017042338427800459 -0.027864048693298574 0 -0.0027529354664146857 -0.025925799995757746 0 -0.0020755937599031549 -0.024970804316801588 0 -0.0033284956284219155 -0.02418490894051286 0 -0.00040166135826129177 -0.024570106421155039 0 -0.0010414862400741809 -0.026642420263703896 0 -0.0020755937599031549 -0.024970804316801588 0 -0.00264397241529307 -0.02071143470327309 0 -0.00078513801680433299 -0.021682745699047198 0 -0.0043773515727612922 -0.022449380159135311 0 -0.00040166135826129177 -0.024570106421155039 0 -0.0022937223732564667 -0.023615384318096771 0 -0.0012002192690637819 -0.02245999631042386 0 -0.0010570306872674491 -0.024477922960139991 0 -0.0017563245822271216 -0.02433514725101556 0 -0.00040166135826129177 -0.024570106421155039 0 -0.0020755937599031549 -0.024970804316801588 0 -0.0022937223732564667 -0.023615384318096771 0 -0.0022937223732564667 -0.023615384318096771 0 -0.0012002192690637819 -0.02245999631042386 0 -0.0043773515727612922 -0.022449380159135311 0 -0.0020755937599031549 -0.024970804316801588 0 -0.0022937223732564667 -0.023615384318096771 0 -0.0033284956284219155 -0.02418490894051286 0 -0.0050815936557699155 -0.020680432073736241 0 -0.0043773515727612922 -0.022449380159135311 0 -0.0052274725841906381 -0.023778194327344796 0 -0.0022937223732564667 -0.023615384318096771 0 -0.0043773515727612922 -0.022449380159135311 0 -0.0033284956284219155 -0.02418490894051286 0 -0.0043773515727612922 -0.022449380159135311 0 -0.0033284956284219155 -0.02418490894051286 0 -0.0052274725841906381 -0.023778194327344796 0 0.0070391533552110301 0.021091058744984771 0 0.0074639136753832354 0.019983307347677462 0 0.0081382296800174021 0.019467587669538131 0 0.0007155862960321731 -0.0019521849387669032 0 0.0029026277528051325 -0.0034415387720162236 0 -0.0027529354664146857 -0.025925799995757746 0 -0.0052274725841906381 -0.023778194327344796 0 -0.0031719744095284655 -0.027806387218258358 0 0.0070391533552110301 0.021091058744984771 0 0.0070857984282045308 0.020158985015241288 0 0.0074639136753832354 0.019983307347677462 0 -0.0027529354664146857 -0.025925799995757746 0 -0.0033284956284219155 -0.02418490894051286 0 -0.0052274725841906381 -0.023778194327344796 0 0.0070857984282045308 0.020158985015241288 0 0.0074639136753832354 0.019983307347677462 0 0.0075939177502898723 0.019214764290739018 0 0.0075939177502898723 0.019214764290739018 0 0.0081382296800174021 0.019467587669538131 0 0.0091597817012531845 0.018204693081248308 0 0.0073983201194116012 0.01978414107062542 0 0.0070538379193369246 0.019115077932369245 0 0.0063320818922677352 0.019588370128461943 0 0.0074639136753832354 0.019983307347677462 0 0.0075939177502898723 0.019214764290739018 0 0.0081382296800174021 0.019467587669538131 0 -0.0027529354664146857 -0.025925799995757746 0 -0.0031719744095284655 -0.027806387218258358 0 -0.0017042338427800459 -0.027864048693298574 0 -0.0010414862400741809 -0.026642420263703896 0 -0.0017042338427800459 -0.027864048693298574 0 -0.0001995973355210304 -0.028773839212149849 0 -0.0014218550598914005 -0.029531935717410477 0 -0.0001995973355210304 -0.028773839212149849 0 -0.0004030626162997649 -0.030147143849502282 0 -0.0017042338427800459 -0.027864048693298574 0 -0.0014218550598914005 -0.029531935717410477 0 -0.0001995973355210304 -0.028773839212149849 0 -0.0031719744095284655 -0.027806387218258358 0 -0.0017042338427800459 -0.027864048693298574 0 -0.0014218550598914005 -0.029531935717410477 0 -0.0031719744095284655 -0.027806387218258358 0 -0.0014218550598914005 -0.029531935717410477 0 -0.00079212113494278472 -0.031478958841307733 0 0.0081382296800174021 0.019467587669538131 0 0.0091597817012531845 0.018204693081248308 0 0.0093856711809573844 0.018158334578644228 0 0.0073983201194116012 0.01978414107062542 0 0.0091597817012531845 0.018204693081248308 0 0.0082205697296717627 0.018529154174859386 0 0.0072714738495655174 0.019693886132911387 0 0.0077655216861791812 0.019223527647776791 0 0.0029026277528051325 -0.0034415387720162236 0 0.0049038962229388623 -0.0041654760755922612 0 -0.0014218550598914005 -0.029531935717410477 0 -0.00069953626932440149 -0.030543734241873191 0 -0.00079212113494278472 -0.031478958841307733 0 -0.0014218550598914005 -0.029531935717410477 0 -0.00069953626932440149 -0.030543734241873191 0 -0.0004030626162997649 -0.030147143849502282 0 -0.00069953626932440149 -0.030543734241873191 0 -0.00079212113494278472 -0.031478958841307733 0 -0.00022649986266836696 -0.030989548730193009 0 0.0091597817012531845 0.018204693081248308 0 0.0087171093227712253 0.017949814483589524 0 0.0091655876719798236 0.017806790861273139 0 0.0091597817012531845 0.018204693081248308 0 0.0093856711809573844 0.018158334578644228 0 0.0091655876719798236 0.017806790861273139 0 0.0091597817012531845 0.018204693081248308 0 0.0087171093227712253 0.017949814483589524 0 0.0082205697296717627 0.018529154174859386 0 0.0087171093227712253 0.017949814483589524 0 0.0082205697296717627 0.018529154174859386 0 0.0081276422843489116 0.017878305657221743 0 0.0073983201194116012 0.01978414107062542 0 0.0082205697296717627 0.018529154174859386 0 0.0076561449710644573 0.018723127034360416 0 0.0082205697296717627 0.018529154174859386 0 0.0076561449710644573 0.018723127034360416 0 0.0081276422843489116 0.017878305657221743 0 0.0068893731841525889 0.018347749555629525 0 0.0076561449710644573 0.018723127034360416 0 0.0081276422843489116 0.017878305657221743 0 0.0068893731841525889 0.018347749555629525 0 0.0070538379193369246 0.019115077932369245 0 0.0076561449710644573 0.018723127034360416 0 0.0073983201194116012 0.01978414107062542 0 0.0070538379193369246 0.019115077932369245 0 0.0076561449710644573 0.018723127034360416 0 0.00041962311461731292 -0.027892105573392622 0 0.00079936241731645512 -0.029464987566718181 0 0.0012976512523213575 -0.033010379597205208 0 0.0013995680904482347 -0.033153449521431504 0 0.0016842136615529545 -0.032896291585502155 0 0.00060256604794611888 -0.026905072796838757 0 0.0023136950566421833 -0.028951539627864144 0 -0.0001995973355210304 -0.028773839212149849 0 0.0023136950566421833 -0.028951539627864144 0 -0.0001995973355210304 -0.028773839212149849 0 0.00075040315773458577 -0.030592626820320476 0 0.00060256604794611888 -0.026905072796838757 0 -0.0010414862400741809 -0.026642420263703896 0 -0.0001995973355210304 -0.028773839212149849 0 -0.0004030626162997649 -0.030147143849502282 0 -0.00022649986266836696 -0.030989548730193009 0 0.00075040315773458577 -0.030592626820320476 0 -0.0001995973355210304 -0.028773839212149849 0 -0.0004030626162997649 -0.030147143849502282 0 0.00075040315773458577 -0.030592626820320476 0 -0.00069953626932440149 -0.030543734241873191 0 -0.0004030626162997649 -0.030147143849502282 0 -0.00022649986266836696 -0.030989548730193009 0 -0.00079212113494278472 -0.031478958841307733 0 -0.00015222602717388181 -0.031432467704905438 0 0.00035560471203154921 -0.031928112052915444 0 -0.00022649986266836696 -0.030989548730193009 0 0.00026105359511949592 -0.031375775732855604 0 0.00075040315773458577 -0.030592626820320476 0 -0.00079212113494278472 -0.031478958841307733 0 -0.00022649986266836696 -0.030989548730193009 0 -0.00015222602717388181 -0.031432467704905438 0 -0.00022649986266836696 -0.030989548730193009 0 -0.00015222602717388181 -0.031432467704905438 0 0.00026105359511949592 -0.031375775732855604 0 -0.00015222602717388181 -0.031432467704905438 0 0.00026105359511949592 -0.031375775732855604 0 0.00035560471203154921 -0.031928112052915444 0 0.00095909860572279682 -0.031743049367533041 0 0.00075040315773458577 -0.030592626820320476 0 0.001672886026492972 -0.032175690266135051 0 0.00026105359511949592 -0.031375775732855604 0 0.00095909860572279682 -0.031743049367533041 0 0.00075040315773458577 -0.030592626820320476 0 0.0023136950566421833 -0.028951539627864144 0 0.00075040315773458577 -0.030592626820320476 0 0.001672886026492972 -0.032175690266135051 0 0.0012854961025782657 -0.032744087027871328 0 0.0016842136615529545 -0.032896291585502155 0 0.001672886026492972 -0.032175690266135051 0 0.00079936241731645512 -0.029464987566718181 0 0.00091112007197331226 -0.030036461022593875 0 0.0014070348862280197 -0.032493628320901094 0 0.0014135127586462788 -0.032567300764781794 0 0.001672886026492972 -0.032175690266135051 0 0.00095909860572279682 -0.031743049367533041 0 0.001672886026492972 -0.032175690266135051 0 0.001295793347896536 -0.032427572450020703 0 0.0014135127586462788 -0.032567300764781794 0 0.001295793347896536 -0.032427572450020703 0 0.0011996628898610271 -0.032780927043362967 0 0.0014135127586462788 -0.032567300764781794 0 0.001672886026492972 -0.032175690266135051 0 0.001295793347896536 -0.032427572450020703 0 0.0093856711809573844 0.018158334578644228 0 0.010858818263854084 0.015932897748443083 0 0.0095819603643470062 0.017151061139037742 0 -0.00079212113494278472 -0.031478958841307733 0 0.00035560471203154921 -0.031928112052915444 0 0.0010741122417322671 -0.033051813147359527 0 0.0009252764775838009 -0.03244496284013812 0 0.00035560471203154921 -0.031928112052915444 0 0.0010741122417322671 -0.033051813147359527 0 0.0049038962229388623 -0.0041654760755922612 0 0.0060832929705435775 -0.0022973691888791073 0 0.001295793347896536 -0.032427572450020703 0 0.0009252764775838009 -0.03244496284013812 0 0.0011996628898610271 -0.032780927043362967 0 0.001295793347896536 -0.032427572450020703 0 0.0009252764775838009 -0.03244496284013812 0 0.00085262946701575716 -0.032111728874340419 0 0.00095909860572279682 -0.031743049367533041 0 0.001295793347896536 -0.032427572450020703 0 0.00085262946701575716 -0.032111728874340419 0 0.0009252764775838009 -0.03244496284013812 0 0.00085262946701575716 -0.032111728874340419 0 0.00035560471203154921 -0.031928112052915444 0 0.00026105359511949592 -0.031375775732855604 0 0.00095909860572279682 -0.031743049367533041 0 0.00035560471203154921 -0.031928112052915444 0 0.00095909860572279682 -0.031743049367533041 0 0.00085262946701575716 -0.032111728874340419 0 0.00035560471203154921 -0.031928112052915444 0 0.010858818263854084 0.015932897748443083 0 0.0096076431113374557 0.016554366367106953 0 0.0095819603643470062 0.017151061139037742 0 0.010858818263854084 0.015932897748443083 0 0.0096076431113374557 0.016554366367106953 0 0.0096059385558726843 0.015635760272500979 0 0.0009252764775838009 -0.03244496284013812 0 0.0010741122417322671 -0.033051813147359527 0 0.0011996628898610271 -0.032780927043362967 0 0.001263259408743718 -0.032726088049555527 0 0.0011996628898610271 -0.032780927043362967 0 0.001339698985556794 -0.032629384076007489 0 0.0060832929705435775 -0.0022973691888791073 0 0.0059298612816143376 -0.0025402695393007316 0 0.0071600998708862282 -0.0066453092650076533 0 0.0060832929705435775 -0.0022973691888791073 0 0.001403735183537338 -0.032506814687545744 0 0.001263259408743718 -0.032726088049555527 0 0.001339698985556794 -0.032629384076007489 0 0.0014135127586462788 -0.032567300764781794 0 0.0011996628898610271 -0.032780927043362967 0 0.001339698985556794 -0.032629384076007489 0 0.0013249763557521711 -0.032539169392850634 0 0.0013490081820109285 -0.032583575109813911 0 0.001339698985556794 -0.032629384076007489 0 0.0013490081820109285 -0.032583575109813911 0 0.0014135127586462788 -0.032567300764781794 0 0.001339698985556794 -0.032629384076007489 0 0.0082661461326857914 0.017073580848733765 0 0.0073339015369444302 0.016895665995121878 0 0.0087333843852348964 0.016194248405620192 0 0.0068893731841525889 0.018347749555629525 0 0.0073339015369444302 0.016895665995121878 0 0.0081276422843489116 0.017878305657221743 0 0.0082661461326857914 0.017073580848733765 0 0.0073339015369444302 0.016895665995121878 0 0.0081276422843489116 0.017878305657221743 0 0.0087171093227712253 0.017949814483589524 0 0.0081276422843489116 0.017878305657221743 0 0.0089134606221090741 0.017298214110376173 0 0.0082661461326857914 0.017073580848733765 0 0.0081276422843489116 0.017878305657221743 0 0.0089134606221090741 0.017298214110376173 0 0.0087171093227712253 0.017949814483589524 0 0.0089134606221090741 0.017298214110376173 0 0.0091655876719798236 0.017806790861273139 0 0.0093856711809573844 0.018158334578644228 0 0.0091655876719798236 0.017806790861273139 0 0.0095819603643470062 0.017151061139037742 0 0.0089134606221090741 0.017298214110376173 0 0.0091655876719798236 0.017806790861273139 0 0.0095819603643470062 0.017151061139037742 0 0.0089134606221090741 0.017298214110376173 0 0.0096076431113374557 0.016554366367106953 0 0.0087333843852348964 0.016194248405620192 0 0.0089134606221090741 0.017298214110376173 0 0.0096076431113374557 0.016554366367106953 0 0.0095819603643470062 0.017151061139037742 0 0.0082661461326857914 0.017073580848733765 0 0.0089134606221090741 0.017298214110376173 0 0.0087333843852348964 0.016194248405620192 0 0.0092228156978337653 0.013840746443567545 0 0.0087333843852348964 0.016194248405620192 0 0.0096059385558726843 0.015635760272500979 0 0.0092228156978337653 0.013840746443567545 0 0.010858818263854084 0.015932897748443083 0 0.0096059385558726843 0.015635760272500979 0 0.0092228156978337653 0.013840746443567545 0 0.0087333843852348964 0.016194248405620192 0 0.0075756795336813267 0.015276861911873441 0 0.0096076431113374557 0.016554366367106953 0 0.0087333843852348964 0.016194248405620192 0 0.0096059385558726843 0.015635760272500979 0 0.0073339015369444302 0.016895665995121878 0 0.0087333843852348964 0.016194248405620192 0 0.0075756795336813267 0.015276861911873441 0 0.0073339015369444302 0.016895665995121878 0 0.0075756795336813267 0.015276861911873441 0 0.0059174437459554637 0.015600202230805585 0 0.0073339015369444302 0.016895665995121878 0 0.0059174437459554637 0.015600202230805585 0 0.0053085152857595842 0.01745266407538722 0 0.0068893731841525889 0.018347749555629525 0 0.0073339015369444302 0.016895665995121878 0 0.0053085152857595842 0.01745266407538722 0 0.0053085152857595842 0.01745266407538722 0 0.003915695999150804 0.016615354297471512 0 0.0031585996125470211 0.018279197079867124 0 0.0045141179796524744 0.015104139981481506 0 0.0059174437459554637 0.015600202230805585 0 0.003915695999150804 0.016615354297471512 0 0.0059174437459554637 0.015600202230805585 0 0.0053085152857595842 0.01745266407538722 0 0.003915695999150804 0.016615354297471512 0 0.003915695999150804 0.016615354297471512 0 0.0026661102040258554 0.015710603919276582 0 0.0021062636527676378 0.017628636829452541 0 0.0045141179796524744 0.015104139981481506 0 0.003915695999150804 0.016615354297471512 0 0.0026661102040258554 0.015710603919276582 0 0.0026661102040258554 0.015710603919276582 0 0.00090878012205677504 0.015833316943735756 0 0.0021062636527676378 0.017628636829452541 0 0.0016353818595410737 0.014790138757366501 0 0.0026661102040258554 0.015710603919276582 0 0.00090878012205677504 0.015833316943735756 0 0.00093812560602423919 0.016168151837005856 0 0.0010791476353405548 0.016405091494047317 0 0.0019213235699709356 0.017562723221237149 0 0.0021062636527676378 0.017628636829452541 0 0.0017746786293723075 0.017871230097544974 0 0.0021062636527676378 0.017628636829452541 0 0.0017746786293723075 0.017871230097544974 0 0.0018299450521922496 0.018657736332718007 0 0.0021062636527676378 0.017628636829452541 0 0.0031585996125470211 0.018279197079867124 0 0.0018299450521922496 0.018657736332718007 0 0.003915695999150804 0.016615354297471512 0 0.0021062636527676378 0.017628636829452541 0 0.0031585996125470211 0.018279197079867124 0 0.0031585996125470211 0.018279197079867124 0 0.0025582826912371919 0.019486971962308287 0 0.0043943503459512815 0.019157643629430093 0 0.0033770211168741757 0.019482803902051957 0 0.0045703814591746888 0.019107925001357433 0 0.0031585996125470211 0.018279197079867124 0 0.0025582826912371919 0.019486971962308287 0 0.0018299450521922496 0.018657736332718007 0 0.0037507810614085969 0.019485992725191383 0 0.0023177684409100524 0.019984961416930565 0 0.00328467010070375 0.020756585465673959 0 0.0037507810614085969 0.019485992725191383 0 0.0052349670581861782 0.018971234310854859 0 0.004611939071939037 0.020607207886891361 0 0.0055504939627831233 0.020019473098461811 0 0.0063320818922677352 0.019588370128461943 0 0.0052349670581861782 0.018971234310854859 0 0.0055504939627831233 0.020019473098461811 0 0.0052349670581861782 0.018971234310854859 0 0.004611939071939037 0.020607207886891361 0 0.0073983201194116012 0.01978414107062542 0 0.0063320818922677352 0.019588370128461943 0 0.0060361457201077362 0.020883587030288451 0 0.0055504939627831233 0.020019473098461811 0 0.0063320818922677352 0.019588370128461943 0 0.0060361457201077362 0.020883587030288451 0 0.0068893731841525889 0.018347749555629525 0 0.0070538379193369246 0.019115077932369245 0 0.0063320818922677352 0.019588370128461943 0 0.0068893731841525889 0.018347749555629525 0 0.0063320818922677352 0.019588370128461943 0 0.0052349670581861782 0.018971234310854859 0 0.0068893731841525889 0.018347749555629525 0 0.0053085152857595842 0.01745266407538722 0 0.0043943503459512815 0.019157643629430093 0 0.0052495365060269937 0.018893047505940706 0 0.0045703814591746888 0.019107925001357433 0 0.0053085152857595842 0.01745266407538722 0 0.0031585996125470211 0.018279197079867124 0 0.0043943503459512815 0.019157643629430093 0 -0.00063677790570398289 0.019041688622636922 0 5.1077403064735504e-05 0.017979699816165085 0 0.00017411616729443624 0.019334234852096312 0 0.00016094410345213956 0.0174066143201396 0 -0.00036572466282854221 0.017506063669876604 0 5.1077403064735504e-05 0.017979699816165085 0 5.1077403064735504e-05 0.017979699816165085 0 0.00073355092578729852 0.018415243644024328 0 0.00097141668659204332 0.017483088303165854 0 0.00027605759760731494 0.016590453898567708 0 0.0004778129748804338 0.016313868631722024 0 0.00016094410345213956 0.0174066143201396 0 5.1077403064735504e-05 0.017979699816165085 0 0.00095610615310756913 0.017503735524546531 0 5.1077403064735504e-05 0.017979699816165085 0 0.00073355092578729852 0.018415243644024328 0 0.00017411616729443624 0.019334234852096312 0 0.00073355092578729852 0.018415243644024328 0 0.0013366526423745982 0.018204302548110854 0 0.0010780106657990111 0.019174474109619661 0 0.00073355092578729852 0.018415243644024328 0 0.0013366526423745982 0.018204302548110854 0 0.00097141668659204332 0.017483088303165854 0 0.0013366526423745982 0.018204302548110854 0 0.00097141668659204332 0.017483088303165854 0 0.0015709100075034592 0.017641882124970899 0 0.0017233619565884413 0.017122702881021377 0 0.0019213235699709356 0.017562723221237149 0 0.0015709100075034592 0.017641882124970899 0 0.0019213235699709356 0.017562723221237149 0 0.0015709100075034592 0.017641882124970899 0 0.0017746786293723075 0.017871230097544974 0 0.0013366526423745982 0.018204302548110854 0 0.0017746786293723075 0.017871230097544974 0 0.0018299450521922496 0.018657736332718007 0 0.0013366526423745982 0.018204302548110854 0 0.0015709100075034592 0.017641882124970899 0 0.0017746786293723075 0.017871230097544974 0 0.0018299450521922496 0.018657736332718007 0 0.0015644573510554508 0.01982536399829456 0 0.0010780106657990111 0.019174474109619661 0 0.0033770211168741757 0.019482803902051957 0 0.0023093288908659702 0.019831049935541124 0 0.0025582826912371919 0.019486971962308287 0 0.0018299450521922496 0.018657736332718007 0 0.0015644573510554508 0.01982536399829456 0 0.0023093288908659702 0.019831049935541124 0 0.0018019243656636895 0.020005584959749023 0 0.0015644573510554508 0.01982536399829456 0 0.0010780106657990111 0.019174474109619661 0 0.00085494367261899527 0.020482272544951531 0 0.0013366526423745982 0.018204302548110854 0 0.0018299450521922496 0.018657736332718007 0 0.0010780106657990111 0.019174474109619661 0 0.00073355092578729852 0.018415243644024328 0 0.0010780106657990111 0.019174474109619661 0 0.00017411616729443624 0.019334234852096312 0 0.0010780106657990111 0.019174474109619661 0 0.00017411616729443624 0.019334234852096312 0 0.00085494367261899527 0.020482272544951531 0 -0.00073455765870039332 0.019974138203414253 0 0.00017411616729443624 0.019334234852096312 0 -0.00017658738138540559 0.020700346258331403 0 0.00017411616729443624 0.019334234852096312 0 -0.00017658738138540559 0.020700346258331403 0 0.00085494367261899527 0.020482272544951531 0 0.00025150715452883931 0.021774884321736368 0 0.00085494367261899527 0.020482272544951531 0 0.0011969998427025007 0.022320628759284727 0 -0.00049154507665124668 0.021682857929922323 0 0.00025150715452883931 0.021774884321736368 0 -0.00017658738138540559 0.020700346258331403 0 -0.00049154507665124668 0.021682857929922323 0 -0.000270654172318342 0.022490457116000284 0 0.00025150715452883931 0.021774884321736368 0 0.00025150715452883931 0.021774884321736368 0 -0.00017658738138540559 0.020700346258331403 0 0.00085494367261899527 0.020482272544951531 0 0.00085494367261899527 0.020482272544951531 0 0.0019316843181614101 0.021288829039790066 0 0.0011969998427025007 0.022320628759284727 0 0.0019316843181614101 0.021288829039790066 0 0.0020535515874560164 0.022310259153655664 0 0.0011969998427025007 0.022320628759284727 0 0.0023177684409100524 0.019984961416930565 0 0.00085494367261899527 0.020482272544951531 0 0.0019316843181614101 0.021288829039790066 0 0.0023177684409100524 0.019984961416930565 0 0.0019316843181614101 0.021288829039790066 0 0.00328467010070375 0.020756585465673959 0 0.0019316843181614101 0.021288829039790066 0 0.0028571284232490252 0.021878785092064434 0 0.00328467010070375 0.020756585465673959 0 0.0019316843181614101 0.021288829039790066 0 0.0028571284232490252 0.021878785092064434 0 0.0020535515874560164 0.022310259153655664 0 0.0028571284232490252 0.021878785092064434 0 0.0026594003062510177 0.022824885604593854 0 0.0020535515874560164 0.022310259153655664 0 0.0026594003062510177 0.022824885604593854 0 0.0033400696028435496 0.023246708207879781 0 0.0024986889129748105 0.023695644191007639 0 0.0026594003062510177 0.022824885604593854 0 0.0016648724001491224 0.02316568114628749 0 0.0024986889129748105 0.023695644191007639 0 0.0016648724001491224 0.02316568114628749 0 0.0018184686194319261 0.02379174883258052 0 0.0024986889129748105 0.023695644191007639 0 0.0016648724001491224 0.02316568114628749 0 0.00096120238367984384 0.023802088238348371 0 0.0018184686194319261 0.02379174883258052 0 0.0026594003062510177 0.022824885604593854 0 0.0016648724001491224 0.02316568114628749 0 0.0020535515874560164 0.022310259153655664 0 0.0016648724001491224 0.02316568114628749 0 0.0020535515874560164 0.022310259153655664 0 0.0011969998427025007 0.022320628759284727 0 0.0016648724001491224 0.02316568114628749 0 0.0011969998427025007 0.022320628759284727 0 0.00046134577457332014 0.023086251159333764 0 0.00025150715452883931 0.021774884321736368 0 0.0011969998427025007 0.022320628759284727 0 0.00046134577457332014 0.023086251159333764 0 0.0016648724001491224 0.02316568114628749 0 0.00046134577457332014 0.023086251159333764 0 0.00096120238367984384 0.023802088238348371 0 -0.00030005400703828061 0.023458983889578251 0 -1.8805575097123496e-06 0.024057194711837343 0 0.00046134577457332014 0.023086251159333764 0 -0.000270654172318342 0.022490457116000284 0 0.00025150715452883931 0.021774884321736368 0 0.00046134577457332014 0.023086251159333764 0 -0.00030005400703828061 0.023458983889578251 0 -0.000270654172318342 0.022490457116000284 0 0.00046134577457332014 0.023086251159333764 0 0.0048915596299947744 0.021884040834013688 0 0.0060001197327986837 0.021553498981651455 0 0.0061379996017888513 0.020525059135376229 0 0.0048915596299947744 0.021884040834013688 0 0.0060361457201077362 0.020883587030288451 0 0.004611939071939037 0.020607207886891361 0 0.0060047398895880346 0.020921253621167781 0 0.0064522576239738972 0.020481865953761908 0 0.0070391533552110301 0.021091058744984771 0 0.0060001197327986837 0.021553498981651455 0 0.0061040626465188033 0.021871720923657415 0 0.0070391533552110301 0.021091058744984771 0 0.0064786553868672334 0.020951823062652836 0 0.0067329848864818046 0.020629415328347233 0 0.0070391533552110301 0.021091058744984771 0 0.0060001197327986837 0.021553498981651455 0 0.0064786553868672334 0.020951823062652836 0 0.0060001197327986837 0.021553498981651455 0 0.0064786553868672334 0.020951823062652836 0 0.0061379996017888513 0.020525059135376229 0 0.0070857984282045308 0.020158985015241288 0 0.0075939177502898723 0.019214764290739018 0 0.0061379996017888513 0.020525059135376229 0 0.0072714738495655174 0.019693886132911387 0 0.0064522576239738972 0.020481865953761908 0 0.0070857984282045308 0.020158985015241288 0 0.0061379996017888513 0.020525059135376229 0 0.0067329848864818046 0.020629415328347233 0 0.0064786553868672334 0.020951823062652836 0 0.0061379996017888513 0.020525059135376229 0 0.0067329848864818046 0.020629415328347233 0 0.0070391533552110301 0.021091058744984771 0 0.0070857984282045308 0.020158985015241288 0 0.0067329848864818046 0.020629415328347233 0 0.0055504939627831233 0.020019473098461811 0 0.0060361457201077362 0.020883587030288451 0 0.004611939071939037 0.020607207886891361 0 0.0037507810614085969 0.019485992725191383 0 0.004611939071939037 0.020607207886891361 0 0.00328467010070375 0.020756585465673959 0 0.004611939071939037 0.020607207886891361 0 0.00328467010070375 0.020756585465673959 0 0.003944134607770225 0.021715683456426434 0 0.0028571284232490252 0.021878785092064434 0 0.00328467010070375 0.020756585465673959 0 0.003944134607770225 0.021715683456426434 0 0.0048915596299947744 0.021884040834013688 0 0.004611939071939037 0.020607207886891361 0 0.003944134607770225 0.021715683456426434 0 0.0048915596299947744 0.021884040834013688 0 0.003944134607770225 0.021715683456426434 0 0.004605386988859473 0.022539333179338962 0 0.003944134607770225 0.021715683456426434 0 0.004605386988859473 0.022539333179338962 0 0.0035866296461636317 0.02260443647005525 0 0.004605386988859473 0.022539333179338962 0 0.0035866296461636317 0.02260443647005525 0 0.0040551848323143371 0.023162896551161622 0 0.0028571284232490252 0.021878785092064434 0 0.003944134607770225 0.021715683456426434 0 0.0035866296461636317 0.02260443647005525 0 0.0028571284232490252 0.021878785092064434 0 0.0026594003062510177 0.022824885604593854 0 0.0035866296461636317 0.02260443647005525 0 0.0033400696028435496 0.023246708207879781 0 0.003942080372686404 0.023914190216633692 0 0.0024986889129748105 0.023695644191007639 0 0.0026594003062510177 0.022824885604593854 0 0.0035866296461636317 0.02260443647005525 0 0.0033400696028435496 0.023246708207879781 0 0.0035866296461636317 0.02260443647005525 0 0.0033400696028435496 0.023246708207879781 0 0.0040551848323143371 0.023162896551161622 0 0.0033400696028435496 0.023246708207879781 0 0.0040551848323143371 0.023162896551161622 0 0.003942080372686404 0.023914190216633692 0 0.004605386988859473 0.022539333179338962 0 0.0040551848323143371 0.023162896551161622 0 0.0047741964387270196 0.023377539499558137 0 0.00055643183163223294 0.010333379047067052 0 0.0012987454211218837 0.0072113550547525159 0 0.0040551848323143371 0.023162896551161622 0 0.0047741964387270196 0.023377539499558137 0 0.003942080372686404 0.023914190216633692 0 -0.007389654845162138 -0.019573965574008714 0 -0.0075565843034617625 -0.017139447524582217 0 -0.0096864412745598788 -0.015482613922411742 0 -0.0013501894239961046 -0.00098284754246978179 0 -0.002589207117902522 -0.002644831026558029 0 0.004605386988859473 0.022539333179338962 0 0.0047741964387270196 0.023377539499558137 0 0.0056361367926440215 0.022786007633056628 0 0.0056361367926440215 0.022786007633056628 0 0.0059580897814481698 0.022619025802020166 0 0.0052472193616887623 0.023589883374169018 0 0.0050044281433946434 0.023139423212658848 0 0.0056361367926440215 0.022786007633056628 0 0.0052472193616887623 0.023589883374169018 0 0.00055643183163223294 0.010333379047067052 0 0.00044667844082788493 0.011249277451129141 0 0.0048915596299947744 0.021884040834013688 0 0.0060001197327986837 0.021553498981651455 0 0.0054702396384290067 0.022216842983948857 0 0.004605386988859473 0.022539333179338962 0 0.0056361367926440215 0.022786007633056628 0 0.0054702396384290067 0.022216842983948857 0 0.0056361367926440215 0.022786007633056628 0 0.0054702396384290067 0.022216842983948857 0 0.0059580897814481698 0.022619025802020166 0 0.0060001197327986837 0.021553498981651455 0 0.0054702396384290067 0.022216842983948857 0 0.0061040626465188033 0.021871720923657415 0 0.0048915596299947744 0.021884040834013688 0 0.004605386988859473 0.022539333179338962 0 0.0054702396384290067 0.022216842983948857 0 0.0007155862960321731 -0.0019521849387669032 0 -0.0013501894239961046 -0.00098284754246978179 0 -0.0050815936557699155 -0.020680432073736241 0 -0.0052274725841906381 -0.023778194327344796 0 -0.007389654845162138 -0.019573965574008714 0 0.0070391533552110301 0.021091058744984771 0 0.0061040626465188033 0.021871720923657415 0 0.0059580897814481698 0.022619025802020166 0 0.0054702396384290067 0.022216842983948857 0 0.0061040626465188033 0.021871720923657415 0 0.0059580897814481698 0.022619025802020166 0 -0.0050815936557699155 -0.020680432073736241 0 -0.007389654845162138 -0.019573965574008714 0 -0.0057654389484234044 -0.018517847228412154 0 -0.007389654845162138 -0.019573965574008714 0 -0.0057654389484234044 -0.018517847228412154 0 -0.0075565843034617625 -0.017139447524582217 0 -0.0047164916997293775 -0.017208834990216231 0 -0.0057665695652907266 -0.017012611033267941 0 -0.0050282626110293126 -0.015177082176510391 0 -0.0075565843034617625 -0.017139447524582217 0 -0.0057665695652907266 -0.017012611033267941 0 -0.0050282626110293126 -0.015177082176510391 0 -0.0047164916997293775 -0.017208834990216231 0 -0.0057654389484234044 -0.018517847228412154 0 -0.0057665695652907266 -0.017012611033267941 0 -0.0057654389484234044 -0.018517847228412154 0 -0.0075565843034617625 -0.017139447524582217 0 -0.0057665695652907266 -0.017012611033267941 0 -0.0075565843034617625 -0.017139447524582217 0 -0.0096864412745598788 -0.015482613922411742 0 -0.0050282626110293126 -0.015177082176510391 0 -0.002589207117902522 -0.002644831026558029 0 -0.0030724000275044547 -0.0065545447825926147 0 -0.0018900994068446291 -0.014155496542704576 0 -0.0020516448071019149 -0.014399796844934887 0 -0.0013719834764228352 -0.014850239660503623 0 -0.0014134152455112855 -0.014354269211032087 0 -0.0018900994068446291 -0.014155496542704576 0 -0.0013719834764228352 -0.014850239660503623 0 -0.0018900994068446291 -0.014155496542704576 0 -0.001582856749594342 -0.014044291447206347 0 -0.001897970905239005 -0.013834683117513884 0 -0.0014134152455112855 -0.014354269211032087 0 -0.001582856749594342 -0.014044291447206347 0 -0.0012156645256810425 -0.014074165303308751 0 -0.0014134152455112855 -0.014354269211032087 0 -0.0018900994068446291 -0.014155496542704576 0 -0.001582856749594342 -0.014044291447206347 0 -0.0018900994068446291 -0.014155496542704576 0 -0.0023558598181752108 -0.014078055194236726 0 -0.0022747636095324063 -0.013758822100007775 0 -0.0020981447019877493 -0.013104911101211331 0 -0.0020417937433148095 -0.012870905977550098 0 -0.0018900994068446291 -0.014155496542704576 0 -0.0020516448071019149 -0.014399796844934887 0 -0.0023558598181752108 -0.014078055194236726 0 -0.0020516448071019149 -0.014399796844934887 0 -0.0022227621982986038 -0.014830142456222623 0 -0.0013719834764228352 -0.014850239660503623 0 -0.0020516448071019149 -0.014399796844934887 0 -0.0022227621982986038 -0.014830142456222623 0 -0.0023558598181752108 -0.014078055194236726 0 -0.0022557415149492242 -0.013981340939299544 0 -0.0027481136613708539 -0.014043773304914296 0 -0.0028115529927961566 -0.013664601874928298 0 0.0050044281433946434 0.023139423212658848 0 0.0052472193616887623 0.023589883374169018 0 0.0044358926141539728 0.023500445245905173 0 -0.002589207117902522 -0.002644831026558029 0 0.0012987454211218837 0.0072113550547525159 0 0.0012987454211218837 0.0072113550547525159 0 0.002162065533576272 0.0089838743358607032 0 0.0034294990523769963 0.02372695889509174 0 0.0024986889129748105 0.023695644191007639 0 0.0024228931872787036 0.024415865972743128 0 -0.0027481136613708539 -0.014043773304914296 0 -0.0028115529927961566 -0.013664601874928298 0 -0.0034963923311242869 -0.013647786099655057 0 0.0012987454211218837 0.0072113550547525159 0 6.3864013713814898e-05 0.0068998392099305569 0 -0.0028115529927961566 -0.013664601874928298 0 -0.0031306011758277046 -0.013137233846679329 0 -0.0034963923311242869 -0.013647786099655057 0 -0.0028115529927961566 -0.013664601874928298 0 -0.0026133553355273446 -0.013398569046145418 0 -0.0031306011758277046 -0.013137233846679329 0 -0.002589207117902522 -0.002644831026558029 0 -0.0010661949383675622 -0.006933394485825228 0 -0.0022227621982986038 -0.014830142456222623 0 -0.0023558598181752108 -0.014078055194236726 0 -0.0026133553355273446 -0.013398569046145418 0 -0.0023558598181752108 -0.014078055194236726 0 -0.0026133553355273446 -0.013398569046145418 0 -0.0020191888695486604 -0.013053819118506511 0 -0.0022557415149492242 -0.013981340939299544 0 -0.0028115529927961566 -0.013664601874928298 0 -0.0026133553355273446 -0.013398569046145418 0 -0.0026133553355273446 -0.013398569046145418 0 -0.002381481120214737 -0.012822266831657027 0 -0.0020191888695486604 -0.013053819118506511 0 -0.0026133553355273446 -0.013398569046145418 0 -0.002381481120214737 -0.012822266831657027 0 -0.0028417389528797099 -0.012944452184640517 0 -0.002381481120214737 -0.012822266831657027 0 -0.0028417389528797099 -0.012944452184640517 0 -0.0025543868054346093 -0.01247946907550416 0 -0.0026133553355273446 -0.013398569046145418 0 -0.0031306011758277046 -0.013137233846679329 0 -0.0028417389528797099 -0.012944452184640517 0 -0.0028417389528797099 -0.012944452184640517 0 -0.0031499465422262334 -0.012604368833713745 0 -0.0025543868054346093 -0.01247946907550416 0 -0.0031306011758277046 -0.013137233846679329 0 -0.0028417389528797099 -0.012944452184640517 0 -0.0031499465422262334 -0.012604368833713745 0 -0.0031306011758277046 -0.013137233846679329 0 -0.0031499465422262334 -0.012604368833713745 0 -0.0035611073257212898 -0.012627953825838815 0 -0.0023717914472675978 -0.012251646524753714 0 -0.00218415854002938 -0.012290608797445016 0 -0.0027409759593359914 -0.012190260688317502 0 -0.002864220404552515 -0.01144947897545468 0 -0.0016143692078931541 -0.011562646611276267 0 -0.002864220404552515 -0.01144947897545468 0 -0.0016143692078931541 -0.011562646611276267 0 -0.0026356091452528221 -0.010719986896823732 0 -0.0023717914472675978 -0.012251646524753714 0 -0.0020125291812968316 -0.011980366104650133 0 -0.0027409759593359914 -0.012190260688317502 0 -0.002864220404552515 -0.01144947897545468 0 -0.0033542934070382863 -0.012014668032199121 0 -0.0021406350477408227 -0.012123556905037459 0 -0.0021433892200519136 -0.012135138418309196 0 -0.0021066211362421225 -0.01212474864230821 0 -0.00218415854002938 -0.012290608797445016 0 -0.0019089758204870789 -0.01231105359892941 0 -0.002381481120214737 -0.012822266831657027 0 -0.0025543868054346093 -0.01247946907550416 0 -0.0018529252649565286 -0.01228579619900118 0 -0.0021818571277180199 -0.012145889034341373 0 -0.0021406350477408227 -0.012123556905037459 0 -0.0021433892200519136 -0.012135138418309196 0 -0.0020125291812968316 -0.011980366104650133 0 -0.0017659571082039574 -0.011780100140838251 0 -0.0021406350477408227 -0.012123556905037459 0 -0.0021066211362421225 -0.01212474864230821 0 -0.00210130234407517 -0.012102215231742659 0 -0.0021961050219994598 -0.013109992458076375 0 -0.0016607885047734753 -0.013290593543812266 0 -0.0019558963868454957 -0.013524601631628509 0 -0.0019089758204870789 -0.01231105359892941 0 -0.0017659571082039574 -0.011780100140838251 0 -0.0021961050219994598 -0.013109992458076375 0 -0.0013896638477667543 -0.012817039593280172 0 -0.0016607885047734753 -0.013290593543812266 0 -0.0024293028232117825 -0.013044543153849047 0 -0.0014069144030788919 -0.012787766057246288 0 -0.0023160154717585682 -0.012565640739302811 0 -0.0019089758204870789 -0.01231105359892941 0 -0.0015429845241441728 -0.012370837821358992 0 -0.0013896638477667543 -0.012817039593280172 0 -0.0016607885047734753 -0.013290593543812266 0 -0.0010756800751077688 -0.013350692740232177 0 -0.0016607885047734753 -0.013290593543812266 0 -0.0015293160277252517 -0.013688134898660012 0 -0.0019558963868454957 -0.013524601631628509 0 -0.0015293160277252517 -0.013688134898660012 0 -0.001897970905239005 -0.013834683117513884 0 -0.0019558963868454957 -0.013524601631628509 0 -0.0016607885047734753 -0.013290593543812266 0 -0.0015293160277252517 -0.013688134898660012 0 -0.0010756800751077688 -0.013350692740232177 0 -0.001582856749594342 -0.014044291447206347 0 -0.0015293160277252517 -0.013688134898660012 0 -0.0012156645256810425 -0.014074165303308751 0 -0.001582856749594342 -0.014044291447206347 0 -0.0015293160277252517 -0.013688134898660012 0 -0.001897970905239005 -0.013834683117513884 0 -0.0019089758204870789 -0.01231105359892941 0 -0.0020417937433148095 -0.012870905977550098 0 -0.002381481120214737 -0.012822266831657027 0 -0.0018529252649565286 -0.01228579619900118 0 -0.0020191888695486604 -0.013053819118506511 0 -0.0018900994068446291 -0.014155496542704576 0 -0.001897970905239005 -0.013834683117513884 0 -0.0022747636095324063 -0.013758822100007775 0 -0.001897970905239005 -0.013834683117513884 0 -0.0022747636095324063 -0.013758822100007775 0 -0.0019558963868454957 -0.013524601631628509 0 -0.0021961050219994598 -0.013109992458076375 0 -0.0022747636095324063 -0.013758822100007775 0 -0.0019558963868454957 -0.013524601631628509 0 -1.8805575097123496e-06 0.024057194711837343 0 0.00013249445392025504 0.024662077631617638 0 0.00073912487317471468 0.024519612343690409 0 -1.8805575097123496e-06 0.024057194711837343 0 0.00096120238367984384 0.023802088238348371 0 0.00073912487317471468 0.024519612343690409 0 -1.8805575097123496e-06 0.024057194711837343 0 0.00046134577457332014 0.023086251159333764 0 0.00096120238367984384 0.023802088238348371 0 0.00096120238367984384 0.023802088238348371 0 0.00073912487317471468 0.024519612343690409 0 0.0015443288489402633 0.024306129729509983 0 0.00073912487317471468 0.024519612343690409 0 0.0015443288489402633 0.024306129729509983 0 0.0012627291904981979 0.024958451432102537 0 0.0015443288489402633 0.024306129729509983 0 0.0024228931872787036 0.024415865972743128 0 0.0012627291904981979 0.024958451432102537 0 -0.0034963923311242869 -0.013647786099655057 0 -0.0037489435455236421 -0.013082545545793743 0 -0.0051088428085724943 -0.012782705208139292 0 6.3864013713814898e-05 0.0068998392099305569 0 -0.0012233519380118185 0.0073226803393000375 0 0.0015443288489402633 0.024306129729509983 0 0.0018184686194319261 0.02379174883258052 0 0.0024228931872787036 0.024415865972743128 0 0.00096120238367984384 0.023802088238348371 0 0.0015443288489402633 0.024306129729509983 0 0.0018184686194319261 0.02379174883258052 0 0.0018184686194319261 0.02379174883258052 0 0.0024986889129748105 0.023695644191007639 0 0.0024228931872787036 0.024415865972743128 0 -0.0031306011758277046 -0.013137233846679329 0 -0.0034963923311242869 -0.013647786099655057 0 -0.0037489435455236421 -0.013082545545793743 0 -0.0031306011758277046 -0.013137233846679329 0 -0.0037489435455236421 -0.013082545545793743 0 -0.0035611073257212898 -0.012627953825838815 0 -0.0037489435455236421 -0.013082545545793743 0 -0.0035611073257212898 -0.012627953825838815 0 -0.0042293744840815667 -0.01272017908651323 0 -0.0035611073257212898 -0.012627953825838815 0 -0.0033542934070382863 -0.012014668032199121 0 -0.0042293744840815667 -0.01272017908651323 0 -0.0023717914472675978 -0.012251646524753714 0 -0.0025210101349246684 -0.012320629138212816 0 -0.0027409759593359914 -0.012190260688317502 0 -0.0035611073257212898 -0.012627953825838815 0 -0.0033542934070382863 -0.012014668032199121 0 -0.0033542934070382863 -0.012014668032199121 0 -0.0037770573928283375 -0.011498631241556534 0 -0.0042293744840815667 -0.01272017908651323 0 -0.002864220404552515 -0.01144947897545468 0 -0.0033542934070382863 -0.012014668032199121 0 -0.0037770573928283375 -0.011498631241556534 0 -0.002864220404552515 -0.01144947897545468 0 -0.0037770573928283375 -0.011498631241556534 0 -0.0033629796371144362 -0.010928300141568793 0 -0.0025704983565098902 -0.0098010017066811703 0 -0.0025451255446154153 -0.0085810924079393128 0 -0.0037770573928283375 -0.011498631241556534 0 -0.0042293744840815667 -0.01272017908651323 0 -0.0047742475667346207 -0.011148899327637258 0 -0.0037489435455236421 -0.013082545545793743 0 -0.0051088428085724943 -0.012782705208139292 0 -0.0042293744840815667 -0.01272017908651323 0 -0.0051088428085724943 -0.012782705208139292 0 -0.0042293744840815667 -0.01272017908651323 0 -0.0048690156738634598 -0.0099632966374643903 0 -0.0012233519380118185 0.0073226803393000375 0 -0.0023643013064195105 0.0082492363845013631 0 0.00073912487317471468 0.024519612343690409 0 0.0012627291904981979 0.024958451432102537 0 0.00033082898216773231 0.025307847654646016 0 -0.0051088428085724943 -0.012782705208139292 0 -0.0075277671527689462 -0.011083206775969315 0 -0.0048690156738634598 -0.0099632966374643903 0 -0.00013576586802042714 0.024936388012697923 0 0.00013249445392025504 0.024662077631617638 0 0.00033082898216773231 0.025307847654646016 0 0.00013249445392025504 0.024662077631617638 0 0.00073912487317471468 0.024519612343690409 0 0.00033082898216773231 0.025307847654646016 0 -0.00813084981583608 -0.0072436400167730742 0 -0.0070256627362877983 -0.007519451260499934 0 -0.0073762784390833964 -0.0062619369529574257 0 -0.0070256627362877983 -0.007519451260499934 0 -0.0067059526976045863 -0.0066596885534142749 0 -0.0073762784390833964 -0.0062619369529574257 0 -0.00813084981583608 -0.0072436400167730742 0 -0.0070256627362877983 -0.007519451260499934 0 -0.0072965499379464326 -0.0088623160823713288 0 -0.0087062055076222358 -0.0086860407791627819 0 -0.00813084981583608 -0.0072436400167730742 0 -0.0072965499379464326 -0.0088623160823713288 0 -0.0087062055076222358 -0.0086860407791627819 0 -0.0075277671527689462 -0.011083206775969315 0 -0.0072965499379464326 -0.0088623160823713288 0 -0.0075277671527689462 -0.011083206775969315 0 -0.0072965499379464326 -0.0088623160823713288 0 -0.0048690156738634598 -0.0099632966374643903 0 -0.0070256627362877983 -0.007519451260499934 0 -0.0072965499379464326 -0.0088623160823713288 0 -0.0048690156738634598 -0.0099632966374643903 0 -0.0021586471490454935 -0.0054379216660579337 0 -0.0025451255446154153 -0.0085810924079393128 0 -0.0070256627362877983 -0.007519451260499934 0 -0.0058075526950975686 -0.007070427965532507 0 -0.0048690156738634598 -0.0099632966374643903 0 -0.0054014195486697236 -0.0094527166905331913 0 -0.0049272672627745122 -0.0098624916340905051 0 -0.0047742475667346207 -0.011148899327637258 0 -0.0070256627362877983 -0.007519451260499934 0 -0.0058075526950975686 -0.007070427965532507 0 -0.0067059526976045863 -0.0066596885534142749 0 -0.0054014195486697236 -0.0094527166905331913 0 -0.0052040377038741446 -0.0094176017160621222 0 -0.0051187275620895572 -0.0095592281171598022 0 -0.0054014195486697236 -0.0094527166905331913 0 -0.0052040377038741446 -0.0094176017160621222 0 -0.0050733452282444181 -0.0091454055749372199 0 -0.0052040377038741446 -0.0094176017160621222 0 -0.004967765493775542 -0.0094673900896220953 0 -0.0050733452282444181 -0.0091454055749372199 0 -0.0052040377038741446 -0.0094176017160621222 0 -0.004967765493775542 -0.0094673900896220953 0 -0.0051187275620895572 -0.0095592281171598022 0 -0.0054014195486697236 -0.0094527166905331913 0 -0.0051187275620895572 -0.0095592281171598022 0 -0.0049272672627745122 -0.0098624916340905051 0 -0.004967765493775542 -0.0094673900896220953 0 -0.0051187275620895572 -0.0095592281171598022 0 -0.0049272672627745122 -0.0098624916340905051 0 -0.0046970175656351988 -0.0096120436240973751 0 -0.00469184298233847 -0.0092742771821966927 0 -0.0041233389575076112 -0.009367095190166359 0 -0.004967765493775542 -0.0094673900896220953 0 -0.0046970175656351988 -0.0096120436240973751 0 -0.0049272672627745122 -0.0098624916340905051 0 -0.004967765493775542 -0.0094673900896220953 0 -0.0046970175656351988 -0.0096120436240973751 0 -0.00469184298233847 -0.0092742771821966927 0 -0.004967765493775542 -0.0094673900896220953 0 -0.00469184298233847 -0.0092742771821966927 0 -0.0050733452282444181 -0.0091454055749372199 0 -0.0041233389575076112 -0.009367095190166359 0 -0.0043380149836178827 -0.009864396440111169 0 -0.0037341803708285663 -0.0098667131827943309 0 -0.0046970175656351988 -0.0096120436240973751 0 -0.0041233389575076112 -0.009367095190166359 0 -0.0043380149836178827 -0.009864396440111169 0 -0.0043380149836178827 -0.009864396440111169 0 -0.0041517777729543574 -0.010646239670392068 0 -0.0037341803708285663 -0.0098667131827943309 0 -0.0046970175656351988 -0.0096120436240973751 0 -0.0043380149836178827 -0.009864396440111169 0 -0.0049272672627745122 -0.0098624916340905051 0 -0.0043380149836178827 -0.009864396440111169 0 -0.0049272672627745122 -0.0098624916340905051 0 -0.0041517777729543574 -0.010646239670392068 0 -0.0037770573928283375 -0.011498631241556534 0 -0.0047742475667346207 -0.011148899327637258 0 -0.0041517777729543574 -0.010646239670392068 0 -0.0049272672627745122 -0.0098624916340905051 0 -0.0047742475667346207 -0.011148899327637258 0 -0.0041517777729543574 -0.010646239670392068 0 -0.0041517777729543574 -0.010646239670392068 0 -0.0033971448202629829 -0.010333555289763881 0 -0.0037341803708285663 -0.0098667131827943309 0 -0.0041517777729543574 -0.010646239670392068 0 -0.0033629796371144362 -0.010928300141568793 0 -0.0033971448202629829 -0.010333555289763881 0 -0.0037770573928283375 -0.011498631241556534 0 -0.0041517777729543574 -0.010646239670392068 0 -0.0033629796371144362 -0.010928300141568793 0 -0.0033629796371144362 -0.010928300141568793 0 -0.0033971448202629829 -0.010333555289763881 0 -0.0026356091452528221 -0.010719986896823732 0 -0.0027861391986857874 -0.0091801641413499432 0 -0.0025415827986575924 -0.008659201959349442 0 -0.0033971448202629829 -0.010333555289763881 0 -0.0032877724540153956 -0.0094519627157224409 0 -0.0026058239918864789 -0.0088176754879720955 0 -0.0033971448202629829 -0.010333555289763881 0 -0.0037341803708285663 -0.0098667131827943309 0 -0.0032877724540153956 -0.0094519627157224409 0 -0.0041233389575076112 -0.009367095190166359 0 -0.0037341803708285663 -0.0098667131827943309 0 -0.0032877724540153956 -0.0094519627157224409 0 -0.0032877724540153956 -0.0094519627157224409 0 -0.0028838875615983263 -0.0082773139338974851 0 -0.0026058239918864789 -0.0088176754879720955 0 -0.0032877724540153956 -0.0094519627157224409 0 -0.003765770047059407 -0.0087227395803562684 0 -0.0029435150413082657 -0.0080171606142569584 0 -0.0026679937696253188 -0.0079494387432329713 0 -0.0025289014211157374 -0.0074406958793436671 0 -0.0041233389575076112 -0.009367095190166359 0 -0.0032877724540153956 -0.0094519627157224409 0 -0.003765770047059407 -0.0087227395803562684 0 -0.003765770047059407 -0.0087227395803562684 0 -0.0029435150413082657 -0.0080171606142569584 0 -0.0039644379843408878 -0.0080037852822014664 0 -0.0026159896721546856 -0.0065837819764924211 0 -0.0029435150413082657 -0.0080171606142569584 0 -0.0035142377157386679 -0.0072233103100687096 0 -0.0029435150413082657 -0.0080171606142569584 0 -0.0035142377157386679 -0.0072233103100687096 0 -0.0039644379843408878 -0.0080037852822014664 0 -0.0035142377157386679 -0.0072233103100687096 0 -0.0039644379843408878 -0.0080037852822014664 0 -0.0046466265288098276 -0.0073230448411230973 0 -0.0039644379843408878 -0.0080037852822014664 0 -0.0046466265288098276 -0.0073230448411230973 0 -0.0048177326283211806 -0.0082527490263008211 0 -0.0048177326283211806 -0.0082527490263008211 0 -0.0044887339325942362 -0.0087611199845759775 0 -0.0051947302253550149 -0.0087800564502677394 0 -0.003765770047059407 -0.0087227395803562684 0 -0.0039644379843408878 -0.0080037852822014664 0 -0.0044887339325942362 -0.0087611199845759775 0 -0.0039644379843408878 -0.0080037852822014664 0 -0.0048177326283211806 -0.0082527490263008211 0 -0.0044887339325942362 -0.0087611199845759775 0 -0.00469184298233847 -0.0092742771821966927 0 -0.0041233389575076112 -0.009367095190166359 0 -0.0044887339325942362 -0.0087611199845759775 0 -0.0041233389575076112 -0.009367095190166359 0 -0.003765770047059407 -0.0087227395803562684 0 -0.0044887339325942362 -0.0087611199845759775 0 -0.00469184298233847 -0.0092742771821966927 0 -0.0044887339325942362 -0.0087611199845759775 0 -0.0050733452282444181 -0.0091454055749372199 0 -0.0044887339325942362 -0.0087611199845759775 0 -0.0051947302253550149 -0.0087800564502677394 0 -0.0050733452282444181 -0.0091454055749372199 0 -0.0021511440198006566 -0.0047113003096705989 0 -0.0021039091514773204 -0.0048426651980355787 0 -0.0020763535858740949 -0.0048175862632561213 0 -0.0021586471490454935 -0.0054379216660579337 0 -0.0018717663908008901 -0.0041900321348646592 0 -0.0054014195486697236 -0.0094527166905331913 0 -0.0051947302253550149 -0.0087800564502677394 0 -0.0057890185078995089 -0.0083920201594638796 0 -0.0054014195486697236 -0.0094527166905331913 0 -0.0051947302253550149 -0.0087800564502677394 0 -0.0050733452282444181 -0.0091454055749372199 0 -0.0021586471490454935 -0.0054379216660579337 0 -0.0020502003424074542 -0.0042788284575788179 0 -0.0058075526950975686 -0.007070427965532507 0 -0.0067059526976045863 -0.0066596885534142749 0 -0.0067488639171053915 -0.0056886199278962648 0 -0.0018717663908008901 -0.0041900321348646592 0 -0.0020502003424074542 -0.0042788284575788179 0 -0.0048177326283211806 -0.0082527490263008211 0 -0.0051947302253550149 -0.0087800564502677394 0 -0.0057890185078995089 -0.0083920201594638796 0 0.0026017421418714371 0.0007654836388417272 0 0.0023328365375348604 0.001678835868942101 0 0.0022187650221334198 0.00107252060107967 0 0.0017090084328742043 0.0011701053220921347 0 0.0023328365375348604 0.001678835868942101 0 0.0022187650221334198 0.00107252060107967 0 -0.0046466265288098276 -0.0073230448411230973 0 -0.0048177326283211806 -0.0082527490263008211 0 -0.0057890185078995089 -0.0083920201594638796 0 -0.0014934434989727044 -0.0037807760102940235 0 -0.0018717663908008901 -0.0041900321348646592 0 0.0026017421418714371 0.0007654836388417272 0 0.0024011763682695226 0.0012964544488240212 0 0.0026878601136458486 0.0010763052402678751 0 -0.0016551091239996886 -0.0027031714808056721 0 -0.0018717663908008901 -0.0041900321348646592 0 -0.0025514886032862536 -0.0017215834822458663 0 -0.0020502003424074542 -0.0042788284575788179 0 0.0029519765599602694 0.00074642065688434924 0 0.0027618724309863129 0.00075686505299520643 0 0.0026878601136458486 0.0010763052402678751 0 -0.0030488728359319966 0.00081024459102153759 0 -0.0025514886032862536 -0.0017215834822458663 0 -0.0087463509086159411 -0.005494144645944065 0 -0.0076933635087181084 -0.0042908521866046557 0 -0.007667284620529664 -0.0052961706658518114 0 -0.0087463509086159411 -0.005494144645944065 0 -0.007667284620529664 -0.0052961706658518114 0 -0.0073762784390833964 -0.0062619369529574257 0 -0.0087463509086159411 -0.005494144645944065 0 -0.00813084981583608 -0.0072436400167730742 0 -0.0073762784390833964 -0.0062619369529574257 0 -0.007667284620529664 -0.0052961706658518114 0 -0.0067362952548190476 -0.0056781684766454756 0 -0.0073762784390833964 -0.0062619369529574257 0 0.0024011763682695226 0.0012964544488240212 0 0.0026878601136458486 0.0010763052402678751 0 0.0024757102799136598 0.0013643301269532599 0 -0.0076933635087181084 -0.0042908521866046557 0 -0.007667284620529664 -0.0052961706658518114 0 -0.0067362952548190476 -0.0056781684766454756 0 -0.0067059526976045863 -0.0066596885534142749 0 -0.0067488639171053915 -0.0056886199278962648 0 -0.0073762784390833964 -0.0062619369529574257 0 -0.0020502003424074542 -0.0042788284575788179 0 -0.0022592145895092993 -0.0044318889145195202 0 -0.00090654969855812333 -0.0099706435253382082 0 -0.00020351057019371167 -0.0094598652369180924 0 -0.00075741064481161819 -0.0088826392103101854 0 -0.0013236189745529086 -0.010283339183927164 0 -0.0017659571082039574 -0.011780100140838251 0 -0.00090654969855812333 -0.0099706435253382082 0 -0.0016797537197575315 -0.0097963595721070364 0 -0.00075741064481161819 -0.0088826392103101854 0 -0.00090654969855812333 -0.0099706435253382082 0 -0.00020351057019371167 -0.0094598652369180924 0 -0.00054677278151768851 -0.010979928628837253 0 -0.0026485383987349649 -0.011217035028143089 0 -0.0016841455094444501 -0.011512854830952553 0 -0.0018878563282600578 -0.012342148232803848 0 -0.0026485383987349649 -0.011217035028143089 0 -0.0016841455094444501 -0.011512854830952553 0 -0.0015001811360963509 -0.010790731576952298 0 -0.0014069144030788919 -0.012787766057246288 0 -0.0014977878073860031 -0.012137974708602893 0 -0.0023160154717585682 -0.012565640739302811 0 -0.0026485383987349649 -0.011217035028143089 0 -0.0018878563282600578 -0.012342148232803848 0 -0.0030505339181144003 -0.012945787057098425 0 -0.0017005478462085381 -0.011843796493989058 0 -0.0017659571082039574 -0.011780100140838251 0 -0.00090654969855812333 -0.0099706435253382082 0 -0.00054677278151768851 -0.010979928628837253 0 -0.0014096697252497222 -0.01067667355981872 0 -0.0016143692078931541 -0.011562646611276267 0 -0.00054677278151768851 -0.010979928628837253 0 -0.0014096697252497222 -0.01067667355981872 0 -0.0014096697252497222 -0.01067667355981872 0 -0.0026356091452528221 -0.010719986896823732 0 -0.0016797537197575315 -0.0097963595721070364 0 -0.0016143692078931541 -0.011562646611276267 0 -0.0014096697252497222 -0.01067667355981872 0 -0.0026356091452528221 -0.010719986896823732 0 -0.0033971448202629829 -0.010333555289763881 0 -0.0026356091452528221 -0.010719986896823732 0 -0.0024850981714039876 -0.0097298913774908694 0 -0.002864220404552515 -0.01144947897545468 0 -0.0033629796371144362 -0.010928300141568793 0 -0.0026356091452528221 -0.010719986896823732 0 -0.0018359056122111285 -0.0098022647376136574 0 -0.0015656978455086917 -0.009518105797122688 0 -0.0033971448202629829 -0.010333555289763881 0 -0.0024850981714039876 -0.0097298913774908694 0 -0.0026854067388834358 -0.0088468355440562002 0 -0.0026356091452528221 -0.010719986896823732 0 -0.0024850981714039876 -0.0097298913774908694 0 -0.0017073640544112312 -0.0097145576727458889 0 -0.00090654969855812333 -0.0099706435253382082 0 -0.0014096697252497222 -0.01067667355981872 0 -0.0016797537197575315 -0.0097963595721070364 0 -0.0024850981714039876 -0.0097298913774908694 0 -0.0017073640544112312 -0.0097145576727458889 0 -0.002017531357587032 -0.0090740198185127689 0 -0.0015656978455086917 -0.009518105797122688 0 -0.0010963141021854892 -0.0090104333033726447 0 -0.002017531357587032 -0.0090740198185127689 0 -0.0017676921633848772 -0.0084367198777377875 0 -0.00088628175501114848 -0.0087791620217470678 0 -0.0017073640544112312 -0.0097145576727458889 0 -0.002017531357587032 -0.0090740198185127689 0 -0.00088628175501114848 -0.0087791620217470678 0 -0.002017531357587032 -0.0090740198185127689 0 -0.0026854067388834358 -0.0088468355440562002 0 -0.0017676921633848772 -0.0084367198777377875 0 -0.0024850981714039876 -0.0097298913774908694 0 -0.002017531357587032 -0.0090740198185127689 0 -0.0026854067388834358 -0.0088468355440562002 0 -0.0019804470091597018 -0.0075401409842409881 0 -0.0025777960116461348 -0.0072484259263067546 0 -0.0028838875615983263 -0.0082773139338974851 0 -0.0021369306774912636 -0.0078011294345968433 0 -0.0025415827986575924 -0.008659201959349442 0 -0.0020058809132977116 -0.0075358272142730526 0 -0.0026854067388834358 -0.0088468355440562002 0 -0.0017676921633848772 -0.0084367198777377875 0 -0.0019804470091597018 -0.0075401409842409881 0 -0.0028838875615983263 -0.0082773139338974851 0 -0.0026058239918864789 -0.0088176754879720955 0 -0.0021873685016085254 -0.0062332813238051296 0 -0.0025289014211157374 -0.0074406958793436671 0 -0.0020058809132977116 -0.0075358272142730526 0 -0.0017676921633848772 -0.0084367198777377875 0 -0.0015862219401305516 -0.0078315338724725334 0 -0.0017676921633848772 -0.0084367198777377875 0 -0.0011014832704127565 -0.0079898616848078918 0 -0.00088628175501114848 -0.0087791620217470678 0 -0.0017676921633848772 -0.0084367198777377875 0 -0.0015862219401305516 -0.0078315338724725334 0 -0.0011014832704127565 -0.0079898616848078918 0 -0.0013836973572927183 -0.0074968081613600353 0 -0.0015862219401305516 -0.0078315338724725334 0 -0.0011014832704127565 -0.0079898616848078918 0 -0.0010963141021854892 -0.0090104333033726447 0 -0.00082822151423928101 -0.0086851698386048448 0 -0.0011014832704127565 -0.0079898616848078918 0 -0.00088628175501114848 -0.0087791620217470678 0 -0.0001603095290124078 -0.007916049869554664 0 -0.00095479839470434731 -0.0072685532356849139 0 -0.0011014832704127565 -0.0079898616848078918 0 -0.0001603095290124078 -0.007916049869554664 0 -0.00020351057019371167 -0.0094598652369180924 0 -0.00075741064481161819 -0.0088826392103101854 0 0.00014142087781575025 -0.0079740267242215754 0 -0.0026485383987349649 -0.011217035028143089 0 -0.0022804681236421238 -0.0094653920499719758 0 -0.0015001811360963509 -0.010790731576952298 0 -0.0013236189745529086 -0.010283339183927164 0 -0.00082822151423928101 -0.0086851698386048448 0 -0.0022804681236421238 -0.0094653920499719758 0 -0.00073626720891414974 -0.010063708425356322 0 -0.00042698181890017136 -0.0090551187774380419 0 -0.00073626720891414974 -0.010063708425356322 0 -0.00042698181890017136 -0.0090551187774380419 0 0.00047631471658315423 -0.0099998181700339528 0 0.00089409946716665592 -0.00866855552513255 0 -0.00042698181890017136 -0.0090551187774380419 0 0.00047631471658315423 -0.0099998181700339528 0 -0.00073626720891414974 -0.010063708425356322 0 -0.00021292142418333364 -0.010967775185902849 0 0.00047631471658315423 -0.0099998181700339528 0 -0.0022804681236421238 -0.0094653920499719758 0 -0.00073626720891414974 -0.010063708425356322 0 -0.0015001811360963509 -0.010790731576952298 0 -0.00073626720891414974 -0.010063708425356322 0 -0.00021292142418333364 -0.010967775185902849 0 -0.0015001811360963509 -0.010790731576952298 0 -0.0017005478462085381 -0.011843796493989058 0 -0.0015498243454379996 -0.011795982595172564 0 -0.00021292142418333364 -0.010967775185902849 0 -0.0015001811360963509 -0.010790731576952298 0 -0.00069138791105658023 -0.0117088680360864 0 -0.0016841455094444501 -0.011512854830952553 0 -0.0018878563282600578 -0.012342148232803848 0 -0.00069138791105658023 -0.0117088680360864 0 -0.0016841455094444501 -0.011512854830952553 0 -0.0015001811360963509 -0.010790731576952298 0 -0.00069138791105658023 -0.0117088680360864 0 -0.00021292142418333364 -0.010967775185902849 0 -0.00069138791105658023 -0.0117088680360864 0 0.00011637336277169568 -0.011832872278077864 0 -0.00069138791105658023 -0.0117088680360864 0 0.00011637336277169568 -0.011832872278077864 0 -0.00034392128166151206 -0.012524642733472867 0 0.00011637336277169568 -0.011832872278077864 0 -0.00034392128166151206 -0.012524642733472867 0 0.00057751055524945627 -0.012492729282729311 0 -0.0014069144030788919 -0.012787766057246288 0 -0.00034392128166151206 -0.012524642733472867 0 -0.00096425524904662286 -0.012279378685150716 0 -0.0014977878073860031 -0.012137974708602893 0 -0.00069138791105658023 -0.0117088680360864 0 -0.00096425524904662286 -0.012279378685150716 0 -0.00069138791105658023 -0.0117088680360864 0 -0.00034392128166151206 -0.012524642733472867 0 -0.00096425524904662286 -0.012279378685150716 0 -0.0015429845241441728 -0.012370837821358992 0 -0.0012801868642284113 -0.012350493934556684 0 -0.0014069144030788919 -0.012787766057246288 0 -0.0014977878073860031 -0.012137974708602893 0 -0.00096425524904662286 -0.012279378685150716 0 0.0013812658343579423 -0.012311805427382153 0 0.00057751055524945627 -0.012492729282729311 0 0.0010819532893084323 -0.013008667528154091 0 0.0013812658343579423 -0.012311805427382153 0 0.00057751055524945627 -0.012492729282729311 0 0.001009772678797944 -0.011246274203439878 0 0.00011637336277169568 -0.011832872278077864 0 0.00057751055524945627 -0.012492729282729311 0 0.001009772678797944 -0.011246274203439878 0 -0.00021292142418333364 -0.010967775185902849 0 0.00011637336277169568 -0.011832872278077864 0 0.001009772678797944 -0.011246274203439878 0 0.0013812658343579423 -0.012311805427382153 0 0.001009772678797944 -0.011246274203439878 0 0.0016912638060467028 -0.011696092742186462 0 0.0020079692827836755 -0.010888536094925417 0 0.0023260111340266381 -0.010619059645641169 0 0.001009772678797944 -0.011246274203439878 0 0.0016892732898019505 -0.011051958490338432 0 0.0016912638060467028 -0.011696092742186462 0 0.001009772678797944 -0.011246274203439878 0 0.00047631471658315423 -0.0099998181700339528 0 0.0022661648668727101 -0.0097128092312516612 0 -0.00021292142418333364 -0.010967775185902849 0 0.001009772678797944 -0.011246274203439878 0 0.00047631471658315423 -0.0099998181700339528 0 0.00089409946716665592 -0.00866855552513255 0 0.00047631471658315423 -0.0099998181700339528 0 0.0022661648668727101 -0.0097128092312516612 0 0.0029274174268480628 -0.010205066672004564 0 0.0023260111340266381 -0.010619059645641169 0 0.0021715020700657818 -0.010876972373198825 0 0.0016892732898019505 -0.011051958490338432 0 0.0023884779389746306 -0.011211737850040558 0 0.0023884779389746306 -0.011211737850040558 0 0.0021268169854348116 -0.011494259127752147 0 0.0026700703758445617 -0.011665806947780646 0 0.0016892732898019505 -0.011051958490338432 0 0.0021268169854348116 -0.011494259127752147 0 0.0016912638060467028 -0.011696092742186462 0 0.0016892732898019505 -0.011051958490338432 0 0.0023884779389746306 -0.011211737850040558 0 0.0021268169854348116 -0.011494259127752147 0 0.002850320940153602 -0.011138309361635471 0 0.0027693364082841173 -0.011414874767257988 0 0.0029781539986403495 -0.011418480334284485 0 0.0025551144481189129 -0.010986973935967983 0 0.0023884779389746306 -0.011211737850040558 0 0.0026439046310808637 -0.011183228301627574 0 0.002850320940153602 -0.011138309361635471 0 0.0026439046310808637 -0.011183228301627574 0 0.0027693364082841173 -0.011414874767257988 0 0.0023884779389746306 -0.011211737850040558 0 0.0026439046310808637 -0.011183228301627574 0 0.0027693364082841173 -0.011414874767257988 0 0.0023884779389746306 -0.011211737850040558 0 0.0027693364082841173 -0.011414874767257988 0 0.0026700703758445617 -0.011665806947780646 0 0.0027693364082841173 -0.011414874767257988 0 0.0028247757085502166 -0.011643506973733394 0 0.0026700703758445617 -0.011665806947780646 0 0.0027693364082841173 -0.011414874767257988 0 0.0028954854956824059 -0.011554558292149677 0 0.0029781539986403495 -0.011418480334284485 0 0.0028247757085502166 -0.011643506973733394 0 0.0028954854956824059 -0.011554558292149677 0 0.0028960847086207686 -0.011730060601802452 0 0.0027693364082841173 -0.011414874767257988 0 0.0028247757085502166 -0.011643506973733394 0 0.0028954854956824059 -0.011554558292149677 0 0.0030332948066177992 -0.011591133380222393 0 0.0028954854956824059 -0.011554558292149677 0 0.0028960847086207686 -0.011730060601802452 0 0.0030332948066177992 -0.011591133380222393 0 0.0028954854956824059 -0.011554558292149677 0 0.0029781539986403495 -0.011418480334284485 0 0.003232153768681593 -0.011969188327146756 0 0.0028725217163587621 -0.01196011601943341 0 0.0030071313483181249 -0.011785961630024953 0 0.002089652395789602 -0.015158276468551257 0 0.0021584045769223628 -0.015055094113662831 0 0.0028902092667754341 -0.011829232790129792 0 0.0030071313483181249 -0.011785961630024953 0 0.0028960847086207686 -0.011730060601802452 0 0.0028247757085502166 -0.011643506973733394 0 0.0028902092667754341 -0.011829232790129792 0 0.0028960847086207686 -0.011730060601802452 0 0.0026700703758445617 -0.011665806947780646 0 0.0028655430640577365 -0.012152353395619252 0 0.0025213153377020487 -0.012269613753315334 0 0.002089652395789602 -0.015158276468551257 0 0.0020162257587966683 -0.014782501067968719 0 0.0028247757085502166 -0.011643506973733394 0 0.0028902092667754341 -0.011829232790129792 0 0.0026700703758445617 -0.011665806947780646 0 0.0033968677288415921 -0.011966954685790709 0 0.0026700703758445617 -0.011665806947780646 0 0.0028655430640577365 -0.012152353395619252 0 0.002089652395789602 -0.015158276468551257 0 0.0022164330868293556 -0.015286988809050052 0 0.0033968677288415921 -0.011966954685790709 0 0.0028655430640577365 -0.012152353395619252 0 0.0028739061669081525 -0.012667210202407603 0 0.0028655430640577365 -0.012152353395619252 0 0.0025213153377020487 -0.012269613753315334 0 0.0028739061669081525 -0.012667210202407603 0 0.0022961119751762518 -0.017247687967809192 0 0.0023645183545528718 -0.017396508771572967 0 0.0022712804134902929 -0.017449440331538488 0 0.0022961119751762518 -0.017247687967809192 0 0.0022712804134902929 -0.017449440331538488 0 0.0021260799347933403 -0.017441169891821519 0 0.0023645183545528718 -0.017396508771572967 0 0.0023668207967296783 -0.017477659062999456 0 0.0022712804134902929 -0.017449440331538488 0 0.0016912638060467028 -0.011696092742186462 0 0.0021851844187839474 -0.011921521466321154 0 0.0020000689781311076 -0.012393248656387978 0 0.0021268169854348116 -0.011494259127752147 0 0.0016912638060467028 -0.011696092742186462 0 0.0021851844187839474 -0.011921521466321154 0 0.0021268169854348116 -0.011494259127752147 0 0.0026700703758445617 -0.011665806947780646 0 0.0021851844187839474 -0.011921521466321154 0 0.0026700703758445617 -0.011665806947780646 0 0.0021851844187839474 -0.011921521466321154 0 0.0025213153377020487 -0.012269613753315334 0 0.0025213153377020487 -0.012269613753315334 0 0.0020000689781311076 -0.012393248656387978 0 0.0024071165311298662 -0.01284590572931747 0 0.0021851844187839474 -0.011921521466321154 0 0.0025213153377020487 -0.012269613753315334 0 0.0020000689781311076 -0.012393248656387978 0 0.0025213153377020487 -0.012269613753315334 0 0.0024071165311298662 -0.01284590572931747 0 0.0028739061669081525 -0.012667210202407603 0 0.0013812658343579423 -0.012311805427382153 0 0.0020000689781311076 -0.012393248656387978 0 0.0016909136899548346 -0.012821457189432938 0 0.0013812658343579423 -0.012311805427382153 0 0.0016912638060467028 -0.011696092742186462 0 0.0020000689781311076 -0.012393248656387978 0 0.0020000689781311076 -0.012393248656387978 0 0.0016909136899548346 -0.012821457189432938 0 0.0024071165311298662 -0.01284590572931747 0 0.0016909136899548346 -0.012821457189432938 0 0.0024071165311298662 -0.01284590572931747 0 0.0015804613095645099 -0.013653470070970994 0 0.0018180453440993329 -0.013498939698936918 0 0.0014964578788033394 -0.013808923830768396 0 0.0024071165311298662 -0.01284590572931747 0 0.0025210826875262087 -0.013448724860575446 0 0.0028739061669081525 -0.012667210202407603 0 0.0020056770965184746 -0.015771364739064195 0 0.0022164330868293556 -0.015286988809050052 0 0.0019455581028256625 -0.017632207523915148 0 0.0021260799347933403 -0.017441169891821519 0 0.002097715150335445 -0.017608043007963568 0 0.0019455581028256625 -0.017632207523915148 0 0.002049867967333749 -0.01772851589720572 0 0.0019401952674215235 -0.017796282265255897 0 0.0019455581028256625 -0.017632207523915148 0 0.002049867967333749 -0.01772851589720572 0 0.002097715150335445 -0.017608043007963568 0 0.0024071165311298662 -0.01284590572931747 0 0.0025210826875262087 -0.013448724860575446 0 0.0019981891423539728 -0.013560925302425799 0 0.0025210826875262087 -0.013448724860575446 0 0.0019981891423539728 -0.013560925302425799 0 0.0021775099008560636 -0.014496944444019638 0 0.0023299813938202699 -0.017550650852020015 0 0.0023668207967296783 -0.017477659062999456 0 0.0022712804134902929 -0.017449440331538488 0 0.0023299813938202699 -0.017550650852020015 0 0.0022036607687023328 -0.017562669229498104 0 0.0022885549827057301 -0.01764616862620115 0 0.0023299813938202699 -0.017550650852020015 0 0.0022712804134902929 -0.017449440331538488 0 0.0022036607687023328 -0.017562669229498104 0 0.0022036607687023328 -0.017562669229498104 0 0.0021260799347933403 -0.017441169891821519 0 0.002097715150335445 -0.017608043007963568 0 0.0022712804134902929 -0.017449440331538488 0 0.0022036607687023328 -0.017562669229498104 0 0.0021260799347933403 -0.017441169891821519 0 0.002049867967333749 -0.01772851589720572 0 0.0021629336977466809 -0.017677952832666814 0 0.0021475008425310533 -0.017789983499776573 0 0.002049867967333749 -0.01772851589720572 0 0.002097715150335445 -0.017608043007963568 0 0.0021629336977466809 -0.017677952832666814 0 0.0022036607687023328 -0.017562669229498104 0 0.0021629336977466809 -0.017677952832666814 0 0.0022885549827057301 -0.01764616862620115 0 0.0022036607687023328 -0.017562669229498104 0 0.002097715150335445 -0.017608043007963568 0 0.0021629336977466809 -0.017677952832666814 0 0.0021629336977466809 -0.017677952832666814 0 0.0022885549827057301 -0.01764616862620115 0 0.0022615835983795371 -0.017775315909148732 0 0.0023849091010480741 -0.017708149433804322 0 0.0022885549827057301 -0.01764616862620115 0 0.0022615835983795371 -0.017775315909148732 0 0.0023793580066471922 -0.017613336999189697 0 0.0023299813938202699 -0.017550650852020015 0 0.0022885549827057301 -0.01764616862620115 0 0.0023849091010480741 -0.017708149433804322 0 0.0023793580066471922 -0.017613336999189697 0 0.0022885549827057301 -0.01764616862620115 0 0.0023797069805132718 -0.01787627215442816 0 0.0023849091010480741 -0.017708149433804322 0 0.0022615835983795371 -0.017775315909148732 0 0.0023797069805132718 -0.01787627215442816 0 0.0022615835983795371 -0.017775315909148732 0 0.0021986737708405099 -0.01790561270055463 0 0.0022615835983795371 -0.017775315909148732 0 0.0021475008425310533 -0.017789983499776573 0 0.0021986737708405099 -0.01790561270055463 0 0.0021629336977466809 -0.017677952832666814 0 0.0022615835983795371 -0.017775315909148732 0 0.0021475008425310533 -0.017789983499776573 0 0.002049867967333749 -0.01772851589720572 0 0.0021475008425310533 -0.017789983499776573 0 0.0020637787671252653 -0.017866948004409942 0 0.0021475008425310533 -0.017789983499776573 0 0.0021986737708405099 -0.01790561270055463 0 0.0020637787671252653 -0.017866948004409942 0 0.0022271182604946516 -0.018122190106209187 0 0.0021012200272193275 -0.018021015834731306 0 0.0021986737708405099 -0.01790561270055463 0 0.0021012200272193275 -0.018021015834731306 0 0.0021986737708405099 -0.01790561270055463 0 0.0020637787671252653 -0.017866948004409942 0 0.0023916831762012414 -0.02427558439750898 0 0.0021685241181785692 -0.025517258337773074 0 0.0023797069805132718 -0.01787627215442816 0 0.0022271182604946516 -0.018122190106209187 0 0.0021986737708405099 -0.01790561270055463 0 0.0020309688469956366 -0.031623505202399795 0 0.0017078574691367409 -0.030848860998100532 0 0.000665195930875289 -0.032510346330444063 0 0.0020056770965184746 -0.015771364739064195 0 0.0015886831966202158 -0.016478642071675906 0 0.0019455581028256625 -0.017632207523915148 0 0.0017498175797336069 -0.017819703979242717 0 0.0019401952674215235 -0.017796282265255897 0 0.0017498175797336069 -0.017819703979242717 0 0.0019401952674215235 -0.017796282265255897 0 0.0019009613681856127 -0.017939301481555151 0 0.002049867967333749 -0.01772851589720572 0 0.0019401952674215235 -0.017796282265255897 0 0.0020637787671252653 -0.017866948004409942 0 0.0019401952674215235 -0.017796282265255897 0 0.0020637787671252653 -0.017866948004409942 0 0.0019009613681856127 -0.017939301481555151 0 0.0019577256300911967 -0.018149232494453806 0 0.0021012200272193275 -0.018021015834731306 0 0.0019009613681856127 -0.017939301481555151 0 0.0021012200272193275 -0.018021015834731306 0 0.0020637787671252653 -0.017866948004409942 0 0.0019009613681856127 -0.017939301481555151 0 0.0017498175797336069 -0.017819703979242717 0 0.0019009613681856127 -0.017939301481555151 0 0.0017202667596370905 -0.017942021887715914 0 0.0018146971282577849 -0.018061051909430224 0 0.0019577256300911967 -0.018149232494453806 0 0.0019009613681856127 -0.017939301481555151 0 0.0018146971282577849 -0.018061051909430224 0 0.0019009613681856127 -0.017939301481555151 0 0.0017202667596370905 -0.017942021887715914 0 0.0018146971282577849 -0.018061051909430224 0 0.0016416382468793895 -0.018041720878525836 0 0.0017202667596370905 -0.017942021887715914 0 0.00093818985190704705 -0.017418380994069962 0 0.0015886831966202158 -0.016478642071675906 0 0.0014470758826233749 -0.01788722267074562 0 0.0016416382468793895 -0.018041720878525836 0 0.0017202667596370905 -0.017942021887715914 0 0.0014470758826233749 -0.01788722267074562 0 0.0017498175797336069 -0.017819703979242717 0 0.0017202667596370905 -0.017942021887715914 0 0.0014024752132828233 -0.016379269418892329 0 0.0021775099008560636 -0.014496944444019638 0 0.0010561040664756826 -0.015403923116361915 0 0.0021775099008560636 -0.014496944444019638 0 0.0010465024457989602 -0.01446576100986807 0 0.0010561040664756826 -0.015403923116361915 0 0.0014964578788033394 -0.013808923830768396 0 0.00081252379985573015 -0.014447079516861912 0 0.0019981891423539728 -0.013560925302425799 0 0.0021775099008560636 -0.014496944444019638 0 0.0010465024457989602 -0.01446576100986807 0 0.00076910285507509983 -0.014452491801058986 0 -0.00065635411830196647 -0.015377704166948586 0 -0.00028655321381161207 -0.014371853700805445 0 0.00076910285507509983 -0.014452491801058986 0 -0.00028655321381161207 -0.014371853700805445 0 0.0001152130036092213 -0.013779060174538532 0 0.00076910285507509983 -0.014452491801058986 0 -0.00065635411830196647 -0.015377704166948586 0 -0.0010572902397785516 -0.015936924365397065 0 0.00081252379985573015 -0.014447079516861912 0 0.00030807334272639627 -0.014904531884840864 0 0.0010465024457989602 -0.01446576100986807 0 0.0010561040664756826 -0.015403923116361915 0 0.0002786917874955022 -0.015988425365227928 0 0.0010465024457989602 -0.01446576100986807 0 0.0002786917874955022 -0.015988425365227928 0 -0.0010572902397785516 -0.015936924365397065 0 0.0010561040664756826 -0.015403923116361915 0 0.0008204182901594407 -0.016177969383524372 0 0.0002786917874955022 -0.015988425365227928 0 0.0014024752132828233 -0.016379269418892329 0 0.0010561040664756826 -0.015403923116361915 0 0.0008204182901594407 -0.016177969383524372 0 0.000374758969823056 -0.017024784106922597 0 0.0008204182901594407 -0.016177969383524372 0 0.0002786917874955022 -0.015988425365227928 0 -0.00046896942195296694 -0.016719639054663095 0 9.4935484756831791e-06 -0.016798762274985828 0 0.0002786917874955022 -0.015988425365227928 0 -0.00065635411830196647 -0.015377704166948586 0 -0.0010572902397785516 -0.015936924365397065 0 -0.003173330521986917 -0.016338648300134501 0 -0.00046896942195296694 -0.016719639054663095 0 0.0002786917874955022 -0.015988425365227928 0 -0.0010572902397785516 -0.015936924365397065 0 -0.0013253604265635491 -0.016965619521571867 0 -0.0010572902397785516 -0.015936924365397065 0 -0.003173330521986917 -0.016338648300134501 0 -0.0025875056031283562 -0.0077143350765593267 0 -0.0030724000275044547 -0.0065545447825926147 0 -0.00065635411830196647 -0.015377704166948586 0 -0.0013719834764228352 -0.014850239660503623 0 -0.0010030269493833776 -0.014602553660273606 0 -0.00065635411830196647 -0.015377704166948586 0 -0.0050282626110293126 -0.015177082176510391 0 -0.003173330521986917 -0.016338648300134501 0 -0.0047164916997293775 -0.017208834990216231 0 -0.0050282626110293126 -0.015177082176510391 0 -0.003173330521986917 -0.016338648300134501 0 -0.0010030269493833776 -0.014602553660273606 0 -0.0012156645256810425 -0.014074165303308751 0 -0.00068497083638240802 -0.013804894499620116 0 -0.0014134152455112855 -0.014354269211032087 0 -0.0013719834764228352 -0.014850239660503623 0 -0.0010030269493833776 -0.014602553660273606 0 -0.0014134152455112855 -0.014354269211032087 0 -0.0010030269493833776 -0.014602553660273606 0 -0.0012156645256810425 -0.014074165303308751 0 -0.00065635411830196647 -0.015377704166948586 0 -0.0010030269493833776 -0.014602553660273606 0 -0.00028655321381161207 -0.014371853700805445 0 -0.0010030269493833776 -0.014602553660273606 0 -0.00028655321381161207 -0.014371853700805445 0 -0.00068497083638240802 -0.013804894499620116 0 -0.00068497083638240802 -0.013804894499620116 0 -0.0010756800751077688 -0.013350692740232177 0 -0.00028339623233719131 -0.013182152270763034 0 -0.00028655321381161207 -0.014371853700805445 0 -0.00068497083638240802 -0.013804894499620116 0 0.0001152130036092213 -0.013779060174538532 0 -0.00068497083638240802 -0.013804894499620116 0 -0.00028339623233719131 -0.013182152270763034 0 0.0001152130036092213 -0.013779060174538532 0 -0.0015293160277252517 -0.013688134898660012 0 -0.0012156645256810425 -0.014074165303308751 0 -0.0011328801666053666 -0.013728117737091121 0 -0.0012156645256810425 -0.014074165303308751 0 -0.00068497083638240802 -0.013804894499620116 0 -0.0011328801666053666 -0.013728117737091121 0 -0.00068497083638240802 -0.013804894499620116 0 -0.0011328801666053666 -0.013728117737091121 0 -0.0010756800751077688 -0.013350692740232177 0 -0.0015293160277252517 -0.013688134898660012 0 -0.0011328801666053666 -0.013728117737091121 0 -0.0010756800751077688 -0.013350692740232177 0 -0.0013896638477667543 -0.012817039593280172 0 -0.00034392128166151206 -0.012524642733472867 0 -0.0010756800751077688 -0.013350692740232177 0 -0.00034392128166151206 -0.012524642733472867 0 -0.0010756800751077688 -0.013350692740232177 0 -0.00028339623233719131 -0.013182152270763034 0 -0.00034392128166151206 -0.012524642733472867 0 0.00057751055524945627 -0.012492729282729311 0 -0.00028339623233719131 -0.013182152270763034 0 0.00057751055524945627 -0.012492729282729311 0 0.00043790189340786953 -0.013211829839075871 0 0.0010819532893084323 -0.013008667528154091 0 0.00057751055524945627 -0.012492729282729311 0 -0.00028339623233719131 -0.013182152270763034 0 0.00043790189340786953 -0.013211829839075871 0 0.00043790189340786953 -0.013211829839075871 0 0.0010819532893084323 -0.013008667528154091 0 0.00080581220879990558 -0.013593057342643549 0 0.0016909136899548346 -0.012821457189432938 0 0.0015804613095645099 -0.013653470070970994 0 0.0010819532893084323 -0.013008667528154091 0 0.0013812658343579423 -0.012311805427382153 0 0.0016909136899548346 -0.012821457189432938 0 0.0010819532893084323 -0.013008667528154091 0 0.0015804613095645099 -0.013653470070970994 0 0.00076910285507509983 -0.014452491801058986 0 0.00080581220879990558 -0.013593057342643549 0 0.0015804613095645099 -0.013653470070970994 0 0.0010819532893084323 -0.013008667528154091 0 0.00080581220879990558 -0.013593057342643549 0 0.00076910285507509983 -0.014452491801058986 0 0.0001152130036092213 -0.013779060174538532 0 0.00080581220879990558 -0.013593057342643549 0 0.00043790189340786953 -0.013211829839075871 0 0.0001152130036092213 -0.013779060174538532 0 0.00080581220879990558 -0.013593057342643549 0 -0.00028339623233719131 -0.013182152270763034 0 0.00043790189340786953 -0.013211829839075871 0 0.0001152130036092213 -0.013779060174538532 0 
</DataArray>
</PointData>
<CellData Scalars="region_id,cross_section_updated," Vectors="" Tensors="stress,">
<DataArray type="Float64" Name="region_id" format="ascii">
5 5 5 5 5 6 5 5 5 5 5 5 5 6 5 5 5 5 6 5 5 6 5 5 5 5 6 5 5 5 5 6 5 5 5 5 5 5 5 5 5 5 5 5 5 6 5 5 6 5 5 5 5 5 6 5 5 5 5 5 5 5 6 5 5 5 5 6 5 5 5 5 5 5 5 5 5 6 5 5 6 5 5 6 5 5 5 5 6 5 5 5 5 5 5 5 6 6 6 5 5 6 5 5 5 5 5 6 5 5 5 5 5 5 5 5 5 5 5 5 5 6 5 5 5 6 5 5 5 5 5 5 6 5 5 5 5 5 5 5 5 5 5 5 5 5 5 5 5 5 5 5 5 5 5 5 5 5 6 5 5 5 6 5 5 6 5 5 5 5 5 5 5 5 5 5 5 6 5 5 5 5 5 5 5 5 6 5 5 5 5 5 5 5 5 6 5 5 5 5 5 5 5 5 5 6 5 5 5 5 5 5 5 5 5 5 5 5 5 5 5 5 5 5 5 5 5 5 5 6 5 5 5 6 5 6 5 6 5 5 6 5 5 5 6 5 6 5 6 5 6 6 5 6 5 5 6 5 6 5 5 5 6 5 6 6 5 5 6 5 5 5 6 5 6 6 6 5 6 5 5 5 6 5 6 6 6 5 5 6 6 5 5 5 5 6 5 6 5 5 6 5 5 5 6 5 6 6 6 5 5 5 6 5 6 6 6 6 5 5 5 6 6 5 5 6 6 6 5 6 5 5 5 5 6 5 5 5 5 5 5 5 6 5 5 5 5 5 5 6 6 5 5 5 6 5 5 5 6 5 6 5 6 6 5 5 5 5 6 5 5 6 5 5 5 5 6 5 6 5 5 5 5 5 6 6 5 5 5 5 5 5 5 5 6 5 5 5 6 5 5 6 5 6 5 5 5 5 5 5 5 5 5 5 5 6 5 6 5 6 5 5 5 6 5 6 5 6 5 5 5 5 5 5 6 5 6 5 5 5 6 5 5 5 6 5 6 6 5 5 5 5 6 5 5 5 5 6 6 5 5 6 5 6 5 6 6 5 5 5 6 5 5 5 5 6 5 5 5 5 5 5 5 5 5 5 5 6 5 5 5 5 6 5 5 5 6 5 6 6 6 5 5 5 6 6 5 6 5 5 6 5 5 5 5 6 5 5 5 5 5 5 5 5 5 5 5 6 6 5 5 6 5 5 5 6 5 5 5 5 5 5 6 5 5 5 6 5 5 5 6 5 5 5 5 5 5 5 5 5 5 5 6 5 5 5 6 5 5 5 5 5 5 5 6 5 5 5 5 5 6 5 5 5 5 5 5 5 5 5 5 5 5 5 5 5 5 5 5 5 6 5 5 5 5 6 5 5 6 5 5 5 5 5 5 5 6 5 5 5 5 5 5 5 5 6 5 6 5 5 6 5 5 5 6 5 5 6 5 5 5 6 5 6 5 5 6 5 6 5 5 5 5 5 5 5 5 5 5 5 5 5 5 5 5 5 5 5 5 5 5 6 5 6 5 6 5 5 5 5 5 5 5 5 5 5 5 5 5 5 5 6 5 5 5 5 5 5 5 5 5 6 5 5 5 5 5 5 5 5 5 5 5 5 5 5 5 5 5 5 5 5 5 5 5 5 5 5 5 5 5 6 5 5 6 5 5 5 6 6 5 6 5 5 5 5 5 6 5 5 5 5 5 6 5 5 5 5 5 5 5 5 5 5 5 5 5 5 5 5 5 5 5 5 5 5 5 5 5 5 5 5 5 5 5 5 5 5 5 5 5 5 5 5 5 5 5 5 5 5 5 5 5 6 5 5 5 5 5 5 5 5 5 5 5 5 5 5 5 6 5 5 5 5 6 5 5 5 5 5 5 5 5 5 5 5 5 5 5 5 5 5 5 5 5 5 5 5 5 5 5 5 6 5 5 6 5 6 6 6 6 5 5 6 5 5 5 5 5 5 5 5 5 5 5 5 5 5 5 5 5 6 5 5 6 5 6 5 5 5 5 6 5 6 5 5 5 5 6 5 5 5 6 5 5 5 5 5 6 5 6 5 5 6 6 5 6 5 5 5 5 5 5 5 5 5 5 5 6 5 5 5 6 5 5 5 6 5 5 6 6 6 5 5 5 5 5 5 5 5 5 5 5 6 5 5 5 5 5 5 5 5 6 6 6 5 5 5 5 5 5 5 5 6 6 5 5 5 6 5 5 6 5 5 5 5 5 5 5 5 5 5 5 6 5 5 5 5 5 5 5 5 6 5 5 5 5 5 5 5 5 5 5 6 5 6 6 6 5 5 5 5 5 5 5 6 6 5 6 5 5 5 5 5 6 5 6 6 5 5 5 6 5 6 5 5 5 5 6 5 5 5 5 5 5 5 5 5 5 5 5 5 5 5 5 5 6 5 5 5 6 5 5 5 5 5 6 5 5 5 5 5 5 6 5 6 5 5 5 5 5 5 5 5 6 5 5 5 6 5 5 5 5 5 5 5 5 5 5 5 5 5 5 5 5 5 5 5 5 5 5 5 5 5 6 6 6 5 5 5 5 6 5 5 5 5 6 5 5 5 5 5 5 5 6 5 5 5 5 5 5 5 5 6 5 5 5 5 5 5 5 5 5 5 5 5 6 5 5 5 5 5 5 6 5 5 5 5 5 5 5 5 6 5 5 5 6 5 5 5 5 5 5 5 5 5 5 5 5 6 5 5 5 5 5 5 5 5 5 5 5 5 5 5 5 5 5 5 5 5 5 5 5 5 5 5 5 5 5 5 5 5 5 5 5 5 5 5 5 5 5 5 5 5 5 5 5 6 5 5 5 5 5 5 5 5 5 5 5 5 5 5 5 5 5 5 5 5 5 5 5 5 6 5 5 5 5 5 5 5 5 5 5 6 5 5 6 5 5 5 5 5 5 5 5 5 6 5 6 5 5 5 5 6 5 5 6 5 6 5 5 5 5 5 6 5 5 5 5 5 5 5 5 6 5 5 5 5 5 5 5 5 5 5 5 5 5 5 6 5 6 6 5 5 5 5 5 6 5 5 5 5 5 5 5 5 5 5 5 5 5 5 5 6 5 5 5 5 5 5 5 5 5 5 5 5 5 5 5 5 6 5 5 5 5 5 6 6 5 5 6 5 5 5 5 5 5 5 5 5 5 6 5 5 5 5 5 5 5 5 5 6 5 6 5 5 5 5 5 6 5 5 5 5 6 5 5 5 6 5 5 5 6 5 5 6 5 5 5 5 5 5 5 5 5 5 5 5 5 5 5 5 6 5 5 5 5 5 5 5 6 5 5 5 5 5 5 5 5 5 5 5 5 5 5 5 5 5 5 5 5 5 5 5 5 5 5 5 6 5 5 5 5 6 5 5 5 6 5 5 5 5 5 5 5 5 5 6 5 6 5 5 5 5 5 5 5 5 5 5 5 5 5 5 5 5 5 5 6 6 5 5 5 6 5 5 6 5 5 6 5 5 5 6 5 5 6 5 5 5 5 5 5 5 5 5 5 5 5 5 5 5 5 5 5 5 5 6 5 6 5 5 5 5 5 5 5 5 5 5 5 6 5 6 5 5 5 6 5 5 5 5 5 6 5 5 5 5 5 5 6 5 5 5 5 5 5 5 5 5 5 5 6 5 5 5 5 5 5 5 5 6 5 5 5 6 5 5 6 5 5 5 5 5 6 5 5 5 5 5 5 5 5 5 6 5 5 6 5 6 5 6 6 6 5 6 5 5 5 5 5 5 6 5 5 5 5 5 5 6 5 5 5 5 5 5 5 6 5 5 5 5 6 5 5 5 5 5 6 5 6 5 5 5 5 5 5 5 5 5 5 6 5 5 5 5 5 5 5 6 5 5 5 5 5 5 5 6 5 6 5 5 5 5 5 5 5 5 6 5 5 5 6 6 5 5 5 5 5 6 6 5 6 5 5 6 5 5 6 5 5 5 5 5 5 5 5 6 5 5 5 5 5 6 5 5 5 5 6 5 5 6 5 5 5 5 5 5 5 5 5 5 5 5 5 5 5 5 5 5 5 5 5 5 5 5 5 5 5 5 5 5 5 5 5 5 5 5 5 5 5 5 5 6 5 5 6 5 5 5 5 5 6 5 5 5 5 6 5 5 5 5 5 5 5 5 5 5 5 5 5 5 5 5 5 5 5 5 5 5 5 5 6 5 5 5 6 5 5 5 5 5 5 6 5 5 5 5 5 5 5 5 5 5 5 6 5 6 6 5 5 6 5 5 5 5 5 5 5 5 5 5 5 6 5 5 6 5 5 5 5 5 5 5 5 5 5 5 5 5 5 5 6 5 5 5 5 5 5 5 6 5 6 5 5 5 5 6 5 6 5 5 5 5 5 5 5 5 5 6 5 5 5 5 5 5 5 5 5 5 5 5 5 5 5 5 5 6 5 5 5 5 5 5 5 5 5 5 5 5 5 5 5 5 5 5 5 5 5 5 5 5 5 6 6 5 5 5 5 5 5 5 5 5 5 5 6 5 5 5 5 6 5 5 5 5 6 5 5 5 5 5 5 5 5 6 5 5 5 5 5 5 5 5 5 6 5 5 5 5 5 5 5 5 5 5 5 5 5 5 5 5 5 5 5 5 6 5 5 5 5 5 5 5 5 5 5 5 5 5 5 6 5 6 5 5 5 5 5 5 5 5 6 5 5 6 5 5 5 5 5 5 5 5 5 5 5 5 5 5 5 5 5 5 5 5 5 5 5 5 5 5 5 5 5 5 5 5 5 5 5 5 6 5 5 6 5 5 5 5 6 5 6 5 5 6 5 6 5 5 5 5 5 6 5 5 5 5 5 5 5 5 5 5 5 5 6 5 5 5 6 5 5 5 5 5 5 5 5 5 6 5 5 5 5 6 6 5 5 5 5 5 5 5 5 6 5 5 5 5 5 6 5 5 5 6 5 5 5 6 5 5 5 5 6 5 5 5 5 5 5 5 5 5 5 5 5 5 5 6 5 5 5 5 5 5 6 5 6 6 5 6 5 6 5 5 5 5 6 5 5 5 5 6 5 5 5 5 5 5 5 5 5 6 5 5 5 5 5 5 5 5 5 5 5 5 5 5 6 5 5 5 6 5 5 5 6 5 6 5 5 5 5 5 5 5 5 5 5 5 5 5 5 5 5 6 5 5 5 5 5 5 6 5 5 5 5 5 5 5 5 5 5 5 5 5 5 5 5 5 5 6 5 5 5 5 5 5 5 5 5 5 5 5 5 5 5 5 5 5 5 5 5 5 5 5 5 5 5 5 5 5 5 5 5 5 6 5 5 5 5 6 5 5 5 5 5 5 5 6 5 5 5 5 5 5 5 5 5 6 5 5 6 5 5 5 5 5 6 5 5 5 6 5 5 6 5 5 5 5 5 5 5 5 5 5 5 5 5 5 5 5 5 5 5 5 6 5 5 5 5 5 5 5 5 5 5 6 6 5 6 5 5 5 5 5 6 5 5 5 5 6 5 5 5 5 5 6 5 6 5 5 6 5 5 5 5 5 5 5 5 6 5 5 5 5 5 5 6 5 5 5 5 5 5 6 5 5 5 5 6 5 5 6 5 6 5 5 6 5 5 5 5 5 5 6 5 5 5 5 6 5 5 5 5 5 5 5 5 6 6 5 5 5 5 5 5 5 5 6 5 5 5 5 5 5 6 5 5 5 5 5 5 5 6 5 5 5 6 5 5 5 5 5 5 5 5 5 5 5 5 6 5 5 5 5 6 5 5 6 5 5 5 5 6 5 5 5 6 6 5 5 5 6 5 5 5 6 5 5 5 5 5 5 5 5 5 6 5 5 5 6 5 5 5 5 5 5 5 5 5 5 5 5 6 5 6 5 5 6 5 5 6 5 5 5 5 5 5 5 6 5 5 5 5 5 6 5 6 5 5 5 6 6 5 6 6 5 6 5 5 5 5 5 5 6 5 6 5 5 5 5 5 5 5 5 5 5 5 5 5 6 5 5 6 5 6 5 5 6 5 5 5 6 6 5 5 6 5 5 5 5 5 5 5 5 5 5 5 5 5 5 5 5 5 5 5 5 5 5 5 6 6 5 6 5 6 5 5 6 6 5 5 6 5 5 6 5 5 6 5 6 5 5 5 5 6 5 5 5 5 6 5 6 6 5 6 5 5 6 6 5 5 5 6 5 5 5 5 6 6 5 5 5 5 5 6 5 5 5 5 5 5 5 5 5 5 5 6 5 6 5 6 5 5 6 5 6 5 5 5 5 5 5 5 5 6 5 5 6 5 5 5 5 6 5 5 5 5 5 5 5 5 5 5 5 5 6 5 5 5 5 5 5 5 5 5 5 5 6 5 5 5 5 5 5 6 5 6 5 5 6 5 5 5 5 5 5 5 5 5 5 5 5 5 5 5 5 5 6 6 5 5 5 6 5 5 6 5 5 5 5 5 5 5 5 5 5 5 5 5 5 5 5 5 5 5 5 5 5 5 5 5 6 6 5 5 5 5 5 5 5 5 5 5 5 6 5 5 5 5 5 5 5 5 5 5 5 5 5 5 5 5 5 5 5 5 5 5 5 5 5 5 5 5 5 5 5 5 5 6 5 5 5 5 5 6 5 5 6 5 5 6 6 5 5 5 5 5 5 5 5 5 5 5 5 5 6 5 5 6 5 5 5 5 5 5 6 5 5 6 5 5 5 5 5 5 5 5 5 5 5 5 5 6 5 5 5 5 5 5 5 6 5 5 5 5 5 5 5 5 5 5 5 5 6 5 5 6 5 5 5 5 5 5 5 5 5 5 5 5 5 5 5 5 5 5 5 5 6 5 5 6 5 6 5 5 5 6 5 5 6 5 6 5 5 5 6 5 5 5 5 6 5 5 5 5 5 5 5 6 5 5 5 6 5 5 5 5 5 5 5 5 5 5 5 5 6 5 5 5 5 5 5 5 5 6 5 5 5 5 5 5 5 5 5 5 5 6 5 5 5 5 5 5 5 5 5 5 5 5 5 5 5 5 5 5 5 6 6 5 5 5 6 5 5 5 5 5 5 5 5 5 5 5 5 6 5 5 5 5 5 5 5 5 5 6 5 5 5 5 5 5 5 5 5 5 5 5 5 5 5 5 6 5 6 5 5 5 5 5 6 5 5 5 5 6 5 5 5 6 5 5 5 6 5 5 5 5 5 5 5 5 5 6 5 5 5 6 5 5 6 5 5 5 5 5 5 6 5 5 5 5 5 5 5 5 6 5 5 5 6 5 5 5 5 5 5 5 5 5 5 5 5 5 5 5 5 5 5 5 5 5 5 5 5 5 5 5 6 5 5 5 5 5 5 5 6 5 5 5 5 5 5 5 5 5 5 5 5 5 5 5 5 5 5 5 5 5 5 5 5 5 6 5 6 5 5 5 5 5 5 6 5 5 5 6 5 5 6 5 5 5 5 5 5 5 5 5 5 5 5 6 5 5 5 5 5 6 5 5 5 5 5 5 5 5 5 5 5 5 5 6 5 5 5 6 5 5 5 5 5 5 5 5 5 5 5 5 6 6 5 5 5 5 6 5 5 5 5 5 5 5 5 5 6 6 5 5 5 5 5 6 5 5 5 5 5 6 5 5 5 5 5 6 5 6 5 5 5 5 6 5 6 5 6 6 5 5 5 5 5 5 5 6 6 5 5 5 5 5 5 6 6 6 5 6 6 5 5 5 6 5 5 5 5 5 6 6 6 5 6 5 5 5 6 5 6 6 5 5 5 5 5 5 5 6 6 5 5 6 6 6 5 5 5 5 5 5 5 5 5 5 5 5 5 5 5 5 5 5 5 5 5 5 5 5 5 5 5 5 5 5 5 5 5 5 5 5 5 5 5 5 6 5 5 5 5 5 5 5 5 5 5 6 5 5 5 5 5 5 6 5 5 6 5 5 5 5 5 5 5 5 5 5 5 5 5 6 5 6 5 5 5 5 6 5 5 5 6 5 5 6 5 5 5 6 5 5 6 5 5 5 5 5 6 5 5 5 5 5 5 5 6 5 5 5 5 5 5 5 6 5 5 6 5 5 5 5 6 5 6 5 5 5 5 5 6 5 5 5 5 6 5 5 5 5 5 5 6 6 5 5 5 5 5 6 5 5 6 5 5 5 5 5 5 5 5 5 5 6 5 5 5 5 5 5 5 5 5 5 5 5 5 5 5 5 5 5 6 5 5 5 5 5 5 6 5 5 5 5 5 5 5 6 6 5 5 5 5 6 5 5 5 5 5 5 5 6 5 5 6 5 6 6 6 5 5 5 5 5 5 6 5 5 5 5 5 6 5 5 5 5 6 5 5 5 6 5 5 5 6 5 5 5 5 5 5 5 5 5 5 5 5 5 5 5 5 5 5 5 5 5 5 5 5 5 6 5 5 5 5 5 5 5 6 5 6 5 5 5 5 5 5 6 5 5 6 5 5 5 6 5 5 6 5 5 5 5 5 6 5 5 5 6 6 5 5 5 5 5 5 5 5 5 5 5 5 6 5 5 5 5 5 5 5 5 5 6 5 5 5 5 5 6 6 5 5 5 5 5 5 5 5 5 6 5 5 5 5 5 5 5 5 6 5 5 5 5 5 5 5 5 5 5 5 5 5 5 5 5 5 5 6 5 5 5 5 6 5 6 5 6 5 5 5 5 5 5 5 5 5 5 5 5 5 5 5 5 5 6 5 5 5 5 5 6 5 5 5 6 6 5 5 5 5 5 6 5 5 5 5 6 5 5 5 5 5 5 5 5 6 5 5 5 5 5 5 5 6 5 5 5 5 5 5 5 5 5 6 5 5 5 5 5 5 5 5 5 5 5 5 5 5 5 5 5 5 6 5 5 5 5 5 5 5 5 5 5 5 5 5 6 5 5 5 5 5 5 6 5 5 6 5 5 6 5 5 5 5 5 5 5 5 5 5 5 5 5 5 5 5 5 5 5 5 5 5 5 5 5 5 6 5 6 5 6 6 5 5 5 6 5 5 5 5 5 5 5 5 5 6 6 5 6 5 5 5 5 5 5 5 5 5 5 5 5 5 5 6 5 6 6 5 6 5 5 5 5 5 5 5 5 5 6 6 5 5 5 5 5 5 5 5 5 5 5 5 5 5 5 5 5 5 5 5 5 5 6 5 5 5 5 5 6 5 5 5 5 5 6 5 5 5 6 5 5 5 5 5 5 5 5 5 6 5 5 5 5 6 5 5 5 5 5 5 6 5 5 5 5 5 5 5 6 5 5 5 5 6 5 5 5 5 5 5 5 5 5 5 6 5 5 5 5 6 5 5 5 6 5 5 5 5 5 6 5 5 5 5 5 5 5 5 5 5 5 5 5 5 6 6 5 5 6 5 5 5 5 5 5 5 6 5 5 5 5 5 5 6 5 5 5 5 5 5 5 5 5 5 5 5 5 5 5 5 5 5 5 5 5 5 5 6 5 5 5 5 5 5 5 5 6 5 5 5 5 6 5 5 5 5 5 6 5 6 5 6 5 5 5 5 5 5 5 6 5 5 5 6 5 5 5 5 5 6 5 5 5 5 5 6 5 6 5 5 6 5 6 5 5 5 5 5 6 5 5 5 6 5 5 5 5 5 5 5 5 5 5 6 5 5 5 5 5 5 5 5 5 5 5 5 5 5 5 5 5 5 5 5 5 5 6 5 5 5 5 5 5 5 5 5 5 5 5 5 5 5 5 5 5 6 5 5 5 6 5 5 5 5 5 5 6 5 5 5 6 6 5 6 5 6 6 5 6 5 5 6 5 5 6 6 5 5 5 5 5 5 5 5 6 5 6 5 5 5 5 5 5 5 5 5 5 5 5 5 5 5 5 5 5 5 5 5 5 6 5 5 5 5 5 5 5 5 6 5 5 6 5 5 6 6 5 5 6 5 5 5 5 5 5 5 5 5 5 5 5 5 5 5 5 5 5 5 5 5 5 5 5 5 5 5 5 5 5 5 5 5 5 5 5 5 5 5 6 5 6 5 5 5 5 5 5 5 5 5 5 5 5 5 5 5 5 5 5 5 5 5 5 5 5 5 5 5 5 5 5 5 5 5 5 5 5 5 5 5 5 6 5 5 6 5 5 5 5 5 6 5 6 5 5 6 5 5 5 5 5 5 6 5 5 5 5 5 5 5 5 5 5 5 6 5 5 6 6 5 6 5 5 6 5 5 5 5 6 5 5 5 5 5 5 5 5 5 6 5 6 5 5 5 5 5 5 5 6 5 6 5 5 5 5 5 5 5 5 5 6 5 6 5 5 5 5 5 5 5 5 5 5 6 5 5 5 6 5 5 6 5 5 6 5 5 5 5 6 5 5 5 6 5 5 5 5 5 5 5 5 5 5 5 5 5 5 6 5 5 5 5 5 5 6 5 6 5 6 5 5 5 6 5 5 5 5 5 5 5 5 6 5 5 5 5 5 6 5 5 6 5 5 5 5 5 5 5 5 5 6 5 5 5 6 5 5 5 5 5 5 6 5 5 5 5 5 5 5 5 5 5 5 5 5 5 5 5 5 5 5 5 5 5 5 5 5 5 5 5 5 5 5 6 5 5 5 5 5 6 5 5 6 6 5 5 5 5 6 5 5 5 5 5 6 5 5 5 5 5 5 5 5 5 5 5 5 5 5 5 5 6 5 5 5 5 5 5 5 5 6 6 5 5 5 5 5 5 6 5 5 5 5 6 5 5 5 5 5 5 5 5 5 5 5 5 5 5 5 5 5 5 5 5 5 5 5 5 6 5 5 6 5 5 5 5 5 5 5 5 5 5 5 5 5 5 5 5 5 5 5 5 5 5 5 5 5 5 5 6 5 6 5 5 5 5 5 6 5 5 5 5 5 5 5 5 5 5 5 5 5 5 5 5 5 5 5 5 6 6 5 6 5 5 5 5 5 5 5 5 5 5 5 5 5 5 5 5 6 5 5 5 6 5 5 5 5 5 5 5 5 5 5 5 5 5 6 5 5 5 5 5 5 5 5 5 5 5 5 5 5 5 5 5 5 5 5 5 5 6 5 5 5 5 5 5 5 5 5 5 5 5 5 6 5 6 5 5 6 6 5 5 5 5 5 5 5 5 5 5 5 5 5 5 5 5 5 5 5 5 6 5 5 6 5 5 5 6 5 5 5 5 5 5 6 5 5 5 6 5 5 5 5 5 5 5 5 6 5 5 6 5 5 6 5 6 5 5 5 5 6 6 5 5 6 6 5 5 6 5 5 5 5 6 5 5 6 6 5 6 5 5 5 5 5 5 5 5 5 5 5 5 5 5 5 5 5 5 5 5 6 5 5 5 5 6 5 5 5 5 6 6 5 5 5 5 5 5 5 5 5 5 5 5 6 5 5 5 6 5 5 5 5 5 5 5 6 5 5 5 6 5 5 6 6 5 5 5 6 5 5 5 6 5 5 5 5 5 5 5 5 5 5 5 5 5 5 5 5 5 5 6 5 5 5 5 5 5 5 5 5 5 5 5 5 5 5 5 5 5 6 6 5 5 5 5 5 6 6 5 6 5 5 5 5 5 5 5 5 5 6 5 5 5 6 5 5 5 5 5 5 5 5 5 5 5 5 5 5 6 5 5 5 5 5 5 5 6 5 5 6 5 5 5 5 5 5 6 5 5 5 5 6 5 5 5 5 5 5 6 5 5 5 5 5 5 5 5 6 6 5 5 5 6 6 5 5 5 5 5 6 5 5 5 5 5 5 6 5 5 5 5 6 5 5 5 5 5 6 5 5 5 5 6 5 5 5 5 5 5 5 5 5 5 5 5 5 5 5 5 5 5 5 5 5 5 5 5 5 6 5 5 5 5 6 5 6 5 6 5 5 6 5 5 6 5 5 6 5 5 5 5 5 5 6 5 5 6 5 6 6 6 5 5 6 5 6 6 5 5 5 6 5 6 5 5 5 5 5 5 6 5 5 5 6 5 5 5 5 5 5 5 6 5 5 5 6 5 6 6 5 5 5 5 5 5 5 6 5 5 5 5 5 5 5 5 6 6 5 5 5 5 6 5 5 6 5 5 5 6 5 5 5 6 6 5 5 5 5 6 5 5 5 5 5 6 6 5 5 5 5 5 5 5 5 5 5 5 5 5 5 5 5 5 5 5 5 5 5 5 5 5 5 5 5 5 5 5 6 5 5 5 6 5 5 5 5 5 5 5 5 5 5 5 5 5 5 5 6 5 6 6 5 5 6 5 5 5 5 5 5 5 5 5 5 5 5 5 5 5 5 5 5 5 5 5 5 5 6 5 5 6 6 5 5 5 5 5 5 5 6 5 5 5 6 5 5 5 5 6 6 5 5 5 5 5 5 5 6 5 5 5 5 6 5 5 5 5 6 5 5 5 5 5 5 5 5 5 5 5 5 5 5 5 5 5 5 5 6 5 5 5 5 5 5 5 5 5 5 5 5 5 5 5 5 6 5 5 5 6 5 5 5 5 5 5 5 5 5 6 5 5 5 5 5 5 5 5 5 5 5 5 5 5 5 5 5 5 5 5 5 6 5 5 5 5 5 5 5 5 5 5 5 5 5 5 5 5 5 6 5 5 5 5 5 6 5 5 5 5 5 5 5 5 5 5 5 5 5 5 5 5 5 5 5 5 5 5 5 5 5 5 5 6 5 5 6 5 5 5 6 5 5 5 5 5 5 5 5 5 5 5 5 5 5 5 6 5 6 5 5 5 5 5 5 5 5 5 6 5 5 5 5 5 5 5 5 5 6 6 5 5 5 5 5 5 5 5 5 5 5 5 5 5 5 5 5 5 5 5 5 5 5 5 5 5 5 5 5 5 5 5 5 5 5 5 5 5 5 5 5 5 5 5 5 5 5 5 5 5 5 5 5 5 5 5 5 5 5 5 5 5 5 5 5 5 5 5 5 5 5 6 5 5 5 5 5 5 6 5 5 5 5 5 5 5 5 5 6 5 6 5 5 5 5 5 5 5 5 5 5 5 5 5 5 5 5 5 5 5 5 5 5 5 5 5 5 5 5 5 5 5 5 5 5 6 5 5 5 6 6 5 5 5 5 5 5 5 5 5 5 5 5 5 5 5 5 5 5 5 5 5 5 6 6 5 5 5 5 5 5 5 5 6 5 5 5 5 5 5 6 5 5 5 5 5 6 5 5 5 5 6 5 5 5 6 5 5 5 6 5 5 6 5 5 5 5 5 5 5 5 5 5 5 5 5 6 5 5 5 5 5 5 5 5 6 5 5 5 5 5 5 5 5 5 5 5 6 5 5 5 6 5 5 5 5 6 5 5 5 5 5 5 5 5 6 5 6 5 5 6 5 5 5 5 5 6 5 5 5 5 5 5 5 5 5 5 5 5 6 5 5 5 5 5 5 5 5 5 6 5 5 5 5 5 5 6 5 5 5 5 5 5 5 6 5 5 5 5 5 6 5 5 5 5 5 5 5 5 5 5 5 5 5 5 5 5 5 5 5 5 5 5 5 5 5 5 5 5 5 5 5 5 5 5 5 5 5 5 5 5 5 5 5 5 5 5 5 6 5 6 5 5 5 5 5 5 5 5 5 5 5 5 5 5 6 5 5 5 5 5 5 5 5 5 5 5 5 5 5 5 6 5 5 6 5 6 5 5 5 5 5 6 5 5 5 5 5 5 5 5 5 5 5 5 5 5 5 5 5 5 5 5 6 5 5 5 5 5 5 5 5 5 5 5 6 5 6 5 5 6 5 6 5 5 5 5 5 5 5 6 5 6 5 5 5 5 6 5 5 5 5 6 6 5 5 6 5 5 5 5 5 5 5 5 5 5 5 5 5 5 5 5 6 5 5 5 5 5 5 5 5 5 5 5 5 5 5 6 5 6 5 5 5 5 5 5 5 6 5 6 5 5 5 5 5 5 5 5 5 6 6 5 5 5 6 5 5 5 5 6 5 6 5 5 6 5 6 6 6 5 5 6 5 5 5 6 6 6 5 5 5 5 5 5 5 5 5 5 5 6 5 5 5 5 5 5 6 5 5 5 6 5 5 5 5 5 5 5 5 6 5 5 5 6 5 5 5 5 5 5 5 5 5 5 5 5 5 5 5 5 5 5 5 5 5 5 5 5 5 5 5 5 5 5 5 5 5 5 5 5 5 5 5 5 5 5 5 5 5 5 5 5 5 5 5 5 5 5 5 5 5 5 5 5 6 5 5 5 5 5 6 5 5 5 5 6 5 5 5 6 5 5 5 5 5 5 5 5 5 5 5 5 5 5 5 5 5 5 5 5 5 5 5 5 5 5 5 5 5 5 5 5 5 5 5 5 5 5 5 5 6 5 5 6 5 5 5 5 5 5 5 6 5 5 5 5 5 5 5 5 5 5 5 6 5 5 6 5 6 5 5 5 6 5 5 5 5 5 5 5 5 6 5 5 5 5 6 5 5 5 5 6 5 6 5 5 5 5 5 5 5 5 5 5 5 5 6 5 6 5 5 5 5 5 5 5 5 5 5 5 5 5 6 5 5 5 5 5 5 5 5 5 6 5 5 5 6 5 5 5 5 5 5 5 5 5 5 5 5 5 5 5 5 5 5 5 5 5 5 5 5 5 5 5 5 5 5 5 5 5 5 5 6 5 5 6 5 5 5 5 6 5 5 5 5 5 5 5 5 5 5 5 5 5 5 5 6 5 5 5 5 5 5 5 5 5 6 5 6 5 5 5 5 5 5 5 6 5 5 5 5 5 5 5 5 5 5 5 5 5 5 6 5 5 5 5 5 5 5 5 5 5 5 6 5 5 5 5 5 5 5 5 5 5 5 5 5 5 5 5 5 5 5 5 5 5 5 6 5 6 5 5 5 5 5 5 6 5 6 5 5 5 6 5 5 5 6 5 5 5 6 5 5 6 5 5 5 5 5 5 5 6 5 5 5 5 5 5 5 6 5 5 5 5 5 5 5 5 5 5 5 5 5 6 5 5 5 5 5 5 5 5 6 5 5 5 5 5 5 5 5 5 5 5 5 5 5 5 5 5 5 5 5 6 5 5 5 5 5 5 5 5 5 5 5 5 5 5 5 5 5 5 5 5 5 5 5 5 5 5 5 5 5 5 5 5 5 5 5 5 5 5 5 5 5 5 5 5 5 5 5 5 5 5 6 5 6 5 5 5 6 5 5 6 6 5 6 5 5 5 5 5 5 5 5 5 5 5 5 5 5 5 5 5 5 5 5 5 5 5 5 5 5 5 5 5 5 5 5 5 5 5 6 5 5 5 5 6 5 5 6 5 5 5 6 5 5 5 5 6 5 6 6 5 5 5 5 6 5 5 5 6 5 5 5 6 5 5 5 5 5 5 6 5 5 5 5 5 5 5 5 5 5 5 5 5 5 5 5 5 5 5 5 6 5 5 5 5 5 5 5 5 5 5 5 5 5 5 5 5 5 5 6 5 5 6 5 5 6 5 5 5 5 5 5 5 5 5 5 5 6 5 5 5 5 6 5 5 5 5 6 5 5 5 6 5 5 5 5 5 5 5 5 5 5 5 5 5 5 5 5 5 5 5 5 5 5 5 5 5 6 5 5 5 5 5 5 5 5 6 5 5 5 6 5 5 5 5 5 5 5 5 5 5 5 5 5 5 5 5 5 5 5 5 5 5 5 5 6 5 5 5 6 5 5 5 5 5 5 5 5 6 5 5 6 5 5 5 5 6 5 5 5 5 5 5 5 6 5 6 5 5 6 5 5 6 6 5 5 5 5 5 5 5 5 5 5 5 5 5 5 5 5 5 5 5 5 5 6 5 5 5 5 6 5 5 5 5 5 5 5 5 5 5 5 5 5 6 5 5 6 5 5 5 5 5 5 5 5 5 5 5 5 5 5 5 5 5 5 5 5 5 5 5 5 5 5 5 5 5 5 5 5 5 5 5 5 5 5 5 5 5 5 5 5 5 5 5 5 5 5 5 5 5 5 5 5 5 5 5 5 5 5 5 5 5 5 5 5 5 5 5 5 5 5 5 5 5 5 5 5 5 5 5 5 5 5 5 5 5 5 5 5 5 5 5 5 5 5 5 5 5 5 5 5 5 5 5 5 5 5 5 5 5 5 5 5 5 5 5 5 5 5 5 5 5 5 5 5 6 5 5 5 5 5 5 5 6 5 5 5 5 5 5 5 5 5 6 5 6 5 5 5 6 5 5 6 5 5 5 5 5 5 5 5 5 5 5 5 5 5 5 5 5 5 5 5 5 5 5 5 5 5 5 5 5 5 5 5 5 5 5 5 5 6 5 5 6 6 5 5 6 5 5 6 5 5 5 6 5 5 5 5 5 5 5 5 5 6 5 5 5 5 5 5 6 5 5 5 5 5 5 5 5 5 5 5 5 5 5 5 5 5 5 5 5 5 5 5 5 5 5 5 5 5 5 5 6 5 5 5 5 5 5 5 5 5 5 5 5 5 5 5 5 5 5 5 5 5 5 5 5 5 5 5 5 5 5 5 5 5 5 5 5 5 5 5 5 5 5 5 5 5 5 6 5 6 5 5 5 5 6 5 5 5 5 6 5 5 5 5 6 5 5 5 5 5 5 5 5 6 5 5 6 5 6 5 5 5 5 6 5 5 6 6 5 5 5 5 5 5 6 5 5 5 5 5 5 5 5 5 5 6 6 5 5 5 5 5 6 5 5 6 5 5 5 5 6 5 5 6 5 5 5 5 5 5 5 5 5 5 5 5 5 5 5 5 5 5 5 5 5 5 5 5 5 5 5 5 5 6 5 6 5 5 5 5 5 5 5 5 5 5 5 5 5 6 5 5 5 5 6 6 5 5 5 5 5 5 5 5 5 5 5 5 5 5 5 5 5 5 5 5 5 5 5 5 5 5 5 5 5 5 5 5 5 5 5 5 5 5 5 5 5 5 6 5 5 5 6 5 5 5 5 5 5 5 5 5 5 5 5 5 5 5 5 5 5 5 5 6 5 5 6 5 5 5 5 5 5 5 5 5 6 5 5 5 5 5 6 5 5 5 5 5 6 5 6 5 5 5 5 5 5 5 5 5 5 5 5 5 6 5 5 5 6 6 5 5 5 5 5 5 5 5 6 5 5 6 5 5 6 6 5 5 5 5 5 6 5 5 5 5 5 5 5 6 5 5 6 6 5 5 5 5 5 5 6 6 5 5 5 6 5 5 5 5 5 5 5 6 5 5 5 5 5 5 5 5 5 5 5 5 5 5 5 5 5 5 5 5 5 5 5 5 5 5 6 5 5 5 5 5 5 5 6 5 5 5 5 5 5 5 5 5 5 5 6 5 5 5 5 5 5 5 5 6 5 5 5 5 5 5 5 5 5 5 5 5 5 5 5 5 6 5 5 5 6 5 5 5 5 5 6 5 5 5 5 5 5 5 5 5 5 5 5 5 5 6 5 5 5 5 6 5 5 6 5 5 5 5 5 6 5 5 5 5 5 5 5 5 5 5 5 5 5 5 6 5 6 5 5 5 6 5 6 5 6 5 5 5 5 5 5 6 6 5 5 5 5 5 5 6 5 6 5 5 5 5 5 5 5 5 5 5 5 5 5 5 5 5 5 6 5 5 5 6 6 5 5 5 5 5 6 5 5 6 6 5 5 5 5 5 5 5 5 5 5 5 5 5 5 5 5 5 5 5 5 5 5 5 5 5 5 5 5 5 5 5 5 5 5 5 5 5 5 5 5 5 5 5 5 6 5 5 6 6 6 5 5 5 5 5 5 6 5 5 5 5 5 5 5 5 5 6 5 5 5 6 5 5 5 5 5 5 5 5 5 5 5 5 5 5 5 5 5 5 5 5 6 5 5 5 5 6 5 5 5 5 5 5 5 5 5 5 5 5 5 5 5 5 5 5 5 5 5 5 5 5 5 5 5 5 5 5 5 5 5 5 6 5 6 5 5 5 5 5 5 5 5 6 5 5 5 6 5 6 5 5 5 5 5 5 5 5 6 5 5 5 5 6 5 5 5 5 6 5 5 5 5 5 5 5 6 5 5 5 5 6 5 5 5 5 5 5 5 5 5 5 5 5 5 5 5 5 5 5 5 5 5 5 5 5 5 5 5 5 5 5 5 5 5 5 5 5 5 5 5 5 5 5 5 5 5 5 6 5 5 5 5 6 6 5 5 6 6 5 5 5 5 5 5 5 5 5 5 5 5 5 5 5 5 5 5 5 6 5 5 5 6 6 5 5 5 5 5 5 5 5 5 5 5 5 5 5 5 5 5 5 5 5 5 5 5 5 5 5 5 6 5 5 5 5 5 5 5 6 5 5 5 5 5 5 5 5 5 5 5 5 5 5 5 6 5 5 5 5 5 5 5 5 6 5 6 6 5 5 5 5 5 5 5 5 5 5 5 5 6 5 5 5 5 5 5 5 5 5 5 5 5 5 5 5 5 5 5 6 5 5 5 6 5 5 5 5 5 5 5 5 6 5 5 5 5 5 5 5 5 5 5 5 5 5 5 5 6 5 5 5 6 5 5 5 5 5 5 5 5 5 5 5 5 5 5 5 5 5 5 5 5 5 5 5 5 5 5 5 5 5 5 5 5 5 6 5 6 5 5 5 5 5 5 5 5 6 5 5 5 5 5 5 5 5 5 6 5 5 6 5 5 5 5 5 6 5 5 5 5 6 5 5 5 5 6 5 5 5 6 5 6 5 5 6 5 5 5 5 5 5 5 5 5 5 5 5 5 5 6 5 5 6 5 6 5 5 5 6 5 5 6 5 5 5 5 6 5 6 5 5 5 5 5 5 6 5 6 5 5 5 5 5 6 5 5 5 5 6 5 5 5 5 5 5 6 5 5 5 5 5 5 5 5 5 5 5 5 5 5 5 5 5 5 5 5 5 5 5 5 5 5 5 5 5 5 5 5 5 6 6 5 5 5 5 5 5 5 5 5 5 6 5 5 6 6 5 6 5 5 5 5 5 5 5 6 5 5 5 5 5 5 5 5 5 5 5 5 6 5 5 5 5 6 5 5 5 5 5 5 5 5 5 5 5 5 6 5 5 5 5 5 5 5 5 5 5 5 5 5 5 5 5 5 6 5 5 5 5 5 6 5 5 5 6 5 5 5 5 5 5 6 5 6 5 5 5 6 5 5 5 5 5 5 5 5 5 6 5 5 6 5 5 5 5 5 5 5 6 5 5 5 5 5 5 5 5 5 5 5 5 5 6 5 5 6 5 5 5 5 5 5 6 5 5 5 5 5 5 6 5 5 5 5 5 5 5 6 5 5 5 5 5 5 5 5 5 5 5 5 5 5 5 5 5 5 5 5 5 5 6 5 5 5 5 5 5 5 5 5 5 6 5 5 5 5 6 6 5 5 5 5 6 5 5 5 5 5 5 5 5 5 6 5 5 5 5 5 5 5 5 5 5 5 6 5 5 5 6 5 5 5 6 5 5 5 5 5 5 5 5 5 5 5 5 6 5 5 5 5 5 6 5 5 6 5 5 5 5 5 5 5 5 5 5 5 5 5 5 6 5 5 5 5 5 5 5 6 5 5 5 6 5 5 5 5 5 6 5 5 5 5 5 5 5 5 5 6 5 5 5 5 5 5 5 5 6 5 5 5 5 5 6 5 5 5 5 5 5 5 6 5 5 5 5 5 5 5 5 5 5 5 5 5 5 5 5 5 5 5 5 5 5 5 5 5 5 5 5 5 5 5 5 5 5 5 5 5 5 5 5 5 5 5 5 5 5 5 5 6 5 5 5 5 5 5 5 6 5 5 5 5 5 5 5 5 5 5 5 5 5 5 5 5 5 5 5 5 5 5 6 6 5 5 6 6 5 5 5 5 5 5 5 6 5 5 5 5 5 5 5 5 5 5 5 5 5 5 6 5 5 5 5 5 5 5 5 6 5 5 6 5 5 5 6 5 5 5 5 5 5 5 5 5 5 5 5 5 5 5 5 5 5 5 5 5 5 5 5 5 5 5 5 6 5 5 5 5 5 5 5 5 6 5 5 5 5 5 5 6 6 5 5 5 5 6 5 5 6 5 5 6 5 5 5 5 5 5 6 5 5 5 5 5 5 5 5 6 5 5 5 5 5 5 5 5 5 5 5 6 5 5 6 5 5 5 5 5 5 5 6 5 5 5 6 5 6 5 6 5 5 5 5 5 5 5 5 5 5 5 5 5 5 5 5 5 6 5 6 5 5 5 5 5 5 5 5 5 5 6 5 5 5 5 5 5 5 6 5 5 5 6 5 6 6 5 5 6 5 5 5 5 6 5 5 5 6 5 5 5 6 5 6 6 5 5 5 5 5 5 6 5 5 5 5 5 5 5 5 6 6 6 5 6 5 5 6 6 5 5 6 5 5 5 5 5 5 5 5 5 5 5 6 5 5 5 5 5 5 5 5 5 5 5 5 5 6 6 5 5 5 5 6 5 5 5 6 5 5 5 5 5 6 6 5 5 5 6 5 5 5 5 5 5 5 5 5 5 5 5 5 5 5 6 5 5 5 6 5 5 5 6 5 5 5 5 5 5 6 5 5 5 5 5 6 5 5 5 5 5 5 5 5 6 5 5 5 5 5 5 5 5 5 6 5 5 5 5 6 5 6 5 5 6 5 6 5 5 5 5 5 5 6 5 6 6 5 5 5 5 5 5 5 5 6 5 6 5 6 5 6 5 5 5 5 5 5 5 5 5 5 5 6 5 5 5 6 5 5 5 5 5 5 5 5 6 5 5 5 5 5 5 5 5 5 6 5 5 5 5 6 5 5 6 5 5 5 5 5 5 5 5 5 6 5 5 5 6 5 5 5 5 5 5 5 5 5 5 5 5 5 5 5 5 5 5 5 6 5 5 5 5 5 5 5 5 5 5 6 5 5 5 5 5 5 5 5 5 5 5 5 5 5 5 5 5 5 5 5 5 5 5 5 5 5 5 5 5 5 5 5 5 5 5 5 5 5 5 5 5 5 5 5 5 6 6 5 5 5 5 5 5 5 5 5 5 5 5 5 6 6 5 5 5 6 5 5 6 5 5 5 6 5 5 5 6 5 5 5 5 5 5 5 5 6 5 5 6 5 6 6 5 5 5 5 5 5 6 5 6 6 6 5 5 6 5 5 6 6 5 5 5 5 5 5 5 5 5 5 5 5 5 5 5 5 5 5 5 5 5 6 5 5 5 5 5 5 5 5 5 6 5 5 5 5 5 5 5 6 6 5 5 5 5 5 5 5 5 5 5 5 5 5 5 5 5 5 5 5 5 5 5 5 6 5 6 5 5 5 5 5 5 5 6 5 5 5 6 6 5 5 6 5 5 5 5 6 5 5 5 6 5 5 5 6 5 5 5 5 5 5 5 5 5 6 6 5 5 5 5 5 6 5 5 6 6 6 5 5 5 5 5 6 5 5 5 5 5 5 5 5 5 6 5 6 5 5 5 5 5 5 5 5 5 5 5 5 5 5 5 5 5 5 5 5 5 5 5 5 6 5 5 5 5 6 6 5 5 5 6 5 5 5 5 5 5 5 5 5 5 5 5 5 5 5 5 6 5 5 5 6 5 5 6 5 5 5 5 5 5 5 5 5 5 5 5 5 6 5 5 6 5 5 5 6 5 6 5 6 5 6 6 6 5 5 5 5 5 5 5 5 6 5 5 5 5 5 5 5 5 6 5 5 6 5 5 5 5 5 5 5 5 5 5 5 5 5 5 5 5 5 5 5 5 5 6 5 5 5 5 5 5 5 5 5 5 6 5 6 5 5 6 5 6 5 6 5 5 6 5 6 5 5 6 5 5 5 6 5 5 5 5 5 5 5 5 5 5 5 5 5 5 5 5 5 5 5 5 5 5 5 5 5 5 5 5 5 5 5 5 5 5 5 5 5 5 5 5 5 5 5 5 5 5 5 5 5 5 5 5 5 5 5 5 5 5 5 5 5 6 5 5 6 5 5 5 5 5 5 6 6 5 5 5 5 5 5 5 5 5 5 5 5 5 5 5 5 5 5 6 5 5 5 6 5 5 5 5 5 5 5 5 5 5 5 5 5 5 5 5 6 5 5 5 5 5 5 5 6 5 5 5 5 5 5 5 5 6 5 6 5 5 5 5 5 5 5 5 5 5 5 5 5 5 5 5 6 5 5 5 5 5 5 5 6 5 5 5 5 6 5 5 5 5 5 5 5 6 5 5 6 6 5 5 6 5 5 5 5 5 5 6 5 5 5 5 5 5 5 5 5 6 5 5 6 5 5 6 5 5 6 5 5 5 5 5 6 5 5 5 5 5 5 5 5 6 5 5 5 5 5 5 5 6 5 5 5 5 5 5 5 5 5 5 5 5 6 5 5 5 5 5 5 5 6 6 5 6 5 6 5 5 5 5 5 5 5 5 5 5 5 5 5 5 5 6 5 6 5 5 5 5 5 5 5 5 6 5 6 5 6 5 6 5 6 5 5 6 5 5 5 5 5 6 5 5 5 5 5 5 5 5 6 5 5 5 5 5 6 5 5 6 5 6 6 5 5 5 5 5 5 5 5 6 5 5 5 5 5 5 5 5 5 5 5 5 5 6 5 5 5 5 5 5 5 6 5 5 5 6 5 5 5 5 5 5 5 5 5 5 5 5 5 5 5 5 5 6 5 5 5 5 5 5 5 6 5 5 6 5 5 5 5 5 5 5 5 5 5 5 5 5 5 5 6 5 5 5 5 6 5 5 5 5 5 5 5 5 5 5 5 5 5 5 5 5 5 5 5 5 5 5 5 5 5 6 5 5 5 5 5 5 6 5 5 5 5 5 5 5 5 5 6 6 5 5 5 6 5 6 5 5 5 5 5 5 5 5 5 5 5 5 5 5 5 6 5 5 5 5 5 5 5 5 5 5 5 5 6 6 5 5 5 5 5 5 5 5 6 5 5 6 5 5 6 6 5 5 5 5 5 5 5 6 5 5 5 5 5 5 5 5 5 6 5 5 5 6 5 5 5 5 5 6 5 5 5 5 5 5 5 5 5 5 5 5 6 5 5 5 6 5 5 5 6 5 5 5 5 5 5 5 5 5 5 5 5 5 5 5 5 5 5 5 5 5 5 5 5 5 5 5 5 5 5 5 5 6 5 5 5 5 5 5 5 5 5 5 5 5 5 5 5 5 5 5 5 5 5 5 5 5 6 5 6 5 5 6 5 5 5 5 5 5 5 5 5 6 5 5 5 5 5 5 5 5 5 5 5 5 5 5 6 5 5 5 5 6 5 5 5 6 5 5 5 5 5 5 5 5 5 5 5 5 5 5 5 5 5 5 5 5 5 5 5 5 5 5 5 5 5 5 5 5 5 5 5 5 5 5 5 5 5 5 5 5 5 5 5 5 5 5 5 5 5 5 5 5 5 5 5 5 5 5 5 5 5 5 5 5 5 5 5 5 5 5 5 5 5 5 5 5 5 5 5 5 5 5 5 5 5 5 5 5 5 5 5 5 5 5 5 5 5 5 5 5 5 5 5 5 5 5 5 5 5 5 5 5 5 5 5 5 5 5 5 5 5 5 5 5 5 5 5 5 5 5 5 5 5 5 5 5 5 5 5 5 5 5 5 5 5 5 5 5 5 5 5 5 5 5 5 5 5 5 5 5 5 5 5 5 5 5 5 5 5 5 5 5 5 5 5 5 5 5 5 5 5 5 5 5 5 6 5 5 5 5 5 5 5 5 5 5 5 5 5 5 5 5 6 5 5 5 5 5 5 5 5 6 5 5 5 5 6 5 5 5 5 5 5 5 5 5 5 5 5 5 5 5 5 5 5 5 5 5 5 6 5 5 5 5 5 5 5 5 5 5 5 5 5 6 6 5 5 5 5 5 6 5 6 5 5 5 5 5 5 5 5 5 5 5 6 5 5 5 5 5 5 5 6 5 5 5 5 5 5 5 5 5 5 5 5 5 5 5 6 6 5 5 5 5 5 5 5 5 5 5 5 5 6 5 5 5 5 5 5 5 5 5 5 5 5 5 5 5 5 6 5 5 5 5 5 5 5 6 5 5 5 5 5 5 5 5 5 5 6 6 5 5 5 5 5 5 5 5 5 5 5 5 5 5 5 5 5 5 5 5 5 5 5 5 5 5 5 5 5 5 6 5 5 5 5 5 6 5 5 5 5 5 5 5 5 5 5 6 5 5 5 5 6 5 5 5 5 5 5 5 5 5 5 6 5 6 5 5 5 5 5 5 5 5 5 5 5 5 5 5 5 5 5 5 5 5 5 5 5 5 5 5 5 5 5 5 5 6 5 5 5 5 5 6 5 5 5 5 5 5 5 5 5 5 5 5 5 5 5 5 5 5 6 5 5 6 5 5 5 6 5 5 5 5 5 6 5 5 5 5 5 5 5 5 5 5 6 5 5 5 5 5 5 6 5 5 5 5 5 6 6 5 5 6 5 5 6 5 5 5 5 5 5 5 5 5 5 6 5 5 6 5 5 6 5 5 6 5 5 6 5 5 6 5 5 5 5 5 5 6 5 5 5 5 5 5 5 5 5 5 5 6 5 5 5 5 5 5 5 6 5 5 5 5 6 5 5 5 6 5 5 5 5 5 5 5 5 5 5 5 6 5 5 5 5 5 5 5 5 5 5 5 5 5 5 5 5 5 5 5 5 5 5 5 5 6 5 5 5 5 5 6 5 5 5 5 5 5 5 5 5 5 5 5 5 5 6 5 5 6 5 6 5 5 5 5 6 5 6 6 5 6 5 5 5 5 5 5 5 6 5 6 5 5 5 5 5 5 6 5 5 5 5 5 5 6 5 5 5 5 6 5 5 5 5 5 6 5 5 6 5 5 5 5 6 5 5 5 5 6 5 5 5 5 5 5 6 5 5 5 5 5 5 5 5 5 6 5 5 5 5 5 5 6 5 5 5 5 6 5 5 5 5 5 5 5 5 5 5 5 5 5 5 5 5 6 5 5 5 6 5 5 6 5 5 5 5 5 5 5 5 5 5 5 5 5 5 5 5 6 5 6 5 5 5 5 5 5 5 5 5 5 5 5 5 5 5 5 5 5 5 5 5 5 5 5 5 5 6 5 5 6 5 5 5 5 5 5 5 5 5 5 6 5 5 5 5 6 5 5 5 5 6 5 5 5 5 5 5 5 5 5 6 5 5 5 5 5 5 5 5 5 5 5 5 5 5 5 5 5 5 5 5 5 5 5 5 5 5 5 5 
</DataArray>
<DataArray type="Float64" Name="stress" NumberOfComponents="9" format="ascii">
-227827259.61960626 -816057369.93488693 0 -816057369.93488693 2200450389.6038418 0 0 0 0 -145622194.59629309 -136162832.90726852 0 -136162832.90726852 1537727930.5884361 0 0 0 0 1047145.1329733506 -120017720.6591053 0 -120017720.6591053 1215727713.9462013 0 0 0 0 158241324.14258379 -311830013.73327065 0 -311830013.73327065 592718404.14772034 0 0 0 0 -34895050.307990953 -182759144.46376419 0 -182759144.46376419 595696463.61550379 0 0 0 0 -243075.46138755401 -29420.181652419269 0 -29420.181652419269 1431270.8954205606 0 0 0 0 -2730060.7408303022 74849460.262481689 0 74849460.262481689 -48425112.66223526 0 0 0 0 72361692.863671601 -23699130.490440369 0 -23699130.490440369 9195433.5826072693 0 0 0 0 97763317.883900017 -646138895.63540649 0 -646138895.63540649 1373187934.763649 0 0 0 0 361671334.04120994 -349302887.63287926 0 -349302887.63287926 544936617.15771484 0 0 0 0 5594515.3130643368 -236986159.90848923 0 -236986159.90848923 676553448.73814201 0 0 0 0 1423297713.3600876 -1190794753.5018806 0 -1190794753.5018806 420726208.73529053 0 0 0 0 497777733.01869535 1287379368.9965229 0 1287379368.9965229 2201515381.316967 0 0 0 0 1364302.6353048813 569125.63333851285 0 569125.63333851285 2798777.5511042811 0 0 0 0 -82703201.849558756 554691288.19554806 0 554691288.19554806 1599865396.2548752 0 0 0 0 -335022187.11797684 209348136.5091095 0 209348136.5091095 2205266897.7334223 0 0 0 0 -6731079.0604504496 423483598.23815536 0 423483598.23815536 893769478.41840363 0 0 0 0 42447573.774086744 248859979.51545715 0 248859979.51545715 934305894.73551178 0 0 0 0 1356638.9968421382 -212546.86923289206 0 -212546.86923289206 5864031.6924607381 0 0 0 0 139421010.97841251 184966989.1851387 0 184966989.1851387 479392971.07785797 0 0 0 0 -131973373.76668718 -115228809.04418564 0 -115228809.04418564 1192577475.1272964 0 0 0 0 890640.81431320414 1914808.9419831596 0 1914808.9419831596 5871409.4666502867 0 0 0 0 -27297465.963355541 16397887.313962936 0 16397887.313962936 6649292.4001235962 0 0 0 0 -60919229.585792542 6789583.2838592529 0 6789583.2838592529 26042772.337081909 0 0 0 0 -15024997.305966616 8305112.0947494507 0 8305112.0947494507 11213245.969482422 0 0 0 0 -77264350.072131217 -69372803.233890533 0 -69372803.233890533 -29180785.827545166 0 0 0 0 165834.78083632977 -2368342.3232316403 0 -2368342.3232316403 11319331.97831139 0 0 0 0 56408282.885155916 -58274728.887886047 0 -58274728.887886047 -40224895.717918396 0 0 0 0 -12779391.485123158 -17364925.579113007 0 -17364925.579113007 12870536.546337128 0 0 0 0 -22888006.203152776 -9587311.9292936325 0 -9587311.9292936325 31187360.652397156 0 0 0 0 76544981.994470835 3601145.1651687622 0 3601145.1651687622 -113919963.40500259 0 0 0 0 -1090333.8645548178 -315770.93426543288 0 -315770.93426543288 4628409.2691833396 0 0 0 0 297271560.72354937 -218573724.68294525 0 -218573724.68294525 171445148.50971603 0 0 0 0 85474757.455655575 45140994.652854919 0 45140994.652854919 52571730.28742981 0 0 0 0 15363840.082851052 -55716844.085250854 0 -55716844.085250854 88156278.262359619 0 0 0 0 29434717.253520608 -61456113.957332611 0 -61456113.957332611 -44910536.499294281 0 0 0 0 -44988607.080193855 -929191.17948998511 0 -929191.17948998511 119158643.01600647 0 0 0 0 -15326026.353825882 -13041773.087197304 0 -13041773.087197304 118377407.57345581 0 0 0 0 -19501901.443706036 -58383246.363494873 0 -58383246.363494873 137546792.75315857 0 0 0 0 -10915665.328933239 -44293470.1434021 0 -44293470.1434021 134891184.59915161 0 0 0 0 -45061896.653412677 -18279421.898608446 0 -18279421.898608446 173150285.98556519 0 0 0 0 36125039.462862968 -7956151.4183654785 0 -7956151.4183654785 69580621.989746094 0 0 0 0 144467853.03001571 120747129.62006378 0 120747129.62006378 222176650.75561523 0 0 0 0 208589506.93454349 -57935528.642093658 0 -57935528.642093658 81876638.877914429 0 0 0 0 22251457.726366043 24301687.020996094 0 24301687.020996094 262525533.20002747 0 0 0 0 35697.741255722591 330795.81671678927 0 330795.81671678927 271362.31500823796 0 0 0 0 121031855.73540688 -99639495.348014832 0 -99639495.348014832 102253570.55915833 0 0 0 0 203936854.36212468 135048116.44392967 0 135048116.44392967 106726579.09536743 0 0 0 0 -59345.177606556797 183940.97561487649 0 183940.97561487649 193921.72695755586 0 0 0 0 32116095.557961464 -94555408.49772644 0 -94555408.49772644 26758079.173904419 0 0 0 0 -5611643.2394174337 -32685432.278900146 0 -32685432.278900146 152257234.26229858 0 0 0 0 -64172665.261054993 -94980330.733642578 0 -94980330.733642578 368477153.44400024 0 0 0 0 -17698066.313148975 -49085244.078079224 0 -49085244.078079224 151616986.17871284 0 0 0 0 -3875387.8612787724 3632253.058631897 0 3632253.058631897 9663174.7438697815 0 0 0 0 -1022706.5722294219 712966.93780344725 0 712966.93780344725 2713302.1237810627 0 0 0 0 -29148158.604580879 -2382117.7449417114 0 -2382117.7449417114 32119837.443557739 0 0 0 0 2448690.571079731 7832255.9740333557 0 7832255.9740333557 26431885.300788879 0 0 0 0 3432563.1961171366 -2686510.0011291504 0 -2686510.0011291504 57854172.940872192 0 0 0 0 2552293.6071558297 -25617661.642058372 0 -25617661.642058372 63460240.027145386 0 0 0 0 -19226835.51302886 -26906736.977012634 0 -26906736.977012634 71183867.549194336 0 0 0 0 -133400522.56920862 -76115112.215827942 0 -76115112.215827942 47514450.695220947 0 0 0 0 -12885300.915105581 -17630635.828804016 0 -17630635.828804016 12895109.859420776 0 0 0 0 20110.779714768287 -2051643.0330314338 0 -2051643.0330314338 11266668.069155453 0 0 0 0 -33889173.344741106 16819302.761924744 0 16819302.761924744 10004079.709606171 0 0 0 0 -83736665.669358552 19931657.458726883 0 19931657.458726883 78991074.533218384 0 0 0 0 22029162.550780058 -16794185.60131073 0 -16794185.60131073 65373173.594863892 0 0 0 0 58686915.594599485 70224361.697975159 0 70224361.697975159 21125567.528987885 0 0 0 0 583534.57536284707 1320674.5746779945 0 1320674.5746779945 -354252.86258001253 0 0 0 0 17332898.87307477 77447186.608146667 0 77447186.608146667 89388662.417505264 0 0 0 0 66407904.422065496 43147418.807029724 0 43147418.807029724 45836395.716537476 0 0 0 0 -26026876.79888165 4690708.6862792969 0 4690708.6862792969 28683643.81048584 0 0 0 0 -46877510.949248075 19538358.347503662 0 19538358.347503662 40522110.707305908 0 0 0 0 -56338662.002589941 8113415.3745965958 0 8113415.3745965958 19885632.568115234 0 0 0 0 -50910843.797791839 26020676.878810883 0 26020676.878810883 30509831.383712769 0 0 0 0 -16803004.472763538 38889612.911420822 0 38889612.911420822 30370669.068893433 0 0 0 0 -37631649.541723192 7454090.5235004425 0 7454090.5235004425 28092771.908706665 0 0 0 0 52380481.291712761 21017642.604598999 0 21017642.604598999 8876707.4963378906 0 0 0 0 -73248.227893772593 2483327.6298975023 0 2483327.6298975023 385898.78372105211 0 0 0 0 -381052.17973166704 2223377.9509305954 0 2223377.9509305954 3021128.8962783813 0 0 0 0 -1087346.5389146805 836420.89038085938 0 836420.89038085938 2238926.9739379883 0 0 0 0 -519760.85935222544 1184415.6040115803 0 1184415.6040115803 7114123.6887467913 0 0 0 0 -2092898.9192546606 5374868.6945724487 0 5374868.6945724487 26554762.955276489 0 0 0 0 10987621.765095681 13403850.688688278 0 13403850.688688278 25575982.739624023 0 0 0 0 401424.8014148869 2360212.1105822865 0 2360212.1105822865 7080959.6860312279 0 0 0 0 14426208.380307794 41078176.241325378 0 41078176.241325378 22935656.678031921 0 0 0 0 -217482.97065544128 2199433.3767776489 0 2199433.3767776489 2278217.4020690918 0 0 0 0 -2284193.6906381845 -3229606.3339653015 0 -3229606.3339653015 3154373.1852798462 0 0 0 0 -7943793.3663619757 9298046.7270317078 0 9298046.7270317078 5232483.784034729 0 0 0 0 -1241888.8663793951 1467047.3356188512 0 1467047.3356188512 4008515.1126818322 0 0 0 0 4193982.9461255074 7272151.7709579468 0 7272151.7709579468 -637012.10238647461 0 0 0 0 -293938.77171313763 809297.61130905151 0 809297.61130905151 4260154.9697570801 0 0 0 0 3724587.0226016045 47383.37215423584 0 47383.37215423584 -4163146.3749389648 0 0 0 0 13977081.115134656 14510427.177524567 0 14510427.177524567 8370635.7705898285 0 0 0 0 9421931.1072695851 67675.354640960693 0 67675.354640960693 -3437949.4440536499 0 0 0 0 69811100.968751222 -11715427.763320923 0 -11715427.763320923 26862818.984527588 0 0 0 0 -715945.31941550097 -41822.186644554138 0 -41822.186644554138 1890869.0140075684 0 0 0 0 -81545.934254775653 -37900.336194444448 0 -37900.336194444448 239775.82166122273 0 0 0 0 1952.3644750170388 2499.6046370617114 0 2499.6046370617114 -7827.3262266144156 0 0 0 0 126405.51040283 346121.84747062717 0 346121.84747062717 -138469.18662826717 0 0 0 0 -2612999.119911246 3291924.4527931213 0 3291924.4527931213 2105665.4618835449 0 0 0 0 -2157723.7331270874 -743632.13368988037 0 -743632.13368988037 -20087.568706512451 0 0 0 0 282214.77695046307 596782.6589942663 0 596782.6589942663 -450764.23627154529 0 0 0 0 -341660.80519475043 1288753.7678527832 0 1288753.7678527832 606289.86206054688 0 0 0 0 -1226944.9054164984 1872916.5841522217 0 1872916.5841522217 810252.93356323242 0 0 0 0 -608916.08160902373 -2065573.0304679871 0 -2065573.0304679871 -113970.33044433594 0 0 0 0 -676270.57624755614 1926205.9716873169 0 1926205.9716873169 -572368.77590942383 0 0 0 0 -1186230.8616996352 1667668.7879486084 0 1667668.7879486084 1247092.7101516724 0 0 0 0 -6273.7563821451458 -42438.352614991367 0 -42438.352614991367 178580.64687733725 0 0 0 0 -428859.30254296795 -664457.83995056152 0 -664457.83995056152 4400316.0253219604 0 0 0 0 213807.26081741898 -15724829.291923523 0 -15724829.291923523 68188074.553943634 0 0 0 0 -10382378.127998183 -62916233.38741684 0 -62916233.38741684 153256901.89828491 0 0 0 0 95483566.681799233 -115833924.69223022 0 -115833924.69223022 145565030.42840195 0 0 0 0 -119114.58638612661 -48592654.356139161 0 -48592654.356139161 328707250.11717224 0 0 0 0 23266905.346745938 -68341049.504764557 0 -68341049.504764557 232537831.89053345 0 0 0 0 133518642.31394263 -247405907.61035538 0 -247405907.61035538 282215651.34913635 0 0 0 0 158263701.70716208 -122316681.89428139 0 -122316681.89428139 113675585.58870697 0 0 0 0 14518408.693083584 7783905.2721099854 0 7783905.2721099854 114532474.82130802 0 0 0 0 7525083.2670729663 -336674.05909442902 0 -336674.05909442902 105729722.80592346 0 0 0 0 8466702.6897338033 8639042.594078064 0 8639042.594078064 63680860.739845276 0 0 0 0 7437890.4427508116 -19623275.170349121 0 -19623275.170349121 51831274.081298828 0 0 0 0 20364547.672933578 22346590.443687439 0 22346590.443687439 81908256.353370667 0 0 0 0 -16715.690580662398 22106.755811486393 0 22106.755811486393 17570.635692005977 0 0 0 0 -21844211.002447248 -50676412.12802887 0 -50676412.12802887 106508983.07318115 0 0 0 0 -36971763.895244002 -3081515.1541442871 0 -3081515.1541442871 66586138.561157227 0 0 0 0 98029342.452692866 -50856630.22946167 0 -50856630.22946167 95886657.317840576 0 0 0 0 819679.60785264801 920192.97438559565 0 920192.97438559565 2181051.9738836829 0 0 0 0 175731151.35661247 151169690.87268066 0 151169690.87268066 53841312.004135132 0 0 0 0 -129795407.44273946 106970736.37896538 0 106970736.37896538 5455307.0473098755 0 0 0 0 68520200.076093107 100366689.11081326 0 100366689.11081326 -95421788.545146942 0 0 0 0 83739301.484458134 -47014376.087768555 0 -47014376.087768555 -140677884.85886765 0 0 0 0 41069616.669846073 -22668003.651244164 0 -22668003.651244164 753656828.80764771 0 0 0 0 193802213.275998 -22609697.726216316 0 -22609697.726216316 -124311131.6210556 0 0 0 0 279166.13852199307 236532.07282373845 0 236532.07282373845 906110.94653122872 0 0 0 0 -55783698.455410063 -402584937.30158806 0 -402584937.30158806 734301436.13212585 0 0 0 0 532988559.65341043 468945984.88734007 0 468945984.88734007 586347012.66154099 0 0 0 0 234983248.06972992 -114325171.0225184 0 -114325171.0225184 1701436179.9857712 0 0 0 0 183584645.06286612 -452413843.71387577 0 -452413843.71387577 1486289259.2691269 0 0 0 0 -242212164.12427399 -66717182.80027771 0 -66717182.80027771 2205265570.4401016 0 0 0 0 -184276407.91936845 -58483526.753126144 0 -58483526.753126144 1706161421.4880676 0 0 0 0 -35217689.163179904 -108782102.40986347 0 -108782102.40986347 779091003.63787842 0 0 0 0 -33123778.856483292 186711403.00135231 0 186711403.00135231 881123972.16275024 0 0 0 0 -166496713.40629476 85624697.502784729 0 85624697.502784729 1756020594.4915161 0 0 0 0 -171920619.09929067 183822796.21354771 0 183822796.21354771 2204849561.2420578 0 0 0 0 -205202924.89504552 33874129.364328384 0 33874129.364328384 1769449407.3783417 0 0 0 0 402008359.11618489 201762831.47779465 0 201762831.47779465 1879167327.8815765 0 0 0 0 258321000.14037836 576351306.85659981 0 576351306.85659981 390285165.21118927 0 0 0 0 -127717507.10007229 338952469.40821838 0 338952469.40821838 1956048988.4953976 0 0 0 0 -22667535.959480047 -34675733.54160881 0 -34675733.54160881 419339616.84670258 0 0 0 0 36377213.375047505 -98140551.351547241 0 -98140551.351547241 23968511.187141418 0 0 0 0 -1753046.8930476308 -36967182.125930786 0 -36967182.125930786 250691253.69278336 0 0 0 0 183221596.33503145 12751669.281337738 0 12751669.281337738 204116720.16121674 0 0 0 0 151397769.72219971 -51092824.154851913 0 -51092824.154851913 203905936.76515198 0 0 0 0 -165465.59942305088 136734407.69959641 0 136734407.69959641 896714350.34421539 0 0 0 0 17790993.390191764 148707244.0925827 0 148707244.0925827 69010590.756355286 0 0 0 0 23947915.572940864 -181778230.5258747 0 -181778230.5258747 -22132497.155815125 0 0 0 0 62972498.250450075 -22023874.818180084 0 -22023874.818180084 -210579239.68158722 0 0 0 0 57862778.932986617 -62509795.088062286 0 -62509795.088062286 -62864997.776885986 0 0 0 0 -41405351.740626812 -37337746.226146698 0 -37337746.226146698 -15869132.919780731 0 0 0 0 106425.19883328327 108825.01862959936 0 108825.01862959936 -9229.3077296614647 0 0 0 0 -3065984.1118915081 13536408.148258209 0 13536408.148258209 -5667592.8991167545 0 0 0 0 -107700529.80336511 -117615199.24287605 0 -117615199.24287605 38202421.597953796 0 0 0 0 56788946.460654497 -49998248.201388359 0 -49998248.201388359 38733246.413841248 0 0 0 0 443539.7834945292 -135268.74342077971 0 -135268.74342077971 376883.26885178871 0 0 0 0 37854875.196828485 -17313402.160177231 0 -17313402.160177231 48751083.574501038 0 0 0 0 11811088.759362698 -93054159.082260132 0 -93054159.082260132 41884019.133224487 0 0 0 0 232181.74842373986 120103.66577454191 0 120103.66577454191 407058.79339569807 0 0 0 0 -53224455.815860271 -25302533.052139282 0 -25302533.052139282 27437805.692077637 0 0 0 0 15161657.430966854 -15686670.057741165 0 -15686670.057741165 78939680.546203613 0 0 0 0 27706772.589519501 -46885112.190504074 0 -46885112.190504074 63950594.725891113 0 0 0 0 -57167529.83113718 -15956462.543209076 0 -15956462.543209076 85031172.581192017 0 0 0 0 -19927071.228391171 -66831877.254364014 0 -66831877.254364014 85375734.368804932 0 0 0 0 -74924894.478610754 17475828.496006012 0 17475828.496006012 168353681.75188065 0 0 0 0 -83880067.548845351 45360291.375303268 0 45360291.375303268 137059735.27653503 0 0 0 0 -61335899.339563131 -71132466.45091629 0 -71132466.45091629 217422832.87153625 0 0 0 0 -39333665.693930149 -51925710.046295166 0 -51925710.046295166 -16622511.208961487 0 0 0 0 -46129501.729166508 65831049.798259735 0 65831049.798259735 190472006.9004631 0 0 0 0 143290489.27929497 210964381.95009995 0 210964381.95009995 -327758049.55595398 0 0 0 0 531707.633774166 431480.34517052397 0 431480.34517052397 911968.04946807958 0 0 0 0 7748798.5423549116 -170835197.94835281 0 -170835197.94835281 3160607228.22789 0 0 0 0 -79761890.36293745 -222548656.32926941 0 -222548656.32926941 45627226.701858521 0 0 0 0 187941370.43623817 -53391788.498817444 0 -53391788.498817444 2205301400.1442513 0 0 0 0 316568637.89236951 138832104.37733459 0 138832104.37733459 2372358955.225502 0 0 0 0 270619891.95911205 258313174.2311821 0 258313174.2311821 2834109527.4431534 0 0 0 0 60391163.965981126 -375414817.59050369 0 -375414817.59050369 2693974392.2340527 0 0 0 0 60693213.044234894 -335356344.50349045 0 -335356344.50349045 2095490280.2047348 0 0 0 0 -19688852.259224728 36424559.833526611 0 36424559.833526611 2235997686.6565742 0 0 0 0 1192488.6308969513 1283480.7362987772 0 1283480.7362987772 2511496.6988647897 0 0 0 0 -10674887.721702337 -170123623.48639679 0 -170123623.48639679 1945020767.7885914 0 0 0 0 -1368263.8900542259 52478234.625835419 0 52478234.625835419 -140287373.80529022 0 0 0 0 -147565991.79716349 100936738.43708801 0 100936738.43708801 365770333.82450867 0 0 0 0 -82983370.354177475 100257367.87792969 0 100257367.87792969 42355543.42159462 0 0 0 0 -58015859.945430145 -271206672.59308434 0 -271206672.59308434 1751919267.5700378 0 0 0 0 -165438442.2448723 -79606619.439359665 0 -79606619.439359665 2204597304.9721031 0 0 0 0 -305123716.18736082 206765366.55591583 0 206765366.55591583 1872628758.5323257 0 0 0 0 -36736352.598311722 56999209.332366943 0 56999209.332366943 1318855316.5241051 0 0 0 0 1298693.6835097093 1793145.6376805771 0 1793145.6376805771 4008056.191729811 0 0 0 0 -43624980.945088208 -52017244.41985178 0 -52017244.41985178 62002053.204238892 0 0 0 0 151364173.35873508 77808724.979499817 0 77808724.979499817 -56150821.9921875 0 0 0 0 52932951.090670109 -49723224.492862701 0 -49723224.492862701 18545201.41973877 0 0 0 0 -116674112.50117683 35391736.89874649 0 35391736.89874649 160347801.48968506 0 0 0 0 -82840140.129419327 -48889003.181442261 0 -48889003.181442261 48266752.751266479 0 0 0 0 -28576475.529136658 21015600.822525024 0 21015600.822525024 94663759.048027039 0 0 0 0 16269459.823270321 17129638.584472656 0 17129638.584472656 75788129.0181427 0 0 0 0 59532903.242372036 -785206.5015335083 0 -785206.5015335083 -1489974.0677261353 0 0 0 0 -20611736.762752533 106574907.38674927 0 106574907.38674927 147851409.58698845 0 0 0 0 165367.24096648081 -43770.001420047134 0 -43770.001420047134 112044.03230538592 0 0 0 0 12005312.016131878 5189529.3992996216 0 5189529.3992996216 -2048396.6580352783 0 0 0 0 10311100.453979969 3042633.6420173645 0 3042633.6420173645 44782373.600479126 0 0 0 0 -5236793.7953448296 5928916.579498291 0 5928916.579498291 6611834.408164978 0 0 0 0 1923027.4374256134 -8278963.3381729126 0 -8278963.3381729126 7114005.2297210693 0 0 0 0 3292962.1827983856 -828163.02780532837 0 -828163.02780532837 5685290.0433959961 0 0 0 0 6671442.7090067863 1589478.3750610352 0 1589478.3750610352 7314677.3982009888 0 0 0 0 12845426.578413248 -2009269.7488613129 0 -2009269.7488613129 1154492.4669265747 0 0 0 0 5531999.991815567 -11404245.103534698 0 -11404245.103534698 844392.54146766663 0 0 0 0 -2615649.5931694508 -34324278.822360992 0 -34324278.822360992 14539279.803138733 0 0 0 0 40352741.414834976 -11649512.191078186 0 -11649512.191078186 -1504323.0032920837 0 0 0 0 -2981987.9608938694 -7397226.8102531433 0 -7397226.8102531433 2497322.1126174927 0 0 0 0 702179.60245895386 -7555027.6983337402 0 -7555027.6983337402 971911.99205780029 0 0 0 0 1248740.3181343079 -4866076.103603363 0 -4866076.103603363 -146907.6356048584 0 0 0 0 3327250.3855086565 -1281709.4894208908 0 -1281709.4894208908 1414301.8255081177 0 0 0 0 8164084.9314613342 -4845896.6502456665 0 -4845896.6502456665 -549571.83941650391 0 0 0 0 4276753.5357604027 -2670219.9065284729 0 -2670219.9065284729 -471932.12062072754 0 0 0 0 1247621.5277543068 261843.46808242798 0 261843.46808242798 328523.24488830566 0 0 0 0 1890545.299451828 -5213599.7287063599 0 -5213599.7287063599 -361740.03346633911 0 0 0 0 497597.19625639915 -4536210.3138389587 0 -4536210.3138389587 202703.48725891113 0 0 0 0 -1842690.1701083183 -2931898.4877815247 0 -2931898.4877815247 3818521.272731781 0 0 0 0 873874.15636444092 -3392625.8968391418 0 -3392625.8968391418 -1266825.2859039307 0 0 0 0 -1446957.3275814056 -3089511.2463378906 0 -3089511.2463378906 -502437.65752124786 0 0 0 0 -22272.412936449051 -13046.512331008911 0 -13046.512331008911 758634.94021606445 0 0 0 0 -14220.339527049568 30419.922132736072 0 30419.922132736072 41403.675310289022 0 0 0 0 -761241.62013626099 -1656456.3704071045 0 -1656456.3704071045 1213364.179775238 0 0 0 0 497579.86261296272 -3731322.2982578278 0 -3731322.2982578278 -379815.07794189453 0 0 0 0 -3560406.9003047943 -7468598.7978630066 0 -7468598.7978630066 1328405.8034515381 0 0 0 0 -577594.26943265391 -1205969.2297202107 0 -1205969.2297202107 11734674.593624573 0 0 0 0 -2182218.1669712067 -4404545.2230682373 0 -4404545.2230682373 1718624.7851867676 0 0 0 0 -26487.249168388866 133154.87164892256 0 133154.87164892256 1469204.8172782206 0 0 0 0 -13145727.843108773 -13499956.855369568 0 -13499956.855369568 10638342.517406464 0 0 0 0 558788.62348070543 -2121990.9236250026 0 -2121990.9236250026 6499717.5693780631 0 0 0 0 -4162132.545313023 -3627323.8255615234 0 -3627323.8255615234 17045364.361709595 0 0 0 0 2075096.2099404335 1738631.1890487671 0 1738631.1890487671 16561642.47909832 0 0 0 0 1017823.5039045488 2839286.8506990056 0 2839286.8506990056 8364797.2669015387 0 0 0 0 -482175.63597203791 1732786.9378738403 0 1732786.9378738403 22181916.344535828 0 0 0 0 -1686907.1371430159 -1540149.0391521454 0 -1540149.0391521454 2057283.5950775146 0 0 0 0 -1020600.649245739 -720442.96479034424 0 -720442.96479034424 3954726.2772369385 0 0 0 0 -762351.28185484034 -1368704.2874719608 0 -1368704.2874719608 3097756.4359732121 0 0 0 0 -1336525.8030700684 1775878.7793884277 0 1775878.7793884277 2493705.4575109482 0 0 0 0 -1247055.0317378882 525654.79405103065 0 525654.79405103065 9550356.0039423145 0 0 0 0 -1755406.3730578423 248103.29040527344 0 248103.29040527344 1322539.207116127 0 0 0 0 -437154.09197216423 414348.54267159104 0 414348.54267159104 11144050.506406566 0 0 0 0 -2097858.7176990509 -1204909.8561096191 0 -1204909.8561096191 1963776.9976806641 0 0 0 0 -589294.39226529165 -615530.45865898766 0 -615530.45865898766 8674643.6131084673 0 0 0 0 -662780.3822000738 -529466.40579513833 0 -529466.40579513833 8018930.4452144429 0 0 0 0 -1586558.0723749399 -815864.50379753113 0 -815864.50379753113 3208670.3366088867 0 0 0 0 -250130.39175507985 220498.03175573982 0 220498.03175573982 6444242.4189674677 0 0 0 0 -252670.22456240654 142565.52804374695 0 142565.52804374695 3767083.9156723022 0 0 0 0 -722750.54214382172 -691677.18111419678 0 -691677.18111419678 2286913.2813475132 0 0 0 0 -516994.55316165881 566532.22844677977 0 566532.22844677977 9073167.4853868149 0 0 0 0 -1250513.1544928551 -240754.85796546936 0 -240754.85796546936 4027208.814239502 0 0 0 0 -561726.4432629114 -445510.25970690884 0 -445510.25970690884 7247799.9910574947 0 0 0 0 -1607202.735877037 -616471.18355560303 0 -616471.18355560303 4721324.1147918701 0 0 0 0 -854278.12596511841 827791.82274627686 0 827791.82274627686 6615204.3501632214 0 0 0 0 -348069.79468941689 734470.97193622589 0 734470.97193622589 3726962.4602203369 0 0 0 0 -12591.633752475609 1529607.8780263001 0 1529607.8780263001 4270096.9835177306 0 0 0 0 -87353.636127352715 9653.8893175125122 0 9653.8893175125122 2706686.3301582336 0 0 0 0 297554.87806817004 112619.21970415767 0 112619.21970415767 2334259.8827683032 0 0 0 0 27656.734743476147 8919.0172526650131 0 8919.0172526650131 4578930.6019019838 0 0 0 0 296684.46294689178 -216224.70170211792 0 -216224.70170211792 1809000.4666671753 0 0 0 0 516799.9195356369 -242017.11631393433 0 -242017.11631393433 1334771.1685943604 0 0 0 0 241245.83119912236 -477762.75823164359 0 -477762.75823164359 3152604.107567939 0 0 0 0 530218.69896018505 -192349.318151474 0 -192349.318151474 1473837.3093948364 0 0 0 0 -816419.05628013611 -2029272.774269104 0 -2029272.774269104 997024.50122070312 0 0 0 0 -296524.22893428802 -1409430.327381134 0 -1409430.327381134 1163388.6804413795 0 0 0 0 597243.53622253588 -978519.62413505837 0 -978519.62413505837 636864.09565127641 0 0 0 0 386184.98185062408 -384593.0527381897 0 -384593.0527381897 1456386.6711044312 0 0 0 0 -285152.27355222916 -3054703.0068256073 0 -3054703.0068256073 1280915.8043297417 0 0 0 0 -142436.34157856018 -770071.43686986878 0 -770071.43686986878 819187.42552300915 0 0 0 0 496124.39128112141 -98210.885909886099 0 -98210.885909886099 494523.97693089209 0 0 0 0 -412596.7965965271 -394281.78253936768 0 -394281.78253936768 277442.33388137817 0 0 0 0 223552.11759028398 -444722.01908857375 0 -444722.01908857375 2418110.0406755046 0 0 0 0 -386719.55282783508 1882802.835723877 0 1882802.835723877 -688802.27557563782 0 0 0 0 -219017.19840550423 -306393.12514448166 0 -306393.12514448166 1075961.0467300415 0 0 0 0 -363278.00375640392 -366669.620429039 0 -366669.620429039 1084040.2925567627 0 0 0 0 11685.959316510241 54075.752005448565 0 54075.752005448565 54718.663739033043 0 0 0 0 -563649.15993595123 374212.70483398438 0 374212.70483398438 482694.41149902344 0 0 0 0 287895.07560369046 -815687.04527370003 0 -815687.04527370003 1187369.9780049548 0 0 0 0 716289.24358381936 -252134.18889651075 0 -252134.18889651075 1688877.1214563213 0 0 0 0 634611.04597113642 108076.57647895161 0 108076.57647895161 -347698.19673843309 0 0 0 0 4302596.9110046625 -4847425.2780017853 0 -4847425.2780017853 -7748037.3784372807 0 0 0 0 2049199.2417243719 2178446.9588880539 0 2178446.9588880539 -1219546.6806335449 0 0 0 0 1122520.1896596574 -636524.15126609989 0 -636524.15126609989 2627853.5533952322 0 0 0 0 1358455.023985642 -77986.912128031254 0 -77986.912128031254 1916464.8362557287 0 0 0 0 -6058275.8767763376 -28709911.49889183 0 -28709911.49889183 -78687212.233573914 0 0 0 0 -4128.8339262008667 -10116.216785430908 0 -10116.216785430908 585782.65406608582 0 0 0 0 -1804220.4266042784 -3880681.4172000885 0 -3880681.4172000885 -6299583.902015686 0 0 0 0 -21349598.271033511 62130360.147186279 0 62130360.147186279 -99152361.083099365 0 0 0 0 2043378.6320900919 672129.84692723863 0 672129.84692723863 2469748.450294991 0 0 0 0 796734.20769262314 384852.82995605469 0 384852.82995605469 2465259.0194854736 0 0 0 0 349663.93540285475 218156.48229259416 0 218156.48229259416 -262383.90680499002 0 0 0 0 -26082038.16371388 -53402342.813414574 0 -53402342.813414574 -97160354.655788422 0 0 0 0 569178.71842956543 325108.9845199585 0 325108.9845199585 2791925.3844451904 0 0 0 0 679885.06676910457 -9465.2062433368992 0 -9465.2062433368992 1417536.9527406357 0 0 0 0 582062.35355532169 393485.81888389587 0 393485.81888389587 2898168.5790481567 0 0 0 0 122787.83068752289 374361.27534484863 0 374361.27534484863 669923.70257568359 0 0 0 0 25367.96999835968 -43928.298610687256 0 -43928.298610687256 500491.71178817749 0 0 0 0 501367.20390125411 620181.10287389159 0 620181.10287389159 1168096.4836867694 0 0 0 0 253008.3879442215 -22647.014644622803 0 -22647.014644622803 1587790.2793083191 0 0 0 0 659068.22325023287 383739.69119362719 0 383739.69119362719 1067539.8871563282 0 0 0 0 616259.32049338729 469308.72096930072 0 469308.72096930072 1511168.7416281961 0 0 0 0 783474.24088552827 326882.51776813529 0 326882.51776813529 461480.23139930516 0 0 0 0 48576.752746582031 112741.90168762207 0 112741.90168762207 397131.1885433197 0 0 0 0 -6289.5544261932373 24093.570465087891 0 24093.570465087891 2674455.7503356934 0 0 0 0 367222.50605392456 267338.38400268555 0 267338.38400268555 250848.20570993423 0 0 0 0 -363270.20675995899 169037.41907722875 0 169037.41907722875 4841307.1897866307 0 0 0 0 -534355.96260261536 -306134.76180648804 0 -306134.76180648804 359024.47842407227 0 0 0 0 579521.51179845911 266340.29456557613 0 266340.29456557613 1286090.0459095202 0 0 0 0 528631.79500383534 -428877.149540963 0 -428877.149540963 2522181.3302464373 0 0 0 0 -657418.25071623735 536980.18595019542 0 536980.18595019542 9578878.0680109225 0 0 0 0 353951.71843665116 -449375.75949355587 0 -449375.75949355587 4792077.4963858938 0 0 0 0 -496797.27041435242 2171228.777015686 0 2171228.777015686 3693676.1862335205 0 0 0 0 -1239165.9443721771 1195286.3767623901 0 1195286.3767623901 4328180.4619789124 0 0 0 0 531238.65289306641 3447038.6963729858 0 3447038.6963729858 3053680.7728271484 0 0 0 0 930971.07114758715 3121113.1322909323 0 3121113.1322909323 1724379.1812017653 0 0 0 0 -168791.460932079 166472.77617923822 0 166472.77617923822 199698.84302075766 0 0 0 0 -139042.11069869995 -622217.08056640625 0 -622217.08056640625 3410632.2395629883 0 0 0 0 -1651861.3390169144 900265.00183868408 0 900265.00183868408 1133303.3818359375 0 0 0 0 -91234.671511600027 2002157.9266412584 0 2002157.9266412584 2770971.4282342754 0 0 0 0 -346875.52153003652 575955.64680365857 0 575955.64680365857 2143545.0879371278 0 0 0 0 -531860.24632485164 391286.48814481217 0 391286.48814481217 9441503.4173589814 0 0 0 0 -825917.01454925537 2386135.3748550415 0 2386135.3748550415 6564034.9604492188 0 0 0 0 -675333.50422801101 940572.46620341577 0 940572.46620341577 8113890.3334576413 0 0 0 0 1550678.7095117569 -3971.0550880432129 0 -3971.0550880432129 3634735.9004402161 0 0 0 0 -1623336.2818932533 -22575.294765472412 0 -22575.294765472412 -1831005.5011672974 0 0 0 0 -359886.00203514099 4688555.4338798523 0 4688555.4338798523 10416124.742248535 0 0 0 0 712512.1713616848 7139672.7786569595 0 7139672.7786569595 9168124.3231201172 0 0 0 0 -298764.31011235609 442742.4060082864 0 442742.4060082864 476196.72838343121 0 0 0 0 -6810296.3335447311 -2241950.632686615 0 -2241950.632686615 7046339.8485717773 0 0 0 0 -5081584.6802883148 124758.26780700684 0 124758.26780700684 8358811.4007797241 0 0 0 0 -3782701.129858017 -1972786.2069702148 0 -1972786.2069702148 10365498.359207153 0 0 0 0 610984.77551460266 -2885855.1216087341 0 -2885855.1216087341 11339600.603042603 0 0 0 0 -538956.67669391632 -865535.4314956665 0 -865535.4314956665 7832303.6325683594 0 0 0 0 1932919.2922096252 5652533.6316757202 0 5652533.6316757202 93922.04564666748 0 0 0 0 -2784703.4691901207 1101971.1652774811 0 1101971.1652774811 18098739.750991821 0 0 0 0 267731.10535267531 1056482.1048877966 0 1056482.1048877966 5579415.5218254356 0 0 0 0 346281.26344108582 416371.44512176514 0 416371.44512176514 4151396.231502533 0 0 0 0 -2788259.2936081886 2404963.131155014 0 2404963.131155014 7712319.0284423828 0 0 0 0 -3705362.8387832642 1127351.4834766388 0 1127351.4834766388 6184801.4486045837 0 0 0 0 -3144164.0627498627 1331140.8298950195 0 1331140.8298950195 4554963.8068122864 0 0 0 0 318371.69777679443 -1153896.2668151855 0 -1153896.2668151855 2706206.9700317383 0 0 0 0 -153087.84433364868 1899723.5165023804 0 1899723.5165023804 5341221.5234985352 0 0 0 0 1579707.5796152598 727822.57125106081 0 727822.57125106081 1031915.0505759474 0 0 0 0 -57597.105989433592 13844.284412984736 0 13844.284412984736 113885.90154542774 0 0 0 0 141583.74388027191 386309.72571182251 0 386309.72571182251 4163250.5660018921 0 0 0 0 -90470.747244119644 4964293.3345279694 0 4964293.3345279694 5460024.1422615051 0 0 0 0 2562842.7843613029 -5068620.2992514372 0 -5068620.2992514372 -1751036.3244018555 0 0 0 0 121886.48542935494 993581.17165930849 0 993581.17165930849 5546158.3707474628 0 0 0 0 319779.98136425018 1103456.5952987671 0 1103456.5952987671 3374948.728872776 0 0 0 0 4470857.8849906921 14165246.594146729 0 14165246.594146729 11014933.868774414 0 0 0 0 3612816.3928785324 2500923.1816253662 0 2500923.1816253662 -2826458.3446807861 0 0 0 0 -176348.47847754846 767925.50702402554 0 767925.50702402554 305441.54751330055 0 0 0 0 1593541.3992452621 -1666310.0329799652 0 -1666310.0329799652 7969315.2313079834 0 0 0 0 -422146.75602012896 1009393.2383451378 0 1009393.2383451378 5685438.0862855082 0 0 0 0 -3172954.5229873657 2989005.4616069794 0 2989005.4616069794 13003749.858102798 0 0 0 0 -1522935.3475880162 -40809.310958724003 0 -40809.310958724003 3159928.5324007603 0 0 0 0 1221789.9293125758 3839689.5416043224 0 3839689.5416043224 2989646.9960956387 0 0 0 0 -12165876.882879257 6916388.4809894562 0 6916388.4809894562 21840217.670919418 0 0 0 0 -15168361.996908188 10954884.342885971 0 10954884.342885971 18047447.395019531 0 0 0 0 -3878198.3532733917 7681492.5746040344 0 7681492.5746040344 -1883527.8330001831 0 0 0 0 1510546.2750759125 -8602659.5365829468 0 -8602659.5365829468 -6665864.1665802002 0 0 0 0 -358336.05808215914 88943.566256953403 0 88943.566256953403 2259686.9136864571 0 0 0 0 1541835.1209087372 25402287.99435997 0 25402287.99435997 -31630500.648441315 0 0 0 0 5273608.8593082428 16036626.315422058 0 16036626.315422058 7150755.3456745148 0 0 0 0 1573660.4766833191 2453499.0887681264 0 2453499.0887681264 3508202.2776621841 0 0 0 0 147213.11052536964 1505808.7608089447 0 1505808.7608089447 2685372.8878097534 0 0 0 0 656516.57348537445 1033594.1809463501 0 1033594.1809463501 2661476.6733441353 0 0 0 0 -50380706.045307159 -3277237.9679203033 0 -3277237.9679203033 5146764.5653076172 0 0 0 0 -56207923.952301502 -26247304.812712669 0 -26247304.812712669 24533331.712371826 0 0 0 0 186238.81938025134 882670.95761506259 0 882670.95761506259 151976.11442770809 0 0 0 0 -122979219.23367691 -7527861.8119697571 0 -7527861.8119697571 19438310.825469971 0 0 0 0 -228884.6915941902 -145240.56679281942 0 -145240.56679281942 190443.97011077404 0 0 0 0 982979.50930213928 600277.41432189941 0 600277.41432189941 2689970.6831359863 0 0 0 0 110504.30672168732 909754.12242698669 0 909754.12242698669 3302991.4122276306 0 0 0 0 599709.81553006172 464026.0295715332 0 464026.0295715332 2788400.8944015503 0 0 0 0 836919.51338648796 983007.28462314606 0 983007.28462314606 2222681.2547836304 0 0 0 0 879592.8203086853 1177510.0287418365 0 1177510.0287418365 1939106.7427902222 0 0 0 0 1603985.1633782475 3095630.1435441575 0 3095630.1435441575 3091046.0953952093 0 0 0 0 2023620.1330743097 1190583.4297886044 0 1190583.4297886044 2829189.9633978307 0 0 0 0 696723.49461078644 1200854.1175632477 0 1200854.1175632477 2323792.1479759216 0 0 0 0 -59056100.483049393 20085838.588630676 0 20085838.588630676 21376587.689743042 0 0 0 0 -277106931.12848282 -64451466.537281036 0 -64451466.537281036 155005502.17055511 0 0 0 0 -105712610.01362467 -13407682.090979576 0 -13407682.090979576 122578672.16786385 0 0 0 0 -193176917.95258665 -23334110.983578682 0 -23334110.983578682 147190165.21621704 0 0 0 0 -109586347.40090942 -5369077.3580770493 0 -5369077.3580770493 146895090.36817169 0 0 0 0 -259020418.09417343 27001889.587334633 0 27001889.587334633 193832144.92344666 0 0 0 0 15316998.440828323 12239981.405397415 0 12239981.405397415 13521679.453454971 0 0 0 0 -154470.45851452742 1111599.8264378388 0 1111599.8264378388 703368.51728773396 0 0 0 0 -188998914.41508293 8688881.3392906189 0 8688881.3392906189 361870528.80027008 0 0 0 0 15007718.501665555 47944665.148921311 0 47944665.148921311 30228767.09091568 0 0 0 0 -237565.13913297653 4400552.3119039536 0 4400552.3119039536 -86697524.340007305 0 0 0 0 -1242463.5212099643 2390796.552216494 0 2390796.552216494 2106458.8400397515 0 0 0 0 20210677.037900686 -15512751.917905331 0 -15512751.917905331 -83962798.064584732 0 0 0 0 -45886792.179775715 -15511698.491436005 0 -15511698.491436005 52831033.58549118 0 0 0 0 -1254302.866271795 -479896.08860297222 0 -479896.08860297222 6022452.1115167988 0 0 0 0 -36535066.071689606 -43411233.26225853 0 -43411233.26225853 -29419045.279754639 0 0 0 0 -44602.862981439568 93941.454930296633 0 93941.454930296633 175437.34076940035 0 0 0 0 -115434893.94679356 -45204274.846147537 0 -45204274.846147537 -86657344.112520218 0 0 0 0 -213381359.6490469 -109449454.11179638 0 -109449454.11179638 27735432.467773438 0 0 0 0 -202076709.31585002 -65334049.645800114 0 -65334049.645800114 106129375.96443939 0 0 0 0 -84987271.356795311 17623423.876659393 0 17623423.876659393 20323991.739118576 0 0 0 0 -67970973.224724531 -12983976.856169224 0 -12983976.856169224 64270417.963985443 0 0 0 0 -102743022.18427181 76554835.924467087 0 76554835.924467087 -18582723.647511482 0 0 0 0 -46207239.800363064 101518380.03693676 0 101518380.03693676 53994107.817440033 0 0 0 0 -85473870.314466953 49944487.160808563 0 49944487.160808563 9442448.6361579895 0 0 0 0 -39315114.506922245 57812429.768502235 0 57812429.768502235 -79281095.004062653 0 0 0 0 -35595542.35512352 88801918.676390648 0 88801918.676390648 -44308682.260976791 0 0 0 0 -79989135.971400261 78384413.706207275 0 78384413.706207275 15892881.905472755 0 0 0 0 -822044.75976631255 1635034.4278396796 0 1635034.4278396796 5160998.3977474943 0 0 0 0 -780655.8941078186 2672526.5461807251 0 2672526.5461807251 -106305.67819261551 0 0 0 0 -502562.38326819602 4059340.0485912487 0 4059340.0485912487 2244247.1650569811 0 0 0 0 9200716.6762447357 -4236528.8300609589 0 -4236528.8300609589 -8566657.5950088501 0 0 0 0 354133.59488901217 3483995.8923607096 0 3483995.8923607096 2285987.7778537665 0 0 0 0 -92685631.903995752 41237463.598073959 0 41237463.598073959 -21945968.140731812 0 0 0 0 -127453969.02568531 48416344.564064026 0 48416344.564064026 9971985.0338859558 0 0 0 0 5460356.5839321613 19762419.820120811 0 19762419.820120811 3106891.0879249573 0 0 0 0 -487181.02351431572 3850311.2047637049 0 3850311.2047637049 2204465.2577378657 0 0 0 0 -2002028.5713806152 849166.70967483521 0 849166.70967483521 3456511.4525222778 0 0 0 0 -108308.90365206124 -213819.06305398233 0 -213819.06305398233 239202.00534159876 0 0 0 0 -2609308.0949995518 2237245.2751865387 0 2237245.2751865387 3712429.3977975845 0 0 0 0 -517633.80750780518 2482383.7184650507 0 2482383.7184650507 3422006.1987105701 0 0 0 0 -2488055.8578195572 955165.52341461182 0 955165.52341461182 4353270.9194850922 0 0 0 0 -2822283.768781662 2290958.0316467285 0 2290958.0316467285 2160793.3235549927 0 0 0 0 -3185223.2997074127 1286594.8858718872 0 1286594.8858718872 2500102.7606108189 0 0 0 0 -1646594.7546625137 966445.70686340332 0 966445.70686340332 3513241.4128698111 0 0 0 0 -680597.00473403931 1066112.4433784485 0 1066112.4433784485 2943046.3125724792 0 0 0 0 -2164766.3333973885 583082.72564697266 0 583082.72564697266 3388697.8118438721 0 0 0 0 -30773.847524425597 970375.49060681066 0 970375.49060681066 2487471.9972921833 0 0 0 0 -1400574.5354785919 125604.0296497345 0 125604.0296497345 2204369.9791946411 0 0 0 0 -67357.98041501554 2416251.1760196281 0 2416251.1760196281 5769077.54748323 0 0 0 0 -10275839.097692966 -1534990.8429718018 0 -1534990.8429718018 16415664.496307373 0 0 0 0 -5883540.6668284535 3095996.036976099 0 3095996.036976099 5711033.9849319458 0 0 0 0 -2445155.6745209694 1963136.2477397919 0 1963136.2477397919 2257803.8904328942 0 0 0 0 65861.483269308374 784150.56997365959 0 784150.56997365959 2465293.1760560907 0 0 0 0 1368606.7466011047 4910127.6565475464 0 4910127.6565475464 6192594.6922149658 0 0 0 0 47615.854454994202 9072935.5698013306 0 9072935.5698013306 9051007.8789825439 0 0 0 0 11157351.916451693 4088829.0701694489 0 4088829.0701694489 3737744.2920532227 0 0 0 0 -123983.97372833593 2264907.6862632004 0 2264907.6862632004 5026119.1411889456 0 0 0 0 -2196007.4496221542 1972786.793800354 0 1972786.793800354 1922072.4979095459 0 0 0 0 92404.923400785774 3235500.8110987097 0 3235500.8110987097 3809826.7804130651 0 0 0 0 871264.05367480335 2103109.8207614785 0 2103109.8207614785 6891332.8088553194 0 0 0 0 1349555.8939619064 158794.01170349121 0 158794.01170349121 1531452.848526001 0 0 0 0 -1321779.9789042473 -2435729.1263389587 0 -2435729.1263389587 5677450.5227279663 0 0 0 0 -4826829.1659917831 -2735256.6765174866 0 -2735256.6765174866 5321389.3635101318 0 0 0 0 -4138821.8351173401 4945919.605386734 0 4945919.605386734 18823257.450517654 0 0 0 0 -2772277.2807944682 2609255.4212367311 0 2609255.4212367311 10162824.151750579 0 0 0 0 4978368.3891134262 4951217.7024974823 0 4951217.7024974823 15119559.993010044 0 0 0 0 -1808597.1047515869 1788098.2313232422 0 1788098.2313232422 11005648.790979385 0 0 0 0 -4755819.6536157131 14123148.352251291 0 14123148.352251291 27679458.959411621 0 0 0 0 -1573576.2238800526 -156921.47053718567 0 -156921.47053718567 9346062.7102737427 0 0 0 0 -1115866.3478626516 2265805.8931736089 0 2265805.8931736089 8887957.8262157179 0 0 0 0 839179.09348480136 278926.79498324543 0 278926.79498324543 9896639.3021870665 0 0 0 0 -1876579.2589683533 911291.52076339722 0 911291.52076339722 2549841.3233795166 0 0 0 0 -4001751.8985247612 1161467.9688186646 0 1161467.9688186646 5218386.7844161987 0 0 0 0 -863932.72277755314 -701408.59031592403 0 -701408.59031592403 11017742.966616435 0 0 0 0 -659490.20615196228 1720578.7198181152 0 1720578.7198181152 1623369.8754882812 0 0 0 0 617433.18188112753 1474342.2613665238 0 1474342.2613665238 1771664.1017096527 0 0 0 0 -5535339.1047534943 -1153911.740737915 0 -1153911.740737915 14734879.064117432 0 0 0 0 -689201.31318549556 -213758.21142408997 0 -213758.21142408997 12287439.85783929 0 0 0 0 -732447.91508156643 -409971.47953221016 0 -409971.47953221016 12381128.993659476 0 0 0 0 -683856.70915818214 -37044.378847122192 0 -37044.378847122192 10705778.048091888 0 0 0 0 -275877.2228140831 -3073233.485537529 0 -3073233.485537529 19441872.07408905 0 0 0 0 6536168.3290973902 17212098.729780197 0 17212098.729780197 13733774.360740662 0 0 0 0 -683461.73021635483 754729.43985587731 0 754729.43985587731 1845489.0509448852 0 0 0 0 1907971.4328250885 1887886.438035965 0 1887886.438035965 10507028.636051178 0 0 0 0 -1744781.3756670952 12713060.063113689 0 12713060.063113689 22167029.761924744 0 0 0 0 -7939996.1444624662 5360917.3927087784 0 5360917.3927087784 23216701.523590088 0 0 0 0 14273026.706909657 2828022.9668045044 0 2828022.9668045044 7980073.6529541016 0 0 0 0 155656.17935301457 1441970.7162946891 0 1441970.7162946891 4868262.4280198216 0 0 0 0 -4562658.5893836021 -523688.89789581299 0 -523688.89789581299 7481787.5480499268 0 0 0 0 2019812.8257627487 -1818003.2913551331 0 -1818003.2913551331 7243983.1985015869 0 0 0 0 3850003.6889791489 963576.8498840332 0 963576.8498840332 4548358.3681116104 0 0 0 0 -1850403.2125892639 1393709.692176342 0 1393709.692176342 7087053.7499160767 0 0 0 0 7049413.9522066116 7799593.3697128296 0 7799593.3697128296 12149446.899002075 0 0 0 0 -1649304.9371519089 434476.97241973877 0 434476.97241973877 7331213.5529594421 0 0 0 0 675243.65314412117 9624065.909910202 0 9624065.909910202 21296606.532562256 0 0 0 0 -723657.1715502739 5972550.0219917297 0 5972550.0219917297 15899027.284259796 0 0 0 0 -808148.22196269035 5558181.2733592987 0 5558181.2733592987 14402860.414871216 0 0 0 0 -1093653.9969615936 3051690.9854545593 0 3051690.9854545593 14280364.287078857 0 0 0 0 664268.22155284882 4126769.4904823303 0 4126769.4904823303 11660556.296157837 0 0 0 0 -175873.58154349774 328845.64657133445 0 328845.64657133445 528492.63480606675 0 0 0 0 2001975.7308206558 8266963.8534202576 0 8266963.8534202576 15587252.060930252 0 0 0 0 93971.16276550293 -664170.83708190918 0 -664170.83708190918 6188430.5276117325 0 0 0 0 2132672.6327476501 6410854.3382606506 0 6410854.3382606506 13773544.654823303 0 0 0 0 -1658522.3493902683 1865993.2197437286 0 1865993.2197437286 5285695.5162353516 0 0 0 0 53050.107993633021 301074.91931354627 0 301074.91931354627 7545542.1735127652 0 0 0 0 -1576425.9436378479 1386183.5674438477 0 1386183.5674438477 2316156.7852935791 0 0 0 0 -712992.21254730225 1509955.3652954102 0 1509955.3652954102 4289042.4010009766 0 0 0 0 -1562201.2622505426 992665.53723526001 0 992665.53723526001 6002083.3006896973 0 0 0 0 1066642.6444097506 1508921.2224975508 0 1508921.2224975508 3703913.54774452 0 0 0 0 10398817.928512573 9388611.9077758789 0 9388611.9077758789 3455005.8241577148 0 0 0 0 -867000.52184823703 -702963.64591179881 0 -702963.64591179881 1975566.8958692849 0 0 0 0 1592869.9282338396 2459975.3226125399 0 2459975.3226125399 1507809.160876926 0 0 0 0 82484.66801408981 132266.26084583206 0 132266.26084583206 -66747.665210392326 0 0 0 0 -113733.04096746445 238077.25540924072 0 238077.25540924072 5852764.3348083496 0 0 0 0 934968.97221469879 4163631.016705513 0 4163631.016705513 9577688.6253166199 0 0 0 0 2058229.9366285801 2827451.5457649231 0 2827451.5457649231 8559107.2854766846 0 0 0 0 1256442.5344513818 681678.12259479798 0 681678.12259479798 7758643.1395505071 0 0 0 0 -968540.3424120103 -1360205.1579588531 0 -1360205.1579588531 10322012.376401778 0 0 0 0 -1940666.8302605152 1497405.7116699219 0 1497405.7116699219 11623586.082939148 0 0 0 0 -1571833.2593428232 -951241.81276138499 0 -951241.81276138499 11728381.009810515 0 0 0 0 -2148442.2068938017 1882436.0847206116 0 1882436.0847206116 19390458.290130615 0 0 0 0 -2201120.9662218094 -2617479.7082004547 0 -2617479.7082004547 11313001.040013313 0 0 0 0 -722536.23957620538 647862.15258663706 0 647862.15258663706 7526122.320223134 0 0 0 0 -704554.10649549961 852559.81793212891 0 852559.81793212891 20054468.378053665 0 0 0 0 -454961.37098672055 -8899319.4825401306 0 -8899319.4825401306 12509181.442398071 0 0 0 0 -3297104.2135683298 -6437872.920879364 0 -6437872.920879364 10624297.692382812 0 0 0 0 -4018846.0102511458 -6651835.8048706055 0 -6651835.8048706055 13748324.71723175 0 0 0 0 200645.91505498497 -2263337.5813089255 0 -2263337.5813089255 10270714.704822235 0 0 0 0 -4462954.9774643332 -7930478.1482534409 0 -7930478.1482534409 14460126.040000916 0 0 0 0 -5244201.3662693258 -9786045.5386838913 0 -9786045.5386838913 12432051.752304077 0 0 0 0 -16502546.320802756 -4882483.6073408127 0 -4882483.6073408127 22704965.964096069 0 0 0 0 -13917725.299131054 -15318470.587302208 0 -15318470.587302208 34375314.639297485 0 0 0 0 -44110302.976959601 -17633464.381347656 0 -17633464.381347656 40586696.441558838 0 0 0 0 -29175150.881992191 -12763460.373069763 0 -12763460.373069763 34170856.642560005 0 0 0 0 -18061339.164964333 2963904.648147583 0 2963904.648147583 30948496.337013245 0 0 0 0 -12905672.518998086 5196917.6015548706 0 5196917.6015548706 15221799.240272522 0 0 0 0 -9924597.9744687527 -4752081.5685634613 0 -4752081.5685634613 20053000.697547913 0 0 0 0 -3042421.4370218515 -4061923.3510112762 0 -4061923.3510112762 11578671.60402298 0 0 0 0 -6645393.9181095958 -147972.10408401489 0 -147972.10408401489 18152828.083088875 0 0 0 0 -360692.99044414063 -1056100.4018645603 0 -1056100.4018645603 12356876.870957348 0 0 0 0 -1006378.3915541057 2470342.7303513624 0 2470342.7303513624 11687274.329143442 0 0 0 0 -9721077.2537004203 1560555.0187530518 0 1560555.0187530518 18545862.385545731 0 0 0 0 -6784799.1821942329 3570915.2321434021 0 3570915.2321434021 7449218.4809112549 0 0 0 0 -1490858.2496045381 6532288.1832262278 0 6532288.1832262278 10286200.227685485 0 0 0 0 -16713370.797277927 4859681.735452652 0 4859681.735452652 8328293.2147603035 0 0 0 0 -6392064.0993751585 100552.36493110657 0 100552.36493110657 8337517.8214569092 0 0 0 0 -7364077.864890337 1557894.6601543427 0 1557894.6601543427 7494386.9628829956 0 0 0 0 -436989.5072522572 -395111.96296335757 0 -395111.96296335757 761079.64651944488 0 0 0 0 -7312974.9623599201 1462007.8406114578 0 1462007.8406114578 7752614.4644851685 0 0 0 0 -6977911.9813488722 -978522.98738765717 0 -978522.98738765717 9212693.1098403931 0 0 0 0 -80884.570162534714 305464.41188812256 0 305464.41188812256 10268773.756792068 0 0 0 0 -854252.69418334961 -1011041.0714302063 0 -1011041.0714302063 11348178.361338615 0 0 0 0 -4490867.4999287724 -2503507.9349617958 0 -2503507.9349617958 8998817.256690979 0 0 0 0 -3846523.1249161661 -201719.55525779724 0 -201719.55525779724 7567725.7166213989 0 0 0 0 -514582.92136856052 3196341.2358548632 0 3196341.2358548632 12352265.301134393 0 0 0 0 -7661612.1471936703 1304353.5877151489 0 1304353.5877151489 12209242.160396576 0 0 0 0 -8967289.6523923874 25624964.606771946 0 25624964.606771946 16332930.358957291 0 0 0 0 -6850087.1294350624 25072589.403864861 0 25072589.403864861 11331642.543609619 0 0 0 0 -850873.62860454409 4247088.8213653881 0 4247088.8213653881 1733792.3381725531 0 0 0 0 -6837536.8007154465 23111543.85337162 0 23111543.85337162 18240007.086978912 0 0 0 0 -3808972.9497365952 1980311.7312469482 0 1980311.7312469482 4347894.8722419739 0 0 0 0 -12487841.000043869 -1499281.5556411743 0 -1499281.5556411743 16772568.32284832 0 0 0 0 -2073339.9610830019 1332547.5811371286 0 1332547.5811371286 8058531.8602141729 0 0 0 0 -11388029.236145973 1404655.5223045349 0 1404655.5223045349 9471288.4407577515 0 0 0 0 -5834782.5221252441 21825037.680519104 0 21825037.680519104 21512104.296333313 0 0 0 0 -659177.96249389648 17888038.045440674 0 17888038.045440674 22463338.520256042 0 0 0 0 4078136.7015838623 17835527.515853882 0 17835527.515853882 15483735.356708527 0 0 0 0 8970387.1315460205 9495281.550579071 0 9495281.550579071 24690196.873520851 0 0 0 0 19996611.123196602 19101746.626814842 0 19101746.626814842 14206053.869159698 0 0 0 0 -2295241.6699390411 14157066.545600891 0 14157066.545600891 23557209.127902985 0 0 0 0 32652547.65018177 7682549.1342849731 0 7682549.1342849731 13427869.943790436 0 0 0 0 -10777140.102639198 18918166.152650833 0 18918166.152650833 26868595.156051636 0 0 0 0 -12467875.213442802 -1827245.6700267792 0 -1827245.6700267792 12861621.92979908 0 0 0 0 -48785999.364441395 13661678.894514561 0 13661678.894514561 31045148.811431885 0 0 0 0 -868727.36099819164 1680064.6065887948 0 1680064.6065887948 12839307.820268966 0 0 0 0 -1878973.112562418 13195608.206878901 0 13195608.206878901 4125831.286693573 0 0 0 0 -19548650.090373755 -4355792.4502429962 0 -4355792.4502429962 17708586.587753296 0 0 0 0 -13838899.851867676 8938772.62362957 0 8938772.62362957 6634802.9004077911 0 0 0 0 -1698917.9493573697 -880771.69592000009 0 -880771.69592000009 13456738.863365378 0 0 0 0 -45316351.143307686 -5826689.851316452 0 -5826689.851316452 33526827.833155632 0 0 0 0 5441089.2818174362 17509390.131929398 0 17509390.131929398 32983007.870631218 0 0 0 0 -23567748.212893486 -3396534.398443222 0 -3396534.398443222 55376258.08170414 0 0 0 0 -14269203.842973709 10077075.805070877 0 10077075.805070877 38810823.814744949 0 0 0 0 12155909.483741283 16696379.061157942 0 16696379.061157942 14387444.693378448 0 0 0 0 10537659.697253704 10847137.079105377 0 10847137.079105377 37382311.59290266 0 0 0 0 7536251.5778374672 27785998.950222492 0 27785998.950222492 48327498.187503815 0 0 0 0 -52313.54941134504 540711.51505355164 0 540711.51505355164 1210943.4971026545 0 0 0 0 35932271.66262424 58617911.157632351 0 58617911.157632351 102490731.87037468 0 0 0 0 4095901.4957623482 -85137094.127510071 0 -85137094.127510071 -11089905.761294365 0 0 0 0 2540602.8679428101 -31798206.931955338 0 -31798206.931955338 -24106748.333108902 0 0 0 0 -88592592.84587574 -49307287.379484177 0 -49307287.379484177 24654367.481470108 0 0 0 0 36325574.711093992 43250154.935607076 0 43250154.935607076 24563508.500246048 0 0 0 0 -523192.52503894479 2025899.8351599341 0 2025899.8351599341 4248632.766684005 0 0 0 0 -72025398.317831516 -12693386.891311646 0 -12693386.891311646 21282106.857551575 0 0 0 0 -64599335.240502357 -23895770.463141441 0 -23895770.463141441 2345652.3171749115 0 0 0 0 -95394801.340744019 -4600703.9082450867 0 -4600703.9082450867 18732301.374534607 0 0 0 0 -62273697.120090485 9295688.3377914429 0 9295688.3377914429 26567773.371685028 0 0 0 0 -53618681.692253113 10790664.695865631 0 10790664.695865631 24401343.306119919 0 0 0 0 -99605209.186701775 26294020.892047882 0 26294020.892047882 55879770.659297943 0 0 0 0 -18241290.506038666 -3913355.663394928 0 -3913355.663394928 5481048.4280409813 0 0 0 0 -45115851.653946877 -4184840.9597969055 0 -4184840.9597969055 16773258.95249176 0 0 0 0 -17657116.390989304 2597050.8054246902 0 2597050.8054246902 21230659.739486694 0 0 0 0 -15917647.269771576 4090633.1714267731 0 4090633.1714267731 18241408.955036163 0 0 0 0 -25807217.841923237 26837840.916475296 0 26837840.916475296 34999311.67301178 0 0 0 0 -61858611.209087372 36252704.106420517 0 36252704.106420517 56742405.436283112 0 0 0 0 -165116983.1203661 64898758.14134407 0 64898758.14134407 198209100.92422485 0 0 0 0 -45311266.562883854 -9315157.1264400482 0 -9315157.1264400482 -10202369.259739876 0 0 0 0 -153140075.05363572 279523016.34378946 0 279523016.34378946 30696408.157428741 0 0 0 0 -124949507.23283577 7129008.9486694336 0 7129008.9486694336 45995158.510292053 0 0 0 0 -108212650.05127698 -107136701.19287229 0 -107136701.19287229 -162242227.06830978 0 0 0 0 -8499948.4234964848 -7515720.4195518494 0 -7515720.4195518494 15257206.870834351 0 0 0 0 1362144.6644837968 22571641.894866943 0 22571641.894866943 -14482861.118167877 0 0 0 0 -287963.20062674489 -431740.02114496194 0 -431740.02114496194 2052259.235146014 0 0 0 0 -5822729.2671645284 1594071.3075881004 0 1594071.3075881004 7051132.2593078613 0 0 0 0 19278936.909844831 -29093169.324119568 0 -29093169.324119568 49424768.12487793 0 0 0 0 7550010.1982028484 -5772422.4653396606 0 -5772422.4653396606 68408085.201248169 0 0 0 0 -15311533.268289298 -21210375.174560547 0 -21210375.174560547 58395554.828918457 0 0 0 0 -61669.706589027955 -282700.19597849064 0 -282700.19597849064 1332521.2140709125 0 0 0 0 -2929598.5644876109 -19337404.346511841 0 -19337404.346511841 61114967.523864746 0 0 0 0 26654566.70737344 -71849803.568008423 0 -71849803.568008423 25731959.724258423 0 0 0 0 42872.388670476146 -240295.3338975776 0 -240295.3338975776 1001008.724498732 0 0 0 0 -29882.163260571095 1127411.2151451111 0 1127411.2151451111 13572984.151184082 0 0 0 0 20486574.676043998 -5221675.7915039062 0 -5221675.7915039062 -46442361.784324646 0 0 0 0 -5760057.7131617554 1954882.2539420128 0 1954882.2539420128 14307384.660598755 0 0 0 0 23074630.206912339 -24739714.818565369 0 -24739714.818565369 9507602.0374908447 0 0 0 0 13075558.232724691 13192604.777572632 0 13192604.777572632 10772165.474220276 0 0 0 0 -4353453.071693819 12328693.005639076 0 12328693.005639076 56961847.488357544 0 0 0 0 -32896580.846677992 32387619.502601624 0 32387619.502601624 97329936.085540771 0 0 0 0 -63622.321756459445 -97932.32021732023 0 -97932.32021732023 186973.33766803518 0 0 0 0 4491679.8330049934 79446.425918579102 0 79446.425918579102 -1202805.0163116455 0 0 0 0 5698366.2921198262 6933274.2427024841 0 6933274.2427024841 4465159.3397827148 0 0 0 0 2720.2292774689149 4749321.4993972778 0 4749321.4993972778 15351962.706665039 0 0 0 0 7639.7792933275578 1024928.4971166446 0 1024928.4971166446 1281159.1351776123 0 0 0 0 406916.0477033006 1898640.6736450195 0 1898640.6736450195 2982249.4034061432 0 0 0 0 -3441226.3915464906 -1052371.1933898926 0 -1052371.1933898926 2897675.8134613037 0 0 0 0 -3421132.3857375025 -892333.72829818726 0 -892333.72829818726 1324156.6047973633 0 0 0 0 547249.73115111981 2061403.1271209717 0 2061403.1271209717 1004901.8391265869 0 0 0 0 -4165.6953731893645 50256.804253185168 0 50256.804253185168 106277.71436471422 0 0 0 0 2047392.5467956811 -4540456.9729976654 0 -4540456.9729976654 6809838.1299514771 0 0 0 0 -216521.22669366069 -331147.33135734592 0 -331147.33135734592 574626.89419472963 0 0 0 0 5515854.9456071258 -5434161.0901603699 0 -5434161.0901603699 6709987.3549957275 0 0 0 0 -704473.29541903734 -2313030.0116043091 0 -2313030.0116043091 5427637.7912826538 0 0 0 0 111678.4523438593 565131.51292282157 0 565131.51292282157 2224848.7661450105 0 0 0 0 -374749.80827826262 -1399076.0899906158 0 -1399076.0899906158 7616389.4400482178 0 0 0 0 -553821.20646262169 -826449.97681427002 0 -826449.97681427002 6718893.3994047642 0 0 0 0 -339523.78095304966 -495840.53754806519 0 -495840.53754806519 7158406.7696762085 0 0 0 0 66688.529121753527 716423.68528167903 0 716423.68528167903 3552976.1138309347 0 0 0 0 -862554.26496362686 -368478.40349960327 0 -368478.40349960327 7168729.0772476196 0 0 0 0 2543484.6243916787 -13195179.247153282 0 -13195179.247153282 36111442.353157043 0 0 0 0 -683391.81882708531 -551107.41439697333 0 -551107.41439697333 3522073.4791764058 0 0 0 0 -1131634.0424271822 -652184.52779006958 0 -652184.52779006958 8093721.1305084229 0 0 0 0 -1345355.6294047832 1442871.4044895172 0 1442871.4044895172 4461062.9102859497 0 0 0 0 -688966.09906291962 -99829.316753387451 0 -99829.316753387451 6271672.6652314663 0 0 0 0 -303886.3131927491 1579598.0563522633 0 1579598.0563522633 4639464.6978634223 0 0 0 0 -1534014.3190207481 1139156.4907646179 0 1139156.4907646179 3972411.3468762636 0 0 0 0 -1726162.0505224506 -226693.78748065699 0 -226693.78748065699 4421958.8377142847 0 0 0 0 -667804.04084992409 -5511722.2617492676 0 -5511722.2617492676 16237902.538093567 0 0 0 0 -6766567.9479525685 -12451157.16860199 0 -12451157.16860199 36034004.309783936 0 0 0 0 51651.673595181863 -246445.76030110382 0 -246445.76030110382 -71258.814377963543 0 0 0 0 -4745330.6586883366 -5455469.3161773682 0 -5455469.3161773682 16461940.089035034 0 0 0 0 -1604455.3928828919 -2630736.8380456772 0 -2630736.8380456772 6052148.915812416 0 0 0 0 -2449331.4002808332 -3426568.7011032104 0 -3426568.7011032104 15198847.747612 0 0 0 0 -600498.96259003878 57801.516195297241 0 57801.516195297241 11889245.11403656 0 0 0 0 -3357291.1298108399 17535.538414001465 0 17535.538414001465 19962573.111816406 0 0 0 0 -3366169.56499286 98586.871959686279 0 98586.871959686279 21023381.425476074 0 0 0 0 748538.44632901251 -6538560.7115087509 0 -6538560.7115087509 27063103.431243896 0 0 0 0 -3207448.7213447988 -1095219.1257820129 0 -1095219.1257820129 26310961.102020264 0 0 0 0 -5828950.081779182 3665123.8477020264 0 3665123.8477020264 21887127.108146667 0 0 0 0 -949661.65515464544 -1417887.3759231567 0 -1417887.3759231567 19090544.400611877 0 0 0 0 -6313218.8713997677 -711607.60948753357 0 -711607.60948753357 33163900.362716675 0 0 0 0 -2414911.4582161009 4845301.8404464722 0 4845301.8404464722 22182312.481918335 0 0 0 0 -4104742.3833907247 9863711.3233261108 0 9863711.3233261108 7655093.4558639526 0 0 0 0 -2697956.1377544105 4357318.2680969238 0 4357318.2680969238 21723481.584251404 0 0 0 0 -697808.17257931107 4447067.8962272629 0 4447067.8962272629 19144670.663589478 0 0 0 0 6833224.4351367354 -11779701.592407227 0 -11779701.592407227 32840455.727249146 0 0 0 0 1135782.6509498954 -20547833.169517517 0 -20547833.169517517 45470877.817295074 0 0 0 0 -6782752.1303042769 -10099576.455329895 0 -10099576.455329895 38670845.431602478 0 0 0 0 -23578249.224728122 -6296783.1518478394 0 -6296783.1518478394 43527312.388462067 0 0 0 0 -15999026.086976945 11434891.281410217 0 11434891.281410217 23929466.894405365 0 0 0 0 8832620.1393689886 3041611.7015953064 0 3041611.7015953064 -2775571.3779830933 0 0 0 0 -12843564.307153802 -9043405.2949500084 0 -9043405.2949500084 5594532.9144592285 0 0 0 0 -15939216.104751062 9311693.0030062199 0 9311693.0030062199 8602065.3084793091 0 0 0 0 -197678.702002123 5796609.6096038818 0 5796609.6096038818 8863902.5204238892 0 0 0 0 -19.573137758474331 -12022.594189772382 0 -12022.594189772382 79557.912516254932 0 0 0 0 -14104274.53650666 8099539.271905899 0 8099539.271905899 25826682.586975098 0 0 0 0 -292687.36394704517 61725.608441580087 0 61725.608441580087 3901414.4537850451 0 0 0 0 1060455.1476156078 -7828982.6866111755 0 -7828982.6866111755 7212200.8159217834 0 0 0 0 -79892.974347851501 -19537.721128590405 0 -19537.721128590405 1208030.7407192094 0 0 0 0 754653.77540776134 -8690537.4784698486 0 -8690537.4784698486 -1912850.8548049927 0 0 0 0 995357.76855502836 -7029192.5888366699 0 -7029192.5888366699 5111048.5237960815 0 0 0 0 633252.37644268572 -5315438.8098907471 0 -5315438.8098907471 5192437.4595336914 0 0 0 0 6501408.755864203 -14768502.074523926 0 -14768502.074523926 7506983.5282917023 0 0 0 0 -790192.71077840403 -15665259.942401886 0 -15665259.942401886 19634590.29750824 0 0 0 0 -676286.86799978325 -14128351.187004328 0 -14128351.187004328 13274836.204650879 0 0 0 0 -10733092.873387318 -15134902.49772644 0 -15134902.49772644 22166833.294059753 0 0 0 0 15500334.005638152 -11612559.921943665 0 -11612559.921943665 7745752.724105835 0 0 0 0 6360531.1538230479 -21722516.219688416 0 -21722516.219688416 21159779.941886902 0 0 0 0 30399917.160857886 -33525017.43901062 0 -33525017.43901062 32033970.013198853 0 0 0 0 15444659.746104732 -1239820.8911628723 0 -1239820.8911628723 63840969.007911682 0 0 0 0 3675613.2604537457 -18056017.061668396 0 -18056017.061668396 23665119.206771851 0 0 0 0 1671611.007319913 -27562997.963253021 0 -27562997.963253021 31229908.402236938 0 0 0 0 -19326021.974962089 -29432858.288017273 0 -29432858.288017273 42595852.607528687 0 0 0 0 869694.64214964211 4122247.8154563904 0 4122247.8154563904 2593609.3603897095 0 0 0 0 -1202.2511839747676 -2382.7705827085301 0 -2382.7705827085301 43417.777680244297 0 0 0 0 14159509.508788466 -19716835.542747498 0 -19716835.542747498 17637081.086898804 0 0 0 0 25298720.956986293 48669603.208690643 0 48669603.208690643 59262839.931022644 0 0 0 0 739594.60776086897 21630857.496864319 0 21630857.496864319 52809151.59009552 0 0 0 0 4067197.474268496 29949167.170181274 0 29949167.170181274 33931993.140579224 0 0 0 0 4743291.8451442569 13671394.435432434 0 13671394.435432434 19143737.09072113 0 0 0 0 2370440.6056430936 16487419.534845352 0 16487419.534845352 2430077.9439468384 0 0 0 0 5077741.6319360286 5770731.7030181885 0 5770731.7030181885 26576239.255919456 0 0 0 0 1147244.2139005363 -17538180.406593323 0 -17538180.406593323 23709018.205337524 0 0 0 0 3195850.2727282122 -9446897.2147026062 0 -9446897.2147026062 55348531.883590698 0 0 0 0 3756.8701187601837 -10244.912442173809 0 -10244.912442173809 35063.70831490308 0 0 0 0 11808652.248614043 15565258.632022858 0 15565258.632022858 49775308.32607767 0 0 0 0 -17055163.930582047 -29178325.689903259 0 -29178325.689903259 30781020.887863159 0 0 0 0 -3380665.601115346 -25662473.418411255 0 -25662473.418411255 15122681.592025757 0 0 0 0 3985502.5053872084 -13930934.886341095 0 -13930934.886341095 88335778.866138458 0 0 0 0 9669181.9436102342 -8764267.2271823883 0 -8764267.2271823883 37620912.235183716 0 0 0 0 5772527.2936407216 9646463.3029470444 0 9646463.3029470444 48095611.258613586 0 0 0 0 6408236.1309939381 6970356.976108551 0 6970356.976108551 49572712.880363464 0 0 0 0 36884.188187760134 7504003.9986076355 0 7504003.9986076355 52950448.143234253 0 0 0 0 -3162.311734404966 12167361.716510773 0 12167361.716510773 45363902.17155838 0 0 0 0 7712680.0875269659 12335191.075443268 0 12335191.075443268 39142555.925163269 0 0 0 0 -447975.93082968891 18228479.289737701 0 18228479.289737701 43662023.264389038 0 0 0 0 1523506.2378484535 14840838.198654175 0 14840838.198654175 49242794.187797546 0 0 0 0 -5437.017173829332 10522225.38949585 0 10522225.38949585 47840211.252227783 0 0 0 0 -4429748.9447173253 12317080.706394196 0 12317080.706394196 49342672.461081862 0 0 0 0 -3270976.4657302313 15475598.525315285 0 15475598.525315285 57404009.451148987 0 0 0 0 -8357052.0584348515 5324111.1192550659 0 5324111.1192550659 54009525.522200584 0 0 0 0 -6235777.3319301493 1714486.7539176941 0 1714486.7539176941 44092568.81946373 0 0 0 0 -3463217.5372680202 25829978.896930695 0 25829978.896930695 73109691.921653748 0 0 0 0 -4869508.1386797205 18440046.27066803 0 18440046.27066803 52197177.415434837 0 0 0 0 -6297960.5800763713 5345023.6613922119 0 5345023.6613922119 47095382.940666199 0 0 0 0 -7552005.2730666921 -2735947.9530735016 0 -2735947.9530735016 80564207.019111633 0 0 0 0 -542905.77689551469 -4276641.5699319839 0 -4276641.5699319839 48925563.10105896 0 0 0 0 739086.35689978336 -13133121.910804272 0 -13133121.910804272 34845966.336730957 0 0 0 0 -569223.432171572 3207837.0367660522 0 3207837.0367660522 18488066.435359955 0 0 0 0 -5753.0282749426242 7546212.9017410278 0 7546212.9017410278 32428024.972141266 0 0 0 0 1595830.2903131265 -2155177.9403743744 0 -2155177.9403743744 5450082.0793533325 0 0 0 0 -2541181.7598607503 -1385483.9152832031 0 -1385483.9152832031 26463822.395435333 0 0 0 0 1624.7679740842666 5517488.4155654907 0 5517488.4155654907 5515562.4625015259 0 0 0 0 -814109.82551685348 -1409620.4012069702 0 -1409620.4012069702 -5364073.8793563843 0 0 0 0 206723.88556137143 357519.0430287905 0 357519.0430287905 594928.24579006433 0 0 0 0 -522.70092635846117 -36319.472640991211 0 -36319.472640991211 477671.71994018555 0 0 0 0 -227232.65912371408 1574548.2611236572 0 1574548.2611236572 225810.38349914551 0 0 0 0 -206446.88725266667 -50454.988351985812 0 -50454.988351985812 608801.48962140828 0 0 0 0 -3003536.5635633469 2635949.0540237427 0 2635949.0540237427 1693806.6237061024 0 0 0 0 -2316022.4807538986 1887106.1063308716 0 1887106.1063308716 1666891.4507591724 0 0 0 0 50157.840096795 -847599.77693390846 0 -847599.77693390846 -188210.49393463135 0 0 0 0 -532075.56726114638 95826.879535157233 0 95826.879535157233 845844.65738107637 0 0 0 0 394823.11530083814 661075.71394398436 0 661075.71394398436 754411.41827090085 0 0 0 0 2547585.6297482867 5877837.8547000885 0 5877837.8547000885 3071462.9778060913 0 0 0 0 511189.42306052055 439506.45833585784 0 439506.45833585784 386216.47892787308 0 0 0 0 -12255243.547604799 9047014.9623451233 0 9047014.9623451233 -3310054.6362304688 0 0 0 0 -15548253.319496155 4402573.1759443283 0 4402573.1759443283 9011220.5071487427 0 0 0 0 -16093375.367637157 674677.72477722168 0 674677.72477722168 5535098.1602134705 0 0 0 0 -2205324.8913407326 756710.57479095459 0 756710.57479095459 2711918.5673840046 0 0 0 0 -3354994.589993 1606305.4236545563 0 1606305.4236545563 2758866.14818573 0 0 0 0 -551702.62686843006 -140285.27793481201 0 -140285.27793481201 841103.18372948468 0 0 0 0 -370704.72253410611 -1444804.0913124084 0 -1444804.0913124084 963091.02684688568 0 0 0 0 -10248949.233589053 -3132372.9904918671 0 -3132372.9904918671 2479592.2996826172 0 0 0 0 -12455225.904934287 -8704959.0940704346 0 -8704959.0940704346 -4094318.7161483765 0 0 0 0 -10381646.453384519 -3099455.8833694458 0 -3099455.8833694458 7718530.3120040894 0 0 0 0 -12005112.330686927 -16836630.936073303 0 -16836630.936073303 -5421038.8101396561 0 0 0 0 -482730.02991389687 -316013.65329832956 0 -316013.65329832956 813015.45680992678 0 0 0 0 876236.61023101397 1218448.875579834 0 1218448.875579834 1521642.0982666016 0 0 0 0 3331576.2669790885 -97777.433101654053 0 -97777.433101654053 2292095.7317810059 0 0 0 0 -408586.76964813285 967235.71790313721 0 967235.71790313721 4569762.2382202148 0 0 0 0 2055563.1511360274 5284047.4687423706 0 5284047.4687423706 9675534.3534584045 0 0 0 0 -16549.42264565701 1301953.3035763099 0 1301953.3035763099 2694405.0905456543 0 0 0 0 1193977.8966885279 1483482.9912948608 0 1483482.9912948608 -10981.069946289062 0 0 0 0 1869083.1396371732 -762927.60443496704 0 -762927.60443496704 -285327.22882843018 0 0 0 0 -38986.747094648425 1492945.4313964844 0 1492945.4313964844 1573748.033821106 0 0 0 0 -192814.76976805925 -25268759.580360413 0 -25268759.580360413 43642185.904138565 0 0 0 0 24957155.942037627 -27540841.817768097 0 -27540841.817768097 -678570.8832244873 0 0 0 0 -1509774.7422909141 -15632483.607807159 0 -15632483.607807159 6619737.9716644287 0 0 0 0 18307803.152150892 -3344194.063211441 0 -3344194.063211441 219960.53044128418 0 0 0 0 52494838.566899382 -34177356.617240906 0 -34177356.617240906 26464556.105434418 0 0 0 0 -813949.33315880224 -11711295.167835236 0 -11711295.167835236 -2172707.8312606812 0 0 0 0 15354592.62941581 -18033618.651367188 0 -18033618.651367188 -29689593.118118286 0 0 0 0 5674181.4330647588 -14206958.923160553 0 -14206958.923160553 -6334166.5227508545 0 0 0 0 237312.72590917349 -23138241.3697052 0 -23138241.3697052 6588328.2392883301 0 0 0 0 9718238.0640494823 -20178739.735488892 0 -20178739.735488892 -17341502.888824463 0 0 0 0 3271063.8842388391 -12684390.719436646 0 -12684390.719436646 -20785319.739929199 0 0 0 0 -1676100.2852623463 -17983049.633041382 0 -17983049.633041382 -12202629.864436626 0 0 0 0 -801977.0452862978 -16447365.978645325 0 -16447365.978645325 -19740227.911743164 0 0 0 0 -7647176.0854539871 -12821994.634811401 0 -12821994.634811401 -12658745.927352905 0 0 0 0 -3222925.8247551918 -17154548.642562866 0 -17154548.642562866 -13230884.722867966 0 0 0 0 -4294008.3162719011 -20040467.933113098 0 -20040467.933113098 -69484.988510131836 0 0 0 0 -639319.49172890186 -16870392.467140198 0 -16870392.467140198 -12210840.48941499 0 0 0 0 -14133155.143500686 -9808639.4178695679 0 -9808639.4178695679 -9889538.32762146 0 0 0 0 -10431938.154642165 -16686464.934444427 0 -16686464.934444427 -518816.90725708008 0 0 0 0 -13450548.552509546 -7452060.7913589478 0 -7452060.7913589478 15385609.839195251 0 0 0 0 -8821152.8237838745 -14622136.016334534 0 -14622136.016334534 -881697.01737308502 0 0 0 0 -6391455.9867024422 -19598594.907243729 0 -19598594.907243729 18418387.633682251 0 0 0 0 -8664238.1016440392 -11688882.812927246 0 -11688882.812927246 4849737.153968811 0 0 0 0 -10656827.585360825 -1222578.7119064331 0 -1222578.7119064331 29388062.344444275 0 0 0 0 -11983880.103455305 -6231040.0670337677 0 -6231040.0670337677 13674820.245849609 0 0 0 0 -16291500.956145048 -311570.38943862915 0 -311570.38943862915 22873761.303268433 0 0 0 0 -11525594.562404156 5408019.2583751678 0 5408019.2583751678 -2968526.9765701294 0 0 0 0 -10616740.532087207 13663496.267612457 0 13663496.267612457 14274761.560253143 0 0 0 0 -6863495.3190352917 7303215.4625205994 0 7303215.4625205994 16194098.37853241 0 0 0 0 10698825.323958173 23709614.495819092 0 23709614.495819092 43635540.679977417 0 0 0 0 9896221.0209294558 26069286.386421204 0 26069286.386421204 37167268.869995117 0 0 0 0 26470838.330377758 56353629.48815918 0 56353629.48815918 25693188.341106415 0 0 0 0 -7772686.5438243598 -7420131.9716186523 0 -7420131.9716186523 41644665.345733643 0 0 0 0 3404982.0693440735 -1768574.1352462769 0 -1768574.1352462769 37142414.654571533 0 0 0 0 17845705.850454155 21473784.576927185 0 21473784.576927185 204453151.72523499 0 0 0 0 20758518.011525624 27732157.141616821 0 27732157.141616821 62385051.114311218 0 0 0 0 -717758.1165550421 485367.99935722351 0 485367.99935722351 102660294.23277283 0 0 0 0 60819941.514381453 86013736.923587799 0 86013736.923587799 62470292.406478882 0 0 0 0 16915619.042914689 39468455.590911865 0 39468455.590911865 78845478.696136475 0 0 0 0 65836597.217523187 47635543.082168579 0 47635543.082168579 34861955.698883057 0 0 0 0 70150961.871548623 59588781.436933517 0 59588781.436933517 -13762040.544281006 0 0 0 0 -628013.21280640736 -599153.86620939709 0 -599153.86620939709 1217156.897189863 0 0 0 0 -13283418.689251482 -29744933.249420166 0 -29744933.249420166 82305286.807937622 0 0 0 0 -4245820.9092531204 79741707.149944305 0 79741707.149944305 -22036140.039672852 0 0 0 0 2049567.6926677823 43699623.129025459 0 43699623.129025459 -38443323.152694702 0 0 0 0 43642399.465322882 58779859.253990173 0 58779859.253990173 -14045119.181282043 0 0 0 0 -1746127.7721754834 69868179.40332222 0 69868179.40332222 14323059.778869629 0 0 0 0 31475324.764336169 38002754.026359558 0 38002754.026359558 36279729.566085815 0 0 0 0 26805287.829500496 40537135.792209625 0 40537135.792209625 911682.29054260254 0 0 0 0 44262929.317564517 51157573.557951927 0 51157573.557951927 -15435101.950561523 0 0 0 0 40187418.669798106 89328143.850774765 0 89328143.850774765 58678363.880310059 0 0 0 0 88590835.981361896 74382921.279777527 0 74382921.279777527 -6148333.072303772 0 0 0 0 -11217682.684138 61288341.996696472 0 61288341.996696472 13819056.304367065 0 0 0 0 -23254921.301893197 18573646.918704987 0 18573646.918704987 24690069.585388184 0 0 0 0 -58345448.547258675 28843199.566978455 0 28843199.566978455 -4002739.9856796265 0 0 0 0 14234333.914242819 48260356.689395905 0 48260356.689395905 -6306355.7325744629 0 0 0 0 6504963.4723129719 65834177.699104309 0 65834177.699104309 -3764335.4140777588 0 0 0 0 420947.62378932018 275746.36743753962 0 275746.36743753962 198879.64531830698 0 0 0 0 -20452508.500774145 31222419.745948792 0 31222419.745948792 -12609213.774505615 0 0 0 0 -10735703.984537125 2157130.8372650146 0 2157130.8372650146 -8741020.3713607788 0 0 0 0 33471090.006490052 29626759.030517578 0 29626759.030517578 6278498.3166503906 0 0 0 0 73446802.343192458 25745572.590118408 0 25745572.590118408 -39132829.558738708 0 0 0 0 180964.7009366909 94032.308507429436 0 94032.308507429436 56072.225309513509 0 0 0 0 7297694.0571663231 -8219645.1057739258 0 -8219645.1057739258 50554633.991006851 0 0 0 0 -260506.51168437302 -17845149.128973007 0 -17845149.128973007 148146585.28598785 0 0 0 0 52778260.616433084 51360432.011133194 0 51360432.011133194 108822676.6043396 0 0 0 0 4291693.2581743002 15513820.467039108 0 15513820.467039108 82463001.363220215 0 0 0 0 -20634635.721822806 12632755.346977234 0 12632755.346977234 40980023.444152832 0 0 0 0 -53017721.296861768 36580024.994781494 0 36580024.994781494 34440854.629173279 0 0 0 0 -62089782.60578528 5567816.6552810669 0 5567816.6552810669 46856006.606399536 0 0 0 0 68071470.580518872 -35895339.887735367 0 -35895339.887735367 58640530.881835938 0 0 0 0 -11295635.76476866 51476400.086303711 0 51476400.086303711 112920816.55442047 0 0 0 0 -3375576.9356724918 -22562942.314147949 0 -22562942.314147949 110816296.76099205 0 0 0 0 96171306.47979103 23021972.024669647 0 23021972.024669647 52231107.934234619 0 0 0 0 2062099.8662602007 -11926706.321128845 0 -11926706.321128845 59570518.793869019 0 0 0 0 -1460035.0793930516 -28596402.650856972 0 -28596402.650856972 36282545.541610718 0 0 0 0 -37209682.824202135 -13102641.430007935 0 -13102641.430007935 64709095.52268219 0 0 0 0 -21492013.379419602 -15757716.371734619 0 -15757716.371734619 38004556.078826904 0 0 0 0 -47745904.386439562 -4838936.0078048706 0 -4838936.0078048706 31213574.065093994 0 0 0 0 -34685652.745299332 -25641635.189201355 0 -25641635.189201355 41861205.486450195 0 0 0 0 -39898675.924268305 15847758.736460686 0 15847758.736460686 42303861.518753052 0 0 0 0 -98050397.554492503 5938431.8485031128 0 5938431.8485031128 40650238.457107544 0 0 0 0 -60535641.448473513 2655865.5975189209 0 2655865.5975189209 18677325.064422607 0 0 0 0 -91448854.686025798 -19689995.751312256 0 -19689995.751312256 5243999.4857025146 0 0 0 0 -57508314.539507449 -16881242.616294861 0 -16881242.616294861 16941403.335479736 0 0 0 0 -68448731.102371216 8237353.344543457 0 8237353.344543457 23851264.603248596 0 0 0 0 -68471061.529708296 10127885.542676926 0 10127885.542676926 -21193133.407653809 0 0 0 0 -49074287.097259447 8691176.9949188232 0 8691176.9949188232 27831722.264678955 0 0 0 0 -95178434.617577016 12724725.874546051 0 12724725.874546051 32173359.723831177 0 0 0 0 -76735675.68388775 30517211.905433655 0 30517211.905433655 38146540.571876526 0 0 0 0 -2000211.8576250104 410670.46936843358 0 410670.46936843358 6071410.9116145112 0 0 0 0 -48890339.007391587 5674667.7491722107 0 5674667.7491722107 11196048.864257812 0 0 0 0 -99227163.727760196 34960996.928348541 0 34960996.928348541 22659077.091331482 0 0 0 0 -582921.58075038483 -302530.69526227843 0 -302530.69526227843 2103940.0961509012 0 0 0 0 -5969073.5885931253 378664.65567398071 0 378664.65567398071 2540803.8619842529 0 0 0 0 -226673.75064769771 787712.78090808727 0 787712.78090808727 6770018.9273788333 0 0 0 0 -1085804.4189942153 -2130315.3733291999 0 -2130315.3733291999 3699101.1599399149 0 0 0 0 -1087181.9412335048 5306685.3528967602 0 5306685.3528967602 1632809.678470552 0 0 0 0 393103.17260859103 3702918.4290538095 0 3702918.4290538095 10001786.373424558 0 0 0 0 6283104.0834379196 4946840.8346939087 0 4946840.8346939087 -7709409.4901275635 0 0 0 0 -4703601.4166311845 20385338.442369461 0 20385338.442369461 18871109.308647156 0 0 0 0 413381.41112942825 1301337.361900826 0 1301337.361900826 -431392.19244862348 0 0 0 0 -117233978.37385561 -5182855.9384384155 0 -5182855.9384384155 36260568.766937256 0 0 0 0 -1714819.5893764496 2646381.8530197144 0 2646381.8530197144 10200235.965705872 0 0 0 0 -1142594.5499677658 1692762.3084831238 0 1692762.3084831238 8073802.5060386658 0 0 0 0 -4980539.6126387119 267841.0598487854 0 267841.0598487854 9840560.3241348267 0 0 0 0 -3856616.2749247551 89100.716526031494 0 89100.716526031494 9266818.376953125 0 0 0 0 -3440203.4621934891 1370456.5212516785 0 1370456.5212516785 10045417.219146729 0 0 0 0 -3805953.7731070518 329527.34222793579 0 329527.34222793579 8349642.0493927002 0 0 0 0 -1157159.2205550671 1728238.932390213 0 1728238.932390213 13089997.804489136 0 0 0 0 -3798830.2523517609 -700411.66617202759 0 -700411.66617202759 10048539.607635498 0 0 0 0 -2767391.3979594707 1957653.8965358734 0 1957653.8965358734 10309359.545639038 0 0 0 0 -1942378.0679502487 967799.15531921387 0 967799.15531921387 9518628.1124038696 0 0 0 0 -2247640.4742736816 1873772.3954734802 0 1873772.3954734802 12593577.425964355 0 0 0 0 -1044389.8520021439 652243.62519836426 0 652243.62519836426 9932568.9070749283 0 0 0 0 967860.47190666199 3671190.4336738586 0 3671190.4336738586 10498516.59668541 0 0 0 0 1028227.5706295967 2075406.1682510376 0 2075406.1682510376 4065645.4963226318 0 0 0 0 -540335.83542442322 1639921.1042785645 0 1639921.1042785645 10242187.02015686 0 0 0 0 -1071764.231033802 1531977.2284889221 0 1531977.2284889221 12461002.387893677 0 0 0 0 -246944.79974153358 730817.25561662205 0 730817.25561662205 5692764.2415966578 0 0 0 0 -427459.2997674942 2790477.8878479004 0 2790477.8878479004 12930321.587285995 0 0 0 0 1030782.5291345716 1970489.0459518433 0 1970489.0459518433 4617080.8776702881 0 0 0 0 -2157520.7296502395 -1059847.751547765 0 -1059847.751547765 15999146.817404263 0 0 0 0 1951954.8687644005 3203559.9927177429 0 3203559.9927177429 11983911.346289396 0 0 0 0 806935.31232800707 1039700.852831034 0 1039700.852831034 14855636.605999805 0 0 0 0 -13359936.137362957 -10960692.811878204 0 -10960692.811878204 -14436047.569345951 0 0 0 0 -1928523.3626523018 874142.01525115967 0 874142.01525115967 15157174.694923401 0 0 0 0 -32291.155834197998 1011553.7711906433 0 1011553.7711906433 12911903.714485168 0 0 0 0 -2602389.5953025818 -24677101.961883545 0 -24677101.961883545 -319790.60974121094 0 0 0 0 -911938.6805352685 -1356405.5351199787 0 -1356405.5351199787 9072139.1483211126 0 0 0 0 -1110686.5131043196 -23168785.359510422 0 -23168785.359510422 -24091448.130172729 0 0 0 0 1363879.1999475921 -1755670.503296122 0 -1755670.503296122 -6077380.9080415107 0 0 0 0 8459468.6929380298 -3140262.7838592529 0 -3140262.7838592529 1786511.1162109375 0 0 0 0 -26351797.706546307 7594076.7818222046 0 7594076.7818222046 -30592050.867294312 0 0 0 0 -73692.179288219661 -1453699.0332860947 0 -1453699.0332860947 3570338.6178436279 0 0 0 0 1096213.3677107394 2566904.0102119446 0 2566904.0102119446 8291133.7810592651 0 0 0 0 814057.34822485805 -769254.50170946121 0 -769254.50170946121 -1713859.5348237865 0 0 0 0 -3443472.8012171388 -4701092.369102478 0 -4701092.369102478 8587645.9678888321 0 0 0 0 352622.65330073237 -1499566.5294570923 0 -1499566.5294570923 -1255356.8400726318 0 0 0 0 -1817475.065469712 -1776362.1348876953 0 -1776362.1348876953 3629080.6886119843 0 0 0 0 -1118231.8568921906 -2092596.0253065256 0 -2092596.0253065256 5193325.2473644093 0 0 0 0 -268149.91685652733 -1470157.0553264618 0 -1470157.0553264618 2858630.724647522 0 0 0 0 -1897644.8601388484 -1870300.7721366882 0 -1870300.7721366882 6645281.175201416 0 0 0 0 -2510394.7459039688 -1368189.5437278748 0 -1368189.5437278748 13050145.958312988 0 0 0 0 1845064.8672015667 -6916630.3046875 0 -6916630.3046875 669826.86126708984 0 0 0 0 -1292719.3634061813 -295192.83087158203 0 -295192.83087158203 920733.10237669945 0 0 0 0 -195470.66120943148 -737582.79861685261 0 -737582.79861685261 2151053.4305751654 0 0 0 0 -79155788.421138719 65770427.108062744 0 65770427.108062744 -23817073.626480103 0 0 0 0 -1790330.4795760608 -1611320.8663287032 0 -1611320.8663287032 3280175.2606249936 0 0 0 0 -89462227.813717604 52779231.479019165 0 52779231.479019165 -2770208.1844787598 0 0 0 0 -60199225.860009074 18957962.500495911 0 18957962.500495911 -7719943.360748291 0 0 0 0 -175393.3425542523 -344882.8515291342 0 -344882.8515291342 1632886.7512606755 0 0 0 0 -1319272.2503201894 797713.22637518868 0 797713.22637518868 5237238.7072061524 0 0 0 0 -1180591.4334916472 -1639000.3426628113 0 -1639000.3426628113 4155133.883934021 0 0 0 0 -592963.50433926086 -373870.53992554732 0 -373870.53992554732 5426960.1271788897 0 0 0 0 -1465589.4230985641 -229103.91242980957 0 -229103.91242980957 3103149.2477989197 0 0 0 0 -1211462.4321293831 -329171.56036186218 0 -329171.56036186218 3129818.8165130615 0 0 0 0 250110.34522533417 13150971.487891316 0 13150971.487891316 5678279.8725662231 0 0 0 0 17519664.9074893 -27504838.634525299 0 -27504838.634525299 -35004023.561088562 0 0 0 0 5187723.0636708736 -33884444.972732067 0 -33884444.972732067 93370016.390929222 0 0 0 0 7420522.4618039131 -9411585.3137054443 0 -9411585.3137054443 22659156.017318726 0 0 0 0 -6529912.4184579849 -24352344.804368973 0 -24352344.804368973 19374027.09534812 0 0 0 0 -4097031.3458352089 -20687735.094622612 0 -20687735.094622612 -7895680.9008483887 0 0 0 0 -17740917.470178604 -12622103.34103632 0 -12622103.34103632 12730000.421199799 0 0 0 0 -13093804.696994781 -24103091.282478333 0 -24103091.282478333 9700749.8290061951 0 0 0 0 -6228379.9066147804 -26456728.791405916 0 -26456728.791405916 29223330.679283142 0 0 0 0 7107.015900345752 -1158054.380556656 0 -1158054.380556656 14374470.688209433 0 0 0 0 -28776603.800315857 -21527229.800059319 0 -21527229.800059319 19612510.971884966 0 0 0 0 -23630819.887690425 -5382360.4167923927 0 -5382360.4167923927 17713270.028741837 0 0 0 0 -5783413.0963681936 -3713572.6814489365 0 -3713572.6814489365 9122914.1497192383 0 0 0 0 844493.45276605606 -2641336.6666300232 0 -2641336.6666300232 12332844.693804247 0 0 0 0 -170204.28197479248 -711670.90852355957 0 -711670.90852355957 9415275.305991888 0 0 0 0 -745133.28301036358 -710151.74246788025 0 -710151.74246788025 12138566.477592468 0 0 0 0 3033276.9271879196 1434824.2564649582 0 1434824.2564649582 9242072.8173904419 0 0 0 0 683230.00093184831 682401.7027993761 0 682401.7027993761 14866160.810545726 0 0 0 0 -130960.95787334442 -1042318.3310070038 0 -1042318.3310070038 9483815.0391652584 0 0 0 0 -3965718.1011242867 2893345.8316669464 0 2893345.8316669464 28939597.74887085 0 0 0 0 -862736.99806154659 -251520.44596590335 0 -251520.44596590335 14614848.136103326 0 0 0 0 -273773.75164103741 833333.39207149763 0 833333.39207149763 6819745.7085732911 0 0 0 0 -74401.669318205677 155957.31995799672 0 155957.31995799672 2159516.9052871792 0 0 0 0 -478443.80264663696 6449727.35328722 0 6449727.35328722 24665717.791293144 0 0 0 0 -16692861.975673199 -3282440.1054496765 0 -3282440.1054496765 22635030.299428344 0 0 0 0 1607700.0126285553 4074792.0825738907 0 4074792.0825738907 29245077.313206673 0 0 0 0 -9245715.7569742203 -4004466.5102410316 0 -4004466.5102410316 41072181.357383728 0 0 0 0 -19160824.998010159 -4184965.117757082 0 -4184965.117757082 26127412.044359207 0 0 0 0 -11972735.882663727 10403148.637116909 0 10403148.637116909 33276081.941074371 0 0 0 0 -22880309.368457556 -30218355.791653633 0 -30218355.791653633 37565683.572114944 0 0 0 0 -19922533.79117012 -9051454.2958106995 0 -9051454.2958106995 27262869.989748001 0 0 0 0 -9890514.5717658997 -21535586.264390945 0 -21535586.264390945 38854848.612239838 0 0 0 0 -7613073.4467430115 -12886641.944046497 0 -12886641.944046497 20677608.005298615 0 0 0 0 19923362.657690048 -5267034.9426670074 0 -5267034.9426670074 -44309867.437427521 0 0 0 0 850327.76406121952 -2230961.5094769071 0 -2230961.5094769071 -968489.71981363837 0 0 0 0 -3152217.8209326863 -25680170.407720387 0 -25680170.407720387 12143348.712491989 0 0 0 0 -3040014.5582237244 -27251204.11832428 0 -27251204.11832428 31664976.159610748 0 0 0 0 -1657859.7480006218 -22005674.324060678 0 -22005674.324060678 21965534.830945969 0 0 0 0 -11422204.273160219 2199777.2590200901 0 2199777.2590200901 23955344.402756691 0 0 0 0 -2421350.7572832108 -10163670.567294121 0 -10163670.567294121 29545720.954273224 0 0 0 0 -1258717.951631546 -12494938.14218235 0 -12494938.14218235 7959050.3070640564 0 0 0 0 -797386.48018932343 -11245253.99234581 0 -11245253.99234581 29949051.18510437 0 0 0 0 298786.43496584892 -3663568.2525901794 0 -3663568.2525901794 7126221.5858612061 0 0 0 0 435622.11473321554 -1664321.6229872382 0 -1664321.6229872382 12066371.891575824 0 0 0 0 -18538.89859013728 -736005.6634664163 0 -736005.6634664163 17696149.966658767 0 0 0 0 2335161.6698775175 -3119277.7220058152 0 -3119277.7220058152 9237826.6987197958 0 0 0 0 -322583.59155297279 623168.62515830994 0 623168.62515830994 7671523.0882492065 0 0 0 0 3429754.1867173798 -177304603.7104187 0 -177304603.7104187 -64644433.049688339 0 0 0 0 156276717.63653839 9782759.5540008545 0 9782759.5540008545 3952369.7435150146 0 0 0 0 39156725.412283838 61404929.464035034 0 61404929.464035034 48161382.519802094 0 0 0 0 33380563.601397753 64108017.596954346 0 64108017.596954346 -75782215.865661621 0 0 0 0 -126772676.55731286 -21445480.326210022 0 -21445480.326210022 26636778.126966476 0 0 0 0 862620.72579193115 2335545.3828468323 0 2335545.3828468323 9907556.3562297821 0 0 0 0 44618212.038262606 -79067583.702079773 0 -79067583.702079773 -106398347.98835754 0 0 0 0 -43659.03592039182 -1444435.6827290487 0 -1444435.6827290487 12078414.695378015 0 0 0 0 -25770.620021819836 -199077.78116507828 0 -199077.78116507828 -213409.29716423992 0 0 0 0 -33262211.057254314 6304981.6997680664 0 6304981.6997680664 -23547224.594358563 0 0 0 0 -24619286.528246403 -42806469.998840332 0 -42806469.998840332 -25945918.239517212 0 0 0 0 10012909.064767838 -30062478.304138184 0 -30062478.304138184 4077818.0428466797 0 0 0 0 1029090.4057677136 -895223.30914857611 0 -895223.30914857611 -5199797.6994487531 0 0 0 0 17082534.103998259 31095864.512233734 0 31095864.512233734 57014247.553390503 0 0 0 0 16421059.707922399 22832567.480522156 0 22832567.480522156 32686698.094955444 0 0 0 0 705869.99145161454 -1035840.9636564832 0 -1035840.9636564832 -1379829.1066433862 0 0 0 0 53882925.516896844 7743452.7714576721 0 7743452.7714576721 -4489353.2206115723 0 0 0 0 -2085780.1556278132 14906405.556179047 0 14906405.556179047 82572775.09482193 0 0 0 0 10302680.588081196 35094251.007349014 0 35094251.007349014 56684769.450912476 0 0 0 0 11795990.367290631 26201828.429924011 0 26201828.429924011 109636785.65272522 0 0 0 0 24841849.940181009 -1422801.1212415695 0 -1422801.1212415695 27149264.438400269 0 0 0 0 31524418.451389924 -30808168.579849243 0 -30808168.579849243 36326962.756177902 0 0 0 0 31215532.145017892 -51928145.89610672 0 -51928145.89610672 61853948.436374664 0 0 0 0 19657744.498715542 7560823.7084503174 0 7560823.7084503174 119327849.76324463 0 0 0 0 151069157.40977645 -58337542.516506195 0 -58337542.516506195 137720434.22743225 0 0 0 0 81511076.06545043 29990440.656829834 0 29990440.656829834 85235775.204956055 0 0 0 0 39907980.37629997 24344644.595765412 0 24344644.595765412 117079056.55064392 0 0 0 0 223692.8583299843 -330275.65320029855 0 -330275.65320029855 -430797.18805068359 0 0 0 0 12918538.60346067 -60020603.854942322 0 -60020603.854942322 -96592441.03527832 0 0 0 0 65717147.370802104 -163677899.74785805 0 -163677899.74785805 92535485.179107666 0 0 0 0 -207785660.87912929 -22225720.118980408 0 -22225720.118980408 80810586.996017456 0 0 0 0 -48374759.222144395 10298051.755699158 0 10298051.755699158 26523803.294677734 0 0 0 0 -34607519.681049347 -28798263.313129425 0 -28798263.313129425 135441018.07183838 0 0 0 0 66315258.073284924 71617484.332427979 0 71617484.332427979 140763467.08572006 0 0 0 0 185556930.22858894 -24953644.076316833 0 -24953644.076316833 100686579.57090759 0 0 0 0 63118388.234589815 25836794.390182495 0 25836794.390182495 176164030.64531708 0 0 0 0 160782.38659093453 404840.83591992036 0 404840.83591992036 735146.45001773536 0 0 0 0 127437015.31713289 150706891.81719971 0 150706891.81719971 89095813.127246857 0 0 0 0 -48323083.252328098 63519270.579574585 0 63519270.579574585 69273360.824691772 0 0 0 0 112892711.43622243 43072675.048904419 0 43072675.048904419 6056271.3010482788 0 0 0 0 -27804048.060172528 -4209135.8782920837 0 -4209135.8782920837 47801421.63961792 0 0 0 0 29868580.680063188 82886909.090637207 0 82886909.090637207 78499968.356933594 0 0 0 0 -72721973.075635195 20015338.659683228 0 20015338.659683228 64159879.690391541 0 0 0 0 -170630169.39649361 -52780116.809486389 0 -52780116.809486389 29677086.164672852 0 0 0 0 -103829880.6972602 60753981.944076538 0 60753981.944076538 56364638.363311768 0 0 0 0 -37915441.565704077 18891383.29823494 0 18891383.29823494 -38725893.995117188 0 0 0 0 -139540446.89280081 -72344049.184074402 0 -72344049.184074402 -1935415.6412124634 0 0 0 0 -587423.51210454118 437006.81151541881 0 437006.81151541881 1394714.8103416674 0 0 0 0 -3080204.1275615692 1285850.2790222168 0 1285850.2790222168 2770610.028213501 0 0 0 0 -2939557.5108222105 -86869.363857076038 0 -86869.363857076038 17897031.068721525 0 0 0 0 -6593502.1174729755 -375052.88233915903 0 -375052.88233915903 22014776.481947295 0 0 0 0 2001916.2629723013 3988895.557270986 0 3988895.557270986 4405431.3403005265 0 0 0 0 -177177950.43494731 -23544524.42880249 0 -23544524.42880249 63866802.98248291 0 0 0 0 -238724536.13625038 23332491.638175964 0 23332491.638175964 28482862.081451416 0 0 0 0 -810948.02026486397 702983.890147686 0 702983.890147686 3383019.1661758423 0 0 0 0 -148571294.77577496 -42815708.050727844 0 -42815708.050727844 89680208.163707733 0 0 0 0 -154160985.33656245 -17942332.53042984 0 -17942332.53042984 3194780.6231994629 0 0 0 0 -6849216.5672492981 -4330573.8165588379 0 -4330573.8165588379 -920042.67916870117 0 0 0 0 -231620494.52534151 -120730545.37387848 0 -120730545.37387848 32627842.205200195 0 0 0 0 502525.34899556154 -1595526.7137086922 0 -1595526.7137086922 15732092.727153853 0 0 0 0 1044770.1846711552 638397.22063362878 0 638397.22063362878 15812532.446702512 0 0 0 0 -4258672.0158433914 -6845402.1507987976 0 -6845402.1507987976 5343545.9763793945 0 0 0 0 2129074.2702995329 -2398575.7888060273 0 -2398575.7888060273 -85662.688627280295 0 0 0 0 -4586699.1395246983 9996170.5099945068 0 9996170.5099945068 75342417.032562256 0 0 0 0 -19620741.176306292 5363350.7393951416 0 5363350.7393951416 107557597.68375397 0 0 0 0 4959279.6334429979 43063093.37789917 0 43063093.37789917 187451764.89968872 0 0 0 0 142517689.63087112 -16190959.687015533 0 -16190959.687015533 57842300.747512817 0 0 0 0 23595146.190863192 -52016140.095188141 0 -52016140.095188141 102604556.58377075 0 0 0 0 -124574.84495979329 -956981.69127890421 0 -956981.69127890421 502000.44901388884 0 0 0 0 88599613.32476078 14814963.220941544 0 14814963.220941544 8143912.7485961914 0 0 0 0 -61598.801969591164 -100853.95249248669 0 -100853.95249248669 273296.08118917048 0 0 0 0 222835.4980016815 -1282534.5292677879 0 -1282534.5292677879 709546.31213143468 0 0 0 0 -913629.17183469236 -2657897.2828788757 0 -2657897.2828788757 1540911.1007080078 0 0 0 0 20115346.284548104 -25051507.210819244 0 -25051507.210819244 28678719.884925842 0 0 0 0 -13612109.512608491 7992838.8437423706 0 7992838.8437423706 81755034.194665909 0 0 0 0 74316.237753342837 -1393546.4782819487 0 -1393546.4782819487 930326.77358278399 0 0 0 0 -1106624.4292206168 -7129399.501953125 0 -7129399.501953125 -5224942.5996246338 0 0 0 0 -12667.604479325686 -1233082.3728094604 0 -1233082.3728094604 1153208.963339027 0 0 0 0 34591918.420715153 -28362083.749336243 0 -28362083.749336243 -7532356.3719482422 0 0 0 0 4900176.743798811 24026328.505203247 0 24026328.505203247 53398956.915180206 0 0 0 0 5949973.7124385834 14226811.344970703 0 14226811.344970703 -4569019.8411102295 0 0 0 0 -491424.10521644354 15858362.724266052 0 15858362.724266052 -4652341.9657592773 0 0 0 0 227307.26465645828 -235772.13177900016 0 -235772.13177900016 -515922.61010017991 0 0 0 0 -14740280.230068207 1985448.7411804199 0 1985448.7411804199 812590.6270980835 0 0 0 0 161087.13786301762 24032639.268821716 0 24032639.268821716 63187156.17376709 0 0 0 0 -2312872.5004504509 27366814.749221802 0 27366814.749221802 64619236.604513168 0 0 0 0 -1757533.4477620292 33830501.894744873 0 33830501.894744873 59392020.201499939 0 0 0 0 -18969128.762502924 13516015.647289991 0 13516015.647289991 76230749.093193054 0 0 0 0 -28902152.83023113 14031158.600376129 0 14031158.600376129 77454244.274982452 0 0 0 0 -1731668.8365986068 15768298.892894745 0 15768298.892894745 37329899.195865631 0 0 0 0 -22178322.238012575 37694984.843130112 0 37694984.843130112 60312481.190093994 0 0 0 0 -26789453.364655733 39738620.735363007 0 39738620.735363007 16027549.744300842 0 0 0 0 -46001456.389603019 -7702241.8464689255 0 -7702241.8464689255 18145865.853240967 0 0 0 0 9676739.4782780707 26041446.99861908 0 26041446.99861908 -87339921.788749695 0 0 0 0 -23520574.721184388 25129738.150913239 0 25129738.150913239 82222393.376190186 0 0 0 0 -16376793.081771195 31191366.703525543 0 31191366.703525543 37077994.801399231 0 0 0 0 46099876.316502139 9608700.0818786621 0 9608700.0818786621 -8054408.986869812 0 0 0 0 23777779.26983564 13044678.605884552 0 13044678.605884552 50862748.452232361 0 0 0 0 30703963.367601968 -7526917.3264865875 0 -7526917.3264865875 -58204617.709754944 0 0 0 0 -14615136.529540062 7809039.0131378174 0 7809039.0131378174 -8100613.8459324837 0 0 0 0 -235886.16426285391 -184037.91425823048 0 -184037.91425823048 225938.39755373821 0 0 0 0 -20271.400370270014 -5018227.319984436 0 -5018227.319984436 6188933.5656661987 0 0 0 0 5001672.174770996 26168427.302581787 0 26168427.302581787 -74248388.343135834 0 0 0 0 3364011.3246564865 -3269945.6773872375 0 -3269945.6773872375 -3517998.5588912964 0 0 0 0 528645.8744870557 -132504.8739043083 0 -132504.8739043083 191770.78548585251 0 0 0 0 6729100.5902459621 -11212121.645263672 0 -11212121.645263672 18055350.051837921 0 0 0 0 -8770240.6154603884 -8706606.2646751404 0 -8706606.2646751404 -10412886.579048157 0 0 0 0 -2363878.4674140811 -570261.71532440186 0 -570261.71532440186 -86898.573875427246 0 0 0 0 4315503.3148205727 -1072615.7155132294 0 -1072615.7155132294 -170674.35009765625 0 0 0 0 -17047274.708442926 1005317.2192306519 0 1005317.2192306519 8442500.031829834 0 0 0 0 -75107.943541068424 -47927.471027139574 0 -47927.471027139574 70717.743049070239 0 0 0 0 -28407645.959128164 -11714242.600435257 0 -11714242.600435257 4784742.8804016113 0 0 0 0 8392518.5490287468 -27367467.736816406 0 -27367467.736816406 -22827781.513471603 0 0 0 0 21672004.626742974 -9969549.2405776978 0 -9969549.2405776978 -5670655.7463989258 0 0 0 0 43178839.918897927 -21615599.868255615 0 -21615599.868255615 -12817347.322364807 0 0 0 0 -5508715.4128877223 -4020786.5666923523 0 -4020786.5666923523 -6820536.1410446167 0 0 0 0 -10560655.477919281 -13086431.255073547 0 -13086431.255073547 4423736.8571949005 0 0 0 0 385316.90529443359 -84402.911267442629 0 -84402.911267442629 106160.3809161298 0 0 0 0 14448993.666422367 -2651242.2694969177 0 -2651242.2694969177 40925439.640285492 0 0 0 0 148323.65297658692 -28534.594952618703 0 -28534.594952618703 36434.243066133931 0 0 0 0 -3573212.2192569524 -18678118.481201172 0 -18678118.481201172 131615914.97705078 0 0 0 0 53331602.573607743 -3063004.9890441895 0 -3063004.9890441895 -29094581.883296967 0 0 0 0 32164742.637352586 -50586906.966724396 0 -50586906.966724396 100935376.85960007 0 0 0 0 35519515.805434108 -1957380.6854782104 0 -1957380.6854782104 69774500.235628128 0 0 0 0 8985403.7349493206 23766338.369615555 0 23766338.369615555 91706560.140396118 0 0 0 0 20113984.713072777 14670595.938930511 0 14670595.938930511 72115376.19442749 0 0 0 0 7264186.7806877494 29486010.08290863 0 29486010.08290863 60660287.751296997 0 0 0 0 -4755298.1767069697 -4156930.9786834717 0 -4156930.9786834717 71482733.673835754 0 0 0 0 228689.16722619883 1399280.9727478586 0 1399280.9727478586 2653843.9748913422 0 0 0 0 5924118.7712523788 -5651181.4517749548 0 -5651181.4517749548 -26028771.080856323 0 0 0 0 -105761718.89461672 -14921693.703426361 0 -14921693.703426361 75151594.32925415 0 0 0 0 7469362.0385317989 77219657.343852282 0 77219657.343852282 75423776.442657471 0 0 0 0 -1662441.2656636992 -9633206.6356329098 0 -9633206.6356329098 10152057.220797814 0 0 0 0 -29308492.908500135 3913238.4201164246 0 3913238.4201164246 60586961.790390015 0 0 0 0 -40560681.817698061 -46828894.230735779 0 -46828894.230735779 -18243694.859611511 0 0 0 0 -41794069.067328691 -33183965.009914398 0 -33183965.009914398 26911792.695350647 0 0 0 0 61334609.156849414 -66895061.28030014 0 -66895061.28030014 20117040.703174591 0 0 0 0 30491659.479514569 -41090492.616428375 0 -41090492.616428375 3329910.8475189209 0 0 0 0 33775057.16210711 -57945631.157161713 0 -57945631.157161713 -21967027.889282227 0 0 0 0 9551003.0036046505 -4581108.1606082916 0 -4581108.1606082916 -21683794.701385498 0 0 0 0 53131676.942693055 -26924059.733848572 0 -26924059.733848572 -14090768.882331848 0 0 0 0 43265665.330721892 -34200512.391052246 0 -34200512.391052246 -15350230.257118225 0 0 0 0 87408468.31284216 -39607643.598812103 0 -39607643.598812103 -22001961.624341965 0 0 0 0 44623036.575962059 -20394060.443710327 0 -20394060.443710327 -15670174.747665405 0 0 0 0 50541662.215269536 20738051.192444801 0 20738051.192444801 53362996.549591064 0 0 0 0 77023116.588943407 -35779670.55896759 0 -35779670.55896759 49524661.914222717 0 0 0 0 4984509.8764176965 1432331.0711975098 0 1432331.0711975098 55358656.638923645 0 0 0 0 3623242.3340186179 15141997.82800293 0 15141997.82800293 30867685.905818939 0 0 0 0 1136765.7073492408 -19133920.660797119 0 -19133920.660797119 89365667.606925964 0 0 0 0 2298299.2430446595 -24455223.293643951 0 -24455223.293643951 10748525.802185059 0 0 0 0 -32649426.897773147 -7940888.1434669495 0 -7940888.1434669495 52675595.737258911 0 0 0 0 -33669631.719086513 -14631519.323132515 0 -14631519.323132515 18419890.623840332 0 0 0 0 -24968858.929107666 9805556.8655090332 0 9805556.8655090332 18997544.488670349 0 0 0 0 -48524501.349762917 -7279267.1582336426 0 -7279267.1582336426 36581055.323284149 0 0 0 0 -48556390.251666419 -5237405.3441724777 0 -5237405.3441724777 8637789.1217269897 0 0 0 0 -58553122.656112552 -2584418.594745636 0 -2584418.594745636 18138169.048881531 0 0 0 0 -57466124.751306936 -23682044.081302643 0 -23682044.081302643 16466514.028923035 0 0 0 0 -53117928.233023345 -9434244.9501190186 0 -9434244.9501190186 25938543.844200134 0 0 0 0 -698159.08387142536 3134317.3387677819 0 3134317.3387677819 6190744.1007813774 0 0 0 0 -1398277.2847563531 124843.902242532 0 124843.902242532 5822412.8163101748 0 0 0 0 -1134392.9217183113 -2166231.9023924544 0 -2166231.9023924544 5629648.8322191201 0 0 0 0 -15615761.243221283 -1414652.665184021 0 -1414652.665184021 -9512932.8241424561 0 0 0 0 -54236638.953905582 12028097.645141602 0 12028097.645141602 -380243.07580566406 0 0 0 0 -87375361.120416403 33421528.793296337 0 33421528.793296337 37054962.40057373 0 0 0 0 -18031748.917615891 21315959.714508057 0 21315959.714508057 54388340.268493652 0 0 0 0 -700016.96987337642 2538654.5121602356 0 2538654.5121602356 3180001.06164952 0 0 0 0 1934608.3271412849 48920657.411384583 0 48920657.411384583 -76288123.574310303 0 0 0 0 -35569023.087548316 31913533.716812134 0 31913533.716812134 28878682.908843994 0 0 0 0 -82410607.470923007 -25746964.271713257 0 -25746964.271713257 62796805.893737793 0 0 0 0 -49650775.643420845 27542979.436533928 0 27542979.436533928 -7544623.6874694824 0 0 0 0 -859993.58368013299 1459709.0388804073 0 1459709.0388804073 2833555.2579667941 0 0 0 0 -42993286.364972077 2299004.7837128639 0 2299004.7837128639 -7098752.5442810059 0 0 0 0 -42551509.311392069 -2572692.3210377693 0 -2572692.3210377693 15376127.601135254 0 0 0 0 -49097732.15692398 21930871.546013355 0 21930871.546013355 21949180.682723999 0 0 0 0 -29600622.993265867 15067326.686721802 0 15067326.686721802 21539237.758666992 0 0 0 0 -29474032.428141236 12682701.870414734 0 12682701.870414734 38022635.159637451 0 0 0 0 -12827118.814367533 22842862.122570038 0 22842862.122570038 30071652.087112427 0 0 0 0 -21863145.776404366 2208323.9979438782 0 2208323.9979438782 33158853.897758484 0 0 0 0 113116.12428748509 -20392.456719953567 0 -20392.456719953567 -4977.2234950917773 0 0 0 0 -32874859.127609432 9592056.168510437 0 9592056.168510437 -58398808.414690018 0 0 0 0 -22391256.826798618 16202683.675422668 0 16202683.675422668 53728249.898277283 0 0 0 0 -35488593.900788069 28834775.03024292 0 28834775.03024292 43339121.202316284 0 0 0 0 2736153.2916241884 12703549.541687012 0 12703549.541687012 34739060.777153015 0 0 0 0 1757400.4484581277 7720960.273545742 0 7720960.273545742 28174929.577972412 0 0 0 0 18173904.694656402 -19019325.016775131 0 -19019325.016775131 62623271.91431427 0 0 0 0 30399424.549246013 14651139.303138733 0 14651139.303138733 29096987.820411682 0 0 0 0 21797679.669906914 10455832.621881485 0 10455832.621881485 477185.22064971924 0 0 0 0 252642.97437778162 -6166.9621688779444 0 -6166.9621688779444 608.28268441930413 0 0 0 0 44424731.325840831 52615336.973562241 0 52615336.973562241 -14264841.620231628 0 0 0 0 26262137.566789031 12605950.801639557 0 12605950.801639557 38784595.636844635 0 0 0 0 3996585.4336174726 73980564.46181488 0 73980564.46181488 151378786.59654236 0 0 0 0 35297942.247713089 91696562.13911438 0 91696562.13911438 147275719.36224365 0 0 0 0 67298735.398404837 47260181.079317093 0 47260181.079317093 10325520.780662537 0 0 0 0 61676342.259217024 101247997.86647034 0 101247997.86647034 127532137.09840393 0 0 0 0 49153132.044601083 111893460.30776215 0 111893460.30776215 121261976.36986542 0 0 0 0 -21857370.262645245 6272888.9777050018 0 6272888.9777050018 27489553.349624634 0 0 0 0 22688572.418682933 -10823594.920196533 0 -10823594.920196533 -51105414.645431519 0 0 0 0 -107946535.92790592 -40121336.693283081 0 -40121336.693283081 -9920037.4256286621 0 0 0 0 -66185146.03270185 2308375.0498199463 0 2308375.0498199463 -1933920.4137573242 0 0 0 0 72972436.864728451 43536841.697982788 0 43536841.697982788 -62993171.542358398 0 0 0 0 -64023.75415091186 -196991.7391975848 0 -196991.7391975848 937296.07146239653 0 0 0 0 71863558.303070128 140512791.16010666 0 140512791.16010666 117246071.22862244 0 0 0 0 20629754.289780378 40619692.922195435 0 40619692.922195435 -16017706.466812134 0 0 0 0 39871838.503966123 3910867.5788497925 0 3910867.5788497925 -68009128.129653931 0 0 0 0 -40327109.035149276 -31647093.857940674 0 -31647093.857940674 -64371277.025100708 0 0 0 0 84999236.255189002 -119215812.33094597 0 -119215812.33094597 128388460.17237854 0 0 0 0 -11117606.64722383 111498822.53104782 0 111498822.53104782 77089537.732580185 0 0 0 0 -719056.05361456051 -2372125.1596695287 0 -2372125.1596695287 1136597.9391391687 0 0 0 0 53486251.186849952 -121838944.68596649 0 -121838944.68596649 211063702.30049133 0 0 0 0 6914829.1407699585 -47632709.489532471 0 -47632709.489532471 87324754.399383545 0 0 0 0 24593607.707473993 -91876137.318489075 0 -91876137.318489075 157688995.67141724 0 0 0 0 37343591.216070652 -80956205.586608887 0 -80956205.586608887 111505015.82717896 0 0 0 0 69692219.365645409 -97497978.370483398 0 -97497978.370483398 87236271.545501709 0 0 0 0 60464437.083694458 -63662685.075401306 0 -63662685.075401306 16312049.019989014 0 0 0 0 85891278.100392818 -85433935.673461914 0 -85433935.673461914 4257542.4628143311 0 0 0 0 81750745.042095661 -101724752.10879517 0 -101724752.10879517 34535175.164123535 0 0 0 0 -2740932.487299643 2265525.9982688054 0 2265525.9982688054 9075069.605925981 0 0 0 0 20667390.505310535 -36633460.576347351 0 -36633460.576347351 -24055000.430908203 0 0 0 0 -11688403.08997345 -7221036.3362703323 0 -7221036.3362703323 16268949.383270264 0 0 0 0 -117909696.8508901 24310179.236824036 0 24310179.236824036 -11670518.902130127 0 0 0 0 -319480.29852205719 -756842.72626182158 0 -756842.72626182158 2957214.5695836879 0 0 0 0 -71950975.414276123 -82728024.207870483 0 -82728024.207870483 14704860.818950653 0 0 0 0 122106155.40768862 63682582.356796265 0 63682582.356796265 84354454.64291954 0 0 0 0 49482046.958094776 73084137.411605835 0 73084137.411605835 167151094.5205307 0 0 0 0 47831858.789771199 61595308.773218155 0 61595308.773218155 123821245.45822906 0 0 0 0 23735876.253842711 48646444.181411743 0 48646444.181411743 123814055.35389709 0 0 0 0 59452711.641926646 37823284.135543823 0 37823284.135543823 87363826.036952972 0 0 0 0 39917828.117025554 9735384.3948497772 0 9735384.3948497772 68879102.249214172 0 0 0 0 42079443.093960404 5087365.4962310791 0 5087365.4962310791 75746174.127296448 0 0 0 0 32879110.337178916 -29189999.838046074 0 -29189999.838046074 59597823.174880981 0 0 0 0 15367070.199218154 -30447784.223230362 0 -30447784.223230362 65012881.187652588 0 0 0 0 995145.26230052114 7783811.8226547241 0 7783811.8226547241 37677876.44393158 0 0 0 0 84906504.107147515 -22028904.066169739 0 -22028904.066169739 2079106.6654510498 0 0 0 0 141493.2051011583 4557.4156081676483 0 4557.4156081676483 7745.1816936340183 0 0 0 0 85234918.84631601 110343792.59505272 0 110343792.59505272 163366136.39942169 0 0 0 0 -2790555.5303008258 36900270.539035797 0 36900270.539035797 184883093.95128632 0 0 0 0 5510168.7525976896 102446058.22529602 0 102446058.22529602 221137942.26298714 0 0 0 0 112491566.63837582 79736408.198429108 0 79736408.198429108 173644544.24850392 0 0 0 0 90878903.896501273 54967093.63835907 0 54967093.63835907 163142106.96903992 0 0 0 0 43067457.364995629 90343620.845649719 0 90343620.845649719 191317090.42764282 0 0 0 0 7399053.0772978663 69758256.705440521 0 69758256.705440521 183932447.71573305 0 0 0 0 -3250965.6918779612 57393120.467334747 0 57393120.467334747 185519206.95044804 0 0 0 0 5842693.1923107505 62214679.634437561 0 62214679.634437561 166583565.54967499 0 0 0 0 19205173.587799251 63842646.531841278 0 63842646.531841278 169468900.26029205 0 0 0 0 13304176.830289662 62303823.058099747 0 62303823.058099747 142633900.54921722 0 0 0 0 22195734.105843663 77931935.149223328 0 77931935.149223328 169376557.97012338 0 0 0 0 5471950.8425696343 75537776.043427467 0 75537776.043427467 162147291.44794464 0 0 0 0 5632284.620688647 52053343.096345901 0 52053343.096345901 129769408.93247986 0 0 0 0 7786416.1166036129 57457443.991191864 0 57457443.991191864 143299894.95206594 0 0 0 0 26930499.98173207 53318114.118885994 0 53318114.118885994 111756463.02236938 0 0 0 0 -11083995.107768729 72653904.646499634 0 72653904.646499634 174381062.23892212 0 0 0 0 -10647705.902315974 57013731.471073151 0 57013731.471073151 175946006.06507492 0 0 0 0 -11581206.673531175 46021441.941360474 0 46021441.941360474 186181748.86668396 0 0 0 0 -7875846.6030734181 53266825.488582611 0 53266825.488582611 146053159.44596863 0 0 0 0 -5764405.1339146495 58384124.64434433 0 58384124.64434433 156641835.08790806 0 0 0 0 -3490708.7973707914 67705347.798171997 0 67705347.798171997 156574951.05620983 0 0 0 0 -6852914.2851222754 73303971.855621338 0 73303971.855621338 167445974.18487549 0 0 0 0 -11465863.254565656 70698111.760173798 0 70698111.760173798 166026928.72646713 0 0 0 0 -7814788.5010800213 75952482.34696579 0 75952482.34696579 152978531.5123291 0 0 0 0 -9709739.9958209693 76223958.358125687 0 76223958.358125687 165859922.8835907 0 0 0 0 1794165.8747928739 71848335.389358521 0 71848335.389358521 148464382.80446243 0 0 0 0 -4885717.7502182424 40057763.538627625 0 40057763.538627625 176859506.5918808 0 0 0 0 -2643821.4003049135 39167542.367160797 0 39167542.367160797 106758662.50569344 0 0 0 0 5481332.7026752234 90318229.966178894 0 90318229.966178894 93780189.355628967 0 0 0 0 -7434349.7208236009 60402995.853755951 0 60402995.853755951 93368346.240859985 0 0 0 0 -4923855.3108635843 70157254.394828796 0 70157254.394828796 116219451.71244049 0 0 0 0 -4213667.1795454025 70631125.039979935 0 70631125.039979935 181702232.64541626 0 0 0 0 -9409133.6941663995 86920515.620830536 0 86920515.620830536 172061689.65391541 0 0 0 0 -13541923.525685847 72235405.728012085 0 72235405.728012085 164916272.83342743 0 0 0 0 -11131834.861775279 83788635.532447815 0 83788635.532447815 147094759.31747437 0 0 0 0 -16702693.639284328 79939563.545736313 0 79939563.545736313 158382183.7568512 0 0 0 0 -16888173.948295701 15039498.790306091 0 15039498.790306091 3415982.6033229828 0 0 0 0 9981221.934304297 4171534.8045120239 0 4171534.8045120239 2938363.1332855225 0 0 0 0 118447600.94794306 85861586.410507202 0 85861586.410507202 32133540.284900665 0 0 0 0 37003733.84703669 67700912.846229553 0 67700912.846229553 29890836.440992355 0 0 0 0 23014995.913384944 106191129.45103455 0 106191129.45103455 113789469.7265358 0 0 0 0 52113898.473662287 101298472.32982635 0 101298472.32982635 172110435.21871948 0 0 0 0 22021819.322240081 90596960.399114132 0 90596960.399114132 168321994.06263733 0 0 0 0 -47837563.87486726 -14738039.899475098 0 -14738039.899475098 11488845.491458893 0 0 0 0 155373942.75365433 151731422.15919304 0 151731422.15919304 141901927.41485596 0 0 0 0 -109066.99675983989 100809563.84619904 0 100809563.84619904 241256743.0491333 0 0 0 0 -14261.518356796443 23631.748082857579 0 23631.748082857579 150872.45139908046 0 0 0 0 52129847.15617013 131429610.0448761 0 131429610.0448761 298132008.87394714 0 0 0 0 25991260.196692765 60460644.298690796 0 60460644.298690796 238239850.79559422 0 0 0 0 74099400.050613254 54516240.16645813 0 54516240.16645813 238569213.33155823 0 0 0 0 32715503.11852175 44257222.812240601 0 44257222.812240601 303418022.23417664 0 0 0 0 28998346.029314756 28116659.658172607 0 28116659.658172607 227610275.59135222 0 0 0 0 33060013.749722213 67319585.095809937 0 67319585.095809937 228057780.39324272 0 0 0 0 10617990.28165713 68151532.371273994 0 68151532.371273994 258024546.08267212 0 0 0 0 9666552.1223196089 77351210.532165527 0 77351210.532165527 184954275.07616043 0 0 0 0 20141532.679740086 38961312.854543686 0 38961312.854543686 209460008.78057861 0 0 0 0 22272843.291298248 41139443.801647186 0 41139443.801647186 206233261.08760071 0 0 0 0 33531575.211686641 31672910.193244934 0 31672910.193244934 205942246.8199656 0 0 0 0 99482.509498662912 36363244.947025299 0 36363244.947025299 221465649.75807953 0 0 0 0 -6205408.2037881613 79912174.744026184 0 79912174.744026184 169949220.69696045 0 0 0 0 -4679307.4131137133 64553531.689834595 0 64553531.689834595 181282425.15040588 0 0 0 0 -13599525.200526021 71988781.490947723 0 71988781.490947723 193509411.42088318 0 0 0 0 -1203444.6747078896 66528549.941314697 0 66528549.941314697 178841487.68943214 0 0 0 0 -4220064.7430634201 66001875.6927948 0 66001875.6927948 214929653.24279022 0 0 0 0 6247033.4331089556 55145989.27256012 0 55145989.27256012 192280021.32206297 0 0 0 0 16217216.980391264 36478287.416950226 0 36478287.416950226 203518856.43163204 0 0 0 0 4407485.2853084505 54351044.970436096 0 54351044.970436096 199919978.70149231 0 0 0 0 16109138.119407982 50018762.073871613 0 50018762.073871613 187707575.03998852 0 0 0 0 -5987535.2315736413 65120189.960048676 0 65120189.960048676 190837569.50413513 0 0 0 0 -6559376.5593179762 56113492.034021378 0 56113492.034021378 204796308.68151093 0 0 0 0 69993.099414467812 14485606.381546021 0 14485606.381546021 315884486.26202393 0 0 0 0 90697.413423848542 59647.226809574291 0 59647.226809574291 83637.672447957098 0 0 0 0 1447755.4958188981 306096.29835700989 0 306096.29835700989 174549787.28088379 0 0 0 0 -2092686.9199442565 9252582.7190551758 0 9252582.7190551758 160526591.69946861 0 0 0 0 23304306.312168475 25781704.296463013 0 25781704.296463013 205701602.11253357 0 0 0 0 20101337.763867632 41536452.146934509 0 41536452.146934509 210020381.36123657 0 0 0 0 45074037.307561643 50018953.520179749 0 50018953.520179749 212157262.40308952 0 0 0 0 36529036.026633605 29594064.685009003 0 29594064.685009003 204812435.25814056 0 0 0 0 -39785.901537044716 7427933.3106079102 0 7427933.3106079102 191479697.74011993 0 0 0 0 27130058.090220608 83359010.743160248 0 83359010.743160248 112102549.76034546 0 0 0 0 47956501.797324434 33168101.568027496 0 33168101.568027496 4333074.6973266602 0 0 0 0 26167602.116656527 -6091544.6505260468 0 -6091544.6505260468 -10975311.031951904 0 0 0 0 -26211.562337177631 2435.6020642835647 0 2435.6020642835647 73664.055984338745 0 0 0 0 -8175137.4853241686 7867264.1062965393 0 7867264.1062965393 63817373.466491699 0 0 0 0 58678.020168472918 3055875.3963813782 0 3055875.3963813782 11022745.14973259 0 0 0 0 251883.20237203408 169659.76185473427 0 169659.76185473427 221515.00217026286 0 0 0 0 1494551.5298781991 -538092.51815795898 0 -538092.51815795898 714910.14511108398 0 0 0 0 -8277779.8301199228 4807682.1278123856 0 4807682.1278123856 -1704260.0177612305 0 0 0 0 22604652.073635131 7746799.3391799927 0 7746799.3391799927 -15750671.483509064 0 0 0 0 -10878196.07217342 2150352.5786705017 0 2150352.5786705017 12490292.66545105 0 0 0 0 -3825880.7329338491 8049774.3476371765 0 8049774.3476371765 27568174.289562225 0 0 0 0 -7660507.5339956582 -7497257.9337120056 0 -7497257.9337120056 8080571.056728363 0 0 0 0 -976339.91927503608 465368.88684272766 0 465368.88684272766 3531402.0812911987 0 0 0 0 -7527440.925829649 -3831336.9609336853 0 -3831336.9609336853 101234.31645965576 0 0 0 0 620892.34967019409 167414.75047302246 0 167414.75047302246 851398.90695953369 0 0 0 0 -88924.54988296864 35547.134268296883 0 35547.134268296883 231747.30065236893 0 0 0 0 -284981.19370660931 200322.32739448547 0 200322.32739448547 3057298.4662017822 0 0 0 0 -141965.42024236749 131849.19411262125 0 131849.19411262125 433349.00079978071 0 0 0 0 -3948337.3010830879 -12859403.424613953 0 -12859403.424613953 -22466862.366333008 0 0 0 0 -636723.01358941197 1594114.5485095978 0 1594114.5485095978 2348198.1805801392 0 0 0 0 8717035.2397738099 14493777.01285553 0 14493777.01285553 61244971.305046082 0 0 0 0 608833.98973274231 280505.77709960938 0 280505.77709960938 1057879.9465026855 0 0 0 0 370111.11484535562 267199.59247115999 0 267199.59247115999 352994.23274023831 0 0 0 0 -3421826.2596165538 11536290.661457062 0 11536290.661457062 79256685.779022217 0 0 0 0 -12148325.736382246 -1374904.8704681396 0 -1374904.8704681396 -12283974.488433838 0 0 0 0 -159215.24053176108 -302225.00246730819 0 -302225.00246730819 593232.98124803603 0 0 0 0 -6054.3666394948959 -198.0885009765625 0 -198.0885009765625 107330.7119140625 0 0 0 0 -173747.41062083162 1287.7468212302774 0 1287.7468212302774 434802.74241366237 0 0 0 0 -1782420.1248168945 -17249043.441497803 0 -17249043.441497803 -22864389.334793091 0 0 0 0 -10766756.295440793 -10081424.832321167 0 -10081424.832321167 -23239295.170623779 0 0 0 0 -4019504.7613675594 -8231449.5108184814 0 -8231449.5108184814 -25052942.47354126 0 0 0 0 -4273141.0415973663 -16821264.202453613 0 -16821264.202453613 -22831257.530059814 0 0 0 0 -9793102.3213819861 -7274997.8911819458 0 -7274997.8911819458 -22061946.096984863 0 0 0 0 -374523.22915337421 -452769.81027484313 0 -452769.81027484313 757811.29544778168 0 0 0 0 -7749283.6183507442 -9925396.1218719482 0 -9925396.1218719482 -25563360.44329834 0 0 0 0 -2241969.3700563908 -12825307.034667969 0 -12825307.034667969 -23464610.04527092 0 0 0 0 -540281.57638496161 -14246965.88343811 0 -14246965.88343811 -24128063.337966919 0 0 0 0 -4119780.2504051924 -16129840.590881348 0 -16129840.590881348 -19769529.797027588 0 0 0 0 4163408.6165677309 -15293326.705825806 0 -15293326.705825806 -24624261.562438965 0 0 0 0 6187477.1976709366 4743686.5885772705 0 4743686.5885772705 -51041973.436510086 0 0 0 0 4082029.6805770397 -18063359.125 0 -18063359.125 -22442917.001159668 0 0 0 0 11104369.70652467 -4942726.3399124146 0 -4942726.3399124146 -51966193.534942627 0 0 0 0 -440021.33973646734 -352671.28479655646 0 -352671.28479655646 457661.90032142773 0 0 0 0 873623.86215913296 -7548768.5595245361 0 -7548768.5595245361 -32989637.184967041 0 0 0 0 9597926.7751216292 -11661018.228607178 0 -11661018.228607178 -37734246.782165527 0 0 0 0 2037160.3494647741 -1139827.5966491699 0 -1139827.5966491699 -40094092.496463776 0 0 0 0 -12886948.323074818 2617065.6567382812 0 2617065.6567382812 -23517237.56880188 0 0 0 0 -2137562.5267608166 -4599517.0693206787 0 -4599517.0693206787 -29364205.845214844 0 0 0 0 -5862551.62839818 668144.61349487305 0 668144.61349487305 -35743710.387481689 0 0 0 0 -11212762.276315689 6419279.0229492188 0 6419279.0229492188 -31631893.031295776 0 0 0 0 2877971.0948679596 -6599246.5741138458 0 -6599246.5741138458 -32619825.343963623 0 0 0 0 3562061.1740391254 -14409367.114379883 0 -14409367.114379883 -42398868.000457764 0 0 0 0 4824427.6221960187 -6715138.1680603027 0 -6715138.1680603027 -31374531.702108383 0 0 0 0 735027.41099657118 -3156599.7163667679 0 -3156599.7163667679 1252154.6924362183 0 0 0 0 1198855.0518713593 2294979.2438011169 0 2294979.2438011169 1333315.9385986328 0 0 0 0 -1086451.0718438625 2174474.4375991821 0 2174474.4375991821 1954992.5193786621 0 0 0 0 1191563.7576720715 270315.51223754883 0 270315.51223754883 -694818.42784500122 0 0 0 0 593565.88150002784 -233458.23209488578 0 -233458.23209488578 346190.47589321714 0 0 0 0 -103789.30371022224 241470.32925415039 0 241470.32925415039 320922.16080474854 0 0 0 0 222342.7252066182 -55302.369595266879 0 -55302.369595266879 625531.19284642674 0 0 0 0 146367.91553614044 78107.122390136123 0 78107.122390136123 21548.199644833803 0 0 0 0 2252936.6951842308 -1481749.8767242432 0 -1481749.8767242432 50320361.669021606 0 0 0 0 -6354495.987062037 26351482.676239014 0 26351482.676239014 112190125.87602234 0 0 0 0 10049369.108371139 33816601.323905945 0 33816601.323905945 62889453.595022202 0 0 0 0 8363756.9672558904 37240599.701925278 0 37240599.701925278 106456478.83178711 0 0 0 0 12675203.022060275 31866995.955429077 0 31866995.955429077 104334145.14407349 0 0 0 0 46273.122354778403 22094.72071897611 0 22094.72071897611 15038.171068146825 0 0 0 0 8744006.7322556376 30430519.852363586 0 30430519.852363586 107488092.99133301 0 0 0 0 14174268.969452173 33730978.260842323 0 33730978.260842323 106627490.69818115 0 0 0 0 10609655.454210162 32827813.790390015 0 32827813.790390015 110540062.96425962 0 0 0 0 -1591715.3500990868 33643268.536560059 0 33643268.536560059 111452602.64965057 0 0 0 0 -38784.028819173574 40316723.838249207 0 40316723.838249207 129620488.24351501 0 0 0 0 -12031417.751295596 31889939.857516289 0 31889939.857516289 123567331.09233093 0 0 0 0 -10374669.899900973 39566211.459251404 0 39566211.459251404 146843688.12732553 0 0 0 0 -14820271.973520279 37849017.148323059 0 37849017.148323059 173577988.91931915 0 0 0 0 -11029965.01526618 49228576.12562561 0 49228576.12562561 152378531.45127869 0 0 0 0 -4977237.3271256387 -1350783.8035507202 0 -1350783.8035507202 121883710.99258423 0 0 0 0 2142584.5038030148 -727645.3663482666 0 -727645.3663482666 76270489.967071533 0 0 0 0 -5577179.5058315992 17032493.16211319 0 17032493.16211319 129864922.24638367 0 0 0 0 -1525409.6223150492 19905221.297790527 0 19905221.297790527 78495003.963330746 0 0 0 0 3222367.5978369713 -1517379.9035158157 0 -1517379.9035158157 -200167744.80123711 0 0 0 0 -53794882.39008522 32686162.631229401 0 32686162.631229401 50351788.708482742 0 0 0 0 -533253.02469153632 -642481.17603521515 0 -642481.17603521515 1316475.7202537619 0 0 0 0 -178324428.93565035 -56523922.501309872 0 -56523922.501309872 -38662043.607031107 0 0 0 0 -114873373.03368959 -188530000.24851656 0 -188530000.24851656 -127648193.4184227 0 0 0 0 12143148.235298157 -20741942.534902573 0 -20741942.534902573 -64861748.750190735 0 0 0 0 -22230475.79052639 -17538100.047527313 0 -17538100.047527313 -41512444.468643188 0 0 0 0 -30295386.887890823 -93113048.660749555 0 -93113048.660749555 -65964458.95615387 0 0 0 0 32500667.703233242 -90393638.880592346 0 -90393638.880592346 -106083468.44524288 0 0 0 0 38274181.190239191 -45261744.28811264 0 -45261744.28811264 -42703940.371667862 0 0 0 0 784158.14243125916 -41349215.790044785 0 -41349215.790044785 -17046508.975128174 0 0 0 0 21110441.793303013 -1156243.1013813019 0 -1156243.1013813019 8892878.7148551941 0 0 0 0 -3227492.849673748 -1250493.1452641487 0 -1250493.1452641487 43920728.068658829 0 0 0 0 18361088.939949036 -28877327.360542297 0 -28877327.360542297 -54945974.958599091 0 0 0 0 -8448215.9121513367 -130797501.16229439 0 -130797501.16229439 -58580786.856552362 0 0 0 0 353323438.04472351 60491026.627851486 0 60491026.627851486 -174611027.80393124 0 0 0 0 61517527.503368378 55406570.042276382 0 55406570.042276382 36366921.856343269 0 0 0 0 66484851.870421529 14605475.955868423 0 14605475.955868423 -11470846.8480196 0 0 0 0 105298714.39487267 49606304.655539989 0 49606304.655539989 20077462.337233067 0 0 0 0 -465553.3958001897 1207702.4014679233 0 1207702.4014679233 778930.85524902027 0 0 0 0 186647668.15111589 40450406.988536835 0 40450406.988536835 -73211908.57496357 0 0 0 0 84015694.078573227 50773987.957834959 0 50773987.957834959 -94240234.683361053 0 0 0 0 -114230259.30423784 -178214620.20810819 0 -178214620.20810819 12095435.645446777 0 0 0 0 34699436.53877449 4546496.7632904053 0 4546496.7632904053 -12617785.806980491 0 0 0 0 2257860.5599107742 -68167632.79464674 0 -68167632.79464674 -140948271.19689202 0 0 0 0 -280005.7671680192 -1639064.1360146357 0 -1639064.1360146357 3115778.1600355254 0 0 0 0 -951000.06274816906 253810.44409672346 0 253810.44409672346 1149791.0467640222 0 0 0 0 964396.61254000664 37027498.168646574 0 37027498.168646574 16472863.160491288 0 0 0 0 78181184.133256853 -47456776.720419407 0 -47456776.720419407 16997878.387201309 0 0 0 0 -580085.31327435467 -1416997.9456529701 0 -1416997.9456529701 2634223.8122781077 0 0 0 0 -51022078.204750776 -213159593.36865807 0 -213159593.36865807 -178976742.50953102 0 0 0 0 50598843.520290911 75094414.940220356 0 75094414.940220356 54942871.119907379 0 0 0 0 138912829.33052111 139618286.69754887 0 139618286.69754887 101525716.38666058 0 0 0 0 127150763.21630049 54181231.126217365 0 54181231.126217365 32240083.396362305 0 0 0 0 196231930.21290013 190441089.60449576 0 190441089.60449576 83185870.179120541 0 0 0 0 211895850.54139137 -29191893.445667267 0 -29191893.445667267 22776106.326844215 0 0 0 0 341849664.83608532 239008759.63148451 0 239008759.63148451 -6452205.1133521199 0 0 0 0 -232930592.316001 19043974.090762794 0 19043974.090762794 211938706.29295158 0 0 0 0 279523886.86797428 403414495.74431992 0 403414495.74431992 379946112.71666336 0 0 0 0 -287355822.24626613 800033758.64497471 0 800033758.64497471 -1114116929.5443707 0 0 0 0 -25966.665751895402 -343760.56495413091 0 -343760.56495413091 935204.88026145706 0 0 0 0 -247818623.75359154 162947643.37100697 0 162947643.37100697 50253368.652658463 0 0 0 0 -38227323.215229034 58174960.490795135 0 58174960.490795135 696686856.43928909 0 0 0 0 167555918.59720039 -709316573.33038521 0 -709316573.33038521 1974029135.9646378 0 0 0 0 195778892.6724453 -388777266.21790504 0 -388777266.21790504 334238692.45906591 0 0 0 0 113809890.54703236 31570377.811012715 0 31570377.811012715 -204419318.23090744 0 0 0 0 97610221.195690155 -259577858.3415699 0 -259577858.3415699 269600721.88754559 0 0 0 0 133061621.73369837 59407984.74196434 0 59407984.74196434 14067266.559421539 0 0 0 0 149821829.1752224 38751038.21178627 0 38751038.21178627 -25899217.749330521 0 0 0 0 148777024.45864487 86690667.001008987 0 86690667.001008987 -44399934.347912788 0 0 0 0 -963282.24627718609 -198763.48428798746 0 -198763.48428798746 1572441.6626824336 0 0 0 0 205073207.94252729 92990703.97561264 0 92990703.97561264 -17029278.955699921 0 0 0 0 469357.5483156608 4129182.5959891127 0 4129182.5959891127 13507675.750154391 0 0 0 0 -39052845.216434479 28186262.662395716 0 28186262.662395716 -9681543.9359750748 0 0 0 0 -43325354.253543973 34240921.473354697 0 34240921.473354697 9574182.2171678543 0 0 0 0 -19607908.488430977 49783986.588276863 0 49783986.588276863 4971329.5814323425 0 0 0 0 -13104747.27680397 135155476.74369335 0 135155476.74369335 -97870290.144382477 0 0 0 0 -29398661.577571869 71816104.351778984 0 71816104.351778984 -44455869.507026672 0 0 0 0 -292051.83204772417 1883469.6157587348 0 1883469.6157587348 723826.68449289398 0 0 0 0 14493903.566172123 3970215.0415494442 0 3970215.0415494442 -1153076.4633207321 0 0 0 0 60675709.840003014 82887984.305639744 0 82887984.305639744 -61212689.038784027 0 0 0 0 57017147.445195198 35727747.266139507 0 35727747.266139507 -37844202.778528929 0 0 0 0 -31799692.41032967 8941467.1954498291 0 8941467.1954498291 19815323.948448181 0 0 0 0 1278770.2704026224 5205504.7130463384 0 5205504.7130463384 14176815.382481324 0 0 0 0 -29142997.250217676 325654.54087305069 0 325654.54087305069 23492077.343811035 0 0 0 0 -20968745.925518036 -6548875.6783351898 0 -6548875.6783351898 26856637.609603882 0 0 0 0 -16964284.863296032 4746155.2772598267 0 4746155.2772598267 12006663.969387054 0 0 0 0 -1582843.5870674062 6815176.7220313931 0 6815176.7220313931 2742492.5665327292 0 0 0 0 204971061.90993309 -124465559.22736549 0 -124465559.22736549 -113824011.63956451 0 0 0 0 -8290584.2633857727 32679949.961972237 0 32679949.961972237 17161609.834609032 0 0 0 0 -3738921.4209558964 21377338.416807175 0 21377338.416807175 23321078.813224792 0 0 0 0 3038104.9261709973 5202977.4975244254 0 5202977.4975244254 10849368.881297927 0 0 0 0 -15663086.63171196 18979937.114802361 0 18979937.114802361 -87855092.982034206 0 0 0 0 55537285.760014534 134809758.31505203 0 134809758.31505203 50732392.069430351 0 0 0 0 -1963271.805614789 5538727.5504408069 0 5538727.5504408069 5092693.1431093626 0 0 0 0 1543916.0520911217 -2150973.6664581299 0 -2150973.6664581299 14569285.463993073 0 0 0 0 -9069100.2248926163 -14181185.061975479 0 -14181185.061975479 21636967.272163391 0 0 0 0 -23009086.058314323 -11098399.250022888 0 -11098399.250022888 22165455.53302002 0 0 0 0 260886062.72870731 203054461.39777946 0 203054461.39777946 51318056.81315136 0 0 0 0 798738.67138051987 -224431653.69253731 0 -224431653.69253731 -225366475.4262085 0 0 0 0 417030296.31003761 114740082.84249496 0 114740082.84249496 -58243347.884086609 0 0 0 0 376625351.28018188 -15196733.726831436 0 -15196733.726831436 196944.02391815186 0 0 0 0 147115382.44519806 -4786207.6472682953 0 -4786207.6472682953 67195353.307228088 0 0 0 0 393210666.74181843 -247955991.90466309 0 -247955991.90466309 144032658.97651672 0 0 0 0 536495520.53102112 -85669290.088092804 0 -85669290.088092804 -29639157.363876343 0 0 0 0 138425395.04806805 16496233.17976284 0 16496233.17976284 -135800.43321609497 0 0 0 0 329447126.98399639 130605682.40879822 0 130605682.40879822 -15152619.146484375 0 0 0 0 174547589.95570183 60508908.704959869 0 60508908.704959869 -20326599.092039108 0 0 0 0 -72154252.727574587 -69674819.668833733 0 -69674819.668833733 52217912.989711761 0 0 0 0 53593572.204527855 281597485.65441513 0 281597485.65441513 -181364882.21101135 0 0 0 0 -40784237.64966774 -93390050.933204651 0 -93390050.933204651 -31310433.112983704 0 0 0 0 -562460.84927201062 -89553.58301932551 0 -89553.58301932551 850247.32010792941 0 0 0 0 131347842.7752533 25277035.091651917 0 25277035.091651917 1553836.0208816528 0 0 0 0 -41460215.357357025 35507131.417715073 0 35507131.417715073 24314214.590240479 0 0 0 0 -2703998.9550018311 -18430756.535598755 0 -18430756.535598755 -107652156.23805046 0 0 0 0 4942458.4166603088 -4561205.5315818787 0 -4561205.5315818787 24924718.203449726 0 0 0 0 40729192.60568428 -86809090.527881622 0 -86809090.527881622 11102601.28723526 0 0 0 0 40219462.889693499 -23436956.83172667 0 -23436956.83172667 3452122.3598098755 0 0 0 0 37507264.858139038 -58312694.710124969 0 -58312694.710124969 152278474.45534515 0 0 0 0 -1489607.3178627689 1813563.011231781 0 1813563.011231781 2884793.8440572564 0 0 0 0 84033891.86577034 58484950.605213165 0 58484950.605213165 -100618228.20038986 0 0 0 0 -15726510.238726616 17782364.119734764 0 17782364.119734764 -67968994.848336339 0 0 0 0 115471283.51470637 44675035.989465952 0 44675035.989465952 -16490683.241436005 0 0 0 0 4826629.9759626389 -6938658.9757823944 0 -6938658.9757823944 -91161045.745129108 0 0 0 0 46003.260130882263 -30060968.187376022 0 -30060968.187376022 -73115768.097503662 0 0 0 0 124518505.25383329 21084875.804727554 0 21084875.804727554 -87595360.911514282 0 0 0 0 155298244.10640442 -31764915.750876784 0 -31764915.750876784 -134189744.49006653 0 0 0 0 151942575.83037645 44769455.216174006 0 44769455.216174006 -174610826.82885742 0 0 0 0 122286340.49135971 -78600810.469573975 0 -78600810.469573975 -194232629.92248917 0 0 0 0 287458716.67150545 -57838020.308162689 0 -57838020.308162689 -217941018.29618835 0 0 0 0 -50583309.729732513 -118694798.52414703 0 -118694798.52414703 479789692.86928558 0 0 0 0 441245597.83311081 188557898.46722603 0 188557898.46722603 -131622090.8999176 0 0 0 0 24721612.342918396 133388007.85737228 0 133388007.85737228 58310039.307256699 0 0 0 0 37214052.451833963 -124071234.50510406 0 -124071234.50510406 -151970159.55630112 0 0 0 0 171911177.53864479 -124692857.28713226 0 -124692857.28713226 -255937052.70607376 0 0 0 0 112326690.10223484 -62765076.564800262 0 -62765076.564800262 -103128167.57214355 0 0 0 0 31593532.430104047 -53444218.821648598 0 -53444218.821648598 -38553904.511066437 0 0 0 0 68948225.537271023 -68614118.759864807 0 -68614118.759864807 -101851683.67177868 0 0 0 0 94741976.085399628 -25815690.159082413 0 -25815690.159082413 -41955008.682823181 0 0 0 0 55258455.723434284 -31864414.747235775 0 -31864414.747235775 -22550658.966911316 0 0 0 0 59446726.136097431 -43515022.621513367 0 -43515022.621513367 -48514274.800886154 0 0 0 0 43785746.067701966 -37124054.790461063 0 -37124054.790461063 4762323.5021896362 0 0 0 0 43856706.46058774 -36319573.123018265 0 -36319573.123018265 13437474.554412842 0 0 0 0 58125649.641728401 -26193728.863382339 0 -26193728.863382339 -12365088.71739006 0 0 0 0 75833699.907081604 -15075975.266008377 0 -15075975.266008377 -5481006.5668869019 0 0 0 0 67996294.077387571 4758719.3280332088 0 4758719.3280332088 31827709.966400146 0 0 0 0 33028270.297739983 -15859700.802722931 0 -15859700.802722931 21705074.645083427 0 0 0 0 2708265.4507910828 2117974.1051479834 0 2117974.1051479834 4572808.6687268708 0 0 0 0 1849441.4412523508 -1789396.786523819 0 -1789396.786523819 411682.18817901611 0 0 0 0 40196952.556988537 -32690962.234604359 0 -32690962.234604359 23062639.617469788 0 0 0 0 30682375.284827828 -19964707.315061569 0 -19964707.315061569 10193731.829139709 0 0 0 0 1875186.8910264969 -16356900.347240448 0 -16356900.347240448 17077689.368388057 0 0 0 0 -514110.23569699068 1612569.4030016689 0 1612569.4030016689 1509983.8750142865 0 0 0 0 -17299178.33643961 -20286582.703617096 0 -20286582.703617096 17234667.673934937 0 0 0 0 -25797379.280255795 -7949715.9747886658 0 -7949715.9747886658 14449693.935699463 0 0 0 0 1938053.8089046478 -2285315.2896900177 0 -2285315.2896900177 -170125.13503265381 0 0 0 0 -764635.79293806024 170051.25155733153 0 170051.25155733153 10144721.892633639 0 0 0 0 26244689.272086978 113006312.65516853 0 113006312.65516853 52548926.652633667 0 0 0 0 71406085.112929583 -48430702.913049698 0 -48430702.913049698 26940668.186759949 0 0 0 0 160900900.27483749 -137855745.82706451 0 -137855745.82706451 -20208873.884170532 0 0 0 0 154505580.54704666 36428228.592391968 0 36428228.592391968 7698137.6626281738 0 0 0 0 29387904.203696251 82520424.336837769 0 82520424.336837769 103339357.37657166 0 0 0 0 -18413477.618185997 23392299.496673584 0 23392299.496673584 130480824.44542313 0 0 0 0 -13273727.362112045 -11481025.999755859 0 -11481025.999755859 536747.4560546875 0 0 0 0 8643272.7956943512 -113451544.76428223 0 -113451544.76428223 3141025.2249298096 0 0 0 0 -4056148.9876410961 -14367468.835256577 0 -14367468.835256577 -9759874.9651107788 0 0 0 0 -493624.66186574171 -888898.20327802747 0 -888898.20327802747 8741483.4620302729 0 0 0 0 -18081169.525423169 -32306037.41620636 0 -32306037.41620636 -40735182.563354492 0 0 0 0 -102741.38500214872 -53594.127734710462 0 -53594.127734710462 148784.90899278596 0 0 0 0 -25965612.457550526 48527072.678342819 0 48527072.678342819 -9443736.5479888916 0 0 0 0 9295456.8782072067 38320605.005153656 0 38320605.005153656 -9875220.6168518066 0 0 0 0 -40572395.778374195 24167893.445270538 0 24167893.445270538 7888557.0908508301 0 0 0 0 -16311082.722357273 11723045.053653717 0 11723045.053653717 5147947.779083252 0 0 0 0 5170075.5532063842 -5364287.6433105469 0 -5364287.6433105469 -11536551.629890442 0 0 0 0 -521032.00769418478 -2140021.2992591858 0 -2140021.2992591858 358354.43891906738 0 0 0 0 4533494.5621676445 -2835351.0352668762 0 -2835351.0352668762 -5195164.5357437134 0 0 0 0 4908676.7560875416 7579491.1798229218 0 7579491.1798229218 17019732.69758606 0 0 0 0 9407572.69379282 2201168.8808860779 0 2201168.8808860779 4140921.2133102417 0 0 0 0 11114336.803412735 6104210.5216319561 0 6104210.5216319561 -1299200.0822525024 0 0 0 0 8579724.1502832249 -5584475.2366576195 0 -5584475.2366576195 -13322194.544387817 0 0 0 0 12168117.202307403 -11873195.494560242 0 -11873195.494560242 -14646527.457824707 0 0 0 0 26102558.622253478 15365938.679328918 0 15365938.679328918 -3363258.8030643463 0 0 0 0 -4487903.1425597668 -5071785.6193771362 0 -5071785.6193771362 677610.99644470215 0 0 0 0 302321.19591987133 -21455657.552959442 0 -21455657.552959442 -47594984.192687988 0 0 0 0 -13401512.000519156 -8320641.7996063232 0 -8320641.7996063232 -11084517.139671326 0 0 0 0 -18272905.193811655 -31311505.787506104 0 -31311505.787506104 -33808305.25402832 0 0 0 0 -28879670.495853186 -51001827.755741119 0 -51001827.755741119 -49139954.455184937 0 0 0 0 361800.3933479198 -127537.30632025935 0 -127537.30632025935 -406762.0126644671 0 0 0 0 3295097.4449927229 2260872.1818778184 0 2260872.1818778184 1909092.3934815377 0 0 0 0 9972706.0236179829 -4035670.8251819611 0 -4035670.8251819611 24098729.720508575 0 0 0 0 7178498.3172383308 1847356.4043865204 0 1847356.4043865204 -223373.97763252258 0 0 0 0 4846012.1153757572 3231861.0025930405 0 3231861.0025930405 3012710.7624893188 0 0 0 0 -207718.35094812792 199811.46949107386 0 199811.46949107386 1437383.0971069392 0 0 0 0 7623643.5295348167 7285765.845500946 0 7285765.845500946 5315706.6937541962 0 0 0 0 35639629.197948456 -37810640.364894867 0 -37810640.364894867 29372816.103656769 0 0 0 0 1588411.5638386463 1593928.3853259184 0 1593928.3853259184 953234.49791038781 0 0 0 0 98658383.947400093 74888384.616611481 0 74888384.616611481 60731554.643663406 0 0 0 0 143437677.34599447 151263029.74022675 0 151263029.74022675 93295798.862695694 0 0 0 0 -318007.05189027049 -760290.04120149929 0 -760290.04120149929 1839147.7334977975 0 0 0 0 126562550.78765059 -3116210.8397293091 0 -3116210.8397293091 3079026.2358169556 0 0 0 0 488138388.05421829 159096537.2840519 0 159096537.2840519 177631451.6378212 0 0 0 0 485394084.8747282 200817495.40141678 0 200817495.40141678 35797766.786428452 0 0 0 0 -479738.40971894271 1321436.9344122829 0 1321436.9344122829 760005.40891181305 0 0 0 0 256317112.94323766 194039236.46278 0 194039236.46278 109388315.66188049 0 0 0 0 138648431.76582813 -43345643.103406906 0 -43345643.103406906 326301149.10649109 0 0 0 0 -263017.9439123671 -418865.64699541125 0 -418865.64699541125 803244.62620737776 0 0 0 0 21875461.139603376 -95023630.115690231 0 -95023630.115690231 189809047.98263741 0 0 0 0 21604651.358582973 -14315698.085033417 0 -14315698.085033417 27912750.183620453 0 0 0 0 17028195.81609863 -20288787.042209625 0 -20288787.042209625 20609331.134910583 0 0 0 0 24496012.955821097 -35279886.025446892 0 -35279886.025446892 57411688.702011108 0 0 0 0 62228093.20549655 -57620748.647443771 0 -57620748.647443771 26465124.387088776 0 0 0 0 80464440.823504448 -24063076.337841034 0 -24063076.337841034 -7242371.369102478 0 0 0 0 234608885.13347816 -129432351.38445282 0 -129432351.38445282 -3225074.2275352478 0 0 0 0 275609589.93468308 -31126778.801421642 0 -31126778.801421642 -88500038.382575989 0 0 0 0 161387305.65746903 47158137.642677069 0 47158137.642677069 -107447839.99007797 0 0 0 0 131461235.67568302 -55199576.026620865 0 -55199576.026620865 -18296889.901957989 0 0 0 0 64363113.144945145 64332648.086036682 0 64332648.086036682 26966256.386170387 0 0 0 0 115419590.23372555 71335125.889348984 0 71335125.889348984 -31136471.418100357 0 0 0 0 60105329.483320624 -4271656.9146910906 0 -4271656.9146910906 -7971431.2490615845 0 0 0 0 38985752.406593084 -44330220.144632339 0 -44330220.144632339 -2004392.8704147339 0 0 0 0 50987011.5574646 -21749329.251054764 0 -21749329.251054764 -3768797.2364597321 0 0 0 0 3795353.0437216312 -43468753.683956146 0 -43468753.683956146 -13021766.485622406 0 0 0 0 41720224.653745055 -13782969.07843399 0 -13782969.07843399 -6095654.2830429077 0 0 0 0 242278433.34835196 300545552.29932833 0 300545552.29932833 269023433.49639702 0 0 0 0 35850551.296650887 -79530605.719390869 0 -79530605.719390869 469528777.02591419 0 0 0 0 -79064134.040470123 134376340.23251724 0 134376340.23251724 461902768.62887955 0 0 0 0 -853788.34925224143 2254676.3564566034 0 2254676.3564566034 1429139.9001607057 0 0 0 0 113513784.90732002 266148227.58628273 0 266148227.58628273 -2302575.4618606567 0 0 0 0 1311099.4482103679 -35608.461730691604 0 -35608.461730691604 488874.47833298519 0 0 0 0 115069566.17794514 286185523.82542682 0 286185523.82542682 -162989913.65010834 0 0 0 0 -214064147.22078514 96601257.871831894 0 96601257.871831894 86523724.03004837 0 0 0 0 159360243.27146393 122129239.43107483 0 122129239.43107483 -213193218.51213455 0 0 0 0 434903538.53801107 286137544.79327416 0 286137544.79327416 20383764.566070557 0 0 0 0 160119004.94795036 97326894.221256256 0 97326894.221256256 -41864299.545863152 0 0 0 0 36091921.285227776 130068692.42728996 0 130068692.42728996 233734867.02571869 0 0 0 0 110131268.98657608 65514707.857982635 0 65514707.857982635 232036078.65852928 0 0 0 0 7345924.9835681915 32914172.749326706 0 32914172.749326706 32814642.759763718 0 0 0 0 -122157186.25799227 86273553.326222897 0 86273553.326222897 139620030.32214737 0 0 0 0 15859340.363518715 -47427529.076134205 0 -47427529.076134205 75104509.100362778 0 0 0 0 -107831479.00281143 90800247.439752579 0 90800247.439752579 -59396497.360182762 0 0 0 0 1389053.0430061957 -841465.12522561383 0 -841465.12522561383 3950511.7736541014 0 0 0 0 -236000700.85847092 248429544.26512909 0 248429544.26512909 -37203080.525946856 0 0 0 0 -4593882.4908390753 -3417182.8335026857 0 -3417182.8335026857 14166835.224687105 0 0 0 0 -13365402.952718735 -33311027.91919136 0 -33311027.91919136 25558329.197318792 0 0 0 0 -43802029.452847719 -77098877.496337891 0 -77098877.496337891 -35149877.092004776 0 0 0 0 -171013099.64673042 -101745154.9052887 0 -101745154.9052887 -37192158.780101776 0 0 0 0 -5327565.4517415613 -3606264.8055305756 0 -3606264.8055305756 36702418.390444048 0 0 0 0 -37216537.414131165 -32029613.909834385 0 -32029613.909834385 47673581.721952438 0 0 0 0 -11140792.085103989 -12319936.767336845 0 -12319936.767336845 29702825.085002899 0 0 0 0 -43870750.825866699 1113236.9291229248 0 1113236.9291229248 66476583.581156731 0 0 0 0 -53611628.65071106 18926686.531702995 0 18926686.531702995 51681836.164273262 0 0 0 0 -38265218.042345047 29596458.582431793 0 29596458.582431793 26092442.725027084 0 0 0 0 -3732383.6014668476 1002386.5395362843 0 1002386.5395362843 8398991.2249106616 0 0 0 0 -38803609.092016697 -15644489.715105057 0 -15644489.715105057 119159182.30804443 0 0 0 0 -17747267.755020142 45022981.735458374 0 45022981.735458374 71731753.417733669 0 0 0 0 -17986795.159240723 54082990.731035233 0 54082990.731035233 224399877.39615536 0 0 0 0 9074416.5691747665 -6267129.3755297661 0 -6267129.3755297661 73229164.258237839 0 0 0 0 34200952.561779976 -49413239.917440414 0 -49413239.917440414 132726295.74425411 0 0 0 0 -10145069.247618675 8713766.1774749756 0 8713766.1774749756 12059946.803409576 0 0 0 0 -2670418.337158069 -5626480.7944611525 0 -5626480.7944611525 3585134.5480854884 0 0 0 0 43370568.898095608 1845306.4615936279 0 1845306.4615936279 -27704572.131195068 0 0 0 0 -18887115.998489678 -25681503.337723732 0 -25681503.337723732 85301301.67755127 0 0 0 0 -14549521.524466038 -1772672.2128448486 0 -1772672.2128448486 54253264.673019409 0 0 0 0 7508084.2460425943 -58254851.107240438 0 -58254851.107240438 101926788.85534668 0 0 0 0 -24025974.903022766 -22691306.079338074 0 -22691306.079338074 139772277.72092438 0 0 0 0 -29273077.761570692 -25472966.683448792 0 -25472966.683448792 170940456.85255432 0 0 0 0 -21317449.627149582 -3521038.8673858643 0 -3521038.8673858643 95656056.752857208 0 0 0 0 6297686.877366066 13213251.119918823 0 13213251.119918823 80495503.386657715 0 0 0 0 -25886627.00797677 -4213107.2508468628 0 -4213107.2508468628 130071233.41261292 0 0 0 0 4866272.1826181412 -25390303.306396484 0 -25390303.306396484 12675659.917289734 0 0 0 0 2834849.2590880394 -9370941.6538772583 0 -9370941.6538772583 3871375.8503093719 0 0 0 0 -3942286.0818007183 -5918167.1496378388 0 -5918167.1496378388 6752089.9117667656 0 0 0 0 861768.35610389709 -24305440.229137421 0 -24305440.229137421 7151470.5831680298 0 0 0 0 -6100584.799115181 -12837784.530971527 0 -12837784.530971527 23248046.3801651 0 0 0 0 5438147.0060875863 -8106137.2700542212 0 -8106137.2700542212 14579940.809005737 0 0 0 0 27065683.505099535 56749722.709224701 0 56749722.709224701 95973698.004112244 0 0 0 0 16086477.509048939 13262608.831260681 0 13262608.831260681 -23765616.294319153 0 0 0 0 -27474171.660201788 -21184255.948246002 0 -21184255.948246002 21795503.284946442 0 0 0 0 -7160171.7080032229 -22476755.838490248 0 -22476755.838490248 2601550.6065368652 0 0 0 0 -26203423.25028801 10519061.053779602 0 10519061.053779602 33993715.044368744 0 0 0 0 -5130828.5642559212 -4422433.1786861513 0 -4422433.1786861513 33526026.408225194 0 0 0 0 -25439930.971140862 -39161143.358932495 0 -39161143.358932495 2598625.8496546345 0 0 0 0 -16865622.324640274 -31061767.129666328 0 -31061767.129666328 17380436.833902359 0 0 0 0 -10377719.167720795 -13393928.481059074 0 -13393928.481059074 52243381.276941299 0 0 0 0 -2418839.9957381533 -3320947.8306976785 0 -3320947.8306976785 20343309.060495682 0 0 0 0 1166071.6780996323 4469031.5749511719 0 4469031.5749511719 19927295.782083511 0 0 0 0 -90967.243359565735 -3873748.0979919434 0 -3873748.0979919434 26995591.629611969 0 0 0 0 -8656143.7806086317 -4605273.6111855609 0 -4605273.6111855609 15369265.160599886 0 0 0 0 -14827808.170183659 -22457180.75976944 0 -22457180.75976944 9914580.9500198364 0 0 0 0 -1214030.029583931 3400212.1082172394 0 3400212.1082172394 16251213.844665527 0 0 0 0 -7083477.3597650528 -6737591.6225242615 0 -6737591.6225242615 32793496.55752182 0 0 0 0 -9841667.5790691376 3271235.039100647 0 3271235.039100647 22233840.84651947 0 0 0 0 -12008491.064120293 16965635.169166565 0 16965635.169166565 14646885.151569366 0 0 0 0 -75789.401209792326 2641630.348321517 0 2641630.348321517 5167099.8873485886 0 0 0 0 -50265985.350062162 12938792.628456116 0 12938792.628456116 -460445.68975830078 0 0 0 0 -10231145.504811823 11345751.591997743 0 11345751.591997743 5846734.809677124 0 0 0 0 -50461521.004543781 16264524.334999084 0 16264524.334999084 -4235493.5567016602 0 0 0 0 -16019347.970263481 -2750812.6930923462 0 -2750812.6930923462 17202266.760261536 0 0 0 0 -2101302.4105648994 -1526166.8690261841 0 -1526166.8690261841 11601324.984710693 0 0 0 0 -23189545.090868473 6644427.8175907135 0 6644427.8175907135 18554892.467254639 0 0 0 0 5716833.3018432856 19535299.502967834 0 19535299.502967834 6513468.9745635986 0 0 0 0 -37613931.723781586 78825254.300128937 0 78825254.300128937 54991825.89443779 0 0 0 0 -2429394.0396752357 6638410.5849323273 0 6638410.5849323273 14427741.433166504 0 0 0 0 -1005422.5907076806 -1955614.3103761228 0 -1955614.3103761228 1195763.3497955874 0 0 0 0 32647061.720079422 -26619394.662254333 0 -26619394.662254333 -4003395.9557189941 0 0 0 0 -43359774.324922562 -83834363.286312103 0 -83834363.286312103 18018637.030537605 0 0 0 0 -3842318.3920027479 -2320086.9240571787 0 -2320086.9240571787 14163152.644019943 0 0 0 0 -9033395.4656162262 -229029.71183776855 0 -229029.71183776855 1641229.9968261719 0 0 0 0 -1683943.8579487598 -886393.69946428691 0 -886393.69946428691 7368548.5550097339 0 0 0 0 -8916263.818772316 -455575.41047668457 0 -455575.41047668457 1613138.6419677734 0 0 0 0 -1854435.1693300931 2084842.8487649802 0 2084842.8487649802 10158486.149518788 0 0 0 0 -827059.38318605511 344668.38094858732 0 344668.38094858732 6473177.2544975169 0 0 0 0 -1843970.3383573745 -3320261.4843719499 0 -3320261.4843719499 3355176.8049566075 0 0 0 0 10647184.060398102 13721795.978942871 0 13721795.978942871 -2430986.3393249512 0 0 0 0 -877036.78857750958 991646.35839214735 0 991646.35839214735 1818696.8775796313 0 0 0 0 -26357494.349323273 1739193.8182601929 0 1739193.8182601929 19478100.458183289 0 0 0 0 -15826537.522370338 9808447.7271003723 0 9808447.7271003723 16981565.036113739 0 0 0 0 -7299504.4959416389 -1813728.5812425613 0 -1813728.5812425613 19470598.33429718 0 0 0 0 -23069902.786154747 837059.35525131226 0 837059.35525131226 15030821.158866882 0 0 0 0 -21196239.561404228 13263525.020580292 0 13263525.020580292 27979777.664024353 0 0 0 0 -12933142.629710197 -32316309.332241058 0 -32316309.332241058 17045782.321264267 0 0 0 0 -3475879.4296692545 -644077.39838639274 0 -644077.39838639274 20186834.066265058 0 0 0 0 39788389.361633301 -56551236.505568981 0 -56551236.505568981 21249953.673107147 0 0 0 0 -42838445.487037659 -60195507.72508812 0 -60195507.72508812 33861415.956047535 0 0 0 0 -7582340.8022756577 15174349.725008011 0 15174349.725008011 15415805.46685791 0 0 0 0 8733176.8037452698 4702022.7875299454 0 4702022.7875299454 -6268373.6698660851 0 0 0 0 41667371.308666229 78988291.405162573 0 78988291.405162573 73112762.956988335 0 0 0 0 100801220.91041565 14025981.966235638 0 14025981.966235638 4419635.5882639885 0 0 0 0 1291063.4282442611 -89724.377551067621 0 -89724.377551067621 -930216.04740450904 0 0 0 0 14594214.175098419 -3855775.0082246065 0 -3855775.0082246065 2124821.0299614668 0 0 0 0 103225232.17810917 -3154464.2818848491 0 -3154464.2818848491 -3109896.7702765465 0 0 0 0 10127161.67414093 35572751.625341415 0 35572751.625341415 19213133.33807373 0 0 0 0 11913120.112319946 32438126.031101465 0 32438126.031101465 18737963.095130593 0 0 0 0 -32600128.73589325 42511282.024010181 0 42511282.024010181 117792419.52948666 0 0 0 0 66818144.953920364 82283845.875867367 0 82283845.875867367 53722126.86283493 0 0 0 0 -35511641.320742607 -28086454.007806778 0 -28086454.007806778 21379151.058708191 0 0 0 0 -3481466.9941921183 1900807.2167848945 0 1900807.2167848945 19321681.070589691 0 0 0 0 -59633900.838400841 -8810063.6783469915 0 -8810063.6783469915 60319649.66809845 0 0 0 0 1441356.692199707 30540140.520771742 0 30540140.520771742 26970953.860193968 0 0 0 0 6719939.0860548019 39203141.202263832 0 39203141.202263832 34961636.36827755 0 0 0 0 -18749341.92446804 -10977337.454532623 0 -10977337.454532623 -4343074.3894577026 0 0 0 0 -2957073.0224500895 5090684.8181871893 0 5090684.8181871893 18826271.759085722 0 0 0 0 -20313555.215903282 -12167792.29517746 0 -12167792.29517746 -4080870.0469436646 0 0 0 0 -1719236.9671058655 26003300.085944295 0 26003300.085944295 24434064.694908619 0 0 0 0 -18869975.610326767 -11586489.79813385 0 -11586489.79813385 -6657042.3671340942 0 0 0 0 -39226385.022459507 -42404.138954162598 0 -42404.138954162598 50573036.34551239 0 0 0 0 -12996838.81318903 -18945129.304639816 0 -18945129.304639816 18564553.643051147 0 0 0 0 -2097029.2797172498 -4931687.4870279357 0 -4931687.4870279357 10773383.920056485 0 0 0 0 -17521283.29878521 -6191129.6058959961 0 -6191129.6058959961 -5013116.2512083054 0 0 0 0 -624067.11176965374 -1855268.2187891542 0 -1855268.2187891542 777240.74210056663 0 0 0 0 19855888.218753815 74854405.094074726 0 74854405.094074726 48800505.88668108 0 0 0 0 73324094.617173791 63965524.302957088 0 63965524.302957088 -1894370.4990377426 0 0 0 0 12061856.445013046 62732463.599143982 0 62732463.599143982 62124407.535990715 0 0 0 0 97748011.69787693 117589982.2301414 0 117589982.2301414 80999581.934146881 0 0 0 0 -36440382.399385452 61951895.327536106 0 61951895.327536106 95140771.427393913 0 0 0 0 -34433042.735340118 38007400.37699604 0 38007400.37699604 51265871.325078011 0 0 0 0 10259136.582939148 22018629.020290375 0 22018629.020290375 43984059.213692665 0 0 0 0 -9082328.8016662598 33979243.012099743 0 33979243.012099743 32425086.789063454 0 0 0 0 -26648518.615854263 34221432.815643072 0 34221432.815643072 113343982.75163293 0 0 0 0 -7748815.2438373566 25986176.553675413 0 25986176.553675413 616526.36362552643 0 0 0 0 2949302.2789144237 -192798.07045524847 0 -192798.07045524847 -1912042.0184898379 0 0 0 0 -5506280.6588230133 35779321.502942801 0 35779321.502942801 -3985033.0962872505 0 0 0 0 -551177.53932571411 16122995.512524366 0 16122995.512524366 -30993174.441081762 0 0 0 0 24216769.18378067 44832928.510913849 0 44832928.510913849 -6619571.7500195503 0 0 0 0 25255148.265090942 20952717.60272789 0 20952717.60272789 -44064467.979222775 0 0 0 0 23977524.648130655 57370135.737003922 0 57370135.737003922 936578.91996002197 0 0 0 0 24333776.260858536 17958052.873275399 0 17958052.873275399 -39223616.565059185 0 0 0 0 8716676.2731717825 -5531141.0646179989 0 -5531141.0646179989 -57237347.799467087 0 0 0 0 -186951.97165688267 -1641559.1451639857 0 -1641559.1451639857 3653774.9727085214 0 0 0 0 3190567.1003422737 1763524.0745491982 0 1763524.0745491982 8586814.1744217873 0 0 0 0 -808636.36771345139 2831126.2206377983 0 2831126.2206377983 10062834.816006899 0 0 0 0 5074134.4163627625 -2616435.7431497574 0 -2616435.7431497574 6501129.1104118824 0 0 0 0 3366732.5177102089 940479.31367704272 0 940479.31367704272 7901919.0026264191 0 0 0 0 8884292.4640979767 1408844.4386141896 0 1408844.4386141896 5498387.6781797409 0 0 0 0 8285613.8317184448 3486311.9614462852 0 3486311.9614462852 7141622.1067090034 0 0 0 0 2726370.9091644287 2658475.0567879677 0 2658475.0567879677 19359765.743627548 0 0 0 0 58246.535349180456 -40798.346076168818 0 -40798.346076168818 19907.296975405654 0 0 0 0 6791264.7062675953 12216069.743443377 0 12216069.743443377 -28919836.988777161 0 0 0 0 4154976.203189482 -330873.48432297935 0 -330873.48432297935 -2425776.3717079675 0 0 0 0 6292534.4076290131 -3172264.9834486246 0 -3172264.9834486246 -756733.21844089031 0 0 0 0 12751168.893634796 -594681.50076669455 0 -594681.50076669455 -1452849.4217569828 0 0 0 0 7494891.9129695892 -104277.89625406265 0 -104277.89625406265 -4130760.842099905 0 0 0 0 11436062.739152908 -1917553.8493527174 0 -1917553.8493527174 -3305496.9655165672 0 0 0 0 5607829.4171924591 -1056852.269664526 0 -1056852.269664526 -771354.94625002146 0 0 0 0 3851321.6148509979 -289506.99249875546 0 -289506.99249875546 -172366.21610593796 0 0 0 0 5051982.2187309265 182301.69930434227 0 182301.69930434227 -180724.78320084512 0 0 0 0 3854432.772600174 -1666903.8239978552 0 -1666903.8239978552 -857962.25277352333 0 0 0 0 5709497.2265877305 47313.611803066917 0 47313.611803066917 923190.05290669168 0 0 0 0 1959151.5966377258 2827632.1394205093 0 2827632.1394205093 4789934.7450469136 0 0 0 0 21138065.561066151 -23114627.56027317 0 -23114627.56027317 23356833.80079937 0 0 0 0 6374056.9704060555 13008512.47484684 0 13008512.47484684 14069648.857505798 0 0 0 0 8186864.9296939755 725279.10150298302 0 725279.10150298302 5581233.0380523074 0 0 0 0 1002666.8521191347 589341.98119826126 0 589341.98119826126 -105726.32699453738 0 0 0 0 10404955.910687447 -20616559.796089172 0 -20616559.796089172 65015064.51112318 0 0 0 0 7179909.5343999863 -12629277.589711189 0 -12629277.589711189 72624510.917128563 0 0 0 0 10497718.702194035 -5160108.5394668579 0 -5160108.5394668579 17882333.250926971 0 0 0 0 8288407.8700428009 -39077316.862885475 0 -39077316.862885475 74584498.14296627 0 0 0 0 33632752.58871603 -3304243.7205181122 0 -3304243.7205181122 3654229.3126139641 0 0 0 0 4352889.1726475051 322442.98534857377 0 322442.98534857377 1161882.5133082485 0 0 0 0 199967.3393336935 251984.72815009672 0 251984.72815009672 391227.90081852581 0 0 0 0 26755559.194583476 60202654.131436944 0 60202654.131436944 195142271.1598568 0 0 0 0 3662742.2349059796 522268.73882224155 0 522268.73882224155 -806117.02171645523 0 0 0 0 1926027.3006668091 -1022776.5856363773 0 -1022776.5856363773 3795569.7269172668 0 0 0 0 271318.72472131252 -788810.7029761076 0 -788810.7029761076 3832886.9494127035 0 0 0 0 -1980376.9799181311 1832354.411121201 0 1832354.411121201 2263934.5053782966 0 0 0 0 1834256.2955665588 -2241941.9670073986 0 -2241941.9670073986 6501443.1572856903 0 0 0 0 3045261.6351885796 1918177.8999444544 0 1918177.8999444544 3718004.3212723732 0 0 0 0 2610289.1247341679 624243.28503714944 0 624243.28503714944 5097846.522414417 0 0 0 0 2740159.1293487549 2384806.4757065773 0 2384806.4757065773 5027394.4628248215 0 0 0 0 6201510.4673347473 30854.710715770721 0 30854.710715770721 4845191.9625623226 0 0 0 0 4624130.6047401428 1732117.7733409405 0 1732117.7733409405 6339001.7669796944 0 0 0 0 4910681.0234632492 3023324.2889064103 0 3023324.2889064103 4132979.539504528 0 0 0 0 1880809.0331611633 1487861.6356740594 0 1487861.6356740594 3860498.7119766176 0 0 0 0 2303748.0839605331 3556798.4072968811 0 3556798.4072968811 -2243984.6663353443 0 0 0 0 4011364.0528297424 329446.0189499259 0 329446.0189499259 1027095.4158106446 0 0 0 0 2503046.3734731674 -16026287.111888885 0 -16026287.111888885 6293850.7672094703 0 0 0 0 3039162.5717556365 -456771.86948799435 0 -456771.86948799435 10018956.302424379 0 0 0 0 358362.66059494019 -8797151.508182466 0 -8797151.508182466 7197461.4010906219 0 0 0 0 3345108.1089782715 -13433498.997209549 0 -13433498.997209549 9116409.8813328743 0 0 0 0 1260045.6350769997 -15681000.300373077 0 -15681000.300373077 8782903.996186018 0 0 0 0 -1572572.8781452179 652055.76165008545 0 652055.76165008545 3588604.4001235962 0 0 0 0 9151355.8097229004 18127650.347786665 0 18127650.347786665 28312353.388922453 0 0 0 0 9886715.0409542099 6858381.0557215866 0 6858381.0557215866 12344349.649564246 0 0 0 0 -20894690.567695618 -11320026.047000885 0 -11320026.047000885 2468968.7802886963 0 0 0 0 1236561.3003921509 27457594.376531601 0 27457594.376531601 14703629.398759842 0 0 0 0 4452225.1754341125 29079359.285979241 0 29079359.285979241 8557457.9146225452 0 0 0 0 11612275.916072845 31541332.974083424 0 31541332.974083424 16080704.009132862 0 0 0 0 8325825.7660006303 4932990.913834447 0 4932990.913834447 13565385.378982665 0 0 0 0 3474777.8813502789 -9419347.7255411148 0 -9419347.7255411148 11749970.835219383 0 0 0 0 10395161.775942802 -6846508.0336923599 0 -6846508.0336923599 -12718619.473815918 0 0 0 0 9317774.8967641555 2134785.3435762562 0 2134785.3435762562 8068618.9208668536 0 0 0 0 25140520.320363998 17489134.677498698 0 17489134.677498698 -13677362.625305414 0 0 0 0 20479726.916148663 13536531.829070568 0 13536531.829070568 -3821880.4606862068 0 0 0 0 11885492.50113678 12948206.948503017 0 12948206.948503017 -7084894.4347326756 0 0 0 0 40435612.724444985 30271476.548998736 0 30271476.548998736 3330578.6473941803 0 0 0 0 41005878.946614265 3295888.8295918023 0 3295888.8295918023 -4862637.4199547768 0 0 0 0 7215454.3982086182 6344950.8609215021 0 6344950.8609215021 -5059221.9791223109 0 0 0 0 12325689.886442423 6245180.6484675407 0 6245180.6484675407 33523880.417120934 0 0 0 0 -300442.8163921833 -14515409.15867728 0 -14515409.15867728 25100214.945943832 0 0 0 0 -13993094.33800602 9035771.2631978989 0 9035771.2631978989 67691692.891236305 0 0 0 0 -6023364.0695228577 6754137.1650390625 0 6754137.1650390625 68293222.286950111 0 0 0 0 22724617.432723045 21772835.669744492 0 21772835.669744492 55645528.177729487 0 0 0 0 -11259822.473418236 17816884.217472076 0 17816884.217472076 97729287.468255997 0 0 0 0 20977426.3739748 15137763.582411766 0 15137763.582411766 54338957.240799427 0 0 0 0 51160509.070108414 52686773.276839733 0 52686773.276839733 100893766.9928112 0 0 0 0 16766501.370942116 -880666.77545166016 0 -880666.77545166016 17072666.875312805 0 0 0 0 10790219.430978298 -18394822.347391367 0 -18394822.347391367 19887387.479305267 0 0 0 0 11326022.217853546 -12890046.760247231 0 -12890046.760247231 6536569.9136583805 0 0 0 0 22614353.477379322 -9529996.3303580284 0 -9529996.3303580284 26021283.538085938 0 0 0 0 32200395.822537303 -12175780.529396296 0 -12175780.529396296 24042088.578550339 0 0 0 0 18423770.123015881 -11154316.36639595 0 -11154316.36639595 43209130.048431396 0 0 0 0 77008593.283256531 -3571027.4734401703 0 -3571027.4734401703 43746116.109263539 0 0 0 0 15386987.90616703 -4149888.412106514 0 -4149888.412106514 42886903.442808628 0 0 0 0 3676560.5933609009 -14418238.978759766 0 -14418238.978759766 49128506.926364422 0 0 0 0 945589.40153884888 -6268797.906537056 0 -6268797.906537056 42636949.92140007 0 0 0 0 2621957.1122522354 -18976235.299204826 0 -18976235.299204826 32104714.352414131 0 0 0 0 -449012.96830368042 -17184388.157570839 0 -17184388.157570839 31533360.872001648 0 0 0 0 462537.53931045532 -21204289.847947121 0 -21204289.847947121 29221206.134747505 0 0 0 0 12451056.718868256 -23850778.400716782 0 -23850778.400716782 32239075.183589935 0 0 0 0 4588137.9256782532 -14329542.84412384 0 -14329542.84412384 21667043.24605751 0 0 0 0 5532357.9892168045 -19090947.562552452 0 -19090947.562552452 18592209.390327454 0 0 0 0 1797259.9768724442 -16740776.64575386 0 -16740776.64575386 19713698.148323059 0 0 0 0 33965199.29968071 17104171.60804987 0 17104171.60804987 6364538.2574682236 0 0 0 0 30767724.392868996 10142996.115660667 0 10142996.115660667 -13735819.634447098 0 0 0 0 34230885.284902096 20086461.566821098 0 20086461.566821098 8975723.2152442932 0 0 0 0 3138147.7590413094 10916661.364923716 0 10916661.364923716 59765284.310119629 0 0 0 0 7765844.0201611519 -10690958.969853878 0 -10690958.969853878 42439002.265382767 0 0 0 0 18496733.790294051 -19079950.375065804 0 -19079950.375065804 94386412.2330513 0 0 0 0 62821820.27865696 58515116.35418129 0 58515116.35418129 66183998.266904354 0 0 0 0 33505297.029599428 23130925.548831463 0 23130925.548831463 7129215.3966913223 0 0 0 0 33004422.858078003 16341947.869615316 0 16341947.869615316 18607141.956348419 0 0 0 0 -1693957.4768764973 -3638374.3990011215 0 -3638374.3990011215 -6924467.8908367157 0 0 0 0 -59255.054779191967 235653.88497756165 0 235653.88497756165 114886.63975234702 0 0 0 0 11994460.049919605 -8682038.9122796059 0 -8682038.9122796059 5891137.1825494766 0 0 0 0 64852851.84029077 9700948.1639099717 0 9700948.1639099717 -5504882.3433818817 0 0 0 0 169353.69901451794 32651.883649575058 0 32651.883649575058 -89831.624911646824 0 0 0 0 -3701455.8381099701 -14798176.02252388 0 -14798176.02252388 138084645.92313671 0 0 0 0 -4716806.8124774694 -23586016.934804916 0 -23586016.934804916 66261993.061944962 0 0 0 0 -15874829.690843344 1463436.246902585 0 1463436.246902585 65560881.868440628 0 0 0 0 -5159569.3212308884 -1881200.0536336899 0 -1881200.0536336899 19244285.868001938 0 0 0 0 -18675541.85359621 -5865161.0687689781 0 -5865161.0687689781 67430082.700443268 0 0 0 0 405360.25754127465 114070.60516266502 0 114070.60516266502 62223.291057099588 0 0 0 0 -33654023.317699432 -754027.81137752533 0 -754027.81137752533 40771260.172739029 0 0 0 0 -17640288.792924404 19391020.514206886 0 19391020.514206886 20277201.468268991 0 0 0 0 13377525.164634705 -8103420.1480789185 0 -8103420.1480789185 -6157439.6334991455 0 0 0 0 12148322.566091299 -21960995.562427044 0 -21960995.562427044 7707641.3285188675 0 0 0 0 -82667.613660583796 248561.34197411453 0 248561.34197411453 267621.56875565276 0 0 0 0 -21507115.760066748 -7703365.8987030983 0 -7703365.8987030983 5236854.4895772934 0 0 0 0 35771748.62251091 20710644.695972919 0 20710644.695972919 1325955.6728363037 0 0 0 0 8477986.6489982605 5354324.3539390564 0 5354324.3539390564 3999256.3245741129 0 0 0 0 35194882.22775054 29723213.159273148 0 29723213.159273148 25309004.482543945 0 0 0 0 67277045.647780895 -7362754.9935774803 0 -7362754.9935774803 11518218.115862608 0 0 0 0 93108822.848691404 70584501.852334946 0 70584501.852334946 64076482.53544426 0 0 0 0 80531892.077037096 69949060.770650387 0 69949060.770650387 69754029.944568634 0 0 0 0 77343190.037614077 87124893.94744125 0 87124893.94744125 122379712.63173294 0 0 0 0 16222713.820754528 25178538.077899218 0 25178538.077899218 142008773.305933 0 0 0 0 54649691.02532804 25474135.405660629 0 25474135.405660629 79782495.823133469 0 0 0 0 54318625.193802357 20457924.663176537 0 20457924.663176537 121589962.56164265 0 0 0 0 37737990.645320654 2736390.0292949677 0 2736390.0292949677 53878409.733751297 0 0 0 0 12592973.37742424 -1585721.5131969452 0 -1585721.5131969452 103057313.12819862 0 0 0 0 -2496290.6063668728 -20630308.016191483 0 -20630308.016191483 83745737.380971909 0 0 0 0 -5527523.448156476 -12257059.585638762 0 -12257059.585638762 60821125.445863724 0 0 0 0 -12840178.664048195 -14848568.699170113 0 -14848568.699170113 60195283.794693947 0 0 0 0 -6009237.8047790527 -92579.479002952576 0 -92579.479002952576 40358967.433994293 0 0 0 0 -2648814.1838107109 -9960751.9844651222 0 -9960751.9844651222 5967237.6790037155 0 0 0 0 5208771.7925839424 11326864.163784981 0 11326864.163784981 35029771.489814758 0 0 0 0 96120599.718790531 33456684.768559933 0 33456684.768559933 17525618.594154835 0 0 0 0 4753358.3283228874 -3780269.9896774292 0 -3780269.9896774292 54541827.548742294 0 0 0 0 172394008.2189784 59313967.738924503 0 59313967.738924503 -28051558.306452751 0 0 0 0 12178457.122980475 -11798093.884149194 0 -11798093.884149194 -3945923.8991537094 0 0 0 0 -13076233.504511356 47323835.589361191 0 47323835.589361191 -5176256.2398254871 0 0 0 0 422374.27897044772 124811.9463797498 0 124811.9463797498 -12325.263337143697 0 0 0 0 1291494.0011091828 12620704.754183531 0 12620704.754183531 -8656154.6037979126 0 0 0 0 44579489.795181513 11340451.2921772 0 11340451.2921772 -10732768.673273087 0 0 0 0 12475348.793066978 19374958.204224586 0 19374958.204224586 51206306.879056931 0 0 0 0 208313.68919392827 58356.10771847982 0 58356.10771847982 -26183.780093612615 0 0 0 0 46996323.291246891 129440690.38690662 0 129440690.38690662 136235264.00155163 0 0 0 0 127566425.02733392 137701952.3811295 0 137701952.3811295 99547248.793982506 0 0 0 0 98016483.397121906 95096757.829694748 0 95096757.829694748 44527894.710933685 0 0 0 0 98754601.461313725 84371861.368463874 0 84371861.368463874 30555780.493980408 0 0 0 0 98484118.386211395 67100847.973686218 0 67100847.973686218 59229333.747942924 0 0 0 0 47344755.676647663 -2205136.3800387383 0 -2205136.3800387383 -8531147.5184688568 0 0 0 0 137055.59869192817 41450.906285794685 0 41450.906285794685 -116895.34084332921 0 0 0 0 29944093.224024937 18749336.400824308 0 18749336.400824308 11516217.776083946 0 0 0 0 157977108.67197412 -6131743.9777569771 0 -6131743.9777569771 -123598546.55880165 0 0 0 0 181816090.53204346 -45873573.900560379 0 -45873573.900560379 -101629987.35809898 0 0 0 0 202652104.51652181 85132407.66702652 0 85132407.66702652 -6544839.1087213457 0 0 0 0 138057778.85116363 131376730.64401913 0 131376730.64401913 79495382.131228447 0 0 0 0 -27661018.087282985 9361346.7661132812 0 9361346.7661132812 10056910.943468094 0 0 0 0 -29285563.090799719 10939330.208417416 0 10939330.208417416 28203610.159006119 0 0 0 0 11113853.430028737 -49709930.578139305 0 -49709930.578139305 27359098.351372004 0 0 0 0 -79467931.453808427 -36260770.015571594 0 -36260770.015571594 31668588.552923203 0 0 0 0 -39137664.697155356 -18829629.718661308 0 -18829629.718661308 -1572743.7611236572 0 0 0 0 -16225157.690309055 15105932.16334486 0 15105932.16334486 12917259.136446953 0 0 0 0 -1664964.8486467106 2003331.1282964179 0 2003331.1282964179 11636434.392437007 0 0 0 0 -59735178.757936873 51002172.234479189 0 51002172.234479189 -9042254.6130905151 0 0 0 0 1003439.3507293994 -4620670.8019273505 0 -4620670.8019273505 2577534.018204256 0 0 0 0 -1619120.7672870683 2806872.98416958 0 2806872.98416958 2327437.6573304739 0 0 0 0 150174.71323525906 -842955.96307563782 0 -842955.96307563782 113789.09314250946 0 0 0 0 -108448225.53504217 35414488.030596733 0 35414488.030596733 4993652.0653095245 0 0 0 0 852798.05459810898 -1234710.9682577471 0 -1234710.9682577471 3831568.4979804028 0 0 0 0 5372470.0433773994 -1801979.1240763664 0 -1801979.1240763664 8532684.1155853271 0 0 0 0 -151832889.24714097 -419248982.72568798 0 -419248982.72568798 -169786912.73916578 0 0 0 0 -260903810.02822888 -38808420.559072495 0 -38808420.559072495 582905.72416770458 0 0 0 0 -151011854.52686971 -235286991.1788981 0 -235286991.1788981 -209196566.62146568 0 0 0 0 -278440066.8364476 48933097.930437088 0 48933097.930437088 -27225675.482498169 0 0 0 0 374456749.01040769 -52883040.169475555 0 -52883040.169475555 -416565408.20401478 0 0 0 0 -101835654.46940446 -16805232.549404979 0 -16805232.549404979 10900104.262401581 0 0 0 0 -13784989.603798985 320839013.27501965 0 320839013.27501965 934595308.84806252 0 0 0 0 492831018.08469558 -354551725.74424553 0 -354551725.74424553 166180709.37379169 0 0 0 0 -334435010.0564847 44879398.881102562 0 44879398.881102562 171531531.32191563 0 0 0 0 -8944282.9650027752 3677335.7044551373 0 3677335.7044551373 10202343.930082321 0 0 0 0 -1077462.9330377735 -1694024.4101975919 0 -1694024.4101975919 10532267.407285392 0 0 0 0 243435675.0179193 135497053.27849293 0 135497053.27849293 -16404289.796405792 0 0 0 0 615102249.18496966 276665972.75072002 0 276665972.75072002 -153406257.24873877 0 0 0 0 1414716.6278697581 50670.770971722668 0 50670.770971722668 -362704.77178258845 0 0 0 0 128061043.16335189 297882758.65945625 0 297882758.65945625 669320035.99396038 0 0 0 0 54894894.169018507 88816018.820814133 0 88816018.820814133 130513301.02164841 0 0 0 0 11985474.870626926 6325960.3239313886 0 6325960.3239313886 26905549.575289994 0 0 0 0 11965105.424518585 7345575.2037307229 0 7345575.2037307229 572920.55149106774 0 0 0 0 207211585.02319902 112579835.81707226 0 112579835.81707226 -20116788.711147632 0 0 0 0 205470487.15357184 222807437.13060632 0 222807437.13060632 12591887.311572671 0 0 0 0 201211274.19540426 156551938.55603069 0 156551938.55603069 -82691129.90434742 0 0 0 0 253495930.39559579 154120048.6524508 0 154120048.6524508 -101981403.93090892 0 0 0 0 412398462.40799665 -123649374.73686481 0 -123649374.73686481 -7600095.1651716232 0 0 0 0 620618658.90890574 261847771.29843915 0 261847771.29843915 -88120144.840530396 0 0 0 0 -68103796.603032589 321658130.01090693 0 321658130.01090693 136151593.15304828 0 0 0 0 250012180.50249392 136177935.66507554 0 136177935.66507554 -191868086.0908823 0 0 0 0 -10760698.206643105 -528679.31129026413 0 -528679.31129026413 8814332.6619949341 0 0 0 0 -225211976.63437033 129553389.21232617 0 129553389.21232617 -62023977.623966217 0 0 0 0 -2413992.6719036102 -3374108.226067543 0 -3374108.226067543 6393424.7067565918 0 0 0 0 -395402.80503158015 -1007220.0988945169 0 -1007220.0988945169 7713531.3595858319 0 0 0 0 -9153728.0089035034 -3150627.7204127312 0 -3150627.7204127312 10683399.486888885 0 0 0 0 -5328628.6387500763 -11028602.279803276 0 -11028602.279803276 5635741.5884065628 0 0 0 0 -1372381.7110671997 -8280764.3333673477 0 -8280764.3333673477 8720779.9094085693 0 0 0 0 -4827857.7267360687 -3113591.5736207962 0 -3113591.5736207962 2402334.8674793243 0 0 0 0 580699842.0685699 80757417.232353091 0 80757417.232353091 -22562001.544258952 0 0 0 0 250885313.44593054 286552274.42851353 0 286552274.42851353 -141147778.43741214 0 0 0 0 97081310.190524131 93975760.612451315 0 93975760.612451315 58047913.755983591 0 0 0 0 -680067.25689580629 243277.98091283606 0 243277.98091283606 750638.95317042223 0 0 0 0 206984252.8928771 215626256.91595939 0 215626256.91595939 15584849.645664513 0 0 0 0 142134.70343833789 -704862.87874019984 0 -704862.87874019984 602765.52550940646 0 0 0 0 357910879.19967687 57263882.858539522 0 57263882.858539522 217011345.3696444 0 0 0 0 201511687.55372047 331229066.79694355 0 331229066.79694355 196062764.61670136 0 0 0 0 451083638.93662119 305497390.47180808 0 305497390.47180808 29799187.430634499 0 0 0 0 4323669.0535837412 9158606.6121681035 0 9158606.6121681035 176906156.81203747 0 0 0 0 972141.38274224289 -2714496.834122235 0 -2714496.834122235 4642800.1540099243 0 0 0 0 319420453.66226226 180282001.83210564 0 180282001.83210564 134595850.58008242 0 0 0 0 -620727.62782175327 -90221.856227041222 0 -90221.856227041222 955143.48466838314 0 0 0 0 -3061903.3812251091 78059753.39712286 0 78059753.39712286 188617689.00091743 0 0 0 0 102712208.51231289 124424785.38853097 0 124424785.38853097 161250643.80567873 0 0 0 0 250516354.94625255 -113842068.58014941 0 -113842068.58014941 46713225.928760529 0 0 0 0 60986051.558859348 269196965.35677171 0 269196965.35677171 72069382.5539978 0 0 0 0 -5802719.3712676167 -8470954.7083621621 0 -8470954.7083621621 9897852.856405735 0 0 0 0 -1363963.5534176826 5593450.3652935624 0 5593450.3652935624 14034492.757055521 0 0 0 0 -1443418.7236976624 4530730.038702786 0 4530730.038702786 5533529.1023771763 0 0 0 0 -39456790.930386782 -60636610.219558835 0 -60636610.219558835 105925433.16262674 0 0 0 0 145956821.65780687 96330874.381832361 0 96330874.381832361 -24368601.214333534 0 0 0 0 -1954186.0714024224 888616.26607289421 0 888616.26607289421 2276517.0286235237 0 0 0 0 60464646.510238647 143172772.87023759 0 143172772.87023759 81451382.427701712 0 0 0 0 -38071527.290431976 -23376683.751465797 0 -23376683.751465797 54485690.503486633 0 0 0 0 -47238307.542105675 -20586245.303081512 0 -20586245.303081512 54543674.453422546 0 0 0 0 -43141127.993768692 -8283412.0859632492 0 -8283412.0859632492 37177895.501747131 0 0 0 0 -45481130.289758205 -1837049.1995139122 0 -1837049.1995139122 21608956.311100006 0 0 0 0 -50341071.779448986 -8410383.0990095139 0 -8410383.0990095139 38408134.157039642 0 0 0 0 -53140628.607839584 -8261026.1566009521 0 -8261026.1566009521 49656941.767763138 0 0 0 0 -46999045.40768981 23315205.061750412 0 23315205.061750412 5207875.7796707153 0 0 0 0 -39606234.628356457 7816724.8272676468 0 7816724.8272676468 31082280.518795013 0 0 0 0 -51037341.32409668 25298183.527790546 0 25298183.527790546 55940801.939733505 0 0 0 0 -67085629.690160751 53566035.094404221 0 53566035.094404221 6670072.476470232 0 0 0 0 -65189433.75616169 8154155.2825374603 0 8154155.2825374603 41063183.005624771 0 0 0 0 -63183200.267083049 -8690274.5281268358 0 -8690274.5281268358 95844610.793418884 0 0 0 0 -99308565.058824539 40831271.409952164 0 40831271.409952164 118015951.00948334 0 0 0 0 -95362509.392254829 41864594.906855583 0 41864594.906855583 92366805.767850876 0 0 0 0 -188363643.52053404 -54076528.803171635 0 -54076528.803171635 241396069.32018471 0 0 0 0 47256787.82284832 -136560976.32408619 0 -136560976.32408619 138590338.53414345 0 0 0 0 355311.63167048502 -1392081.7547316386 0 -1392081.7547316386 2764624.1582479789 0 0 0 0 114907313.10465908 -35150212.317023754 0 -35150212.317023754 2494617.0324001312 0 0 0 0 99229223.649848938 231359383.94477582 0 231359383.94477582 223046264.34013343 0 0 0 0 -31497107.087025166 183433983.05085337 0 183433983.05085337 250205967.52985954 0 0 0 0 13982827.253694534 -213714.7973651886 0 -213714.7973651886 3740171.5569384694 0 0 0 0 -5819778.2987493277 -7596203.2352420092 0 -7596203.2352420092 11941707.200046539 0 0 0 0 29291396.38380909 -50555629.528721809 0 -50555629.528721809 33709685.155692101 0 0 0 0 -47105462.897362702 -46626973.443979487 0 -46626973.443979487 53370195.350822449 0 0 0 0 37320525.929211378 -11167583.650695682 0 -11167583.650695682 -64652.493057250977 0 0 0 0 -9315497.0709466934 -18241421.982527733 0 -18241421.982527733 15234555.037412643 0 0 0 0 525729.49852085114 -19491475.525894165 0 -19491475.525894165 15380942.930915833 0 0 0 0 10049760.738124847 -11683114.772215843 0 -11683114.772215843 9498957.4577617645 0 0 0 0 4252690.5833263397 -3181194.6391677856 0 -3181194.6391677856 7199690.0154819489 0 0 0 0 9504742.0485639572 -10428377.625374794 0 -10428377.625374794 8449584.8153038025 0 0 0 0 -2457348.1680555344 -6287456.8947734833 0 -6287456.8947734833 19128488.386238098 0 0 0 0 8970426.2891311646 -23431066.819063187 0 -23431066.819063187 25801991.58028698 0 0 0 0 10580271.153716564 -14603498.988824844 0 -14603498.988824844 15669700.032180786 0 0 0 0 28872373.819190025 2913039.7773323059 0 2913039.7773323059 11965581.925374031 0 0 0 0 -75178779.097351074 -15329056.530304909 0 -15329056.530304909 36303123.720560074 0 0 0 0 -29321816.32588768 12092121.219353676 0 12092121.219353676 14105253.331787109 0 0 0 0 -53293422.395989418 -5661795.1646385193 0 -5661795.1646385193 39209100.082479477 0 0 0 0 -38857373.351054937 -19922412.467797816 0 -19922412.467797816 17701080.249641418 0 0 0 0 -39067383.368904114 -22373799.033189774 0 -22373799.033189774 25773545.24905777 0 0 0 0 -56466533.157727242 -19925591.889375687 0 -19925591.889375687 29617277.993530273 0 0 0 0 -67080626.825238228 -36270785.367794991 0 -36270785.367794991 19230848.384290695 0 0 0 0 -88363476.798239708 34502311.407062531 0 34502311.407062531 135659202.24650669 0 0 0 0 80838.087730282452 240255.18852961017 0 240255.18852961017 299324.5635948265 0 0 0 0 -109134.15644411859 258126.86638026545 0 258126.86638026545 1429342.5700780558 0 0 0 0 -60596827.803857803 -10290713.229539871 0 -10290713.229539871 79678694.54668808 0 0 0 0 -29390669.682668209 -33559669.637172699 0 -33559669.637172699 -3772209.1116428375 0 0 0 0 -70651451.128263175 -71742232.667912006 0 -71742232.667912006 -46691747.219522476 0 0 0 0 -79040195.301815331 233218.74252974987 0 233218.74252974987 10312671.264865875 0 0 0 0 -16418779.544973135 -38293714.963745594 0 -38293714.963745594 -42173626.459032059 0 0 0 0 -58548844.672818422 -3457793.0734853745 0 -3457793.0734853745 956572.98772239685 0 0 0 0 -18924048.066114426 -34081972.536903381 0 -34081972.536903381 -18914747.061306953 0 0 0 0 -22889482.545354366 -23176500.089676857 0 -23176500.089676857 -12376951.71295929 0 0 0 0 -19019264.261648178 -22119342.485744476 0 -22119342.485744476 -22907054.610145569 0 0 0 0 -25158308.291733742 -26853136.861682892 0 -26853136.861682892 -2522196.5221138 0 0 0 0 -129515627.46278381 -6163053.7597503662 0 -6163053.7597503662 197318347.90725327 0 0 0 0 -169271.41615141998 281975.83777642716 0 281975.83777642716 451349.52298488002 0 0 0 0 19554687.071946144 -37044995.54897213 0 -37044995.54897213 28230995.122970581 0 0 0 0 -20998824.484020233 -29285485.658563614 0 -29285485.658563614 -1704816.5931415558 0 0 0 0 -40420255.183867455 -17055045.780415535 0 -17055045.780415535 -1744592.550075531 0 0 0 0 16292324.362704277 -3887729.0337753296 0 -3887729.0337753296 -1057845.3814086914 0 0 0 0 -1096903.5539381225 -775527.67999441922 0 -775527.67999441922 3616206.7537931092 0 0 0 0 -4379155.2661991119 -136013.10165500641 0 -136013.10165500641 10697887.289590836 0 0 0 0 -1460416.5216178894 -4571083.1345443726 0 -4571083.1345443726 7582647.4337081909 0 0 0 0 -1336774.4375762939 1734182.5299739838 0 1734182.5299739838 11724658.80158329 0 0 0 0 -899956.04436302185 -2695399.8850212097 0 -2695399.8850212097 45143471.170519829 0 0 0 0 -114198.5176010225 227485.98449232895 0 227485.98449232895 1391522.2974295761 0 0 0 0 -24312291.888473153 -19385178.495572567 0 -19385178.495572567 -477146.6626663208 0 0 0 0 -13748959.470550537 -7943703.6303138733 0 -7943703.6303138733 12320122.49405241 0 0 0 0 -7686549.722867012 -4816195.215388298 0 -4816195.215388298 11920435.551084518 0 0 0 0 -7658119.0460662842 -3268872.176486969 0 -3268872.176486969 15426960.418329239 0 0 0 0 -1858808.8518981934 -480054.6216583252 0 -480054.6216583252 13558986.244344711 0 0 0 0 -7923598.8297572136 -3612869.8401091099 0 -3612869.8401091099 11957117.048877716 0 0 0 0 -3129849.1649470329 -603013.80525302887 0 -603013.80525302887 15465553.919260025 0 0 0 0 -4931425.8811197281 140796.03813076019 0 140796.03813076019 18917629.859954834 0 0 0 0 -1325413.747931378 -569640.17322510341 0 -569640.17322510341 3437207.7592870304 0 0 0 0 -2716013.9812240601 3150076.4929103851 0 3150076.4929103851 16555758.163406372 0 0 0 0 4094997.6220331192 -4433935.4213795662 0 -4433935.4213795662 6698491.015417099 0 0 0 0 -12778612.801168442 -12302158.853277206 0 -12302158.853277206 4646057.8355436325 0 0 0 0 -7279039.3233213425 -32902.048121452332 0 -32902.048121452332 8986891.3294248581 0 0 0 0 -2330355.2909531593 -516299.45783805847 0 -516299.45783805847 8716119.7590904236 0 0 0 0 -4272850.8152723312 63486343.653692245 0 63486343.653692245 -65981830.997084618 0 0 0 0 42301830.646166325 -162533476.45689487 0 -162533476.45689487 -37746036.838993073 0 0 0 0 -163551509.26676702 91882024.911624432 0 91882024.911624432 166604648.77737427 0 0 0 0 -41393496.224693298 80026241.021314621 0 80026241.021314621 -12260218.647641182 0 0 0 0 -490214.50003588991 -83857.034338511527 0 -83857.034338511527 1063846.0962520991 0 0 0 0 -24575943.868534088 -32979704.220077515 0 -32979704.220077515 -3540408.8014035225 0 0 0 0 -99488168.665093422 -29566103.323783875 0 -29566103.323783875 26240354.509992599 0 0 0 0 -31054341.060931206 -8391252.087264061 0 -8391252.087264061 30922372.189475536 0 0 0 0 -135639408.959306 48029120.601137161 0 48029120.601137161 62213756.131988525 0 0 0 0 -8009776.3243288994 56535279.071907997 0 56535279.071907997 46853937.397964478 0 0 0 0 -3735751.6929993629 21570597.650940895 0 21570597.650940895 22170341.37059021 0 0 0 0 -58542829.049867153 23139797.842998505 0 23139797.842998505 32403379.141059875 0 0 0 0 -16069389.044450283 770127.76513195038 0 770127.76513195038 19227850.761623383 0 0 0 0 -27683047.274469852 -7338508.9430990219 0 -7338508.9430990219 17623962.268890381 0 0 0 0 -15725093.300172806 1291374.4887866974 0 1291374.4887866974 16673478.512016296 0 0 0 0 -14730016.230666161 2972162.9300060272 0 2972162.9300060272 18099746.491962433 0 0 0 0 9868490.295443058 9957772.6195821762 0 9957772.6195821762 12799864.212934494 0 0 0 0 -11877635.870056987 13978221.264440298 0 13978221.264440298 16306553.512966156 0 0 0 0 -4692272.9140691757 6107089.9161252975 0 6107089.9161252975 18659323.248380661 0 0 0 0 -4276740.9167282581 6056947.094596386 0 6056947.094596386 14261213.003608704 0 0 0 0 -12452897.914527893 3808801.2132854462 0 3808801.2132854462 16314902.114814758 0 0 0 0 1961752.5588414371 6100174.5383583903 0 6100174.5383583903 9212908.0747451782 0 0 0 0 -10018010.853669167 1391179.6915988922 0 1391179.6915988922 13322196.434482336 0 0 0 0 -55714286.363914967 -7560791.8896179199 0 -7560791.8896179199 35652685.351299286 0 0 0 0 1322941.2275767326 13949582.354885101 0 13949582.354885101 17665665.350745201 0 0 0 0 -3255671.0140942428 286673.58897421136 0 286673.58897421136 10284674.407936884 0 0 0 0 -26821901.844870016 24905439.955884933 0 24905439.955884933 -30582515.743620872 0 0 0 0 -7404238.4264938831 7168739.3152484894 0 7168739.3152484894 32868449.75044632 0 0 0 0 -16546924.275015026 -6889030.7146492004 0 -6889030.7146492004 11317599.074083328 0 0 0 0 -26734552.374751866 20411340.215742588 0 20411340.215742588 37834907.419013977 0 0 0 0 -25313987.049411818 -17320586.637191772 0 -17320586.637191772 37367356.150372028 0 0 0 0 -40269977.641871914 -28029377.403120041 0 -28029377.403120041 -14660142.882241726 0 0 0 0 -25239520.497790813 -16737068.091802597 0 -16737068.091802597 21337193.809267044 0 0 0 0 -33931602.82044562 -11315509.260108948 0 -11315509.260108948 29225104.991977692 0 0 0 0 -12100013.273985863 6197741.1148910522 0 6197741.1148910522 6544457.3471050262 0 0 0 0 -19287266.369418144 -2449036.6833343506 0 -2449036.6833343506 10248495.7501297 0 0 0 0 -12230257.193228722 2074285.5727844238 0 2074285.5727844238 11187709.950157166 0 0 0 0 -24737099.683299065 -760521.05340194702 0 -760521.05340194702 15181802.203941345 0 0 0 0 -20080674.630311012 4000996.0461826324 0 4000996.0461826324 15681758.464168549 0 0 0 0 -27087424.635497808 4185982.4189982414 0 4185982.4189982414 16418618.820140839 0 0 0 0 -1788458.6950840631 118277.86874730967 0 118277.86874730967 13289993.238854926 0 0 0 0 -62688782.689541198 27331632.330928981 0 27331632.330928981 -5575453.067697525 0 0 0 0 114351.59850312062 45114.84664588864 0 45114.84664588864 -87347.947833170183 0 0 0 0 -61526564.882936776 41282088.356271744 0 41282088.356271744 29405287.281629562 0 0 0 0 -9364579.6765084863 6894952.7676472664 0 6894952.7676472664 42227784.43048954 0 0 0 0 -17088540.656460762 -1300118.925075531 0 -1300118.925075531 15630016.474917412 0 0 0 0 -17113658.061841011 -271416.45024490356 0 -271416.45024490356 11718106.36869958 0 0 0 0 -18028239.852074623 696235.65958976746 0 696235.65958976746 15748576.14449954 0 0 0 0 -14146198.67701149 2861806.6334142685 0 2861806.6334142685 14864751.255023956 0 0 0 0 -20675346.828536034 5026035.8118858337 0 5026035.8118858337 11861499.011322021 0 0 0 0 -34205973.829374865 10375368.450945616 0 10375368.450945616 18136486.287946701 0 0 0 0 -1572186.2969453591 861181.69690569933 0 861181.69690569933 12547345.282094032 0 0 0 0 -14612327.108487964 -1103623.7649710178 0 -1103623.7649710178 10511892.908277512 0 0 0 0 -20429530.451135248 -4768264.7381639481 0 -4768264.7381639481 17413111.515856266 0 0 0 0 217421.50614235061 77830.387169039343 0 77830.387169039343 -170773.07935575815 0 0 0 0 188915.58078233898 -12380075.332869053 0 -12380075.332869053 13606507.391277313 0 0 0 0 32520086.879250288 -25750825.359594345 0 -25750825.359594345 3119087.3494205475 0 0 0 0 2531289.9888571408 12030211.5883708 0 12030211.5883708 -6982385.1215209961 0 0 0 0 -19392799.864114642 6389946.005862236 0 6389946.005862236 -1486029.4810218811 0 0 0 0 26346822.81654489 -11525579.200731277 0 -11525579.200731277 -12274636.707830667 0 0 0 0 41364228.026130199 9822266.1398248672 0 9822266.1398248672 32257505.553706169 0 0 0 0 43146895.576937079 8131217.4315767288 0 8131217.4315767288 33826841.831011772 0 0 0 0 23784468.600566864 -19726262.135424614 0 -19726262.135424614 1568075.1754083633 0 0 0 0 24994704.759376049 -28463318.421944618 0 -28463318.421944618 13305923.677343369 0 0 0 0 31702588.029127002 -13730762.624282837 0 -13730762.624282837 16976457.051233292 0 0 0 0 18039561.154845715 -24909649.940099716 0 -24909649.940099716 22658928.904681921 0 0 0 0 -14786392.095044136 -13140066.598246098 0 -13140066.598246098 18525525.842396975 0 0 0 0 41257163.415563703 -35018836.492459297 0 -35018836.492459297 14847060.441943169 0 0 0 0 42750533.786007822 -57265215.516507149 0 -57265215.516507149 56900137.734376907 0 0 0 0 68562263.395934701 40692043.002202988 0 40692043.002202988 64883585.187085748 0 0 0 0 -4254892.9685646296 -25191344.294493675 0 -25191344.294493675 41680172.495965958 0 0 0 0 7732608.6230207086 -17436069.056181669 0 -17436069.056181669 -2693875.2602806091 0 0 0 0 -6679173.4793369472 11437066.279429913 0 11437066.279429913 44331972.347648621 0 0 0 0 -946738.49234247208 -12393251.351140022 0 -12393251.351140022 17969487.660041809 0 0 0 0 30165876.65527457 17350918.722266197 0 17350918.722266197 42831100.981040955 0 0 0 0 18790431.22183609 -13450135.879466057 0 -13450135.879466057 9895404.8889636993 0 0 0 0 33763855.131912291 -24245189.01753664 0 -24245189.01753664 25071527.53020668 0 0 0 0 46496422.138183534 -20052791.684406281 0 -20052791.684406281 9038380.2892365456 0 0 0 0 50627242.120246738 38859606.513749123 0 38859606.513749123 87482087.990398407 0 0 0 0 121729771.04115319 -15453225.442287445 0 -15453225.442287445 25843284.266919613 0 0 0 0 11559787.161842823 -21868081.508489609 0 -21868081.508489609 104141064.29858017 0 0 0 0 12516327.400981963 -16946496.542094231 0 -16946496.542094231 40860451.351112366 0 0 0 0 14024528.061110258 2584546.4687080383 0 2584546.4687080383 52048886.679085732 0 0 0 0 7463943.1778269857 14382259.714227676 0 14382259.714227676 55181689.440162659 0 0 0 0 -2261571.1152672768 316545.24945449829 0 316545.24945449829 35640705.870345116 0 0 0 0 271328.24366539717 -22233786.816232681 0 -22233786.816232681 50729278.951352835 0 0 0 0 -9234795.9341516495 -12510130.408600807 0 -12510130.408600807 43211568.730255127 0 0 0 0 1744266.5758855343 -29391203.973907471 0 -29391203.973907471 30389831.40655899 0 0 0 0 -8931963.2575406879 -18853375.508318901 0 -18853375.508318901 23916842.974594116 0 0 0 0 25172663.396592915 -34001292.703824997 0 -34001292.703824997 19501980.094331741 0 0 0 0 2146825.9169462174 -26726812.310502052 0 -26726812.310502052 47825265.027065277 0 0 0 0 -65277.151118668335 -864769.15208570275 0 -864769.15208570275 380194.41213092208 0 0 0 0 82314675.198223025 32581658.209381104 0 32581658.209381104 22505937.373180389 0 0 0 0 48386897.690971375 -45671690.67764473 0 -45671690.67764473 44064743.495851517 0 0 0 0 -165392.61723512385 -89551.027060914319 0 -89551.027060914319 470206.89376115659 0 0 0 0 30957064.896537825 -18859134.797578096 0 -18859134.797578096 4008874.0906982422 0 0 0 0 22862986.87284869 -23942733.36545372 0 -23942733.36545372 -67110164.365859985 0 0 0 0 -23643678.164273456 74670565.903954029 0 74670565.903954029 166866612.66398239 0 0 0 0 -5461724.0358911455 -220957.16511940956 0 -220957.16511940956 5013756.5150437355 0 0 0 0 -1243114.5889225763 454545.02950759488 0 454545.02950759488 3934677.9146009814 0 0 0 0 -5685232.3811516464 -12434403.137968063 0 -12434403.137968063 12834250.967832565 0 0 0 0 -2018018.512976682 -3017252.9476813292 0 -3017252.9476813292 3432058.0745613161 0 0 0 0 3691460.0697279572 -18074387.887734413 0 -18074387.887734413 13712238.764947891 0 0 0 0 14162343.248399973 -9080474.9050340652 0 -9080474.9050340652 3760282.4817276895 0 0 0 0 -961032.96133363841 -2657645.2016728078 0 -2657645.2016728078 1989345.4229077972 0 0 0 0 5398394.5985860825 -21284297.614850044 0 -21284297.614850044 13889027.987509727 0 0 0 0 509557.01008517435 187665.61959124124 0 187665.61959124124 -62467.844210580457 0 0 0 0 -37914116.875904441 48654354.686564922 0 48654354.686564922 -8708376.5807228088 0 0 0 0 -11049844.943333209 42821400.901972771 0 42821400.901972771 -38897743.712480545 0 0 0 0 -2838545.3812086582 -27734566.593288422 0 -27734566.593288422 -690149.86848449707 0 0 0 0 -30112138.739844859 15757096.54457283 0 15757096.54457283 102729130.29100227 0 0 0 0 56946910.117083311 55033531.684150696 0 55033531.684150696 -54310443.662445068 0 0 0 0 242397.39325888228 73820.055729563814 0 73820.055729563814 -47712.839653303381 0 0 0 0 -33582676.934077233 3411899.9911487103 0 3411899.9911487103 73382971.494548798 0 0 0 0 -16686396.735886395 -31223350.475262642 0 -31223350.475262642 74467885.98548317 0 0 0 0 -2608930.2919481397 13139287.071632385 0 13139287.071632385 30341455.918241501 0 0 0 0 -26236356.971830845 -3934537.2724180222 0 -3934537.2724180222 63679049.541052818 0 0 0 0 -2505679.9309572205 17721131.315101668 0 17721131.315101668 19538623.234172821 0 0 0 0 19025902.518785715 72245649.489202499 0 72245649.489202499 86118720.576542377 0 0 0 0 26620575.224918783 15500746.795698166 0 15500746.795698166 5730971.8763923645 0 0 0 0 6184991.3837381899 2923055.1815495491 0 2923055.1815495491 3592274.5260505676 0 0 0 0 2506872.3709336072 -5580762.9321374893 0 -5580762.9321374893 -59434.102838516235 0 0 0 0 6006336.4000701308 358327.59660434723 0 358327.59660434723 3658552.5046234131 0 0 0 0 3597383.7903966904 -3938549.8240556717 0 -3938549.8240556717 19149499.570413113 0 0 0 0 -4401566.5678381622 2259977.9729669094 0 2259977.9729669094 3829971.2964601517 0 0 0 0 -16789.697636453202 3033241.6928708758 0 3033241.6928708758 5473435.3293168377 0 0 0 0 -3912286.3823464513 1356749.2659522295 0 1356749.2659522295 4692521.1885852814 0 0 0 0 -2290114.830900684 -1500533.0136438906 0 -1500533.0136438906 5380265.5422611237 0 0 0 0 -2453761.0233236402 -161915.42207175493 0 -161915.42207175493 1820955.8174991608 0 0 0 0 -1403358.8159697431 -168723.97136668704 0 -168723.97136668704 4662287.6417888235 0 0 0 0 -37724490.035229668 -14587056.391064644 0 -14587056.391064644 2354586.0817451477 0 0 0 0 113548974.58759969 52538800.410744667 0 52538800.410744667 -89983099.368516922 0 0 0 0 9011256.4413756132 -31285824.591503143 0 -31285824.591503143 -37606095.400163651 0 0 0 0 -52162.131309747696 -4695661.765791893 0 -4695661.765791893 1646602.1944389343 0 0 0 0 -1520446.9508173466 855342.59764432907 0 855342.59764432907 3799102.8532718047 0 0 0 0 -98104.565940856934 1513623.4635174274 0 1513623.4635174274 3785961.2449424267 0 0 0 0 -1369977.3138126433 2432649.5746295005 0 2432649.5746295005 2661934.5635399818 0 0 0 0 -152860.59066486359 1489387.6960744858 0 1489387.6960744858 3959153.8896358013 0 0 0 0 -2229376.4512844086 1459375.6283626556 0 1459375.6283626556 4273747.5781545639 0 0 0 0 -237444.95629796258 276022.22989072202 0 276022.22989072202 3691037.6127086319 0 0 0 0 -2694978.6443552971 2257189.7417678833 0 2257189.7417678833 4708437.340102911 0 0 0 0 -5705458.3087706566 2474407.0107727051 0 2474407.0107727051 1322275.6745052338 0 0 0 0 -3251373.7465596199 3804714.2049980164 0 3804714.2049980164 3820607.7836363316 0 0 0 0 -2641810.4165434837 2557419.7475919724 0 2557419.7475919724 1485757.4537053108 0 0 0 0 -314161.85045460809 130265.29960787541 0 130265.29960787541 4072405.722163165 0 0 0 0 -106686.9937685405 3000231.4233368868 0 3000231.4233368868 807584.10123837506 0 0 0 0 -2568323.2147057056 3124995.8296327591 0 3124995.8296327591 480353.02649068832 0 0 0 0 -2251052.2315150797 2548284.7696233429 0 2548284.7696233429 3874313.7509427071 0 0 0 0 2849973.1376943588 9702597.6691741943 0 9702597.6691741943 -3540686.1511182785 0 0 0 0 -3541242.4056124687 3693163.9801635742 0 3693163.9801635742 2398612.7516908646 0 0 0 0 10142420.007774115 11162770.839540005 0 11162770.839540005 42306.866910934448 0 0 0 0 -7261899.8591449261 7340343.1603877544 0 7340343.1603877544 3147815.8870296478 0 0 0 0 7910423.8043861389 5116324.723991394 0 5116324.723991394 -2090287.7003631592 0 0 0 0 -678574.25275278091 10381051.318678379 0 10381051.318678379 11287996.451123238 0 0 0 0 -296879.91900267487 581816.15168256068 0 581816.15168256068 359651.40865198709 0 0 0 0 1442941.1636995077 6433699.2391626835 0 6433699.2391626835 8202894.6087503433 0 0 0 0 -1784899.3545647562 6097979.6837368011 0 6097979.6837368011 8270893.7384085655 0 0 0 0 911940.89629340172 4886716.6023168564 0 4886716.6023168564 6690265.204202652 0 0 0 0 1711171.4110314846 6535454.4118123055 0 6535454.4118123055 6469712.5899744034 0 0 0 0 4622488.066419363 10020976.65215683 0 10020976.65215683 10642333.805334091 0 0 0 0 2723087.8760491563 4760156.7730923956 0 4760156.7730923956 7181091.2150899628 0 0 0 0 -2456054.627784729 3806706.3614096642 0 3806706.3614096642 -685500.94230079651 0 0 0 0 -1057948.3155126572 -706579.50316643715 0 -706579.50316643715 5885088.1927089691 0 0 0 0 -5919011.9776086807 9868847.6740684509 0 9868847.6740684509 26075862.695930481 0 0 0 0 592870.93579194136 5243574.2207296509 0 5243574.2207296509 11173888.035007115 0 0 0 0 -2880122.6204822063 14659262.992980957 0 14659262.992980957 8971189.4711723328 0 0 0 0 -3826206.5627522469 11603755.382667542 0 11603755.382667542 26196257.726539612 0 0 0 0 -10841427.082717896 17114877.451307297 0 17114877.451307297 36263859.578613281 0 0 0 0 -5774769.6239217147 2150526.6189943273 0 2150526.6189943273 14570052.904864602 0 0 0 0 -8649355.3696552515 13219534.876225948 0 13219534.876225948 25904161.705299377 0 0 0 0 -7722781.0746748447 10070993.540334225 0 10070993.540334225 28100534.174453735 0 0 0 0 -16878219.109343052 8181405.3529577255 0 8181405.3529577255 12171776.033725739 0 0 0 0 -59378806.85359931 -11895635.553735256 0 -11895635.553735256 31765508.734348297 0 0 0 0 -2911999.475133602 -1696396.7226607997 0 -1696396.7226607997 14441693.396230137 0 0 0 0 -15687342.705218792 5807313.5518913269 0 5807313.5518913269 13541297.393561602 0 0 0 0 -50273052.501395628 -1744304.4975845814 0 -1744304.4975845814 31148897.291133881 0 0 0 0 -49437116.894546829 -20245263.48128581 0 -20245263.48128581 32813224.473701477 0 0 0 0 -27150425.715070277 -16446550.342853546 0 -16446550.342853546 30251471.827835083 0 0 0 0 -15935714.139738172 -23465722.033054352 0 -23465722.033054352 28950194.88580513 0 0 0 0 -10107896.714247696 -16094443.413042545 0 -16094443.413042545 28717281.283664703 0 0 0 0 -30128633.648621663 -19448676.013912201 0 -19448676.013912201 33906318.248241425 0 0 0 0 -39728712.315573156 1892361.5028091669 0 1892361.5028091669 20004252.328609467 0 0 0 0 -27320981.677434493 -12824857.268832207 0 -12824857.268832207 24776687.061737061 0 0 0 0 -37498447.497860849 -16448629.80408287 0 -16448629.80408287 31663411.442461014 0 0 0 0 -21959010.846093912 -15655625.794376373 0 -15655625.794376373 25018333.241733551 0 0 0 0 -33126367.89990389 -8879840.2017364502 0 -8879840.2017364502 25715367.359794617 0 0 0 0 -3149953.1386241913 3636558.6334786415 0 3636558.6334786415 3885175.8945770264 0 0 0 0 -18041175.241188973 -7070466.1141338348 0 -7070466.1141338348 18859469.892383575 0 0 0 0 -1149158.3021646568 2230750.9284366472 0 2230750.9284366472 13697422.942317909 0 0 0 0 -16889145.189920157 -10096282.598594666 0 -10096282.598594666 22254768.548920631 0 0 0 0 -5569574.4789320286 -8734364.8547800332 0 -8734364.8547800332 18960198.584579468 0 0 0 0 -8329604.2647927701 -22930753.166479111 0 -22930753.166479111 23137387.457695723 0 0 0 0 -9005139.5522949696 -15836412.541463852 0 -15836412.541463852 20193687.539049149 0 0 0 0 -3145375.2911691666 3544262.3521299362 0 3544262.3521299362 4430935.5303096771 0 0 0 0 7340646.9385070801 1801467.5825958252 0 1801467.5825958252 28873492.654863358 0 0 0 0 -312595.66899143573 3452437.809015315 0 3452437.809015315 1842273.4386782767 0 0 0 0 -22880637.772873282 -3670035.3461771011 0 -3670035.3461771011 4690344.9778442383 0 0 0 0 -1412376.4484729569 -309978.79714296339 0 -309978.79714296339 12494416.665785421 0 0 0 0 -555226.55219196237 206899.20499868412 0 206899.20499868412 1323306.525111272 0 0 0 0 -1339817.2889143229 -14669709.690933228 0 -14669709.690933228 -535402.45790481567 0 0 0 0 -4818162.2262507249 3291713.531971219 0 3291713.531971219 13161972.087539153 0 0 0 0 -3797549.3755879402 781342.06734275818 0 781342.06734275818 2792777.2157440186 0 0 0 0 -2900299.1833322723 838608.40202680463 0 838608.40202680463 8927707.8475795537 0 0 0 0 -27783479.913873076 -75635121.946860552 0 -75635121.946860552 52037595.127361298 0 0 0 0 144497686.5668149 1496128.148645401 0 1496128.148645401 36900431.183702469 0 0 0 0 16025210.789052248 -25048784.65266943 0 -25048784.65266943 83879025.290086746 0 0 0 0 -44426049.631520271 39528000.75409317 0 39528000.75409317 30601587.963073254 0 0 0 0 -42218.958022906212 127337.73303782521 0 127337.73303782521 145854.36312909424 0 0 0 0 160439532.92480755 -25929060.51698494 0 -25929060.51698494 -8236170.0305423737 0 0 0 0 2812076.1746453047 17629818.594528675 0 17629818.594528675 53186826.70230484 0 0 0 0 70485585.457722664 -102669188.02509975 0 -102669188.02509975 14430765.740406036 0 0 0 0 20151656.436596513 -52696001.357579589 0 -52696001.357579589 42906551.457224846 0 0 0 0 -80192.939504069043 228390.29604320391 0 228390.29604320391 301056.13886415772 0 0 0 0 38496625.120400667 -32714133.158226967 0 -32714133.158226967 -7840375.9653140306 0 0 0 0 -11817436.847405016 -3572989.2111049891 0 -3572989.2111049891 17556315.532274246 0 0 0 0 56720604.601027489 44023330.056159019 0 44023330.056159019 21451263.658483028 0 0 0 0 77332988.054820776 83723928.396639347 0 83723928.396639347 45502032.471246719 0 0 0 0 218185980.82829642 124786191.6833334 0 124786191.6833334 56007862.460865021 0 0 0 0 246870202.1970489 -22898442.732304096 0 -22898442.732304096 54509921.519668102 0 0 0 0 95409864.938096046 75294983.615629196 0 75294983.615629196 25884746.025686026 0 0 0 0 76161096.732072592 51951588.61492157 0 51951588.61492157 18228926.852928638 0 0 0 0 -14712682.962085485 -2302636.4691109657 0 -2302636.4691109657 45113754.287591934 0 0 0 0 263026.91151834512 82257.037743421271 0 82257.037743421271 -45752.840653152671 0 0 0 0 115563244.09886864 30638589.807404518 0 30638589.807404518 -80814077.815963745 0 0 0 0 96611121.859590471 123667030.92574036 0 123667030.92574036 89084844.49978447 0 0 0 0 132620040.68164003 118036177.8232255 0 118036177.8232255 43980865.03081584 0 0 0 0 52528736.749241054 34683109.647222281 0 34683109.647222281 87994784.904392242 0 0 0 0 145342608.86067224 91933710.506141663 0 91933710.506141663 66947927.573109627 0 0 0 0 140745872.23683274 119482449.22486544 0 119482449.22486544 57449484.076543808 0 0 0 0 3093191.0659675598 82119547.499272346 0 82119547.499272346 152259300.30744362 0 0 0 0 133189588.68110037 135941096.56006753 0 135941096.56006753 76334651.02550602 0 0 0 0 85476747.329199314 40169204.306188107 0 40169204.306188107 102295551.18583819 0 0 0 0 79765086.646982908 56131977.584097862 0 56131977.584097862 64496248.984271049 0 0 0 0 2744436.7783632278 5276154.6947021484 0 5276154.6947021484 72897657.996363044 0 0 0 0 -1233198.3956389427 31501528.770463943 0 31501528.770463943 -20957270.654819489 0 0 0 0 16258205.847435713 -12268394.955060959 0 -12268394.955060959 18077025.146472931 0 0 0 0 -17094279.51531744 49246469.323484898 0 49246469.323484898 -52653459.385093689 0 0 0 0 533058.57926867367 195273.91178348567 0 195273.91178348567 -63446.059468945023 0 0 0 0 -20715928.612463355 51112194.930628777 0 51112194.930628777 61665676.837654114 0 0 0 0 4077232.4016972184 -27811867.580375671 0 -27811867.580375671 25229748.576501846 0 0 0 0 -14526679.884998083 -5822403.7650518417 0 -5822403.7650518417 81826564.896248817 0 0 0 0 65035.221481380242 404583.51535514137 0 404583.51535514137 303083.90345465299 0 0 0 0 20852900.567090809 -22943201.197023869 0 -22943201.197023869 19156471.790830612 0 0 0 0 155821.92354500294 5690460.940779686 0 5690460.940779686 3354066.7938766479 0 0 0 0 -6756888.0741687417 1782207.1444973946 0 1782207.1444973946 5928977.6285076141 0 0 0 0 83357.586887904443 1302954.7213103522 0 1302954.7213103522 1083057.6386907799 0 0 0 0 2903258.172514081 4515041.1735086441 0 4515041.1735086441 1051617.9852452278 0 0 0 0 710818.11638837517 195708.62863413244 0 195708.62863413244 -798307.09513531625 0 0 0 0 3588307.4702375233 523485.94205451012 0 523485.94205451012 -2571443.6567382812 0 0 0 0 13453017.848663628 29092361.245527029 0 29092361.245527029 54228328.957141876 0 0 0 0 5625706.8450763226 -108314.66616344452 0 -108314.66616344452 3894382.1348686218 0 0 0 0 2828619.9913284779 9184845.8724861145 0 9184845.8724861145 26191672.357367516 0 0 0 0 3732430.7420041561 253207.46474456787 0 253207.46474456787 -2830850.0764122009 0 0 0 0 13892827.84396255 1928669.1460852623 0 1928669.1460852623 -6847876.6813411713 0 0 0 0 17318008.361402392 3683167.703953743 0 3683167.703953743 -8113742.9600963593 0 0 0 0 10120720.626173139 3461358.7025542259 0 3461358.7025542259 18838201.517705917 0 0 0 0 14344717.899427891 115367.28268146515 0 115367.28268146515 18513609.259715319 0 0 0 0 5176426.2861559391 -7305896.5330204964 0 -7305896.5330204964 58499066.793121338 0 0 0 0 41414623.166741848 14228379.972439766 0 14228379.972439766 52485180.586130142 0 0 0 0 -13154313.114976019 -9646424.0890235901 0 -9646424.0890235901 57663565.295478821 0 0 0 0 7400231.5433995724 -9941071.3968687057 0 -9941071.3968687057 50887944.289017677 0 0 0 0 28475462.236469269 2530690.8579893112 0 2530690.8579893112 25064299.80643177 0 0 0 0 21109038.195026577 27443170.166812539 0 27443170.166812539 88504688.298440933 0 0 0 0 107925851.64764753 150994311.36366713 0 150994311.36366713 144970684.0414772 0 0 0 0 124243.69573783829 524724.11969067494 0 524724.11969067494 305903.24562904239 0 0 0 0 -51092248.026981115 -32265227.40521431 0 -32265227.40521431 106153522.41965866 0 0 0 0 693447805.77059639 79110784.57769978 0 79110784.57769978 38619954.54019928 0 0 0 0 -13624200.155934811 58833767.501957893 0 58833767.501957893 192118275.07906866 0 0 0 0 -4700739.2372717857 24940215.782160759 0 24940215.782160759 845877.45290374756 0 0 0 0 32470382.142691255 1422326.2761392593 0 1422326.2761392593 -3476932.2890758514 0 0 0 0 -35120036.671242476 10079841.475687981 0 10079841.475687981 4175128.2378373146 0 0 0 0 251291.11085195676 1420926.3750410469 0 1420926.3750410469 1018560.6010578778 0 0 0 0 682078396.1683737 -157728512.6708529 0 -157728512.6708529 -84777098.974403381 0 0 0 0 143808957.52744842 -152370843.77614212 0 -152370843.77614212 173967069.31539536 0 0 0 0 239682525.32892704 -24171273.367474556 0 -24171273.367474556 106764298.80108166 0 0 0 0 382331856.04968643 68112331.129241943 0 68112331.129241943 23248401.061142921 0 0 0 0 111016070.09219837 -3934828.9011859894 0 -3934828.9011859894 42494615.870540619 0 0 0 0 148115608.28814888 193567738.01242065 0 193567738.01242065 -119726559.11227798 0 0 0 0 127874980.55591142 915778.9273622036 0 915778.9273622036 -190536655.0350132 0 0 0 0 -55673296.998679161 64612296.130553246 0 64612296.130553246 13908721.021124363 0 0 0 0 194677145.6055851 119145061.36974335 0 119145061.36974335 62632907.458065033 0 0 0 0 45038998.850875854 13292917.11868763 0 13292917.11868763 17824707.357859612 0 0 0 0 10269846.791226387 39210971.723227501 0 39210971.723227501 83951046.832544327 0 0 0 0 -81256993.952023506 -49709494.627134323 0 -49709494.627134323 117764246.46286011 0 0 0 0 18101552.778034687 10683769.488162994 0 10683769.488162994 179760839.95700836 0 0 0 0 197507233.32390881 97963345.101280212 0 97963345.101280212 234936749.68239594 0 0 0 0 129982897.30105639 -36768707.199095726 0 -36768707.199095726 103359234.02161503 0 0 0 0 173673856.18289328 -61389883.60366106 0 -61389883.60366106 146285214.97335052 0 0 0 0 20495269.618140221 -51991652.122203827 0 -51991652.122203827 121348955.37458038 0 0 0 0 24794985.322308064 28092552.590011597 0 28092552.590011597 125807545.28723717 0 0 0 0 2937207.2994451416 154983.8530510813 0 154983.8530510813 526572.09915236011 0 0 0 0 -33677933.004005432 69385109.986110687 0 69385109.986110687 -64691594.626121521 0 0 0 0 -1061079.6754722595 -35395010.805465698 0 -35395010.805465698 74701602.787748337 0 0 0 0 -57101973.071079254 18449601.828933716 0 18449601.828933716 20548068.327415466 0 0 0 0 -82132295.276535034 68934896.596206665 0 68934896.596206665 63958596.744339228 0 0 0 0 -35817813.33427906 -81524548.806053162 0 -81524548.806053162 132928428.09469986 0 0 0 0 356340113.3868742 -124025155.75164032 0 -124025155.75164032 -77311514.646259308 0 0 0 0 668788319.51480794 74121405.725822449 0 74121405.725822449 10610060.096374989 0 0 0 0 592178507.55582213 43361628.451526642 0 43361628.451526642 -33510710.204025269 0 0 0 0 316329459.47024107 -149838357.30133057 0 -149838357.30133057 -12462620.925163746 0 0 0 0 235335484.82633591 -17840804.3471241 0 -17840804.3471241 40464521.46648407 0 0 0 0 107269097.34398556 -60401410.884571075 0 -60401410.884571075 69489675.409091949 0 0 0 0 249481399.50581598 -28267428.631477356 0 -28267428.631477356 4456674.7417984009 0 0 0 0 88388347.543180466 -40385665.471436501 0 -40385665.471436501 35755946.198661804 0 0 0 0 249027744.25775707 31542697.031100243 0 31542697.031100243 19054123.738258362 0 0 0 0 434814439.33875084 -20095330.502212524 0 -20095330.502212524 -32703942.66468811 0 0 0 0 202782010.37437177 -5197241.2266616821 0 -5197241.2266616821 -23244910.153844833 0 0 0 0 334409186.6052146 28868627.446483612 0 28868627.446483612 -19511439.999629974 0 0 0 0 185691396.93659171 32429533.673012733 0 32429533.673012733 9737337.9317245483 0 0 0 0 108710690.22983837 16167176.864894867 0 16167176.864894867 24070741.752311707 0 0 0 0 23099986.559965134 10669520.889610291 0 10669520.889610291 27699293.547300339 0 0 0 0 70033994.420088291 9202704.423406601 0 9202704.423406601 40037382.856941223 0 0 0 0 -11386084.263309479 -38724719.445867538 0 -38724719.445867538 36469699.685035706 0 0 0 0 -48462519.590108871 17167141.764686584 0 17167141.764686584 17986719.623313904 0 0 0 0 -48647629.077765465 22505584.844385147 0 22505584.844385147 48105081.751411438 0 0 0 0 -53345967.282855988 25001688.560920715 0 25001688.560920715 12456651.873291016 0 0 0 0 -51038382.841451645 -17611942.302047729 0 -17611942.302047729 2819035.6449737549 0 0 0 0 -50236677.203479767 -12795075.266998291 0 -12795075.266998291 31584268.260345459 0 0 0 0 -43682806.560851097 -26025906.599924088 0 -26025906.599924088 3644905.6342391968 0 0 0 0 -32316450.325634003 -40185705.310661316 0 -40185705.310661316 21273408.519070625 0 0 0 0 -34542995.202629089 -9101878.7464790344 0 -9101878.7464790344 38543578.434714317 0 0 0 0 -21474970.557001889 28018927.513604581 0 28018927.513604581 46684369.38702774 0 0 0 0 -20452402.875139236 43473630.136512756 0 43473630.136512756 2520763.7630157471 0 0 0 0 -11956901.861170769 3918076.0403881073 0 3918076.0403881073 30864905.269525528 0 0 0 0 -20891059.081483603 -5508845.0323991776 0 -5508845.0323991776 65111137.735359192 0 0 0 0 -446183.90083113941 -447706.2579201716 0 -447706.2579201716 937023.60968211433 0 0 0 0 55509884.636674881 33810565.799432755 0 33810565.799432755 80936252.743038952 0 0 0 0 204358423.06707644 105157903.15015411 0 105157903.15015411 -304877217.56296921 0 0 0 0 217897453.00232077 3263319.8546962738 0 3263319.8546962738 27218983.835170746 0 0 0 0 103494759.73845339 29282873.765037537 0 29282873.765037537 -15989925.287082672 0 0 0 0 -104211.43857805757 -344997.75689264014 0 -344997.75689264014 736234.07044124766 0 0 0 0 166405791.41328585 71783953.390506744 0 71783953.390506744 28847466.490074158 0 0 0 0 97737805.398057461 -9484028.5569725037 0 -9484028.5569725037 -66717666.098396301 0 0 0 0 297513653.10629141 97360171.55096817 0 97360171.55096817 -18245946.506799698 0 0 0 0 279611602.40819979 -51209237.064922333 0 -51209237.064922333 27310029.305034637 0 0 0 0 341734404.97501379 81147840.036804199 0 81147840.036804199 -34093269.74508667 0 0 0 0 -16291828.74779284 10329304.85687387 0 10329304.85687387 3463703.4589805603 0 0 0 0 651419133.48448205 10773952.930805206 0 10773952.930805206 -137594848.93589783 0 0 0 0 206856.95912041777 2240282.1211109804 0 2240282.1211109804 2240333.699945827 0 0 0 0 348122413.35944867 259456949.2885704 0 259456949.2885704 -156539949.51969337 0 0 0 0 422737.07150101662 7458232.6932034492 0 7458232.6932034492 -2281121.9037322998 0 0 0 0 -3518642.0350723267 13731199.26307106 0 13731199.26307106 -1208807.9380702972 0 0 0 0 -715544.42465043068 9467625.0275964737 0 9467625.0275964737 -2499278.4938163757 0 0 0 0 -6807436.9538462162 3486868.4707107544 0 3486868.4707107544 1732884.2190589905 0 0 0 0 -864225.90661382675 5031366.4596271515 0 5031366.4596271515 1233604.0098791122 0 0 0 0 -918913.5163257122 4171025.4733538628 0 4171025.4733538628 5380920.9384536743 0 0 0 0 -1771134.1932075024 6538318.5820064545 0 6538318.5820064545 4493151.0683746338 0 0 0 0 1179685385.4060068 -974691293.34354019 0 -974691293.34354019 264874719.00669718 0 0 0 0 1418502.4848456644 1375044.2467556638 0 1375044.2467556638 -1768645.8598651704 0 0 0 0 -2111450.5491774082 6497025.3138132095 0 6497025.3138132095 6154643.8679924011 0 0 0 0 324304137.12750137 98923517.717080116 0 98923517.717080116 20930362.810821533 0 0 0 0 -41807.269926223438 2939986.2179596671 0 2939986.2179596671 4054387.3593381867 0 0 0 0 309726970.23708725 95481843.353748322 0 95481843.353748322 26002089.130699158 0 0 0 0 382929664.03758979 100740518.20537949 0 100740518.20537949 -5161232.4386672974 0 0 0 0 375519514.18652725 125032616.95609665 0 125032616.95609665 56840969.611984253 0 0 0 0 341368279.09826791 155722416.80284405 0 155722416.80284405 122359499.10142517 0 0 0 0 -161841939.79293251 200383325.94363403 0 200383325.94363403 309490326.74681091 0 0 0 0 191178.42027647502 341028.98891410185 0 341028.98891410185 -92933.615558151156 0 0 0 0 4720820.9972457886 5914976.0035629272 0 5914976.0035629272 4403153.5763702393 0 0 0 0 209190541.11973381 44064140.642860413 0 44064140.642860413 -56629516.674919128 0 0 0 0 576765368.42714024 162408490.76672363 0 162408490.76672363 8914405.8123626709 0 0 0 0 -5931.7407677572337 161426.81833780743 0 161426.81833780743 980363.37306211703 0 0 0 0 449430689.3802371 239597870.85523987 0 239597870.85523987 110045527.92676544 0 0 0 0 764382981.94258857 228750613.93061829 0 228750613.93061829 291847.92588615417 0 0 0 0 -78478.417154329363 -742120.02055944642 0 -742120.02055944642 1784542.8743593972 0 0 0 0 383586804.37618208 -397314436.95907211 0 -397314436.95907211 224682545.64135361 0 0 0 0 -87798544.30373621 937396288.46664619 0 937396288.46664619 12903023.996053696 0 0 0 0 431376637.65457273 -136284831.09259558 0 -136284831.09259558 51303639.192863464 0 0 0 0 -1624299742.0835915 1179146678.3459778 0 1179146678.3459778 109927878.80293894 0 0 0 0 -185717516.0303793 -34068524.222835541 0 -34068524.222835541 209472547.72068787 0 0 0 0 -100389426.53595066 -408501197.31050491 0 -408501197.31050491 805860043.29308319 0 0 0 0 96539057.535271645 -259211007.7485981 0 -259211007.7485981 202032825.4660511 0 0 0 0 -43570804.697566032 -170708066.89187622 0 -170708066.89187622 317751462.80722046 0 0 0 0 -69985676.387172341 -70780394.984651566 0 -70780394.984651566 96296891.504524231 0 0 0 0 5468256.965446949 -212030343.82222748 0 -212030343.82222748 203698217.56760597 0 0 0 0 -8006092.7507948875 -122612191.2651825 0 -122612191.2651825 336621.35154718161 0 0 0 0 -131371562.72081682 67622513.560656548 0 67622513.560656548 3924812.0795974731 0 0 0 0 -70639606.254165649 -34791656.188646317 0 -34791656.188646317 165018112.42842102 0 0 0 0 -124568387.18374872 92549283.484359741 0 92549283.484359741 79355346.541563034 0 0 0 0 -121080160.32203443 67111117.727921486 0 67111117.727921486 -43018084.906654358 0 0 0 0 -261517872.69483089 415231992.65256119 0 415231992.65256119 -75261908.43719101 0 0 0 0 -108477011.54010963 33046580.776688576 0 33046580.776688576 267789198.35641479 0 0 0 0 -432210763.96630764 115874397.41057205 0 115874397.41057205 630248127.58891678 0 0 0 0 5111965.1258807182 6860326.4333305359 0 6860326.4333305359 -217278.96484375 0 0 0 0 4569616.3530252576 7726589.7165694237 0 7726589.7165694237 -458808.28875160217 0 0 0 0 1520397.5794459661 2216174.3867108282 0 2216174.3867108282 -2303300.5415122546 0 0 0 0 2237363.0079994202 9604600.3133945465 0 9604600.3133945465 -4041110.5382041931 0 0 0 0 6423657.4192054272 8207565.1778035164 0 8207565.1778035164 -4129583.3895492554 0 0 0 0 7955848.8697276115 5047752.0087280273 0 5047752.0087280273 -914324.14227676392 0 0 0 0 949560.1207690239 6761609.2044296265 0 6761609.2044296265 23623.425602912903 0 0 0 0 3994351.9708397388 414501.34285926819 0 414501.34285926819 -2752854.5639467239 0 0 0 0 3835093.6378212571 658343.68862104416 0 658343.68862104416 -2539380.7063293457 0 0 0 0 11452371.961407959 3468132.9434187412 0 3468132.9434187412 -19392805.883850098 0 0 0 0 -7135237.6018772125 81167524.578008652 0 81167524.578008652 -237451163.03220367 0 0 0 0 -15192811.102369897 13604626.445768356 0 13604626.445768356 17578211.450025558 0 0 0 0 103377.6969922781 5794801.7307157516 0 5794801.7307157516 3969737.3760719299 0 0 0 0 -301040.24512019299 1655754.2665392191 0 1655754.2665392191 5256546.8104565684 0 0 0 0 -813.22067723431974 3013837.2801945191 0 3013837.2801945191 -1635843.1068675416 0 0 0 0 -2331012.4797213078 3283516.1378068924 0 3283516.1378068924 2628341.1373429298 0 0 0 0 -16458.812248458329 365222.8914049021 0 365222.8914049021 3809668.1251543853 0 0 0 0 -1657775.5655314922 3393765.8337802887 0 3393765.8337802887 4698794.3411259651 0 0 0 0 -1844399.7602878809 2446201.1729516983 0 2446201.1729516983 2364479.1989936829 0 0 0 0 -1542896.2553829849 1269407.3586001396 0 1269407.3586001396 974819.40516853333 0 0 0 0 -4756725.7075354829 1371490.0256512165 0 1371490.0256512165 10738738.576385498 0 0 0 0 -4553575.0624525845 2647586.6523220539 0 2647586.6523220539 7379173.9045753479 0 0 0 0 -402939.70282057207 296674.9239986029 0 296674.9239986029 4509734.2777337478 0 0 0 0 -2272687.1442664862 1199163.7979688644 0 1199163.7979688644 6444841.6225471497 0 0 0 0 -1881588.8646919727 -2368981.6275138855 0 -2368981.6275138855 6028657.5955762863 0 0 0 0 -3196831.5501428843 -1772259.4946517944 0 -1772259.4946517944 10184892.165365219 0 0 0 0 -3184953.839228034 -273980.57832241058 0 -273980.57832241058 7643955.9743080139 0 0 0 0 183121.08329642925 -126014.52691380482 0 -126014.52691380482 2825129.3128433488 0 0 0 0 -165504489.91583437 55880423.104269028 0 55880423.104269028 43348442.956256866 0 0 0 0 -2082346.7045705318 -2522026.2189159393 0 -2522026.2189159393 8091428.9340133667 0 0 0 0 20561603.059656084 41844610.563085556 0 41844610.563085556 13471473.975505829 0 0 0 0 119870100.46693826 -48800094.969022751 0 -48800094.969022751 -1822897.6607322693 0 0 0 0 -33506281.010270119 7223704.2420158386 0 7223704.2420158386 48354697.496276855 0 0 0 0 -334604.76556981413 462291.98528002808 0 462291.98528002808 1147868.8700198932 0 0 0 0 -33597806.606766224 5555521.4123497009 0 5555521.4123497009 18296850.686172485 0 0 0 0 -12442.792871742859 206718.13536217483 0 206718.13536217483 765819.77495431341 0 0 0 0 -618470.89243173599 25828820.658611298 0 25828820.658611298 842197.5897064209 0 0 0 0 11630498.583513737 8459399.9248437881 0 8459399.9248437881 15260232.861183167 0 0 0 0 -1381686.5619824626 2044061.1106041456 0 2044061.1106041456 2537178.932470941 0 0 0 0 7151303.2579283714 5669689.5003166199 0 5669689.5003166199 5937963.3817195892 0 0 0 0 12661855.249550261 35045836.700971723 0 35045836.700971723 93243761.219436646 0 0 0 0 3790552.7215403318 -11470498.08272171 0 -11470498.08272171 35329037.452728271 0 0 0 0 -2001312.0234231949 7103259.7467956543 0 7103259.7467956543 38842979.253607273 0 0 0 0 10255874.363425657 15009815.708491564 0 15009815.708491564 17020975.529724121 0 0 0 0 -46630898.620715022 -34424906.309782028 0 -34424906.309782028 19060172.367914677 0 0 0 0 -93796970.54246974 537009.56256866455 0 537009.56256866455 104881785.02658844 0 0 0 0 -20439561.815061212 -47943840.039936066 0 -47943840.039936066 132387514.66022873 0 0 0 0 -220804.55257866342 616898.17712460971 0 616898.17712460971 548795.85131094977 0 0 0 0 -7513868.3916425109 281544886.98130608 0 281544886.98130608 166813383.520401 0 0 0 0 -80092856.409224629 -59009324.613107681 0 -59009324.613107681 131706245.49384403 0 0 0 0 -128658360.8627829 -280195904.23674226 0 -280195904.23674226 638230483.03290558 0 0 0 0 101259982.03441265 -203246276.24280739 0 -203246276.24280739 214749632.61087418 0 0 0 0 85670186.769494623 -226789539.32407761 0 -226789539.32407761 502839694.57820892 0 0 0 0 8777966.4912816286 -17763742.866157532 0 -17763742.866157532 29351719.799389362 0 0 0 0 -194751.22026477379 -331925.17135977373 0 -331925.17135977373 688630.41690424737 0 0 0 0 6995006.904705286 -10527694.800577164 0 -10527694.800577164 31859290.319961548 0 0 0 0 -24573208.274412416 -26016390.109688282 0 -26016390.109688282 645375057.46557617 0 0 0 0 -433737782.92741627 -20096153.85561657 0 -20096153.85561657 2206853008.9529133 0 0 0 0 134589175.38355306 -429249338.71878242 0 -429249338.71878242 991639879.71517372 0 0 0 0 -375725807.18985969 166380925.17050076 0 166380925.17050076 1564931393.6254463 0 0 0 0 -38112367.725521207 31563816.563217163 0 31563816.563217163 423263527.04921055 0 0 0 0 -242964.700793428 126700.57095065527 0 126700.57095065527 550256.69621039182 0 0 0 0 37525429.842206359 -15260614.454662323 0 -15260614.454662323 -130413550.82081985 0 0 0 0 6084147.6591668129 141608655.88424492 0 141608655.88424492 103705251.29798889 0 0 0 0 -8767441.739089489 -108328204.51763916 0 -108328204.51763916 211205997.75250626 0 0 0 0 55872920.79722929 89108435.950071335 0 89108435.950071335 -168843760.66656685 0 0 0 0 -1292471.0729206596 103324.71999590192 0 103324.71999590192 1498943.9393482259 0 0 0 0 -338194872.82490861 357392714.49369574 0 357392714.49369574 2199850338.9502583 0 0 0 0 588397206.59098232 448977114.61475086 0 448977114.61475086 344535451.57282066 0 0 0 0 -1453923.8314267667 205640.28911450505 0 205640.28911450505 1602007.0443361178 0 0 0 0 513833648.28744674 -716275104.81116772 0 -716275104.81116772 967489608.60787201 0 0 0 0 -2046423.6436438812 1032141.0308442842 0 1032141.0308442842 4048956.4600977944 0 0 0 0 -3225865.0218957663 604092.17339706421 0 604092.17339706421 -9297875.9671516418 0 0 0 0 -12996616.944776535 -38603896.693101883 0 -38603896.693101883 -24371793.562616348 0 0 0 0 -455797.56583911431 756841.7082249627 0 756841.7082249627 -221070.20439275354 0 0 0 0 -215632980.52195799 74038290.910669327 0 74038290.910669327 157970932.21741486 0 0 0 0 359009702.76586938 10048288.207221985 0 10048288.207221985 31693422.810548782 0 0 0 0 315338489.41567898 -274551666.9178257 0 -274551666.9178257 216088114.4270727 0 0 0 0 -15878251.992511272 -8233149.6552639008 0 -8233149.6552639008 445759847.37618256 0 0 0 0 -6918851.7835979462 -255638462.21886253 0 -255638462.21886253 274671159.15620422 0 0 0 0 51406043.589411974 -228109220.11075735 0 -228109220.11075735 135036201.34434509 0 0 0 0 162927.34175519462 -255582.73323520261 0 -255582.73323520261 873279.53351346776 0 0 0 0 202704786.48666 169175909.69189215 0 169175909.69189215 8619705.9440727234 0 0 0 0 24477583.040931702 -210406260.91517067 0 -210406260.91517067 186963123.12374878 0 0 0 0 98491610.134913266 -187721276.29540855 0 -187721276.29540855 80761415.499160767 0 0 0 0 -14303796.706111073 2701621.6691017151 0 2701621.6691017151 7074334.3493423462 0 0 0 0 -203535.04210176796 74425.95032192301 0 74425.95032192301 31389.703423893079 0 0 0 0 -31262799.017169952 -201345064.43785858 0 -201345064.43785858 228779080.45148849 0 0 0 0 -20340963.911525011 -222167783.87933445 0 -222167783.87933445 191697677.77242279 0 0 0 0 133029834.34404945 -137129977.87050247 0 -137129977.87050247 137965482.7424202 0 0 0 0 60945971.128503799 61146529.673377991 0 61146529.673377991 -35326283.395676613 0 0 0 0 -48526977.785301685 567997.61294746399 0 567997.61294746399 23508819.651901245 0 0 0 0 -298824628.07172781 -99486519.478088379 0 -99486519.478088379 237869116.98599243 0 0 0 0 104374294.82716107 411983915.3139534 0 411983915.3139534 429935988.95762634 0 0 0 0 531430757.31168854 -508853698.11252594 0 -508853698.11252594 405763471.04833877 0 0 0 0 -402913.24781601632 -2157914.6952354265 0 -2157914.6952354265 4872817.9729599506 0 0 0 0 -2583148.9412497827 332048.47545261681 0 332048.47545261681 4206363.3948420314 0 0 0 0 1122453.9042062759 15720941.555942535 0 15720941.555942535 -5883114.4261665344 0 0 0 0 4195901.1957607269 -6335730.1998615265 0 -6335730.1998615265 -3438322.5298156738 0 0 0 0 234733953.04172254 43272076.954362869 0 43272076.954362869 -119711660.30463791 0 0 0 0 5469723.6543074697 -341658665.15447807 0 -341658665.15447807 672412929.13795471 0 0 0 0 -207665551.60011309 18681792.811395645 0 18681792.811395645 1034217404.828598 0 0 0 0 -296776723.3731268 -342193120.2816906 0 -342193120.2816906 2202189660.0884371 0 0 0 0 -56409033.175897293 837450985.33502388 0 837450985.33502388 2268822828.0978165 0 0 0 0 -213049498.36958307 -25672957.01982069 0 -25672957.01982069 669302375.95489883 0 0 0 0 -783842.47706243023 84581.342269998975 0 84581.342269998975 3779946.5076438989 0 0 0 0 -46437799.432359606 50476584.583132744 0 50476584.583132744 655206089.85453796 0 0 0 0 20356601.033264935 -54109531.4815979 0 -54109531.4815979 -51373318.320291519 0 0 0 0 -429608907.64844042 -12335041.041652679 0 -12335041.041652679 77333534.534095764 0 0 0 0 387257360.90663111 -203071456.11085701 0 -203071456.11085701 -215237010.59230804 0 0 0 0 -367566202.48409247 126628720.47774887 0 126628720.47774887 373018664.77764893 0 0 0 0 458423337.52429879 -1023434622.9758339 0 -1023434622.9758339 760961686.12376785 0 0 0 0 -114541.08984567969 -169855.42264810298 0 -169855.42264810298 1507011.0516766142 0 0 0 0 245924148.34397706 -1335170579.3688793 0 -1335170579.3688793 1176608932.8141251 0 0 0 0 -66956833.126903936 -785744034.96905899 0 -785744034.96905899 2259944933.508893 0 0 0 0 73869134.563270733 -308943971.39624596 0 -308943971.39624596 1252341030.7404194 0 0 0 0 199462150.60470808 -552647196.98010254 0 -552647196.98010254 1370272834.6194973 0 0 0 0 281306444.27714503 68927305.951530457 0 68927305.951530457 108159143.97710419 0 0 0 0 359159730.16141891 187726854.40257645 0 187726854.40257645 -168666170.38218307 0 0 0 0 -163909917.19055927 269176426.63890076 0 269176426.63890076 -200199499.17142296 0 0 0 0 -493737.68370130053 -227763.04716406111 0 -227763.04716406111 844556.10795358941 0 0 0 0 -57006007.725749493 477745732.9360733 0 477745732.9360733 206575270.24291611 0 0 0 0 454009442.78303546 348567565.09731674 0 348567565.09731674 -52792440.033561707 0 0 0 0 -152672970.17554432 -3451303.4246559143 0 -3451303.4246559143 264366842.61395836 0 0 0 0 1124693.4761188333 -202881.50761115458 0 -202881.50761115458 86672.636618544348 0 0 0 0 6063992.5296735913 436883920.46683216 0 436883920.46683216 950662873.55227661 0 0 0 0 24227431.549968362 320701013.6604023 0 320701013.6604023 76067182.190322876 0 0 0 0 121382398.76088887 186786191.89674377 0 186786191.89674377 257874813.68828964 0 0 0 0 5468526.3693165779 -5472193.2743320465 0 -5472193.2743320465 7997400.7625814676 0 0 0 0 -147908.06399393082 414861.77102041245 0 414861.77102041245 10406679.19517839 0 0 0 0 -1305908.3968911171 2858686.9275269508 0 2858686.9275269508 1605687.9347667694 0 0 0 0 4799330.0256732702 -7612234.0651061535 0 -7612234.0651061535 19642406.489691257 0 0 0 0 1489162.0760350227 -1679598.9606757462 0 -1679598.9606757462 24956518.085211277 0 0 0 0 12497255.367666721 -26236891.678432882 0 -26236891.678432882 25990526.48697938 0 0 0 0 -36740414.19617939 -37435777.321376801 0 -37435777.321376801 58141638.252728462 0 0 0 0 -2526766.8936271667 -177218.99660098553 0 -177218.99660098553 14672863.382028103 0 0 0 0 11642100.476682186 -13196310.834292054 0 -13196310.834292054 2482785.0990265012 0 0 0 0 -2075895.9869767546 1361193.3236829683 0 1361193.3236829683 5648019.3136449233 0 0 0 0 8806441.3393666744 5481167.6992170811 0 5481167.6992170811 2408226.9334373474 0 0 0 0 -42958965.304804325 23120710.041088387 0 23120710.041088387 149353606.82718796 0 0 0 0 -22093599.096383333 -66984016.893051594 0 -66984016.893051594 35589544.923447751 0 0 0 0 2446526.0066814423 6615664.9494855404 0 6615664.9494855404 5210102.2818336487 0 0 0 0 -205340.43948063953 1635696.7336656554 0 1635696.7336656554 7064799.040807236 0 0 0 0 -9921209.8822767138 3103297.6816703081 0 3103297.6816703081 25932563.587549686 0 0 0 0 5790743.3982007504 682659.63717150688 0 682659.63717150688 709569.35530662537 0 0 0 0 -85814.580718149897 872497.04344241531 0 872497.04344241531 -181540.20573903946 0 0 0 0 5460612.5173358917 4109108.6209621429 0 4109108.6209621429 292183.10328483582 0 0 0 0 7204841.5904836655 774341.48251533508 0 774341.48251533508 6305348.7825813293 0 0 0 0 2925859.6232376099 5789688.7633743286 0 5789688.7633743286 12948386.6801548 0 0 0 0 3034340.5301001668 4435167.3669215441 0 4435167.3669215441 5576797.3704948425 0 0 0 0 -386558.40384887339 380060.3729414905 0 380060.3729414905 1911594.029689827 0 0 0 0 -5048536.5451509953 -4375027.2486980557 0 -4375027.2486980557 8139640.4578814507 0 0 0 0 21544080.375989914 15029818.419069052 0 15029818.419069052 11004367.299480438 0 0 0 0 130485514.54787016 16075509.396853447 0 16075509.396853447 -47392160.994515181 0 0 0 0 -7043.0894014221267 -24547.76489981811 0 -24547.76489981811 36894.129099206999 0 0 0 0 -165669.18800124538 307388.22183163685 0 307388.22183163685 2473672.390687888 0 0 0 0 -905404.82961821556 2611291.7058331966 0 2611291.7058331966 55911.763601303101 0 0 0 0 -6222464.3779611588 3087657.28587991 0 3087657.28587991 4356144.3887429237 0 0 0 0 30317052.176036596 26137850.569504261 0 26137850.569504261 -1161043.9927663803 0 0 0 0 -597822.48021886614 1271819.7753321878 0 1271819.7753321878 814178.02987807326 0 0 0 0 -24526813.616341472 46546530.197547197 0 46546530.197547197 14027362.965750217 0 0 0 0 6650517.0263442993 9272258.3907299042 0 9272258.3907299042 7342686.0942382812 0 0 0 0 -26513529.824928395 -573709.89769827574 0 -573709.89769827574 16895180.97284317 0 0 0 0 -2158752.0056259437 1510795.9023373099 0 1510795.9023373099 6853014.3943694364 0 0 0 0 7287446.4709658623 7648019.4918107986 0 7648019.4918107986 5170756.2781219482 0 0 0 0 4587519.953711763 -783405.03635668755 0 -783405.03635668755 2289331.9186515808 0 0 0 0 6094644.1641932726 -3950412.5242347717 0 -3950412.5242347717 8653453.1712608337 0 0 0 0 -277840.24423289299 4141898.3203978539 0 4141898.3203978539 12659604.402685165 0 0 0 0 309129.43109375238 5395959.0903885365 0 5395959.0903885365 11732871.27094841 0 0 0 0 -2251096.4733961225 7325283.6493077278 0 7325283.6493077278 6021533.2596025467 0 0 0 0 -220940.76854610443 4252946.0803728104 0 4252946.0803728104 10629350.112491608 0 0 0 0 266371.8473637104 5829740.9989776611 0 5829740.9989776611 7844519.9242606163 0 0 0 0 -4800519.9781877995 1940604.785763979 0 1940604.785763979 8200515.462770462 0 0 0 0 -180191.41223490192 990919.02145048068 0 990919.02145048068 3326985.0945608537 0 0 0 0 -1617653.4604825974 -537029.16727638245 0 -537029.16727638245 4488352.4782447815 0 0 0 0 -2136377.9357776642 1646615.2678623199 0 1646615.2678623199 6919049.4560050964 0 0 0 0 910447.21651935577 11716140.204411507 0 11716140.204411507 -2660950.762198925 0 0 0 0 -277719.97328790696 -23888.687479318818 0 -23888.687479318818 411977.79259633156 0 0 0 0 -229010.64010477066 250014.4076769352 0 250014.4076769352 3936082.0983347893 0 0 0 0 -2481485.5142502785 1513660.1244137287 0 1513660.1244137287 4059983.6576372385 0 0 0 0 -3575734.4715621471 2307295.8577352762 0 2307295.8577352762 4362052.2116208076 0 0 0 0 -2067383.783577919 2129636.6025679111 0 2129636.6025679111 4911802.7035799026 0 0 0 0 -1888899.8492562771 1996072.575783968 0 1996072.575783968 3749515.5555639267 0 0 0 0 -2670212.1886553764 597286.84459757805 0 597286.84459757805 2550564.9131934643 0 0 0 0 878318.05871534348 -756293.91525638103 0 -756293.91525638103 3057697.4294934273 0 0 0 0 -2188984.5952825546 -3018129.9748516083 0 -3018129.9748516083 1552101.5096819997 0 0 0 0 1397995.8431799412 -3269040.8005234003 0 -3269040.8005234003 6310166.9306526184 0 0 0 0 4956388.2521374226 443936.23572587967 0 443936.23572587967 2607453.7535617352 0 0 0 0 -1395340.7660017014 578967.42173671722 0 578967.42173671722 7439076.3664989471 0 0 0 0 -1336060.1741161346 2886848.8768386841 0 2886848.8768386841 8082941.1783477664 0 0 0 0 -44901.046731759692 1095257.6890738239 0 1095257.6890738239 3095232.8511399832 0 0 0 0 863938.92814874649 -4786494.3408275843 0 -4786494.3408275843 -1475517.1057109833 0 0 0 0 -137379.72561811784 70568.075954401633 0 70568.075954401633 836998.20191326062 0 0 0 0 -382637.725263834 2562146.5824844837 0 2562146.5824844837 6139208.1951289177 0 0 0 0 332737.43499208987 1551665.9041050673 0 1551665.9041050673 2860226.0015487671 0 0 0 0 49792.047013091782 866111.6403346695 0 866111.6403346695 4404612.2366191614 0 0 0 0 -2969992.0221648216 -6600657.2430458069 0 -6600657.2430458069 2559952.8531255722 0 0 0 0 296785.26069545746 8656256.4361534119 0 8656256.4361534119 4355098.1036109924 0 0 0 0 -138341.60070299567 -493076.53232824302 0 -493076.53232824302 4353507.2621291419 0 0 0 0 -1887267.8909232616 -1954530.0335712433 0 -1954530.0335712433 6551339.7788038254 0 0 0 0 2792134.7034113407 -6128162.7135645151 0 -6128162.7135645151 -26528511.059731483 0 0 0 0 -4308684.9449205399 -8939084.5380027294 0 -8939084.5380027294 -9829689.8416171074 0 0 0 0 -6444990.620057106 358192.15581727028 0 358192.15581727028 5232381.3717451096 0 0 0 0 2474001.4708003998 -752076.57207369804 0 -752076.57207369804 -4310575.488030076 0 0 0 0 -7119099.825217247 -6465534.4013633728 0 -6465534.4013633728 -1801302.9844303131 0 0 0 0 -5476532.5896339417 -6899164.9134473801 0 -6899164.9134473801 -11606761.998426914 0 0 0 0 -103899.23202889906 -391684.60389804235 0 -391684.60389804235 114804.63393095089 0 0 0 0 2185628.4853078127 3120847.0288515091 0 3120847.0288515091 1809405.8499565125 0 0 0 0 1909774.2014760375 -1827238.7208175659 0 -1827238.7208175659 2741873.7521293163 0 0 0 0 -732813.86065387726 629144.25272750854 0 629144.25272750854 491861.82872581482 0 0 0 0 2603850.2185834646 388808.32476305962 0 388808.32476305962 -174044.52101898193 0 0 0 0 113830.91385224648 -887556.32338612527 0 -887556.32338612527 11186349.271753311 0 0 0 0 -78344.377160439326 122609.44484591391 0 122609.44484591391 309426.44256502809 0 0 0 0 -1412424.1207235456 995568.19665527344 0 995568.19665527344 1182314.9606485367 0 0 0 0 39859.779073652462 887476.89332052879 0 887476.89332052879 3280222.6649800409 0 0 0 0 -867915.94701820612 -1318209.0293769836 0 -1318209.0293769836 578349.74527350068 0 0 0 0 2330125.6755332947 3366634.761548996 0 3366634.761548996 3355727.9697303772 0 0 0 0 -724324.44844639301 -180726.59158325195 0 -180726.59158325195 1440267.3402786255 0 0 0 0 -1201552.9439832768 -375854.51605907548 0 -375854.51605907548 3509625.799800124 0 0 0 0 634097.57243913272 1692534.0373662375 0 1692534.0373662375 1711864.5519238925 0 0 0 0 -1712711.4661273956 741023.59976959229 0 741023.59976959229 2032433.9911231995 0 0 0 0 450860.42102935433 -943681.5255422839 0 -943681.5255422839 3036296.5927028731 0 0 0 0 -1591275.9384882883 549726.93418730434 0 549726.93418730434 8737194.5107366424 0 0 0 0 -148552107.93084502 14595918.686497927 0 14595918.686497927 7244515.9765634537 0 0 0 0 48409.962075972697 -885866.89042268181 0 -885866.89042268181 5765931.5467176354 0 0 0 0 -1411953.7412145138 101697361.17705166 0 101697361.17705166 2363749.388556771 0 0 0 0 116860963.41846943 -68331941.008751154 0 -68331941.008751154 -25187389.26902318 0 0 0 0 -11016582.957610607 -54191944.575510979 0 -54191944.575510979 85913903.4498173 0 0 0 0 -56844271.40767622 -375282.4349437952 0 -375282.4349437952 77400826.128535748 0 0 0 0 -10293495.078901291 28470499.674854755 0 28470499.674854755 -15247424.599132217 0 0 0 0 -336378.27759336261 -23700836.490467273 0 -23700836.490467273 -13158563.998070955 0 0 0 0 225729.50653542799 173969.49753896607 0 173969.49753896607 -215197.07572197937 0 0 0 0 -1598016.1803253889 12741578.662372589 0 12741578.662372589 1980828.4793128967 0 0 0 0 -360063.88265597355 2347476.2140495265 0 2347476.2140495265 8640223.2419780251 0 0 0 0 -422992.34709596634 7116369.072177887 0 7116369.072177887 5675431.5145149231 0 0 0 0 -1967367.6731758118 4814896.330329895 0 4814896.330329895 3083459.9434819221 0 0 0 0 -530091.23966598511 10083565.676395416 0 10083565.676395416 15902176.223335266 0 0 0 0 -2591020.1033511162 -4671599.8086693287 0 -4671599.8086693287 29381449.323474705 0 0 0 0 -7212400.5938770771 -3340437.9022462368 0 -3340437.9022462368 45399113.287536621 0 0 0 0 -33580.498757839203 3735189.6253376007 0 3735189.6253376007 12712129.806821346 0 0 0 0 1896797.1578067541 -1209717.3779284954 0 -1209717.3779284954 5515118.9617571831 0 0 0 0 -10058743.855816603 1960029.7428984642 0 1960029.7428984642 28155768.190482855 0 0 0 0 8046614.1517446041 -13581138.494225144 0 -13581138.494225144 32149433.684652925 0 0 0 0 -12455442.578933954 1266101.2255111933 0 1266101.2255111933 38083365.601391792 0 0 0 0 -6409233.3407292366 7506126.7142031193 0 7506126.7142031193 3024588.301445365 0 0 0 0 -21079787.419479132 29451228.22266674 0 29451228.22266674 -21042562.33198297 0 0 0 0 -3011597.247913599 -3118260.1854300499 0 -3118260.1854300499 35454287.617187738 0 0 0 0 -130306.87201999524 469108.45370487217 0 469108.45370487217 572735.30763128586 0 0 0 0 1927453.3492047787 6089082.499902904 0 6089082.499902904 29242198.26137197 0 0 0 0 3646875.1470708847 12738429.347512007 0 12738429.347512007 42456134.442274652 0 0 0 0 192107.68702554354 1417849.5444102508 0 1417849.5444102508 2550841.6958132945 0 0 0 0 -3130595.4458004236 7894927.1106097698 0 7894927.1106097698 -5293689.6672160849 0 0 0 0 960193.12559643178 542726.14612330694 0 542726.14612330694 -951570.89882259653 0 0 0 0 3725122.47240448 1158759.2535250187 0 1158759.2535250187 -5084271.3240253925 0 0 0 0 -5133263.6026631594 159675.30523818731 0 159675.30523818731 10400655.966323853 0 0 0 0 -684159.13059460942 1458419.045666565 0 1458419.045666565 8108759.3357434943 0 0 0 0 -1659734.6432514191 -2590530.6217193604 0 -2590530.6217193604 11912532.436922073 0 0 0 0 -1543799.558080852 1414142.189643383 0 1414142.189643383 2739210.6856632233 0 0 0 0 -1421297.2185313702 796163.60614514351 0 796163.60614514351 2900480.969332695 0 0 0 0 -528536.41484732903 -338197.22744776728 0 -338197.22744776728 2403483.6855375697 0 0 0 0 -408074.50607507705 3929818.5991600519 0 3929818.5991600519 2213969.853350048 0 0 0 0 -1083716.1935918331 2868825.5676727295 0 2868825.5676727295 17032664.227985382 0 0 0 0 -6073372.0305461884 6317549.607635498 0 6317549.607635498 19068740.056922913 0 0 0 0 -435540.6458939595 1992703.4552385509 0 1992703.4552385509 8229097.2180744354 0 0 0 0 -9214952.8820753098 9296572.8973674774 0 9296572.8973674774 8403579.3838615417 0 0 0 0 -8928846.0321936607 2850712.4572620392 0 2850712.4572620392 14911732.493801117 0 0 0 0 -4890693.6789894104 -683701.83617591858 0 -683701.83617591858 12763231.704523087 0 0 0 0 -5173742.6764515266 -1379834.352183789 0 -1379834.352183789 15466743.890148163 0 0 0 0 -3047291.4573898315 -4630238.4186019897 0 -4630238.4186019897 12067480.321422577 0 0 0 0 -1030147.0327162743 -8571659.7738800049 0 -8571659.7738800049 19290170.00757885 0 0 0 0 -5687326.622882247 -1757048.9891858101 0 -1757048.9891858101 18510177.901931763 0 0 0 0 10454323.770543694 -15243110.529388428 0 -15243110.529388428 19303312.053214073 0 0 0 0 -1969736.6855068207 -5047721.7687187195 0 -5047721.7687187195 20212747.633690119 0 0 0 0 -2299408.8458528519 -3962626.8269176483 0 -3962626.8269176483 26277837.147125244 0 0 0 0 1713497.6038742065 -5572617.5342578888 0 -5572617.5342578888 9114781.6116514206 0 0 0 0 4532153.7135931253 -6985238.946972847 0 -6985238.946972847 9582876.8427200317 0 0 0 0 186254.04090833664 -7142356.0511379242 0 -7142356.0511379242 10244264.72467041 0 0 0 0 -2900974.6638069153 -4511212.9350643158 0 -4511212.9350643158 11628306.634429932 0 0 0 0 -4180028.7880554199 -3934235.787563324 0 -3934235.787563324 11644320.762317657 0 0 0 0 -1856340.6500759125 -5517308.0190963745 0 -5517308.0190963745 12284107.733650208 0 0 0 0 -2458814.1011586189 -3729877.0171709061 0 -3729877.0171709061 9382730.7243347168 0 0 0 0 -103746.96217310429 -6020095.4964718819 0 -6020095.4964718819 9196929.943687439 0 0 0 0 -4821508.8918581009 -3289409.7778549194 0 -3289409.7778549194 9187733.1948699951 0 0 0 0 1957808.3399558067 -6293037.6685791016 0 -6293037.6685791016 8416204.6066265106 0 0 0 0 -1026395.723310113 -4514674.1442480087 0 -4514674.1442480087 9042664.6393280029 0 0 0 0 982620.42462539673 -449018.98680496216 0 -449018.98680496216 701058.87110900879 0 0 0 0 379037543.89215118 -709023635.7035408 0 -709023635.7035408 1334135982.9190826 0 0 0 0 989936.9242576086 -576445.51811572723 0 -576445.51811572723 2675748.9269260773 0 0 0 0 1779988.0710306375 3111008.9039162449 0 3111008.9039162449 2899972.6000779811 0 0 0 0 251643367.59873307 -838188321.98075378 0 -838188321.98075378 2294639346.4391212 0 0 0 0 -518304.69457582844 -1134048.3886654973 0 -1134048.3886654973 1635481.9159426792 0 0 0 0 607354.91317176819 535605.26595783234 0 535605.26595783234 4146249.1018784046 0 0 0 0 -39599.945117668278 225816.66795208724 0 225816.66795208724 3603453.7000646102 0 0 0 0 1503616.5922045708 1821682.7867107391 0 1821682.7867107391 5409481.7160511017 0 0 0 0 -211733.16175544262 -211489.65582895279 0 -211489.65582895279 7623008.1406803131 0 0 0 0 42046.701515328663 3577.612513941247 0 3577.612513941247 -31934.901057383977 0 0 0 0 684435.16459156666 -728302.21286099683 0 -728302.21286099683 5294272.3267436773 0 0 0 0 -555993.52856761217 241756.40241718292 0 241756.40241718292 1542513.8114433289 0 0 0 0 -3494293.7570562363 -5801029.9066762924 0 -5801029.9066762924 7324438.4472198486 0 0 0 0 -43525.898522173753 -164640.10012638476 0 -164640.10012638476 394778.42864835146 0 0 0 0 456176.34233093262 1106296.39012146 0 1106296.39012146 5233413.5706008673 0 0 0 0 24311410.89968916 276256666.36834335 0 276256666.36834335 2205048724.5849657 0 0 0 0 307213.57346399687 666014.06984379375 0 666014.06984379375 3884809.2433652012 0 0 0 0 -38351365.284105636 152032436.12524796 0 152032436.12524796 2186403608.0044065 0 0 0 0 352975.13676095009 1187760.5172142982 0 1187760.5172142982 5172792.3762378693 0 0 0 0 1384830.4637769316 363893.85694982414 0 363893.85694982414 5887947.9835779453 0 0 0 0 -42587298.845601402 148002498.04879427 0 148002498.04879427 2203208362.6290388 0 0 0 0 364380.71294848074 462202.52249943675 0 462202.52249943675 3610539.1281859777 0 0 0 0 1238603.5228996277 1192292.014729023 0 1192292.014729023 4772158.2736787796 0 0 0 0 460699.14898830466 1244095.4557618201 0 1244095.4557618201 5176110.3596534729 0 0 0 0 46496398.35076198 -309591464.67431641 0 -309591464.67431641 2064010872.5104485 0 0 0 0 147873.2206350565 757816.05403614044 0 757816.05403614044 5287185.498840332 0 0 0 0 1463676.9409105931 369287.10530433501 0 369287.10530433501 -439897.77498804173 0 0 0 0 -55382647.749187171 4732509.7483348846 0 4732509.7483348846 2186972706.8016548 0 0 0 0 68371.278104782104 1116212.3402032852 0 1116212.3402032852 5239086.6089630127 0 0 0 0 8550019.6387362555 3064014.2977619767 0 3064014.2977619767 3509287.4488801956 0 0 0 0 1052913.5934255719 2516679.4432239532 0 2516679.4432239532 5043907.2757863998 0 0 0 0 -117616.64970011485 411221.32599970838 0 411221.32599970838 3451546.6629091427 0 0 0 0 433106113.93311107 941828760.03520942 0 941828760.03520942 2204686499.2504969 0 0 0 0 818467.14534293232 1691196.083059672 0 1691196.083059672 3911458.5865474688 0 0 0 0 1521440.7812742845 411751.81156568718 0 411751.81156568718 1046678.955140207 0 0 0 0 128610.17312753201 1265097.0460596085 0 1265097.0460596085 4963208.5776987076 0 0 0 0 608945.77253166388 861326.58498841897 0 861326.58498841897 2040654.6679594028 0 0 0 0 -364960.31728935242 443700.77791786194 0 443700.77791786194 2087514.4018912315 0 0 0 0 201100048.37207556 -71728996.312988639 0 -71728996.312988639 -184381278.03042871 0 0 0 0 512636.8242552192 1027572.3128950092 0 1027572.3128950092 4974895.642109422 0 0 0 0 1441672.6794716951 2553145.9040614543 0 2553145.9040614543 4575090.9776568068 0 0 0 0 1203919.7915332913 782362.27536439896 0 782362.27536439896 1763503.1983289719 0 0 0 0 1142495.1581838131 2135922.0919473171 0 2135922.0919473171 4616596.0865659714 0 0 0 0 195847.23069953918 981035.2439289093 0 981035.2439289093 5531404.6413650513 0 0 0 0 -11005.657481945876 908469.2225090533 0 908469.2225090533 5221730.8923502946 0 0 0 0 1336410.0783409327 683679.35476535559 0 683679.35476535559 5373368.4419994354 0 0 0 0 -320612.6552375555 191969.90625953674 0 191969.90625953674 2581305.5303564072 0 0 0 0 -57547564.451758862 -19412835.684512794 0 -19412835.684512794 3064936.7711656541 0 0 0 0 -36730872.231558323 129687208.15590048 0 129687208.15590048 -38742708.612101257 0 0 0 0 366252.55605037202 1195639.5582713927 0 1195639.5582713927 1946537.1759506324 0 0 0 0 -182562.2271140145 749350.94223287841 0 749350.94223287841 905258.68358116783 0 0 0 0 56911230.534051865 -335998778.17340118 0 -335998778.17340118 338719353.88984346 0 0 0 0 34725769.287939548 104553944.54670444 0 104553944.54670444 28296223.555413485 0 0 0 0 -77619592.654398441 37854452.470014691 0 37854452.470014691 -34008248.34012872 0 0 0 0 -105337309.59768772 25582189.321234107 0 25582189.321234107 137635994.76729625 0 0 0 0 28006571.510918617 101907158.53165704 0 101907158.53165704 -6280127.6089881063 0 0 0 0 -106771.27964805532 112197.94690327084 0 112197.94690327084 588048.04263958498 0 0 0 0 -20934471.482713223 -48661452.707496464 0 -48661452.707496464 187166440.88809836 0 0 0 0 74136366.120330572 -38040240.863602817 0 -38040240.863602817 7855206.7895364761 0 0 0 0 -23947471.839038402 3354020.5783888716 0 3354020.5783888716 11511043.302847624 0 0 0 0 -29391416.470691681 -14243844.890549451 0 -14243844.890549451 6240733.9752705097 0 0 0 0 -59293619.045786381 30265785.152506351 0 30265785.152506351 3256245.9604122639 0 0 0 0 -152826.29105377197 -1971732.3436479568 0 -1971732.3436479568 10299309.602966309 0 0 0 0 14016251.759814262 11640428.184539795 0 11640428.184539795 16366477.406829834 0 0 0 0 13521694.696575314 6094855.0372760296 0 6094855.0372760296 11133502.054988861 0 0 0 0 15305103.518166542 28653858.538211495 0 28653858.538211495 7994243.4877764285 0 0 0 0 169924536.66988611 96878290.162525371 0 96878290.162525371 -174820441.71848845 0 0 0 0 -11668732.762808323 -11099907.790808678 0 -11099907.790808678 29091669.711666927 0 0 0 0 1179263.0570279718 497087.36376718397 0 497087.36376718397 -709263.87279105559 0 0 0 0 5309150.6400794983 2186019.6474838257 0 2186019.6474838257 6489445.8739819527 0 0 0 0 -1776257.6913460926 1188622.3116129301 0 1188622.3116129301 4524952.316438823 0 0 0 0 -122939756.73266411 234662697.20810896 0 234662697.20810896 -129938576.09962606 0 0 0 0 -91048.327629630221 1933183.6659497796 0 1933183.6659497796 6707301.7911855914 0 0 0 0 4814418.4090061188 5058841.4821119308 0 5058841.4821119308 13671299.008834839 0 0 0 0 12314230.191860199 11845100.911933899 0 11845100.911933899 19940368.088272095 0 0 0 0 -137475.08460136829 215584.5022329553 0 215584.5022329553 503696.45439907303 0 0 0 0 40650671.267088264 40137304.277154684 0 40137304.277154684 -3464788.7780641317 0 0 0 0 -351682.30431244359 2529568.4562919447 0 2529568.4562919447 8072121.313445637 0 0 0 0 -95937185.290347099 -76819718.190518022 0 -76819718.190518022 -25923599.92184943 0 0 0 0 8539006.5956935883 4569854.9964909554 0 4569854.9964909554 12554637.689411163 0 0 0 0 5869744.2732744217 4530865.9020090103 0 4530865.9020090103 17538570.340831757 0 0 0 0 6410923.9082354903 -914052.90037560463 0 -914052.90037560463 11793007.609079361 0 0 0 0 -533214.95719644427 -1493975.7822858095 0 -1493975.7822858095 3380887.4224734306 0 0 0 0 814900.07111266255 1824392.25717327 0 1824392.25717327 1387145.0118675232 0 0 0 0 348701785.17755592 905262370.24492288 0 905262370.24492288 1668113568.5579364 0 0 0 0 298557.90046229959 -625309.02528095245 0 -625309.02528095245 1320923.6310833171 0 0 0 0 -754958.90789251169 -38280.113651327672 0 -38280.113651327672 3712737.3066589306 0 0 0 0 -401192.32550957799 377870.21957397461 0 377870.21957397461 3961894.3819489479 0 0 0 0 927889524.1902926 1052351864.7982242 0 1052351864.7982242 1196975699.8886065 0 0 0 0 1974262.8465576789 1638335.9491345233 0 1638335.9491345233 1486017.1370558618 0 0 0 0 552551.62903821468 -611269.55316257477 0 -611269.55316257477 2544976.3240857124 0 0 0 0 -734593.83512729406 -133540.10944390297 0 -133540.10944390297 2400105.734855175 0 0 0 0 -278795.46693146229 1158147.5808250904 0 1158147.5808250904 1760595.6786683742 0 0 0 0 508124904.65776438 1225868443.3707492 0 1225868443.3707492 2685566955.2954059 0 0 0 0 -15638.233526426906 56238.618352071702 0 56238.618352071702 211657.85267043335 0 0 0 0 615780394.838539 892902868.74565566 0 892902868.74565566 1968905069.9633369 0 0 0 0 131015325.48510912 712699857.62216568 0 712699857.62216568 2032813242.5374532 0 0 0 0 246176173.14826494 867262761.57291973 0 867262761.57291973 2204751319.4216266 0 0 0 0 352945812.26453322 868762998.19150937 0 868762998.19150937 1969332002.918786 0 0 0 0 120126160.33882402 628299028.12608647 0 628299028.12608647 1773984378.9105744 0 0 0 0 -123318260.57487158 361145842.64654589 0 361145842.64654589 1886180059.2365742 0 0 0 0 -74549478.917830601 574714694.44835103 0 574714694.44835103 2204623995.7819705 0 0 0 0 215281705.75257325 474703437.30951571 0 474703437.30951571 1344647234.2804604 0 0 0 0 318821510.28181469 653457314.19265556 0 653457314.19265556 1385276228.4448624 0 0 0 0 346624394.386428 745143246.65835643 0 745143246.65835643 1518699138.9685173 0 0 0 0 366067093.89641511 738093904.08433104 0 738093904.08433104 1482670119.6407261 0 0 0 0 328802008.38821435 665547516.74941063 0 665547516.74941063 1351835314.5692682 0 0 0 0 -306437.17568292411 -448812.31506482931 0 -448812.31506482931 3372356.4862646768 0 0 0 0 231104550.09469756 578370467.72505999 0 578370467.72505999 1715589542.292233 0 0 0 0 -558485340.00117195 -327283515.40606213 0 -327283515.40606213 1201402965.7039976 0 0 0 0 -225033266.49475998 101194764.11176527 0 101194764.11176527 1420541852.7698374 0 0 0 0 -471784166.1354779 103184038.02051067 0 103184038.02051067 2204282324.487709 0 0 0 0 -47453343.530475616 331631017.77222824 0 331631017.77222824 1485266253.2912834 0 0 0 0 -389893451.00592971 220358573.91578186 0 220358573.91578186 1337946540.5454922 0 0 0 0 -424526608.82466483 -303476754.15238094 0 -303476754.15238094 -28230625.777982503 0 0 0 0 -231362728.91495258 1201727470.4807374 0 1201727470.4807374 -59987181.607102394 0 0 0 0 -195627856.08770365 9759224.3011009693 0 9759224.3011009693 799937913.93354607 0 0 0 0 106239598.7274642 870916738.99103832 0 870916738.99103832 349657356.62333584 0 0 0 0 120554500.52299812 747711485.17593503 0 747711485.17593503 1337970651.6864071 0 0 0 0 -222997.10654610675 135158.99935152219 0 135158.99935152219 791719.3349453914 0 0 0 0 -502225334.54395413 660745456.14943027 0 660745456.14943027 510412301.52127457 0 0 0 0 -99020808.620729387 442634806.32276797 0 442634806.32276797 -67429452.217859268 0 0 0 0 -206057390.68084198 392266827.93406582 0 392266827.93406582 728825083.31184387 0 0 0 0 399464922.80601192 -154070262.9394331 0 -154070262.9394331 435772185.21670294 0 0 0 0 217081307.80366659 -639994355.19226742 0 -639994355.19226742 1373116041.9992521 0 0 0 0 73995100.40247941 118788256.28833103 0 118788256.28833103 1369292292.0249279 0 0 0 0 31458.685688023339 424026.34946963098 0 424026.34946963098 897126.96518299496 0 0 0 0 -5511201.9586834908 3018535.4515471458 0 3018535.4515471458 19262887.359535217 0 0 0 0 1123655.5753499828 1120600.9372525369 0 1120600.9372525369 599610.12964318576 0 0 0 0 7841513.9012451172 5605706.6738262177 0 5605706.6738262177 10510611.401367515 0 0 0 0 337666749.76671839 641007195.01323748 0 641007195.01323748 1326394090.3036919 0 0 0 0 -384426.23196170153 405095.34385160822 0 405095.34385160822 2247067.0352524626 0 0 0 0 329630282.95453167 639214584.71870708 0 639214584.71870708 1356799437.7181177 0 0 0 0 305203002.96191084 418894340.67250681 0 418894340.67250681 962616565.20776653 0 0 0 0 -2825481.9129972458 23928470.959339619 0 23928470.959339619 -13288193.295389175 0 0 0 0 7917700.0931591988 38103179.190027237 0 38103179.190027237 -7511826.8818259239 0 0 0 0 14922454.463540912 67399714.976341248 0 67399714.976341248 -323057767.45553589 0 0 0 0 -168673138.45528567 108776876.58424187 0 108776876.58424187 242456905.85518742 0 0 0 0 -140454645.37161899 67426151.217420578 0 67426151.217420578 71476596.524703979 0 0 0 0 -36149564.739580154 2700770.0192270279 0 2700770.0192270279 13150356.402143002 0 0 0 0 -57133069.832016468 53233711.269472122 0 53233711.269472122 2980995.3666155338 0 0 0 0 -4925436.3835105896 39376154.352639198 0 39376154.352639198 5154654.4770202637 0 0 0 0 -37204407.766797543 19203464.290100098 0 19203464.290100098 10932128.888952076 0 0 0 0 11631412.886436939 14199282.269770622 0 14199282.269770622 -4175076.9443683624 0 0 0 0 -761601.59760248661 -7626189.6754379272 0 -7626189.6754379272 12293661.851783752 0 0 0 0 -53855901.762125134 -29976661.429051399 0 -29976661.429051399 5890133.8820705414 0 0 0 0 600956.75765895844 4400804.0787010193 0 4400804.0787010193 7560486.2846908569 0 0 0 0 3695110.6778297424 5929576.5126476288 0 5929576.5126476288 6485241.0211982727 0 0 0 0 694161.12529468536 1276532.9459810257 0 1276532.9459810257 4300882.8920326233 0 0 0 0 -969786.12532892544 1221962.0609144899 0 1221962.0609144899 2202438.839536936 0 0 0 0 164705.52137327287 927539.8940934178 0 927539.8940934178 3700171.4034231193 0 0 0 0 4597649.1768074036 5763074.7717056274 0 5763074.7717056274 2266386.3791265488 0 0 0 0 4128541.2845802307 7808163.9948234558 0 7808163.9948234558 8571169.6278152466 0 0 0 0 3579976.8578404188 740016.22530078888 0 740016.22530078888 -590031.27403259277 0 0 0 0 -123244.30542123478 400739.07790269912 0 400739.07790269912 140899.39815874398 0 0 0 0 -289529485.04038894 -234837017.63696826 0 -234837017.63696826 68560496.402008057 0 0 0 0 3000817.8074035645 2814166.1435089111 0 2814166.1435089111 7139094.1884584427 0 0 0 0 31752.907663622173 1079494.1344089741 0 1079494.1344089741 3124934.9906026092 0 0 0 0 -143178467.69356593 -214627477.4282558 0 -214627477.4282558 -48878205.731632233 0 0 0 0 -243105531.44027925 4410625.5949335098 0 4410625.5949335098 73894748.643865585 0 0 0 0 -107674809.54325128 12417509.091781616 0 12417509.091781616 -60381934.407193065 0 0 0 0 -141362716.90167883 -19566472.727813721 0 -19566472.727813721 202159813.16979218 0 0 0 0 -34281136.108929157 108676249.27382565 0 108676249.27382565 316297182.6564827 0 0 0 0 -31556689.021103501 -101487926.80012894 0 -101487926.80012894 330147214.45094049 0 0 0 0 -53868888.645183325 41204325.127496719 0 41204325.127496719 145234050.99476433 0 0 0 0 232553555.85661697 -87962138.310145378 0 -87962138.310145378 107225999.97512436 0 0 0 0 -41792341.647772908 -34498621.136274338 0 -34498621.136274338 90481768.941165924 0 0 0 0 -174116581.9811379 -126813018.40042353 0 -126813018.40042353 183035337.18409348 0 0 0 0 134467911.77602959 26796048.26697731 0 26796048.26697731 510804458.72417009 0 0 0 0 476672096.55416209 399987417.64562702 0 399987417.64562702 485833812.98780251 0 0 0 0 175816769.89000392 111665259.25637817 0 111665259.25637817 319668646.95427132 0 0 0 0 188741337.4467299 182963675.2731576 0 182963675.2731576 419784591.50780106 0 0 0 0 240882291.48616266 -30757913.202628136 0 -30757913.202628136 253226870.91775513 0 0 0 0 172914567.55853331 -30169624.269638062 0 -30169624.269638062 -94071873.523607254 0 0 0 0 285906628.76550221 39859435.48463726 0 39859435.48463726 65055522.444892883 0 0 0 0 98288823.199966669 13941530.527010918 0 13941530.527010918 74823024.935049057 0 0 0 0 -63133624.593674183 -170323447.01103687 0 -170323447.01103687 40912657.052635193 0 0 0 0 -72890047.086068273 -40143279.418050766 0 -40143279.418050766 149340638.84772873 0 0 0 0 -61561078.547283411 -67131881.519622803 0 -67131881.519622803 -68710533.232275009 0 0 0 0 133018834.8153775 -64523118.987083197 0 -64523118.987083197 -97504336.467647552 0 0 0 0 -99416852.65659678 -22212733.844222069 0 -22212733.844222069 -109186334.55653763 0 0 0 0 -208695357.87096083 -232935624.42090988 0 -232935624.42090988 -299711749.11547852 0 0 0 0 -259260514.44060281 -41045867.54357481 0 -41045867.54357481 -13426474.036922455 0 0 0 0 -105603.18020567892 -44263.476578142028 0 -44263.476578142028 -36203.484991138335 0 0 0 0 -51649.148889994816 3799156.8591727056 0 3799156.8591727056 1617241.0850959122 0 0 0 0 1859037.5187389851 11046405.96195507 0 11046405.96195507 3149702.5494041443 0 0 0 0 -158104112.2778976 -32178406.864752769 0 -32178406.864752769 -8699080.9932785034 0 0 0 0 -4559643.9136838913 -71123258.604383469 0 -71123258.604383469 -174600988.26704788 0 0 0 0 28693713.118198872 -120565988.02404976 0 -120565988.02404976 -122733205.05897331 0 0 0 0 -110741285.0979594 -127949629.43936634 0 -127949629.43936634 -90420946.153486252 0 0 0 0 94025174.294065952 -8936331.57918787 0 -8936331.57918787 -86432107.007972717 0 0 0 0 30865635.173167825 -56620459.72140789 0 -56620459.72140789 -98117959.099737406 0 0 0 0 85134157.929239273 123165.4960360527 0 123165.4960360527 -78936000.01442337 0 0 0 0 394521.37559187412 -4255167.1678886414 0 -4255167.1678886414 -32710317.330924988 0 0 0 0 4246076.9419400692 -1048967.4961233139 0 -1048967.4961233139 -78937811.303269684 0 0 0 0 4664345.1711966097 4076163.3702301979 0 4076163.3702301979 5583794.0669746399 0 0 0 0 -738439.11736879568 5612919.0313632982 0 5612919.0313632982 1807166.8525871262 0 0 0 0 -19048912.888396144 -30091222.632121086 0 -30091222.632121086 -48243603.688619137 0 0 0 0 3166395.9586589336 4704065.4181346893 0 4704065.4181346893 6404064.4925346375 0 0 0 0 4783645.1713798046 5017526.6476516724 0 5017526.6476516724 4587358.6963653564 0 0 0 0 -7951742.3384385109 -41451193.804523468 0 -41451193.804523468 -43080539.459611893 0 0 0 0 5036668.4777565002 3876860.9999217987 0 3876860.9999217987 5641249.1032066345 0 0 0 0 8023005.7601174116 6980484.6130142212 0 6980484.6130142212 4848556.9738693237 0 0 0 0 6250758.877431035 3801291.0382843018 0 3801291.0382843018 5376941.665512085 0 0 0 0 4413146.7420239449 9500989.1238098145 0 9500989.1238098145 4588083.4604568481 0 0 0 0 5164325.2341837883 16030418.936325073 0 16030418.936325073 7165602.8155338764 0 0 0 0 14878486.577072144 8635173.3566474915 0 8635173.3566474915 4083101.2730922699 0 0 0 0 4929265.0476064682 10396983.739875793 0 10396983.739875793 5113288.0200691223 0 0 0 0 -599159.42043495178 12758318.593191147 0 12758318.593191147 4430617.2115058899 0 0 0 0 -130634.08681869507 7212417.5710830688 0 7212417.5710830688 5642490.8791847229 0 0 0 0 3873709.5525715351 13807697.179746628 0 13807697.179746628 1046735.365776062 0 0 0 0 5652887.6881904602 15421345.829551697 0 15421345.829551697 4509314.6333503723 0 0 0 0 3294594.4266147614 13092903.870147705 0 13092903.870147705 3395967.9634780884 0 0 0 0 1554513.6869974136 15186381.728700638 0 15186381.728700638 7207256.2169876099 0 0 0 0 2074286.4185266495 2946433.7520675659 0 2946433.7520675659 9147504.2103347778 0 0 0 0 -5216788.178027153 6111983.1767997742 0 6111983.1767997742 12184132.09979248 0 0 0 0 3225326.00897789 4077987.6382293701 0 4077987.6382293701 9692320.2114868164 0 0 0 0 -4506847.5455900431 12350852.441374063 0 12350852.441374063 8170048.0835494995 0 0 0 0 -636597.54998016357 14154069.008441925 0 14154069.008441925 6760277.7287216187 0 0 0 0 2114248.9644985199 9597537.0912971497 0 9597537.0912971497 9193962.1570091248 0 0 0 0 3304065.5097312927 13332895.084960938 0 13332895.084960938 5766424.1823196411 0 0 0 0 4434511.8033466339 9307970.2247772217 0 9307970.2247772217 5466285.2406539917 0 0 0 0 1860755.9822397232 11283049.572490692 0 11283049.572490692 4080220.3606834412 0 0 0 0 3828022.3205909729 7041493.3263568878 0 7041493.3263568878 6606854.5602698326 0 0 0 0 3540479.900690794 7911510.4635009766 0 7911510.4635009766 4055032.5343017578 0 0 0 0 6932102.7112951279 5627445.5722389221 0 5627445.5722389221 5960167.4436531067 0 0 0 0 2264785.8841400146 8290828.0436592102 0 8290828.0436592102 6291624.9089736938 0 0 0 0 3343849.4598302841 5687419.5249505043 0 5687419.5249505043 5444292.0792427063 0 0 0 0 4634713.7981519699 7749229.4392490387 0 7749229.4392490387 5640705.1598167419 0 0 0 0 4868191.3841714859 7135126.9891376495 0 7135126.9891376495 4491976.7941703796 0 0 0 0 -552884.19201923115 468450.95644176123 0 468450.95644176123 939411.07211766392 0 0 0 0 230259.01813626289 3860473.1390914917 0 3860473.1390914917 6910895.4694256783 0 0 0 0 4683143.6999435425 8499079.6418399811 0 8499079.6418399811 2674390.6106414795 0 0 0 0 4078419.1169919968 10632111.498023987 0 10632111.498023987 572257.26516485214 0 0 0 0 3546975.2234678268 5363015.2256660461 0 5363015.2256660461 4936029.5278844833 0 0 0 0 -2499517.1640236378 -15765563.930620193 0 -15765563.930620193 10723966.306922913 0 0 0 0 -142189.68236738211 147525.12061157078 0 147525.12061157078 907737.40434326278 0 0 0 0 1813832.2207994461 5638575.7833976746 0 5638575.7833976746 5023985.1830434799 0 0 0 0 -14837135.00794971 -12492839.953290939 0 -12492839.953290939 -1363881.9531898499 0 0 0 0 -904048.37020513485 -729772.10120606516 0 -729772.10120606516 1716560.7071585022 0 0 0 0 -16615446.20176053 2423523.352935791 0 2423523.352935791 11671502.697422028 0 0 0 0 -62363313.311067939 110079483.25399733 0 110079483.25399733 -63050407.27369976 0 0 0 0 -1732017.7353643286 -429078.82028394006 0 -429078.82028394006 5173019.9797083586 0 0 0 0 357661.7423832377 4887299.800967494 0 4887299.800967494 9594989.3897038549 0 0 0 0 15237729.033126652 17015108.599614143 0 17015108.599614143 -49769195.255943298 0 0 0 0 -9266539.3210989237 31035755.468857288 0 31035755.468857288 -57711916.151574135 0 0 0 0 76306216.613103271 14978855.126918793 0 14978855.126918793 -66768837.750469208 0 0 0 0 49177563.17821002 48903738.217960835 0 48903738.217960835 -85063002.061956406 0 0 0 0 65660024.954280853 89546192.058962822 0 89546192.058962822 -92604118.71436739 0 0 0 0 -71377335.692673564 -1286815.8665466309 0 -1286815.8665466309 90828204.760044098 0 0 0 0 103833858.44353414 -78451.140429496765 0 -78451.140429496765 133381171.7695899 0 0 0 0 136079128.62121204 107089523.60051692 0 107089523.60051692 55445693.539896011 0 0 0 0 -7784499.8941817284 -107621454.08962631 0 -107621454.08962631 352432494.98692417 0 0 0 0 31323249.93485263 143339940.68516588 0 143339940.68516588 293872075.93485451 0 0 0 0 166362229.97620058 793340.47761106491 0 793340.47761106491 434907542.6753273 0 0 0 0 -53192823.34602654 -213259695.30675507 0 -213259695.30675507 147786787.14883804 0 0 0 0 -58342834.044193268 11393752.441036224 0 11393752.441036224 38716720.847175598 0 0 0 0 -83168.297260302061 3564897.2472580886 0 3564897.2472580886 10101942.07132327 0 0 0 0 -162892863.54185066 186240135.35987425 0 186240135.35987425 46901481.699979782 0 0 0 0 16403945.669103861 -47685371.971162319 0 -47685371.971162319 58602853.613162994 0 0 0 0 -84746.185187164694 -163410.81805709377 0 -163410.81805709377 340033.02312929928 0 0 0 0 -8876236.2940545082 18454861.372108459 0 18454861.372108459 82413772.987426758 0 0 0 0 -6399918.4608187675 -2416426.19389534 0 -2416426.19389534 2782385.3749542236 0 0 0 0 2066527.647400856 41212810.754070282 0 41212810.754070282 -3644400.0252199173 0 0 0 0 6311632.565115124 13186484.749134541 0 13186484.749134541 -1331769.511756897 0 0 0 0 -6413617.5201981068 6325877.4582042694 0 6325877.4582042694 -12876873.082389832 0 0 0 0 -35901782.558787346 35366371.68009758 0 35366371.68009758 4701041.0647964478 0 0 0 0 -168697.50136607391 102363.99193557072 0 102363.99193557072 369619.85384462681 0 0 0 0 -104306284.55714571 -167647729.87513924 0 -167647729.87513924 353545775.03711319 0 0 0 0 16612622.925172448 -1503372.0834083557 0 -1503372.0834083557 13190781.257858276 0 0 0 0 -523129.79714839841 2553808.0121683301 0 2553808.0121683301 9694393.2543390393 0 0 0 0 -107890702.46759799 -268925920.68795681 0 -268925920.68795681 480054105.00083923 0 0 0 0 -100971541.15603709 -288482617.20200348 0 -288482617.20200348 508865114.85161972 0 0 0 0 47148827.575815082 -193965940.79699707 0 -193965940.79699707 234229417.70339203 0 0 0 0 398862430.31797814 -580431521.28199768 0 -580431521.28199768 305296273.33307362 0 0 0 0 46647576.61661838 -309505622.17682838 0 -309505622.17682838 690243604.74289703 0 0 0 0 12085586.094414651 -392227211.98865604 0 -392227211.98865604 555844915.1293869 0 0 0 0 289452829.44284815 -369876174.58332062 0 -369876174.58332062 597993303.96845436 0 0 0 0 -122941314.36437264 -281559489.01504135 0 -281559489.01504135 568106754.2665596 0 0 0 0 -87694488.792157769 -332333324.08978844 0 -332333324.08978844 537830319.73450089 0 0 0 0 -49680569.908035398 -310222637.51735687 0 -310222637.51735687 447069521.34085846 0 0 0 0 -115624527.23803061 -315181864.84400749 0 -315181864.84400749 665336588.839571 0 0 0 0 67566494.383016169 -350812654.60120964 0 -350812654.60120964 575514329.97379684 0 0 0 0 97514011.846652031 -293669620.08892918 0 -293669620.08892918 677247744.32997894 0 0 0 0 1641096.5571213532 3256946.1852499042 0 3256946.1852499042 4889523.0803237017 0 0 0 0 274771560.04026443 -395812223.473773 0 -395812223.473773 686263653.61316299 0 0 0 0 240771425.8862783 -308291401.7888298 0 -308291401.7888298 633475907.89603043 0 0 0 0 213893355.2493892 -361262909.725811 0 -361262909.725811 774309813.05218887 0 0 0 0 105768169.4114483 -289852666.08191395 0 -289852666.08191395 851590111.19777107 0 0 0 0 287147146.88991618 -359646091.11102009 0 -359646091.11102009 780557729.27252769 0 0 0 0 411869026.72963792 -693575914.72405005 0 -693575914.72405005 836714664.5480957 0 0 0 0 746144187.44857144 -890248575.76131439 0 -890248575.76131439 914683287.77901936 0 0 0 0 273736.89828216151 374049.53405097872 0 374049.53405097872 -263993.30776503123 0 0 0 0 245095828.51063207 -350166738.3132267 0 -350166738.3132267 949040419.04376221 0 0 0 0 282539354.64396882 -413631816.98737907 0 -413631816.98737907 617464723.08048248 0 0 0 0 -8546993.5018153191 -64263876.867595673 0 -64263876.867595673 923801946.56347084 0 0 0 0 -96509189.614762068 -138307682.96790791 0 -138307682.96790791 381629510.8250103 0 0 0 0 -98784631.195422828 -130655901.54154587 0 -130655901.54154587 592812069.37569046 0 0 0 0 -121857084.26460338 -312690096.38488102 0 -312690096.38488102 585421547.76933372 0 0 0 0 -111582238.06938457 -301768613.78959846 0 -301768613.78959846 498986947.76806831 0 0 0 0 -119188714.25220132 -304584676.47881889 0 -304584676.47881889 533562285.39340973 0 0 0 0 -114121431.33897722 -288179161.36976242 0 -288179161.36976242 515878760.82525635 0 0 0 0 -183213007.59028745 -157288530.12277794 0 -157288530.12277794 462544049.53256375 0 0 0 0 83689869.800770879 -208977424.61822414 0 -208977424.61822414 465453017.11160278 0 0 0 0 -452354178.63683993 128137819.2504531 0 128137819.2504531 911847535.24393463 0 0 0 0 -129588.05796410501 827628.82854854641 0 827628.82854854641 2004511.2460369654 0 0 0 0 -194320002.99342501 -328780068.42208576 0 -328780068.42208576 495677221.72323227 0 0 0 0 305838575.04946953 -762687500.25590706 0 -762687500.25590706 1041350041.5898182 0 0 0 0 -118203.09726798485 387313.84478409449 0 387313.84478409449 1094654.6052760324 0 0 0 0 148010603.83774903 -882090509.53145909 0 -882090509.53145909 2601302244.1817951 0 0 0 0 -580671595.74500024 -360922899.80665195 0 -360922899.80665195 2204881782.1577349 0 0 0 0 8375807.4226862937 -101070714.25345564 0 -101070714.25345564 1426518634.9473438 0 0 0 0 18179182.70051071 -6915535.4372024536 0 -6915535.4372024536 997321662.82039738 0 0 0 0 197049167.60963368 -367549953.65884209 0 -367549953.65884209 1151949847.4518108 0 0 0 0 180485955.73692384 -304905565.75895119 0 -304905565.75895119 760317299.95396805 0 0 0 0 74926945.981013477 -253724034.1975956 0 -253724034.1975956 746134783.39654922 0 0 0 0 197081177.76253134 -283340230.71712875 0 -283340230.71712875 754329383.52191162 0 0 0 0 -44684143.806711495 -121320312.42041397 0 -121320312.42041397 771268825.48339081 0 0 0 0 -15736290.621167719 -109524762.59647465 0 -109524762.59647465 21844445.738451004 0 0 0 0 82677353.508220851 -202221751.01190186 0 -202221751.01190186 564076474.85765624 0 0 0 0 41723501.758354157 -30776616.981409073 0 -30776616.981409073 544960460.18620491 0 0 0 0 -311539763.95474827 521096917.74875045 0 521096917.74875045 1340185835.6754112 0 0 0 0 -268928219.06526369 671481757.89813137 0 671481757.89813137 244067139.41531634 0 0 0 0 479625143.30866653 125958020.88405609 0 125958020.88405609 2205605037.6579542 0 0 0 0 -324602823.50836253 65257228.303337097 0 65257228.303337097 2209677208.6274242 0 0 0 0 -239838952.99297357 -13805987.06383276 0 -13805987.06383276 1399910930.8856831 0 0 0 0 -197529086.51151344 -379545730.85594082 0 -379545730.85594082 2205008398.9717579 0 0 0 0 251215415.45118964 -431934244.52330208 0 -431934244.52330208 836800170.41586304 0 0 0 0 169926491.85287148 -295093300.58187675 0 -295093300.58187675 1003886421.3900404 0 0 0 0 584159.92953377287 2957856.6433408754 0 2957856.6433408754 5283874.7578270286 0 0 0 0 237292577.98850915 -624724417.75490522 0 -624724417.75490522 1221134488.6581068 0 0 0 0 463617185.79828393 -1096160043.3330927 0 -1096160043.3330927 2201186586.3696909 0 0 0 0 888214.34766316332 2545396.7052322738 0 2545396.7052322738 -539748.06823396683 0 0 0 0 218283236.98384786 58848643.08543396 0 58848643.08543396 -29835101.757839203 0 0 0 0 2179022.0978353149 1484407.2312828042 0 1484407.2312828042 445792.10777895153 0 0 0 0 -371225332.41832298 385780839.16150284 0 385780839.16150284 2201509895.4242363 0 0 0 0 158613166.90694147 184398898.89660263 0 184398898.89660263 820744565.81550598 0 0 0 0 3102164.7548330091 1127825853.5840034 0 1127825853.5840034 1010552497.1495895 0 0 0 0 -103556.87748886185 510308.15956457262 0 510308.15956457262 -94285.62714346312 0 0 0 0 -136026202.56472564 -146959274.2258606 0 -146959274.2258606 510506850.85995865 0 0 0 0 -140068642.37102818 -12100236.555616379 0 -12100236.555616379 82468921.525428772 0 0 0 0 -551195.94787106686 3210249.7539700419 0 3210249.7539700419 1024471.5256011989 0 0 0 0 20618349.797049999 -19157778.9445467 0 -19157778.9445467 22466262.247261047 0 0 0 0 -508316.02244819142 864978.68034460396 0 864978.68034460396 3799358.1971613122 0 0 0 0 -705171.92626130581 3895916.8954563141 0 3895916.8954563141 -436459.93963623047 0 0 0 0 -171187.30713315308 4292366.5038671494 0 4292366.5038671494 -1118824.2062149048 0 0 0 0 1229026.5257996023 1833978.3771572113 0 1833978.3771572113 -1607919.7691345215 0 0 0 0 -572295.45715090528 2011292.126745651 0 2011292.126745651 1341028.1757886931 0 0 0 0 142787.6250127852 1074333.3071327209 0 1074333.3071327209 -665610.1745929718 0 0 0 0 -202320.06993436813 1455774.3490791321 0 1455774.3490791321 -968490.66365814209 0 0 0 0 -4590375.7031362057 3271415.9423370361 0 3271415.9423370361 -4858454.2448101044 0 0 0 0 -53428.142835557461 1199634.6067609787 0 1199634.6067609787 -5412291.8232383728 0 0 0 0 450533.93914903625 462127.92584963515 0 462127.92584963515 -758195.96132937819 0 0 0 0 19281273.023708344 21569749.318754196 0 21569749.318754196 -11162514.469760895 0 0 0 0 -5595178.8456594199 20531973.632890463 0 20531973.632890463 -7428610.2050476074 0 0 0 0 28592895.597198725 -6888225.0118942261 0 -6888225.0118942261 -10709929.369880676 0 0 0 0 6271016.5216639042 18795332.383495331 0 18795332.383495331 -21036708.216236115 0 0 0 0 -8120548.7506393194 5321702.0356731415 0 5321702.0356731415 332572.68713378906 0 0 0 0 -1399876.9137580395 5496500.6771011353 0 5496500.6771011353 -3848126.2053222656 0 0 0 0 6354105.2776260376 5186926.848526001 0 5186926.848526001 -16542662.97964859 0 0 0 0 1546374.7520044635 1546238.0651715305 0 1546238.0651715305 -2540758.0019992776 0 0 0 0 -159191227.54143357 -114355169.52038956 0 -114355169.52038956 1559500338.0963001 0 0 0 0 68860929.951465368 -120935990.28123856 0 -120935990.28123856 741222685.38493347 0 0 0 0 -59023839.340287745 285780445.14355898 0 285780445.14355898 1218540639.8662109 0 0 0 0 -336296.14781638281 -4607.2863169386983 0 -4607.2863169386983 553129.51289048837 0 0 0 0 -309696497.78983891 659374762.92659378 0 659374762.92659378 1640571361.3353767 0 0 0 0 -372802917.48909879 298444991.92024803 0 298444991.92024803 1942052128.1540146 0 0 0 0 -533433648.72635102 893836984.66766548 0 893836984.66766548 2201136779.5717735 0 0 0 0 -89554346.583576649 545244911.43110466 0 545244911.43110466 800066166.41593933 0 0 0 0 -83087108.268191263 620566092.61040497 0 620566092.61040497 1157526401.8246307 0 0 0 0 -99946925.59879069 114319062.31488037 0 114319062.31488037 939762688.13317108 0 0 0 0 -11658764.330894679 338213427.94300842 0 338213427.94300842 720881429.74599457 0 0 0 0 36338860.648639947 86146015.237869263 0 86146015.237869263 289991612.53096008 0 0 0 0 164554156.68473053 -79417468.849550247 0 -79417468.849550247 66094431.452602386 0 0 0 0 423667111.35110867 492215281.93667603 0 492215281.93667603 555367899.83528709 0 0 0 0 712714886.80955374 1415769037.8732376 0 1415769037.8732376 1198495642.8670578 0 0 0 0 859968740.5027597 574820307.05354404 0 574820307.05354404 -281129594.19950485 0 0 0 0 990590.71293856145 469497.02396624256 0 469497.02396624256 83228.986671370454 0 0 0 0 4492831.62822791 -623906130.54683304 0 -623906130.54683304 2204686146.4725866 0 0 0 0 -30743908.108269904 -420950220.06829453 0 -420950220.06829453 1038630809.9252472 0 0 0 0 -139260034.30602694 104928359.8333416 0 104928359.8333416 -69077693.742452621 0 0 0 0 -146651748.3541894 58077937.782876968 0 58077937.782876968 174343647.98957443 0 0 0 0 8227121.7210481167 -140262549.0287323 0 -140262549.0287323 153316911.287642 0 0 0 0 -106909107.27326632 -7810364.2097301483 0 -7810364.2097301483 6289441.9681243896 0 0 0 0 -44271403.073671341 -45050127.741392136 0 -45050127.741392136 -46860725.184818268 0 0 0 0 2606259.6479110718 -85428438.487976074 0 -85428438.487976074 -12105442.334991455 0 0 0 0 -266501.39072777278 -232639.22766868956 0 -232639.22766868956 -5678.1791421175003 0 0 0 0 63490193.939319611 -42672055.846942902 0 -42672055.846942902 -324935741.72711563 0 0 0 0 -7453905.2300519943 -35891728.017734528 0 -35891728.017734528 -103391423.33382416 0 0 0 0 17905403.221177459 -7787509.4829900265 0 -7787509.4829900265 34950911.795372009 0 0 0 0 9893906.9353955984 -141710863.92992401 0 -141710863.92992401 31662598.601554871 0 0 0 0 113580306.19211119 -17788280.897369385 0 -17788280.897369385 85412945.790084839 0 0 0 0 3634770.4680290818 36709630.042884827 0 36709630.042884827 335679568.69061279 0 0 0 0 97827143.964853168 -79882634.269191742 0 -79882634.269191742 323796113.46932411 0 0 0 0 -37308354.888627991 223586806.90776467 0 223586806.90776467 51814677.890144348 0 0 0 0 20137747.782686055 -96579218.023326874 0 -96579218.023326874 124110048.97640991 0 0 0 0 -37382025.405268431 -113138191.14746475 0 -113138191.14746475 -69866678.155231476 0 0 0 0 -17451591.550854445 -104424170.0495491 0 -104424170.0495491 -6667373.8298535347 0 0 0 0 -151074.25337197917 69036.241014382802 0 69036.241014382802 74205.430725507438 0 0 0 0 79966244.731775105 325460114.36418009 0 325460114.36418009 -66877324.226268768 0 0 0 0 91012171.633345246 48483183.399456024 0 48483183.399456024 -129866392.25159454 0 0 0 0 4982818.1268917322 29743387.509357452 0 29743387.509357452 -13433428.462638855 0 0 0 0 43575398.041826606 -251930449.48914337 0 -251930449.48914337 -137353115.36771774 0 0 0 0 36174098.670147419 -19975296.480834961 0 -19975296.480834961 56976278.18019104 0 0 0 0 206129307.84264112 -129271572.94721603 0 -129271572.94721603 73594426.163955688 0 0 0 0 -23338535.402288318 62992585.879183769 0 62992585.879183769 653900115.47948456 0 0 0 0 14932691.078300789 -2021341.0502961874 0 -2021341.0502961874 20653684.347457886 0 0 0 0 16185570.043563485 -15555651.89935112 0 -15555651.89935112 27555033.621711731 0 0 0 0 108463473.10655674 33786118.486591101 0 33786118.486591101 13168328.69203186 0 0 0 0 86300469.608409375 -73975896.312563419 0 -73975896.312563419 -30368033.212837219 0 0 0 0 -11976728.999983326 -25491092.205230713 0 -25491092.205230713 19561353.129241943 0 0 0 0 -125289560.24684124 -52105717.255432129 0 -52105717.255432129 40147848.083679199 0 0 0 0 -17879720.595910668 -34931173.767887115 0 -34931173.767887115 23577714.86746788 0 0 0 0 -35647819.123814076 -5042623.7515449524 0 -5042623.7515449524 30114429.409191132 0 0 0 0 -15552208.244262293 845556.64359664917 0 845556.64359664917 6477595.3833312988 0 0 0 0 -91656052.675856233 55548898.559489727 0 55548898.559489727 -26972423.48059082 0 0 0 0 -24307625.434939712 6590813.6767730713 0 6590813.6767730713 8308245.5565414429 0 0 0 0 -19841669.212071687 12645472.163528442 0 12645472.163528442 -5947692.8362808228 0 0 0 0 -1041654.2375630639 -443302.11528468411 0 -443302.11528468411 267605.583738368 0 0 0 0 -328793.05168098863 512223.53893895494 0 512223.53893895494 481548.65263513103 0 0 0 0 -18480730.067572951 5128229.5091667175 0 5128229.5091667175 1972470.4972801208 0 0 0 0 -20742459.926366895 5922852.9866790771 0 5922852.9866790771 8264934.1884613037 0 0 0 0 -7970956.8580055833 -23789730.310750961 0 -23789730.310750961 16040103.795829773 0 0 0 0 -112373.94506875804 179432.58416818455 0 179432.58416818455 174964.35817595199 0 0 0 0 28999262.270224601 44792341.143752575 0 44792341.143752575 53505863.684520721 0 0 0 0 -10810021.614285788 11194894.779602051 0 11194894.779602051 39595406.765670776 0 0 0 0 -6275248.0623152927 25638007.149230957 0 25638007.149230957 78209636.101389885 0 0 0 0 -18374744.684111834 -20990043.150818825 0 -20990043.150818825 32970591.391387939 0 0 0 0 -23189729.153161593 -18760125.629238129 0 -18760125.629238129 68955896.995925903 0 0 0 0 -15977802.583424851 -14564017.855672359 0 -14564017.855672359 30072000.748207092 0 0 0 0 -17839719.181638539 -8510745.2918338776 0 -8510745.2918338776 60697945.893543243 0 0 0 0 -4035133.2762904167 548056.27340698242 0 548056.27340698242 33321674.331245422 0 0 0 0 -7818767.4603005648 407700.82112121582 0 407700.82112121582 39012781.558944702 0 0 0 0 -666592.29935777187 -1340584.430721283 0 -1340584.430721283 38231229.55377388 0 0 0 0 4137580.437194109 338515.71461486816 0 338515.71461486816 23204498.253955841 0 0 0 0 22381665.777648032 1238230.5683221817 0 1238230.5683221817 -3367750.0818061829 0 0 0 0 218256.49593959935 -47458.761571069248 0 -47458.761571069248 -145775.53343470953 0 0 0 0 -7562239.0699026585 14678629.383563995 0 14678629.383563995 106093356.68033028 0 0 0 0 -25760952.591385841 10640092.490062714 0 10640092.490062714 127565014.47011948 0 0 0 0 40063174.6299088 37759182.742685318 0 37759182.742685318 35362224.058532715 0 0 0 0 28165436.821918607 3689268.0815093517 0 3689268.0815093517 -311544.72233581543 0 0 0 0 33379853.410573244 38109816.794799805 0 38109816.794799805 18990607.427097321 0 0 0 0 14166086.873094797 18509656.650352478 0 18509656.650352478 -11668271.756362915 0 0 0 0 14090137.084084511 -1745553.1856460571 0 -1745553.1856460571 -5631020.505086422 0 0 0 0 -264888.51244652271 -3374841.3989849091 0 -3374841.3989849091 3293589.5551681519 0 0 0 0 -1989257.1186571121 413473.97388648987 0 413473.97388648987 -1101131.0486896038 0 0 0 0 410210.386310737 93278.773055726662 0 93278.773055726662 -249249.58918274473 0 0 0 0 -648275.39218640327 2000127.9418926239 0 2000127.9418926239 -742050.27355003357 0 0 0 0 6937669.40254879 13632149.128131866 0 13632149.128131866 15725359.753795624 0 0 0 0 1843975.0462188423 7310243.4129767418 0 7310243.4129767418 20568171.703117371 0 0 0 0 -614180.81342530251 21463417.100151062 0 21463417.100151062 57330088.84919548 0 0 0 0 -4923936.5084471107 10268618.231649399 0 10268618.231649399 62641601.821788788 0 0 0 0 -9734534.1730748415 -1413256.6236820221 0 -1413256.6236820221 31134684.094057083 0 0 0 0 -10357110.426888108 6486151.7985229492 0 6486151.7985229492 79384896.156452179 0 0 0 0 15334154.957664013 -9707392.6747589111 0 -9707392.6747589111 -9969775.7487354279 0 0 0 0 4777303.7032625675 7724179.7089653015 0 7724179.7089653015 24687098.461553574 0 0 0 0 8375887.6139752269 7047589.519908905 0 7047589.519908905 24536284.979499817 0 0 0 0 29327169.527705193 47251613.967674255 0 47251613.967674255 62865051.142837524 0 0 0 0 -1877032.2455322742 12254752.980548859 0 12254752.980548859 25094538.334529877 0 0 0 0 -31788747.319049358 44693370.530778885 0 44693370.530778885 27147645.122840881 0 0 0 0 -9807753.7081632614 -19757791.215221405 0 -19757791.215221405 8146945.969376564 0 0 0 0 53709699.030176997 4125251.0151872635 0 4125251.0151872635 14239900.645126343 0 0 0 0 -13764530.859144688 -9866556.4109554291 0 -9866556.4109554291 10721712.657966614 0 0 0 0 -291886.25243543321 -214928.2524295263 0 -214928.2524295263 1461735.0525676361 0 0 0 0 24300831.904466391 -29400420.830673218 0 -29400420.830673218 -5479459.3159713745 0 0 0 0 -108850.31973954238 -26019.029018621892 0 -26019.029018621892 162797.29699887708 0 0 0 0 2695104.1110379696 18093193.23192215 0 18093193.23192215 31616905.564488411 0 0 0 0 221435.14734077454 -40560103.879798889 0 -40560103.879798889 -4559965.0901641846 0 0 0 0 -3690296.0596699715 9148076.9599571228 0 9148076.9599571228 35900476.044101715 0 0 0 0 -11305679.53745231 -779341.32124233246 0 -779341.32124233246 25431634.100730896 0 0 0 0 9328887.8126502931 3481517.0552091599 0 3481517.0552091599 -3557142.8921318054 0 0 0 0 -151785.71643932752 -308201.21110682748 0 -308201.21110682748 807608.27015899494 0 0 0 0 232981.17467997968 419499.56172466278 0 419499.56172466278 15569808.86895752 0 0 0 0 -3882593.8499182463 -3097803.7458896637 0 -3097803.7458896637 15322941.709364653 0 0 0 0 159235.11796012521 594351.24716234207 0 594351.24716234207 9552250.4938850403 0 0 0 0 -1226108.0333385468 -2694354.389547348 0 -2694354.389547348 14902909.141591549 0 0 0 0 137494.95713970921 -188555.00312888995 0 -188555.00312888995 -67629.780136073008 0 0 0 0 341455.71678213775 1182315.6731669903 0 1182315.6731669903 6821563.7330055237 0 0 0 0 -1791079.910292387 3661554.2275810242 0 3661554.2275810242 -2227264.2632360458 0 0 0 0 735166.6589564085 5703804.2650680542 0 5703804.2650680542 -699276.18591308594 0 0 0 0 2232.7137659721193 -9618.5942820105702 0 -9618.5942820105702 -1495.7485831389204 0 0 0 0 -21129526.626032829 -10819347.647628784 0 -10819347.647628784 76500601.735572815 0 0 0 0 -19463994.000379324 -21225764.662866592 0 -21225764.662866592 24922333.851913452 0 0 0 0 -18241413.467862368 -11789175.388528824 0 -11789175.388528824 -7182261.6022205353 0 0 0 0 -266138.8812657175 -51667.017891013995 0 -51667.017891013995 347149.18342888728 0 0 0 0 40708255.905052423 34101100.381676674 0 34101100.381676674 10254658.158081055 0 0 0 0 12254661.97409761 38994216.798557281 0 38994216.798557281 95559667.315879822 0 0 0 0 29925621.989005089 -17780288.496707916 0 -17780288.496707916 -21162092.900337219 0 0 0 0 4552471.6223607063 9576410.6935119629 0 9576410.6935119629 15815467.647127151 0 0 0 0 -7874270.324117735 -1750943.2387290001 0 -1750943.2387290001 26543232.735786438 0 0 0 0 -8791436.7304890752 -5536541.7372455597 0 -5536541.7372455597 17234932.545280457 0 0 0 0 -4993811.3662964106 4058854.2393827438 0 4058854.2393827438 26654313.478187561 0 0 0 0 -7210941.6365597248 2547255.1005859375 0 2547255.1005859375 35834276.610485077 0 0 0 0 -6451764.0853725951 3945672.428319931 0 3945672.428319931 21447673.869991302 0 0 0 0 -16213.147198913983 -138698.69392752089 0 -138698.69392752089 129613.06914678914 0 0 0 0 -7804368.9472665191 -1919530.3607559204 0 -1919530.3607559204 24458550.73506546 0 0 0 0 -2174264.2315581534 67564.596929550171 0 67564.596929550171 23861464.523693085 0 0 0 0 965441.23143847287 760571.43841552734 0 760571.43841552734 19517983.649841309 0 0 0 0 -61436.097280529997 -282445.8968483638 0 -282445.8968483638 410264.13747274852 0 0 0 0 24278710.816310138 -638816.37901306152 0 -638816.37901306152 -216910.2991065979 0 0 0 0 -1324017.8763484359 -667553.68671035767 0 -667553.68671035767 20192239.042478085 0 0 0 0 153351.82606104825 -180219.9516692739 0 -180219.9516692739 -105800.06487148441 0 0 0 0 559545.53850424662 -306679.01093387604 0 -306679.01093387604 13186036.407878876 0 0 0 0 5142288.3446198851 2316419.3066730499 0 2316419.3066730499 -5662087.1155319214 0 0 0 0 -3539254.2246345282 -172494.80918502808 0 -172494.80918502808 6764044.1016693115 0 0 0 0 -1720810.168193236 -2273150.4743614197 0 -2273150.4743614197 4130227.6981811523 0 0 0 0 698358.85733115673 -3610034.0730209351 0 -3610034.0730209351 18065102.324284554 0 0 0 0 -1464078.8756117821 -4303277.3176374435 0 -4303277.3176374435 25269543.804706573 0 0 0 0 80851.651716034336 -92874.206904648803 0 -92874.206904648803 -63298.42189866025 0 0 0 0 616019.95113962889 310607.81388282776 0 310607.81388282776 -4121842.15259552 0 0 0 0 -4996559.8330445886 -5071916.7728385925 0 -5071916.7728385925 -2702933.3780584335 0 0 0 0 1061669.6968533993 2387087.1936149597 0 2387087.1936149597 -613290.49282073975 0 0 0 0 -12174786.972507596 -2849089.5944757462 0 -2849089.5944757462 16547153.623218536 0 0 0 0 1160836.4278736711 -1101027.9756569862 0 -1101027.9756569862 7077241.7851448059 0 0 0 0 -9641094.1762839556 -2196582.97123909 0 -2196582.97123909 7113823.9934768677 0 0 0 0 -2545561.5716689508 6353689.5552411079 0 6353689.5552411079 20221572.977050781 0 0 0 0 -1757532.8853789121 -1836248.6183824539 0 -1836248.6183824539 12144319.27897644 0 0 0 0 -78957.862175904243 -218119.51165466197 0 -218119.51165466197 73931.355759745464 0 0 0 0 7171403.2718345225 1156031.5694351196 0 1156031.5694351196 15610418.313989639 0 0 0 0 6317566.0744122267 18336180.971130371 0 18336180.971130371 29416290.120239258 0 0 0 0 4932822.0756923705 2695448.7723999023 0 2695448.7723999023 6644269.7078285217 0 0 0 0 -35885.679054039298 -119067.77064667642 0 -119067.77064667642 40502.734416277148 0 0 0 0 -3726031.6814104319 855588.70558929443 0 855588.70558929443 27292620.589561462 0 0 0 0 7462867.1784738302 -8680213.7130317688 0 -8680213.7130317688 6768293.3159409612 0 0 0 0 -11248039.547358871 -20279735.825962067 0 -20279735.825962067 58899989.476097107 0 0 0 0 14272856.895863771 -2952899.1211929321 0 -2952899.1211929321 9877056.7298927307 0 0 0 0 19536387.692157686 29535556.063274384 0 29535556.063274384 53009832.409202576 0 0 0 0 18409740.883443296 27908488.741382599 0 27908488.741382599 42788446.934812546 0 0 0 0 4660696.4047818035 20604187.183006287 0 20604187.183006287 50201157.037185669 0 0 0 0 14969230.669154659 25708124.527902126 0 25708124.527902126 41404499.120586395 0 0 0 0 6455487.5645750165 22821298.443382263 0 22821298.443382263 45934988.68025589 0 0 0 0 19135132.183796339 15096066.478736877 0 15096066.478736877 39916711.632839203 0 0 0 0 -4304050.0971279889 13102517.839328766 0 13102517.839328766 40674870.745670319 0 0 0 0 1597288.0191355348 7574217.9432106018 0 7574217.9432106018 33382822.433712006 0 0 0 0 14956227.489930391 14600117.584217072 0 14600117.584217072 29004889.798980713 0 0 0 0 5281986.2874460518 18149688.696908951 0 18149688.696908951 65687872.092472076 0 0 0 0 4673007.4326244593 8174640.5947952271 0 8174640.5947952271 40524434.07134819 0 0 0 0 -1487188.2433508635 18200010.590045929 0 18200010.590045929 24229235.301963806 0 0 0 0 323107.58059716225 705066.01123142242 0 705066.01123142242 22896230.923698425 0 0 0 0 -384678.05631148815 26313277.211566925 0 26313277.211566925 49941267.516994476 0 0 0 0 -978771.90829098225 26305383.734661102 0 26305383.734661102 50631717.567920685 0 0 0 0 -1507427.9497044086 22220486.33889389 0 22220486.33889389 26089106.317373276 0 0 0 0 5967868.8975555897 16124856.202091217 0 16124856.202091217 30564463.17993927 0 0 0 0 26854786.925696641 46424046.227230549 0 46424046.227230549 37474223.710647583 0 0 0 0 -7818834.4382185936 46013051.369411469 0 46013051.369411469 64841460.477518082 0 0 0 0 -5328219.6384725571 36865312.093330383 0 36865312.093330383 36427657.439125061 0 0 0 0 12462943.810714245 11897998.307640076 0 11897998.307640076 22065738.727394104 0 0 0 0 1076543.6312932968 30645149.118499756 0 30645149.118499756 42613137.841529846 0 0 0 0 -21048801.979445219 32020754.378860474 0 32020754.378860474 44038638.201301575 0 0 0 0 -110641.92272438313 -20158.606166277081 0 -20158.606166277081 271503.37972051091 0 0 0 0 -5760911.7435477972 78993.647819519043 0 78993.647819519043 -1196616.3256130219 0 0 0 0 9413584.5569519401 21688165.484828949 0 21688165.484828949 34033498.752059937 0 0 0 0 11313143.613046885 19734147.054374695 0 19734147.054374695 34942082.370857239 0 0 0 0 -344593.35820269585 33576179.659683228 0 33576179.659683228 57103630.977676392 0 0 0 0 -4649251.6052232981 2475390.8979759216 0 2475390.8979759216 2044409.9385643005 0 0 0 0 -9155181.8976316452 -14829059.158603668 0 -14829059.158603668 7816408.5526294708 0 0 0 0 2478385.8459512591 3312242.8101043701 0 3312242.8101043701 -1897215.0246047974 0 0 0 0 -62928.210667996696 -3265.476726045832 0 -3265.476726045832 119451.61369821057 0 0 0 0 32280564.23720789 57241502.487686157 0 57241502.487686157 86487462.227645874 0 0 0 0 14727851.733314633 17323220.352798462 0 17323220.352798462 91428146.089923859 0 0 0 0 18261207.804763556 17977484.012081146 0 17977484.012081146 54350964.652606964 0 0 0 0 31704524.29072082 14355252.918764114 0 14355252.918764114 49974970.042228699 0 0 0 0 2723282.5272803307 23497897.490253448 0 23497897.490253448 52054339.149658203 0 0 0 0 32084026.162839949 35359259.269629657 0 35359259.269629657 46150152.31918335 0 0 0 0 3842865.9172868729 28966200.570213318 0 28966200.570213318 76845667.13318634 0 0 0 0 3186465.8300830424 20578329.306900024 0 20578329.306900024 54825847.815101624 0 0 0 0 111552.07588025928 10074688.242323399 0 10074688.242323399 44134771.71660614 0 0 0 0 18225194.920369387 16682012.732395172 0 16682012.732395172 42002823.644706726 0 0 0 0 12838288.303934455 23716697.815864563 0 23716697.815864563 50801886.297211409 0 0 0 0 -4653896.5594764948 16322537.698770523 0 16322537.698770523 43132178.621348381 0 0 0 0 -8940270.7913185358 -1172052.494764328 0 -1172052.494764328 29666146.294403076 0 0 0 0 -5101161.9794826508 11697006.231891632 0 11697006.231891632 44506590.490009308 0 0 0 0 -4266029.0450738817 4905284.7795591354 0 4905284.7795591354 26714834.237884521 0 0 0 0 -6897988.9501690865 5979586.5800170898 0 5979586.5800170898 32270428.65057373 0 0 0 0 -5083991.4004466534 3446464.1035060883 0 3446464.1035060883 26823150.880273104 0 0 0 0 -2742411.8190801144 10943615.589496613 0 10943615.589496613 26955657.907728195 0 0 0 0 -174162.01194310188 10420680.811109543 0 10420680.811109543 20954697.260246277 0 0 0 0 -11324482.935344458 9742514.5416314602 0 9742514.5416314602 45005641.766204834 0 0 0 0 -9587664.0460271835 3622879.3889064789 0 3622879.3889064789 26818673.961990356 0 0 0 0 -7033489.0617289543 6550590.8247966766 0 6550590.8247966766 30070031.25730896 0 0 0 0 -5176862.1597700119 1343912.9398460388 0 1343912.9398460388 11372403.147006989 0 0 0 0 -10772338.789007902 3685114.3828144073 0 3685114.3828144073 26854209.736783028 0 0 0 0 -6541567.8138580322 5155734.5152292252 0 5155734.5152292252 14907051.157279968 0 0 0 0 395761.71658012108 -6724.7444520387799 0 -6724.7444520387799 -7823.1477014729753 0 0 0 0 19420458.458926797 22953304.349874496 0 22953304.349874496 -8463420.7838630676 0 0 0 0 154176.26318771788 -32944.831481786445 0 -32944.831481786445 -17160.309853025712 0 0 0 0 -41229610.018033266 -1293739.1309375763 0 -1293739.1309375763 47285309.024932861 0 0 0 0 -11449609.935517788 13706898.608053207 0 13706898.608053207 24243547.851074219 0 0 0 0 4367116.0041489601 -18791032.683254242 0 -18791032.683254242 66687837.956544876 0 0 0 0 8801695.6887447834 -3970629.5777206421 0 -3970629.5777206421 33296575.267120361 0 0 0 0 -13477477.513191938 -4016395.8124847412 0 -4016395.8124847412 27800070.20218277 0 0 0 0 167364370.53752518 4144719.0569610596 0 4144719.0569610596 30239708.300918579 0 0 0 0 585377.2942020495 63875.157992810011 0 63875.157992810011 16329.430820504203 0 0 0 0 -57980497.894732475 29800885.178417206 0 29800885.178417206 21000914.632393837 0 0 0 0 -12676094.216411605 26510273.186848015 0 26510273.186848015 92004023.678161621 0 0 0 0 60016346.891244888 51448563.537643433 0 51448563.537643433 40620412.992599487 0 0 0 0 -314052.75515898014 -229203.99498463213 0 -229203.99498463213 124923.8831862621 0 0 0 0 122357.26498293877 10888325.428899765 0 10888325.428899765 19039358.17824173 0 0 0 0 10404058.365636349 22345326.975557327 0 22345326.975557327 29857436.848859787 0 0 0 0 -925585.43419158703 -1002628.7072064471 0 -1002628.7072064471 215239.55603631586 0 0 0 0 15344566.620625973 12509329.969892502 0 12509329.969892502 13999952.016143799 0 0 0 0 9862561.8141921759 14440716.802343845 0 14440716.802343845 13900899.934387207 0 0 0 0 2475727.7269806862 6752539.9918556213 0 6752539.9918556213 -39170591.793720245 0 0 0 0 -1964895.5090799332 9626717.6627826691 0 9626717.6627826691 -2722670.7292785645 0 0 0 0 -36620311.938631296 9127672.7277839184 0 9127672.7277839184 42882253.11530304 0 0 0 0 29782529.182240486 102412011.62878799 0 102412011.62878799 86713273.944807053 0 0 0 0 -60994606.949592113 -4663038.768081665 0 -4663038.768081665 181602719.97846985 0 0 0 0 8170015.9324378967 -29796103.393409729 0 -29796103.393409729 49299440.491802216 0 0 0 0 -336936.48740303516 38893898.652982354 0 38893898.652982354 16469175.632213593 0 0 0 0 33678753.958497524 24479109.875328064 0 24479109.875328064 1846025.760641098 0 0 0 0 10504436.150961876 -26444750.321487427 0 -26444750.321487427 -32418502.701894462 0 0 0 0 -11584987.030204237 -138577253.10818696 0 -138577253.10818696 -87128902.227912903 0 0 0 0 -2088332.6302648678 -1505229.4197849343 0 -1505229.4197849343 8388217.8697457192 0 0 0 0 -148413591.26354173 19341212.085223079 0 19341212.085223079 178607154.26821136 0 0 0 0 226175299.90089321 -21504838.367584229 0 -21504838.367584229 -141104797.02802658 0 0 0 0 9910787.7205110118 14319780.384549931 0 14319780.384549931 -640528.94082260132 0 0 0 0 -137474327.15715265 -118984062.84950256 0 -118984062.84950256 21510484.245246887 0 0 0 0 -11605326.248664856 -15797131.079719543 0 -15797131.079719543 -19893984.401689529 0 0 0 0 -2407502.6796462187 -907618.80747702625 0 -907618.80747702625 8864246.5109696258 0 0 0 0 -39905042.538527489 35231081.444091797 0 35231081.444091797 61275713.410362244 0 0 0 0 40852601.422034264 69431958.858295441 0 69431958.858295441 55984132.116241455 0 0 0 0 46372411.038009644 53842780.558855057 0 53842780.558855057 72064258.128311157 0 0 0 0 60030897.771214366 76688860.476573944 0 76688860.476573944 46791622.391601562 0 0 0 0 9660295.6518177986 29102954.707920074 0 29102954.707920074 80321822.156105042 0 0 0 0 73306026.397826195 53180030.329405785 0 53180030.329405785 41192706.38004303 0 0 0 0 -13773073.414331436 8519856.8488960266 0 8519856.8488960266 73991867.434516907 0 0 0 0 -27977849.128210783 33168641.46821022 0 33168641.46821022 34421119.658432007 0 0 0 0 -95180876.057857513 -92770477.050067902 0 -92770477.050067902 141332230.58529663 0 0 0 0 -6925182.8174848557 -225760763.70211029 0 -225760763.70211029 51561776.925233841 0 0 0 0 -189494832.52541065 -84505662.529838562 0 -84505662.529838562 90041539.327087402 0 0 0 0 -160568336.91000938 12068377.85193634 0 12068377.85193634 68310391.348953247 0 0 0 0 296772169.86346054 40044474.063186646 0 40044474.063186646 -11831093.181663513 0 0 0 0 351295.69512256654 26265.399484109133 0 26265.399484109133 1651.7014983212575 0 0 0 0 57987441.435580492 71036537.786382675 0 71036537.786382675 93339003.450569153 0 0 0 0 93237593.825730801 102751483.39992905 0 102751483.39992905 73222961.903244019 0 0 0 0 258484643.07024384 -60180157.633739471 0 -60180157.633739471 -31898967.202575684 0 0 0 0 -142433.29041800986 405038.60602897126 0 405038.60602897126 686109.24192533456 0 0 0 0 84424984.258757591 84432764.965293884 0 84432764.965293884 45635434.7924366 0 0 0 0 7056354.4336338043 -22836001.752418518 0 -22836001.752418518 20307708.281233191 0 0 0 0 -25343486.488744259 -29518141.021564484 0 -29518141.021564484 55895114.1275177 0 0 0 0 72076611.531160355 -35568312.289077759 0 -35568312.289077759 20649973.942755699 0 0 0 0 -8735717.5326538086 -120802462.54862976 0 -120802462.54862976 83997516.257293701 0 0 0 0 -82564225.764246941 -18445686.572227478 0 -18445686.572227478 57876087.348884583 0 0 0 0 4544315.4250309467 -7978817.7179069519 0 -7978817.7179069519 15717333.683189392 0 0 0 0 -4746243.1184911728 -9070922.7004013062 0 -9070922.7004013062 24947805.205780029 0 0 0 0 282176.70953130722 -19526105.539596558 0 -19526105.539596558 26031448.834091187 0 0 0 0 -6515996.9903036356 -6743014.7538986206 0 -6743014.7538986206 22119299.989547729 0 0 0 0 3459911.6610431671 941627.04599761963 0 941627.04599761963 6500542.8779907227 0 0 0 0 25832585.739838123 -8773607.292388916 0 -8773607.292388916 9333502.8631744385 0 0 0 0 -510748.83331075148 1306023.661922453 0 1306023.661922453 2138949.3063997515 0 0 0 0 1317666.1832840266 2957698.2377589568 0 2957698.2377589568 2095196.8310557865 0 0 0 0 2068740.7547192574 2652197.5883541107 0 2652197.5883541107 680675.41281604767 0 0 0 0 -735994.69458770752 3312043.3769254684 0 3312043.3769254684 531253.9481716156 0 0 0 0 79301.572672918439 3458955.8083968163 0 3458955.8083968163 5644880.4970397949 0 0 0 0 1096640.7924952507 6258402.9294319153 0 6258402.9294319153 4198166.9477996826 0 0 0 0 2028833.131466019 3775994.427590136 0 3775994.427590136 2322216.3351374939 0 0 0 0 -347292.96139240265 8961419.1554832458 0 8961419.1554832458 4657229.482872963 0 0 0 0 -13514375.486893177 11996227.485427856 0 11996227.485427856 18156347.187454224 0 0 0 0 306206.41525793076 10506253.383224487 0 10506253.383224487 406473.07809448242 0 0 0 0 -5502717.9333972931 -728540.35567092896 0 -728540.35567092896 19478740.163635254 0 0 0 0 -3936381.5790643692 -3461042.6712875366 0 -3461042.6712875366 24047566.88760376 0 0 0 0 -178340.80355596542 115227.36173629761 0 115227.36173629761 3647176.3126602173 0 0 0 0 13762450.732131958 62322087.513114929 0 62322087.513114929 65187396.302155495 0 0 0 0 -17377253.59303093 25326400.872459412 0 25326400.872459412 26987890.622455597 0 0 0 0 74387434.402055264 24884839.310674667 0 24884839.310674667 -7168178.8952636719 0 0 0 0 729055.04143478698 166021.33042367361 0 166021.33042367361 -806433.31769250333 0 0 0 0 128558.37097358122 4476046.5382282948 0 4476046.5382282948 -13304.900589752942 0 0 0 0 11093908.663498402 14476234.443735123 0 14476234.443735123 6296287.7358322144 0 0 0 0 19082288.15790987 20356606.955709457 0 20356606.955709457 2249296.4160919189 0 0 0 0 4728944.6258792877 26677203.268070221 0 26677203.268070221 26395882.882242203 0 0 0 0 340378.90556621552 10183998.920936584 0 10183998.920936584 2297165.3964626789 0 0 0 0 5152451.5554170609 18089951.570013046 0 18089951.570013046 5773792.89590168 0 0 0 0 -922350.21040431445 6405395.4322632253 0 6405395.4322632253 1016654.8819962535 0 0 0 0 -2612129.6513983905 5068613.3772497177 0 5068613.3772497177 5061292.7510948181 0 0 0 0 -6447762.0611997843 -687127.29040765762 0 -687127.29040765762 8215672.0479660034 0 0 0 0 9980260.710898459 5335770.3337612152 0 5335770.3337612152 6578382.068611145 0 0 0 0 22888649.069061279 -373531.62155151367 0 -373531.62155151367 17630881.162094116 0 0 0 0 -14609803.106667519 8105081.6300621033 0 8105081.6300621033 22432781.388381958 0 0 0 0 -590921.86385674495 -226766.20068784989 0 -226766.20068784989 1272161.4209566256 0 0 0 0 9470452.7689695358 -8413629.5286979675 0 -8413629.5286979675 10825287.772476196 0 0 0 0 1951544.9056859016 -996679.10743331909 0 -996679.10743331909 9144902.6612091064 0 0 0 0 3275529.6179454327 -8329832.991350174 0 -8329832.991350174 11268556.055755615 0 0 0 0 17303247.085822582 -3608558.6891593933 0 -3608558.6891593933 9097843.4949531555 0 0 0 0 -18576154.22325325 6144786.8800945282 0 6144786.8800945282 5558535.3223648071 0 0 0 0 -150888.83320454229 49115.847608634271 0 49115.847608634271 355334.412709645 0 0 0 0 418489.4813785553 4763033.9129734039 0 4763033.9129734039 12312700.370067596 0 0 0 0 -2090146.9992740902 1825096.9663098194 0 1825096.9663098194 8022578.4964045053 0 0 0 0 -3620120.8044323325 4137568.7600704432 0 4137568.7600704432 9032073.4183034897 0 0 0 0 -1134134.395206362 3699197.1946374178 0 3699197.1946374178 7607621.6964988708 0 0 0 0 377831.28123831749 4803820.3652839661 0 4803820.3652839661 14448939.969455719 0 0 0 0 -81571.200503014028 636535.24052810669 0 636535.24052810669 1634751.3490638733 0 0 0 0 -186004.72944060943 1160266.2060246859 0 1160266.2060246859 3639317.934774233 0 0 0 0 -1122484.7237153053 665848.92932891846 0 665848.92932891846 1677888.6326904297 0 0 0 0 -1042753.8792153161 2050139.1713055205 0 2050139.1713055205 4087791.2314208634 0 0 0 0 966666.9564371109 5571540.430847168 0 5571540.430847168 7443812.9223327637 0 0 0 0 391223.20539543492 2222063.0879736859 0 2222063.0879736859 3049678.8444352765 0 0 0 0 -375947.66131161264 614795.52180881426 0 614795.52180881426 657608.82088378817 0 0 0 0 -16785299.577317238 8504051.2508201599 0 8504051.2508201599 9072934.030960083 0 0 0 0 2814936.366407156 586355.80698204041 0 586355.80698204041 3209640.405380249 0 0 0 0 2150608.9804196358 4980862.3004264832 0 4980862.3004264832 4886009.4681224823 0 0 0 0 3130816.7379584312 9725731.6938705444 0 9725731.6938705444 13430646.930305481 0 0 0 0 5062968.3756082654 2066176.0513687134 0 2066176.0513687134 5085763.5508041382 0 0 0 0 2821936.5122757256 8078771.8571205139 0 8078771.8571205139 11263819.240692139 0 0 0 0 3181473.1994180679 3352669.273525238 0 3352669.273525238 18764094.046409607 0 0 0 0 29950.806979301909 120590.98417468648 0 120590.98417468648 601417.03816598421 0 0 0 0 -788276.35828188446 61021.116450909525 0 61021.116450909525 3047036.5786826732 0 0 0 0 -3846578.9004068375 5900112.1445426941 0 5900112.1445426941 30736972.720767975 0 0 0 0 6351749.0553514957 4493904.9598674774 0 4493904.9598674774 4912707.7998523712 0 0 0 0 17868558.505006693 4509503.7665469646 0 4509503.7665469646 5987049.2037811279 0 0 0 0 10217878.117872 9330518.6516494751 0 9330518.6516494751 8471239.5922393799 0 0 0 0 -25619958.178473473 33433977.856658936 0 33433977.856658936 15607946.801929474 0 0 0 0 7120190.4424190521 -2935836.6197891235 0 -2935836.6197891235 13503343.532196045 0 0 0 0 -83108.395015531569 190766.97805428412 0 190766.97805428412 283082.2374198644 0 0 0 0 432086.30267559027 2855092.968690075 0 2855092.968690075 3971471.9861180922 0 0 0 0 -187285.70581899342 -121086.35330910515 0 -121086.35330910515 2655334.0814530896 0 0 0 0 -151650.07706427574 -292056.6810874939 0 -292056.6810874939 3194286.8889541626 0 0 0 0 -1946935.3076840756 2974648.1182319028 0 2974648.1182319028 5792103.2495624647 0 0 0 0 -449901.14811918308 1692393.8607122041 0 1692393.8607122041 4192546.1315950323 0 0 0 0 -549122.25153585151 547185.99350357056 0 547185.99350357056 2139777.8221359253 0 0 0 0 2065241.4999046326 6495092.0307121277 0 6495092.0307121277 13859911.458061218 0 0 0 0 -431700.41890054941 424606.12101364136 0 424606.12101364136 2229716.5653839111 0 0 0 0 -197269.58522961719 61535.077645773068 0 61535.077645773068 1233732.8608451262 0 0 0 0 -353139.28184315562 272271.26410865784 0 272271.26410865784 2090849.466999054 0 0 0 0 -173235.38554000854 309071.50765991211 0 309071.50765991211 2242140.9353752136 0 0 0 0 -507227.06384718418 196375.14137268066 0 196375.14137268066 650335.61163330078 0 0 0 0 -12625.965808868408 229684.82902526855 0 229684.82902526855 2235696.639998436 0 0 0 0 -49295.662307709455 205000.28552162647 0 205000.28552162647 1982358.3195075989 0 0 0 0 851688.48568203242 3324277.2429687479 0 3324277.2429687479 4517520.1564702205 0 0 0 0 -89740.603561333613 282566.38254345302 0 282566.38254345302 4637511.5190827083 0 0 0 0 5133.3041173146921 9923.8270413763821 0 9923.8270413763821 -22923.766794728115 0 0 0 0 3334272.5119841099 43656780.821674347 0 43656780.821674347 26945801.004590988 0 0 0 0 -632558.66348674917 1477293.1484124348 0 1477293.1484124348 3450225.2694149576 0 0 0 0 -590582.10922580957 41285.101020812988 0 41285.101020812988 1016222.6521110535 0 0 0 0 73891771.484854698 -10542954.290489197 0 -10542954.290489197 -61714802.225158691 0 0 0 0 -137736888.90335655 -81319009.287879944 0 -81319009.287879944 -35259106.194900513 0 0 0 0 -34225.562881996389 33226.535435400903 0 33226.535435400903 171694.18474986777 0 0 0 0 1179063.5718669891 7475888.6877822876 0 7475888.6877822876 -947895.52433013916 0 0 0 0 163065.83655757899 2245918.9179887883 0 2245918.9179887883 2259436.4744825903 0 0 0 0 803878.29363574204 604410.88973949198 0 604410.88973949198 -1122721.1837339625 0 0 0 0 -5883049.5682418346 11568318.244968414 0 11568318.244968414 27999099.214263916 0 0 0 0 8196627.7378864288 29070723.755561829 0 29070723.755561829 36917364.277065277 0 0 0 0 -2511426.7483639717 19199803.759979248 0 19199803.759979248 27872782.116210938 0 0 0 0 45499602.554620743 42566978.869384766 0 42566978.869384766 19887529.603004456 0 0 0 0 -447898.73335123062 1827143.3379936218 0 1827143.3379936218 823191.09888076782 0 0 0 0 -3690549.553940773 137068.67187547684 0 137068.67187547684 -7087714.8576202393 0 0 0 0 11756.347076416016 1452635.7343597412 0 1452635.7343597412 -359767.35321044922 0 0 0 0 -209386.23438654025 515098.42608242668 0 515098.42608242668 5715243.1836707843 0 0 0 0 2454161.2286827452 1796054.3499564514 0 1796054.3499564514 -728674.28437916748 0 0 0 0 1965162.5125355721 127191.16603469849 0 127191.16603469849 537803.41784667969 0 0 0 0 -75679.082362890244 1927256.3949270248 0 1927256.3949270248 611936.56698608398 0 0 0 0 487837.18878984748 2828694.423514111 0 2828694.423514111 6101135.0513012176 0 0 0 0 -492567.79641592386 88547.879041314125 0 88547.879041314125 2597251.8965597376 0 0 0 0 -804687.16399517993 1858466.1444481499 0 1858466.1444481499 2425865.1043563057 0 0 0 0 -6631613.1649622917 -6671570.7307510376 0 -6671570.7307510376 -726586.06797790527 0 0 0 0 11395557.202211142 10453594.492565155 0 10453594.492565155 -28495036.553352356 0 0 0 0 -2289512.0746711493 544814.80924701691 0 544814.80924701691 11300046.224239349 0 0 0 0 -4906511.6595516205 31409194.285514832 0 31409194.285514832 -2517963.8799362183 0 0 0 0 -17297887.773568153 25773104.095943451 0 25773104.095943451 27953987.957244873 0 0 0 0 -12852623.99915266 -222315.20291900635 0 -222315.20291900635 45852197.839817047 0 0 0 0 -2650135.0526890755 5856702.1011428833 0 5856702.1011428833 6361861.1354866028 0 0 0 0 12965344.207103014 8419365.4944267273 0 8419365.4944267273 23149916.604286194 0 0 0 0 6442338.7519435883 -15243244.058681488 0 -15243244.058681488 29859714.085914612 0 0 0 0 1921160.6501908302 12519384.985115051 0 12519384.985115051 18305415.789962769 0 0 0 0 -4736022.7576262951 1989354.360710144 0 1989354.360710144 20906573.245231628 0 0 0 0 -3478070.8686609268 8720127.3033828735 0 8720127.3033828735 25735400.35005188 0 0 0 0 8467426.0213813782 12201659.40606308 0 12201659.40606308 26377359.068912506 0 0 0 0 3425011.1543853283 10351485.552587509 0 10351485.552587509 32309817.56703949 0 0 0 0 12800138.073691368 10504130.415149689 0 10504130.415149689 32312202.553119659 0 0 0 0 6340399.4923801422 -7271194.0786819458 0 -7271194.0786819458 14492287.289382935 0 0 0 0 21369658.363028526 5979192.3463859558 0 5979192.3463859558 34442929.45772934 0 0 0 0 25715996.416563243 12239998.614327669 0 12239998.614327669 27500763.442344666 0 0 0 0 -4981107.5198142529 -9348349.2788848877 0 -9348349.2788848877 139873750.40542603 0 0 0 0 11782680.726050615 -11380282.646032333 0 -11380282.646032333 73608399.691719055 0 0 0 0 12790509.636815071 18353150.033808708 0 18353150.033808708 56348944.747207642 0 0 0 0 9398572.4774349928 -2119522.0632333755 0 -2119522.0632333755 50770378.700012207 0 0 0 0 929325.99665784836 663598.77892494202 0 663598.77892494202 54736143.224723816 0 0 0 0 2564511.3378756046 11843758.136804581 0 11843758.136804581 50742723.973815918 0 0 0 0 -654878.08643722534 -4182658.8899650574 0 -4182658.8899650574 42909056.604726791 0 0 0 0 -4904786.5600078106 5162659.5814790726 0 5162659.5814790726 40847173.029800415 0 0 0 0 -17169501.486098766 6249464.6184501648 0 6249464.6184501648 44394438.027496338 0 0 0 0 -16868949.052752018 -4886226.4492874146 0 -4886226.4492874146 41739058.538612366 0 0 0 0 -8229181.0976457596 -3423918.8723716736 0 -3423918.8723716736 41945460.015478134 0 0 0 0 -6678938.6051790714 -6555000.5865068436 0 -6555000.5865068436 28672058.195915222 0 0 0 0 -10824616.472234249 482877.94031906128 0 482877.94031906128 37709896.974967957 0 0 0 0 2192045.3118728325 14866950.650415599 0 14866950.650415599 34640975.813659668 0 0 0 0 -14817613.299280167 7167286.1428604126 0 7167286.1428604126 36185612.513706207 0 0 0 0 2545833.3867855072 362497.87364196777 0 362497.87364196777 23620736.785507202 0 0 0 0 -6389809.8844928741 975050.42230606079 0 975050.42230606079 29942412.148269653 0 0 0 0 -7790996.5404512882 2080855.7664241791 0 2080855.7664241791 28687092.980056763 0 0 0 0 2184064.1175470352 21953844.966415405 0 21953844.966415405 12660123.125427246 0 0 0 0 24877902.811964035 11154815.176132202 0 11154815.176132202 -445234.39285182953 0 0 0 0 -65918586.472916126 5263540.9720954895 0 5263540.9720954895 40035382.014831543 0 0 0 0 -12894269.088007927 15468881.070140839 0 15468881.070140839 -3649479.4299545288 0 0 0 0 507277.85850269243 633260.77336654812 0 633260.77336654812 -528343.82382804528 0 0 0 0 -35280977.550160646 -48363726.569698334 0 -48363726.569698334 -13203580.091690063 0 0 0 0 11177815.69889307 -2290020.1862487793 0 -2290020.1862487793 22282677.724319458 0 0 0 0 13050870.990981102 11046289.559127808 0 11046289.559127808 -1622380.501083374 0 0 0 0 14777119.380384922 21526275.285499573 0 21526275.285499573 27687086.786811829 0 0 0 0 4703225.5128064156 16771165.585552216 0 16771165.585552216 27493952.052177429 0 0 0 0 3841745.3898127079 6423184.1448154449 0 6423184.1448154449 30566256.39907074 0 0 0 0 2629128.7134246826 7332293.1284713745 0 7332293.1284713745 35520029.156641006 0 0 0 0 -4709244.7997066975 -2732920.0280952454 0 -2732920.0280952454 22307318.584030151 0 0 0 0 -62449.902684116299 -20325175.838027954 0 -20325175.838027954 36379432.413345337 0 0 0 0 -20031902.788043633 -7636054.5056610107 0 -7636054.5056610107 101839409.40717316 0 0 0 0 14138.172261328038 308963.77547636186 0 308963.77547636186 357575.79117754102 0 0 0 0 -52891706.514900029 -58425235.632545471 0 -58425235.632545471 37628645.654296875 0 0 0 0 143793596.58772522 68861598.747989655 0 68861598.747989655 -27030232.066268921 0 0 0 0 28693319.572631419 7045021.2637710571 0 7045021.2637710571 27329422.956794739 0 0 0 0 -13407777.52288866 1363650.8681678772 0 1363650.8681678772 -8007683.2248973846 0 0 0 0 -106037528.40241209 -23762781.160663128 0 -23762781.160663128 50703862.250617981 0 0 0 0 4404610.2771910429 20542736.071643829 0 20542736.071643829 8908145.4304933548 0 0 0 0 34752.174030824615 1028653.2484813575 0 1028653.2484813575 1070168.1156664342 0 0 0 0 38229987.616818272 36277000.328975677 0 36277000.328975677 3656807.2415466309 0 0 0 0 -73240684.970287025 27359779.226127625 0 27359779.226127625 33799095.688804626 0 0 0 0 -38739.717139251385 2522628.8458259902 0 2522628.8458259902 1880806.4462524429 0 0 0 0 -8922482.7779105902 10002624.514297485 0 10002624.514297485 13291553.71660614 0 0 0 0 -20229040.518680573 18702051.453609467 0 18702051.453609467 9866131.9098358154 0 0 0 0 -17972479.318005949 44433878.175247192 0 44433878.175247192 -1283905.1713943481 0 0 0 0 30348342.283809692 110490259.26733398 0 110490259.26733398 130938443.22564697 0 0 0 0 3112394.239411775 15937820.001487732 0 15937820.001487732 31338126.877075195 0 0 0 0 -12295823.768795058 -11564322.722839355 0 -11564322.722839355 86718115.395706177 0 0 0 0 173731570.40484077 121694491.71066666 0 121694491.71066666 45445097.016361237 0 0 0 0 624788.36937747721 130323180.29601192 0 130323180.29601192 972587808.2020874 0 0 0 0 165331521.93086705 16485481.994139433 0 16485481.994139433 64379773.553451538 0 0 0 0 -279181922.58515584 656581299.90680695 0 656581299.90680695 2199400455.4847279 0 0 0 0 -113864797.6005311 99365133.610954285 0 99365133.610954285 805964514.48517036 0 0 0 0 829783089.92373383 1239731108.1464539 0 1239731108.1464539 1039244263.118824 0 0 0 0 323938163.27445775 -460741805.263134 0 -460741805.263134 502252403.01915741 0 0 0 0 -175313.09245451289 393257.97103950614 0 393257.97103950614 1922912.7313184217 0 0 0 0 107140835.31290698 157513837.37071609 0 157513837.37071609 406158369.35018921 0 0 0 0 -388150.84397860745 -284254.27418106096 0 -284254.27418106096 4310321.3960669935 0 0 0 0 -70992000.175023943 56945531.891944885 0 56945531.891944885 -47032165.926040649 0 0 0 0 -6716418.5136365294 -7079649.7066078186 0 -7079649.7066078186 12986694.659935936 0 0 0 0 -16204954.989940703 -43803164.370288849 0 -43803164.370288849 559094212.44356537 0 0 0 0 127429398.18053818 17505225.321987152 0 17505225.321987152 -198667727.5607605 0 0 0 0 -146253.78205819346 145558.41983500682 0 145558.41983500682 633713.41347312345 0 0 0 0 -19915688.495773803 39407190.490646362 0 39407190.490646362 -40715979.983566284 0 0 0 0 -15874594.22721225 78095103.488243103 0 78095103.488243103 70794460.029911041 0 0 0 0 -1253131.9611935616 4651360.7582550049 0 4651360.7582550049 255651.14547729492 0 0 0 0 3103.5374161855143 1385920.3407047037 0 1385920.3407047037 5535431.6936703287 0 0 0 0 -40770707.196870685 -29428347.994125366 0 -29428347.994125366 -21351953.347229004 0 0 0 0 282254466.41834784 9428419.2394561768 0 9428419.2394561768 -45704578.732070923 0 0 0 0 -938134.5318531245 2902601.925797144 0 2902601.925797144 1677614.0410627434 0 0 0 0 -72650569.480638862 123124143.16000748 0 123124143.16000748 70708243.339660645 0 0 0 0 -73051217.641320586 34317482.362371445 0 34317482.362371445 49504922.463470459 0 0 0 0 -188824536.15626287 -56751819.618164062 0 -56751819.618164062 -13107485.897216797 0 0 0 0 -160856.35109504918 120931.56203022785 0 120931.56203022785 291937.79167724773 0 0 0 0 -2826014.3986333609 -105779585.58576584 0 -105779585.58576584 55947810.341493607 0 0 0 0 -21956426.199993193 33868320.921888351 0 33868320.921888351 43587985.119377136 0 0 0 0 10862.787108968791 -470117.64920054749 0 -470117.64920054749 5405419.89785368 0 0 0 0 -36921673.402384758 10154411.910518646 0 10154411.910518646 10962849.952330805 0 0 0 0 -6696664.292809248 -8210880.1634635925 0 -8210880.1634635925 -126759056.74009705 0 0 0 0 72725702.583299279 166573954.82342911 0 166573954.82342911 -22184906.061798096 0 0 0 0 209522977.34729064 30743171.118824005 0 30743171.118824005 -153442670.58431435 0 0 0 0 -112876478.97403431 -43805331.633724213 0 -43805331.633724213 31427386.016433716 0 0 0 0 1048208.9139927564 -642376.15927470382 0 -642376.15927470382 3457123.1134464815 0 0 0 0 -75716907.982904539 -227073622.40029716 0 -227073622.40029716 546949041.82246399 0 0 0 0 -28880489.158085745 673587750.01947784 0 673587750.01947784 2203088185.4147339 0 0 0 0 -131072255.19890192 114419692.35548782 0 114419692.35548782 507530347.86532736 0 0 0 0 -236098224.60577869 -253706964.13224983 0 -253706964.13224983 2200510283.5801926 0 0 0 0 82891327.843551666 -764930075.41622162 0 -764930075.41622162 1457699807.3718758 0 0 0 0 -479567734.9914884 -347509376.3486557 0 -347509376.3486557 2200355707.4033813 0 0 0 0 589037612.94907153 -447039537.7967205 0 -447039537.7967205 27751439.760765076 0 0 0 0 806865.49982000166 109285.24066289514 0 109285.24066289514 1857348.4070423581 0 0 0 0 -51804834.462844133 80174074.195991516 0 80174074.195991516 271067191.88184738 0 0 0 0 -10121321.754348278 -378891172.31869507 0 -378891172.31869507 732122829.14190674 0 0 0 0 224098380.08426669 85483140.360100746 0 85483140.360100746 7753458.9972381592 0 0 0 0 137380758.38084936 -154204545.83260918 0 -154204545.83260918 49212496.339050293 0 0 0 0 30232352.625069678 50317020.182163239 0 50317020.182163239 -64952554.484916687 0 0 0 0 -28478432.247709751 9571912.64661026 0 9571912.64661026 -12321735.943944931 0 0 0 0 -9397697.4722471237 2890846.5866775513 0 2890846.5866775513 -4585565.2132631838 0 0 0 0 -46350.56033492391 3446671.9275804311 0 3446671.9275804311 1357254.3401140748 0 0 0 0 -40883914.624693274 7235378.4245033264 0 7235378.4245033264 27583658.986862183 0 0 0 0 -19537667.981394231 73601494.113925934 0 73601494.113925934 52467059.765792847 0 0 0 0 598199.60296503035 3317277.4617950059 0 3317277.4617950059 1313824.5251734185 0 0 0 0 272990699.40107727 -92125596.485290527 0 -92125596.485290527 35312328.795455933 0 0 0 0 26120168.882206678 79751860.044555664 0 79751860.044555664 31385195.013366699 0 0 0 0 98991434.116761327 -23326777.557256699 0 -23326777.557256699 -116727019.5535965 0 0 0 0 -18610199.271199241 -9368688.5828581788 0 -9368688.5828581788 -25354363.553146362 0 0 0 0 55662.397170306591 -81243.302744122222 0 -81243.302744122222 199237.2982718721 0 0 0 0 34416884.014149904 -18925904.194702148 0 -18925904.194702148 -3811034.8617401123 0 0 0 0 -127838.76118156867 563048.60082126921 0 563048.60082126921 588807.27149553597 0 0 0 0 12667439.707536936 3125110.5197982788 0 3125110.5197982788 -25003718.964851379 0 0 0 0 2514267.1332253218 147243146.17725182 0 147243146.17725182 11036140.426208496 0 0 0 0 15708392.816633701 -39337182.798080444 0 -39337182.798080444 18126433.772521973 0 0 0 0 13075752.523594141 -40008214.964179993 0 -40008214.964179993 57328240.670013428 0 0 0 0 -26044404.726910278 -43133084.23858285 0 -43133084.23858285 10805182.370246887 0 0 0 0 -130828.96430931403 -143247.12498286087 0 -143247.12498286087 894085.66967007145 0 0 0 0 -28241521.686122417 -20001785.086288452 0 -20001785.086288452 12625492.862586975 0 0 0 0 -10320593.510874987 -3302456.8716468811 0 -3302456.8716468811 30553086.331634521 0 0 0 0 39152946.546561092 19433358.542244911 0 19433358.542244911 17266269.937667847 0 0 0 0 -29786297.276188731 7289329.4889602661 0 7289329.4889602661 27586387.985900879 0 0 0 0 50210.905875948636 141720.17654236406 0 141720.17654236406 169511.59090016037 0 0 0 0 104132072.84637034 59612330.774589539 0 59612330.774589539 -14677650.062561035 0 0 0 0 20085396.660804987 26753720.328853607 0 26753720.328853607 -173183.65101623535 0 0 0 0 6758245.6508613825 51365061.946228027 0 51365061.946228027 37969439.252380371 0 0 0 0 4114982.6266872883 17563872.87266922 0 17563872.87266922 -1265871.6091222763 0 0 0 0 -438378.48792743683 2013978.4700202942 0 2013978.4700202942 29929433.851392269 0 0 0 0 -18287778.679732472 23603996.611077309 0 23603996.611077309 15489654.914596558 0 0 0 0 -13843.523700528254 258772.93463825155 0 258772.93463825155 637088.11971945316 0 0 0 0 -769225.91839811951 790787.80661176145 0 790787.80661176145 908743.8913618736 0 0 0 0 -54086188.145559311 -12232875.122730255 0 -12232875.122730255 9532191.1057090759 0 0 0 0 -18111818.19861269 55690419.177837372 0 55690419.177837372 42744443.680633545 0 0 0 0 -2000837.9462774694 3537098.4349746704 0 3537098.4349746704 1336460.5919952393 0 0 0 0 -11143689.357142568 14657793.34305191 0 14657793.34305191 -16194484.133209229 0 0 0 0 -33738676.632598042 25886807.495502472 0 25886807.495502472 12322571.193283081 0 0 0 0 -550436.30079430644 -301083.48285632767 0 -301083.48285632767 2458746.7461527437 0 0 0 0 -37237725.88254112 -93547010.815608025 0 -93547010.815608025 18323177.046325684 0 0 0 0 -10330477.623530388 22193578.907104492 0 22193578.907104492 1274364.0360412598 0 0 0 0 -987421.34324829478 1319764.3835566617 0 1319764.3835566617 5960214.7680050023 0 0 0 0 -57341622.399130106 13723612.990345001 0 13723612.990345001 6406290.9890441895 0 0 0 0 60657075.261807203 61914930.272781372 0 61914930.272781372 73470434.547897339 0 0 0 0 -4180964.6639370918 2380328.1998443604 0 2380328.1998443604 18840103.797294617 0 0 0 0 255127850.85196781 -172780057.10886383 0 -172780057.10886383 -23236666.059020996 0 0 0 0 -7587173.8710870743 -14079445.817298889 0 -14079445.817298889 102501949.65106201 0 0 0 0 -5456261.3268208504 -4103786.7286376953 0 -4103786.7286376953 52094227.875915527 0 0 0 0 -15451777.296199799 31091719.489212036 0 31091719.489212036 9064175.9631347656 0 0 0 0 -9502135.6769814491 -20055336.761383057 0 -20055336.761383057 -7517881.7030105591 0 0 0 0 30470949.866535187 37695622.45602417 0 37695622.45602417 51776898.696716309 0 0 0 0 -1016396.4570145607 6106963.5497360229 0 6106963.5497360229 9835903.0549354553 0 0 0 0 -1001105.032844532 672081.75000756606 0 672081.75000756606 2743171.1255963184 0 0 0 0 -3729144.7540445924 -17294511.961521149 0 -17294511.961521149 25581373.334014893 0 0 0 0 35738530.331513762 47596839.901428223 0 47596839.901428223 28159628.855056763 0 0 0 0 -196964.08160161972 3626839.0791854858 0 3626839.0791854858 10391311.007825851 0 0 0 0 23790887.574160099 9441661.0489959717 0 9441661.0489959717 17049065.659683228 0 0 0 0 37116490.201948881 26297526.803009033 0 26297526.803009033 6774145.4125061035 0 0 0 0 -8217572.5078214407 18077053.827919006 0 18077053.827919006 36130678.422744751 0 0 0 0 -5029896.7437889278 22023602.28326416 0 22023602.28326416 13568135.870040894 0 0 0 0 -64099345.930909872 -2171046.4110565186 0 -2171046.4110565186 18781873.956818104 0 0 0 0 -75671978.255300283 -17834333.813682556 0 -17834333.813682556 25102726.391448975 0 0 0 0 -44796113.78329587 -16855524.756568909 0 -16855524.756568909 23826376.016830444 0 0 0 0 -64832987.500966072 -28735241.762130737 0 -28735241.762130737 -23808264.978233337 0 0 0 0 -66770374.184512615 1288569.1449203491 0 1288569.1449203491 6797517.7332077026 0 0 0 0 -68849883.086303234 617977.16403198242 0 617977.16403198242 33616543.657363892 0 0 0 0 -52839538.574211836 4587641.3311538696 0 4587641.3311538696 27359921.741363525 0 0 0 0 -52986207.874934196 -6108550.4966812134 0 -6108550.4966812134 2169923.6580963135 0 0 0 0 -60407422.267012358 4139566.4163246155 0 4139566.4163246155 29510258.313765526 0 0 0 0 -33924995.571930408 37609655.542549133 0 37609655.542549133 -10922913.848715782 0 0 0 0 2992516.1204732955 16551300.735710144 0 16551300.735710144 -14449706.238945007 0 0 0 0 -530589.02080357471 180989.92126828805 0 180989.92126828805 1057814.3673587963 0 0 0 0 -66260777.99977541 11631823.34992981 0 11631823.34992981 22387871.308441162 0 0 0 0 -68729812.419835567 29209055.245948792 0 29209055.245948792 -14078935.266876221 0 0 0 0 3378685.5696992874 3812464.7121162415 0 3812464.7121162415 -1494797.3063812256 0 0 0 0 3135273.8546123076 1742689.7921687961 0 1742689.7921687961 2918187.7240142822 0 0 0 0 -545837.45925045013 2125642.0125350952 0 2125642.0125350952 -14489313.723365784 0 0 0 0 -444456.1584084034 5751059.1876564026 0 5751059.1876564026 3239584.0412597656 0 0 0 0 -336963.11330864357 -329221.20340638747 0 -329221.20340638747 322559.29812749289 0 0 0 0 12533401.488424003 -36768999.968541145 0 -36768999.968541145 -35022888.83921814 0 0 0 0 -66081398.061424255 -26215197.086906433 0 -26215197.086906433 -5207369.5413284302 0 0 0 0 -47222376.405109882 -46804840.706266403 0 -46804840.706266403 -58312040.269882202 0 0 0 0 -187832.72916901112 -5332444.0158290863 0 -5332444.0158290863 30366.018280029297 0 0 0 0 -49537646.674416304 -5990522.1857118607 0 -5990522.1857118607 10731841.434509277 0 0 0 0 -5099178.4172472954 75505.196060180664 0 75505.196060180664 -3583903.9245567322 0 0 0 0 -25023210.692869186 -3084868.0481643677 0 -3084868.0481643677 1505804.7327880859 0 0 0 0 -76197.957431225819 2249134.9307452296 0 2249134.9307452296 5645149.0863979831 0 0 0 0 -1238914.640920294 -1201446.5572221605 0 -1201446.5572221605 1235116.5431478247 0 0 0 0 -5246069.9048862457 -639528.79082489014 0 -639528.79082489014 -3029052.5836181641 0 0 0 0 -13400247.609807968 -2956587.6536922455 0 -2956587.6536922455 13664157.166809082 0 0 0 0 -1294172.7371432781 5074890.8913726807 0 5074890.8913726807 7568972.922958374 0 0 0 0 3710259.9959468842 1315905.1191864014 0 1315905.1191864014 2458799.9182739258 0 0 0 0 1420.7171166950138 102140.4145369865 0 102140.4145369865 343040.78507268243 0 0 0 0 32043907.683777809 28895138.339675903 0 28895138.339675903 23253778.056594849 0 0 0 0 38288075.686947823 15844313.865661621 0 15844313.865661621 9373813.5696716309 0 0 0 0 16973868.622980118 13346479.862487793 0 13346479.862487793 11493076.105102539 0 0 0 0 36085466.754448414 18081810.510482788 0 18081810.510482788 7372925.3736877441 0 0 0 0 37849587.784643173 -11064136.921401978 0 -11064136.921401978 34307442.717987061 0 0 0 0 41191804.989725709 11886266.552358627 0 11886266.552358627 -910636.86853027344 0 0 0 0 11754402.131258011 5315925.2696990967 0 5315925.2696990967 26605516.257400513 0 0 0 0 -643592.51541254972 1057906.3224463046 0 1057906.3224463046 2728776.9576159492 0 0 0 0 7769900.0468978882 11636636.876174927 0 11636636.876174927 16942798.418212891 0 0 0 0 -2386126.71992746 70823.32262802124 0 70823.32262802124 647831.95306396484 0 0 0 0 -550143.59148667345 1981093.6708428636 0 1981093.6708428636 5932673.6617977265 0 0 0 0 14288440.229420424 -2503794.5980587006 0 -2503794.5980587006 2598925.7407226562 0 0 0 0 -1024921.0045109626 1277110.8757413514 0 1277110.8757413514 4275109.0608869754 0 0 0 0 -1051614.7609938227 -489327.26500114845 0 -489327.26500114845 2617813.4832000844 0 0 0 0 -342231.83691813069 1359189.9910654323 0 1359189.9910654323 788033.87268123217 0 0 0 0 -8044683.9941984639 6245545.6231994629 0 6245545.6231994629 -1226481.3582077026 0 0 0 0 -341724.10678505898 -5049007.9814434052 0 -5049007.9814434052 -2322884.7252349854 0 0 0 0 55223505.968120575 -25348774.671600342 0 -25348774.671600342 23230068.853088379 0 0 0 0 66504416.761346579 -8657935.4468917847 0 -8657935.4468917847 4948544.0172729492 0 0 0 0 140585.32897949219 2039949.0872192383 0 2039949.0872192383 8541231.8753662109 0 0 0 0 -2245572.3258833885 6139842.1638946533 0 6139842.1638946533 4759428.1806201935 0 0 0 0 -319242.82891294663 411447.35244574584 0 411447.35244574584 2794710.2161623575 0 0 0 0 1240172.0616154671 2251961.0566101074 0 2251961.0566101074 3051449.6182250977 0 0 0 0 -12993433.265669823 -2120539.8127670288 0 -2120539.8127670288 1240467.3496055603 0 0 0 0 -3765773.1513706446 -4765804.7124929428 0 -4765804.7124929428 -2893447.6974639893 0 0 0 0 -6202572.0219507217 1554461.616065979 0 1554461.616065979 6001880.3694801331 0 0 0 0 5610719.0166394711 -8461771.6740932465 0 -8461771.6740932465 1477218.7779388428 0 0 0 0 14502.050307842437 -37678.769936502911 0 -37678.769936502911 -62652.372623000294 0 0 0 0 9085846.5114765167 5696614.0148963928 0 5696614.0148963928 12725806.565200806 0 0 0 0 10120039.037213102 10248484.876327276 0 10248484.876327276 -44241325.268722534 0 0 0 0 9484621.7589390427 15301941.132268906 0 15301941.132268906 -5566270.3150405884 0 0 0 0 1078058.9154080451 1718971.9072036743 0 1718971.9072036743 3264028.8658409119 0 0 0 0 357353.64765534672 1047405.6882002866 0 1047405.6882002866 468713.56389811076 0 0 0 0 -3789503.9082176685 5500505.9066390991 0 5500505.9066390991 -1311143.7157068253 0 0 0 0 -3459985.4707526416 21589283.928142548 0 21589283.928142548 619909.44758605957 0 0 0 0 -7025548.452647686 -1864063.0044898987 0 -1864063.0044898987 -52294920.011440277 0 0 0 0 -346553.56762230524 304637.13027803833 0 304637.13027803833 1999213.8633311801 0 0 0 0 -16516295.011137247 17535934.031455994 0 17535934.031455994 4750569.5784912109 0 0 0 0 104785894.66086531 -14267960.466205597 0 -14267960.466205597 -11971012.793823242 0 0 0 0 -20872417.060894907 7929279.8791847229 0 7929279.8791847229 5001638.5774993896 0 0 0 0 -409400.53345549729 211019.54170727916 0 211019.54170727916 1878288.8104370199 0 0 0 0 -4459217.3612154797 -2571835.3621287346 0 -2571835.3621287346 -6460284.7567520142 0 0 0 0 60037535.825580597 83676733.357887268 0 83676733.357887268 80110913.138900757 0 0 0 0 -173589387.6497581 -45281987.870773315 0 -45281987.870773315 151690669.87639427 0 0 0 0 -147572990.59048384 -45981108.324058533 0 -45981108.324058533 97144454.099243164 0 0 0 0 -72030009.251909733 28250088.253936768 0 28250088.253936768 169112565.26324081 0 0 0 0 -17453920.570472479 7107795.3960952759 0 7107795.3960952759 10650449.939025879 0 0 0 0 -27701971.497884989 20520009.398635864 0 20520009.398635864 9988271.3192596436 0 0 0 0 -85854050.904564679 -1501859.6159439087 0 -1501859.6159439087 9636064.1870422363 0 0 0 0 121295672.47407365 34707674.591121674 0 34707674.591121674 -8370981.271484375 0 0 0 0 46990298.784419537 47667066.75289917 0 47667066.75289917 -4378543.9739761353 0 0 0 0 53353039.574148655 683885.40143585205 0 683885.40143585205 -10336468.73828125 0 0 0 0 47147430.532052994 18069307.986679077 0 18069307.986679077 -10768872.242345095 0 0 0 0 29240715.961179256 6095069.39427948 0 6095069.39427948 -2470818.7122802734 0 0 0 0 -21579206.428210855 15997448.187599182 0 15997448.187599182 -2984986.0997924805 0 0 0 0 -29942710.258509874 36642271.674491882 0 36642271.674491882 -43567159.879364014 0 0 0 0 20060540.803280354 30198220.377258301 0 30198220.377258301 -15991219.384101868 0 0 0 0 -35738543.710746646 30618063.322061539 0 30618063.322061539 2993241.2469787598 0 0 0 0 15854835.352080345 18074470.312637329 0 18074470.312637329 -443307.52046966553 0 0 0 0 -48289253.471694738 3629529.257478714 0 3629529.257478714 8118222.2555389404 0 0 0 0 -56912649.020786643 21897979.438735962 0 21897979.438735962 9104157.8628997803 0 0 0 0 -23229586.365488529 1389645.0297698975 0 1389645.0297698975 11679317.769579887 0 0 0 0 -13593575.913086057 27207321.862970352 0 27207321.862970352 11351052.29574585 0 0 0 0 34884181.670835495 15792209.441253662 0 15792209.441253662 3776085.0564193726 0 0 0 0 20153478.379762173 26619598.998245239 0 26619598.998245239 659610.08309936523 0 0 0 0 -24036416.909354389 -31510308.821054935 0 -31510308.821054935 10067028.840652466 0 0 0 0 -1022244.125525889 434751.89480981417 0 434751.89480981417 7062399.7212041393 0 0 0 0 -160890472.28058624 -23277839.501544952 0 -23277839.501544952 32202581.555595398 0 0 0 0 -104750518.96301436 -50706868.745300293 0 -50706868.745300293 11312631.669654846 0 0 0 0 -127339841.30804157 4443510.826713562 0 4443510.826713562 30309349.717803955 0 0 0 0 -79312697.779372692 -24276055.226280212 0 -24276055.226280212 19520326.231402397 0 0 0 0 -103181825.53508353 15708810.425842285 0 15708810.425842285 14622496.332626343 0 0 0 0 -127602287.44910431 51463013.876562119 0 51463013.876562119 -30443311.69720459 0 0 0 0 -66490832.668582916 16116302.559829712 0 16116302.559829712 5301568.7463684082 0 0 0 0 -692546.01195363875 2431993.9576566997 0 2431993.9576566997 2135937.7633116059 0 0 0 0 2060223.065762043 29788016.235034943 0 29788016.235034943 12262546.31519115 0 0 0 0 -948679.32493916654 -429956.97171222791 0 -429956.97171222791 7643275.0330780931 0 0 0 0 -177168393.35317242 -116074044.11289978 0 -116074044.11289978 71536118.171051025 0 0 0 0 -130474353.4058094 -98541416.671912193 0 -98541416.671912193 -26949190.745132446 0 0 0 0 -71144342.102337837 -5048100.493560791 0 -5048100.493560791 -94414710.740524292 0 0 0 0 -8618245.1780763268 1343160.183172226 0 1343160.183172226 7704247.2031555176 0 0 0 0 -18315252.265726149 -188264855.63632631 0 -188264855.63632631 74400573.076934814 0 0 0 0 -195600812.97744852 -100332421.88911438 0 -100332421.88911438 73287990.369110107 0 0 0 0 1178960.0955546212 1626063.0359763186 0 1626063.0359763186 3267128.9174724426 0 0 0 0 3339143.7031431198 3034621.2052383423 0 3034621.2052383423 2146607.8444695175 0 0 0 0 16294346.456629574 -32666660.19421196 0 -32666660.19421196 110274673.13841248 0 0 0 0 -15090.578093254764 158182.17787170969 0 158182.17787170969 448685.43136518449 0 0 0 0 200714512.94527411 -94884063.692993164 0 -94884063.692993164 -567337145.43226624 0 0 0 0 -159211631.11567378 -86208780.590591431 0 -86208780.590591431 97029810.697822571 0 0 0 0 -165322963.47544587 -38140764.938863754 0 -38140764.938863754 -245708480.82745361 0 0 0 0 -32918.075162169291 35552.28352862224 0 35552.28352862224 146288.94738013897 0 0 0 0 -65591967.642680645 417740930.09350586 0 417740930.09350586 -1430088830.2747869 0 0 0 0 -213256080.56305122 -196900278.47781372 0 -196900278.47781372 549845727.55090332 0 0 0 0 -254716.50010458624 1595951.5873481226 0 1595951.5873481226 5288790.9691119753 0 0 0 0 924935.2682672143 1287838.1476078033 0 1287838.1476078033 1423068.1240692139 0 0 0 0 -289087588.72873998 44555694.816516876 0 44555694.816516876 139754490.42559814 0 0 0 0 -122353326.96979439 -17057314.912189484 0 -17057314.912189484 161273950.54890442 0 0 0 0 3422858.7491742969 699221.26788043976 0 699221.26788043976 -410863.48272705078 0 0 0 0 -101724101.30028546 -60875555.96175766 0 -60875555.96175766 13439640.499176025 0 0 0 0 149783.6635491497 2211899.7285020649 0 2211899.7285020649 -623620.50357289612 0 0 0 0 4586254.1313308477 2935773.6466903687 0 2935773.6466903687 581763.96078491211 0 0 0 0 -171193634.71241474 104946217.10021973 0 104946217.10021973 550368798.15075302 0 0 0 0 -6199256.6095478535 18606405.10588932 0 18606405.10588932 -12467820.525672913 0 0 0 0 48728.013929000153 696040.26161600929 0 696040.26161600929 -165036.42272755876 0 0 0 0 22677.298292382795 318045.49582450558 0 318045.49582450558 2033634.0835743174 0 0 0 0 501372728.31712359 811494320.99451733 0 811494320.99451733 1383376130.1925354 0 0 0 0 470146219.20160532 659640811.87460327 0 659640811.87460327 727977771.91991425 0 0 0 0 12127069.607263364 152444726.36598206 0 152444726.36598206 1021640753.4946442 0 0 0 0 -99753061.362242177 81649569.914039612 0 81649569.914039612 2206478506.6083221 0 0 0 0 86216877.331074476 502095055.55851936 0 502095055.55851936 2395060361.5560608 0 0 0 0 1235994074.2750475 -1034221422.148819 0 -1034221422.148819 3102766895.079567 0 0 0 0 -598469836.69734323 55036789.960037231 0 55036789.960037231 1270930178.7745285 0 0 0 0 -744719241.70339549 -81360340.529941559 0 -81360340.529941559 2219669621.6437569 0 0 0 0 -313191466.81155503 -216989474.72396564 0 -216989474.72396564 1729233452.5379639 0 0 0 0 -331066038.25519365 -150401173.70512295 0 -150401173.70512295 1565041596.2346344 0 0 0 0 31575216.809312608 -625968733.59482193 0 -625968733.59482193 2204553463.3895974 0 0 0 0 833911991.19303167 26812288.376766205 0 26812288.376766205 2490971903.0456619 0 0 0 0 13740.835465285729 -274276.1955936139 0 -274276.1955936139 585777.78858369961 0 0 0 0 218989552.66745716 -967421708.1821413 0 -967421708.1821413 1265272179.1724396 0 0 0 0 217430870.66147777 107035418.54254913 0 107035418.54254913 -134895216.39388657 0 0 0 0 364846395.94705933 -627468145.55308151 0 -627468145.55308151 707409925.48979568 0 0 0 0 -253502623.29152808 -432419985.40830994 0 -432419985.40830994 1761740677.9969978 0 0 0 0 -256742548.24717072 -375093835.36743116 0 -375093835.36743116 1570438398.2466049 0 0 0 0 312821428.00273269 -223322617.17008018 0 -223322617.17008018 72249263.50428009 0 0 0 0 105321512.42164195 112774086.97586441 0 112774086.97586441 11521807.87754631 0 0 0 0 -179046580.33472541 143984998.74913979 0 143984998.74913979 60749601.657119751 0 0 0 0 -38242351.14233911 115668046.5860939 0 115668046.5860939 65816088.817749023 0 0 0 0 -105867.35320865497 -246774.09099820309 0 -246774.09099820309 1456749.701848764 0 0 0 0 52484374.545472518 55940611.126297951 0 55940611.126297951 68860512.416717529 0 0 0 0 -87674040.138546184 20938798.853770971 0 20938798.853770971 1303388.1709671021 0 0 0 0 8974876.0356893539 -2828459.0153541565 0 -2828459.0153541565 -7316841.3795986176 0 0 0 0 -13535058.303956524 96714944.908866882 0 96714944.908866882 29529684.680332184 0 0 0 0 67060257.054084539 14736038.825595856 0 14736038.825595856 -67558926.752319336 0 0 0 0 60962.789149447926 149384.38491950836 0 149384.38491950836 263536.02244610339 0 0 0 0 -157247.46751463658 468475.23926599883 0 468475.23926599883 1069799.4296593852 0 0 0 0 -16785981.637288332 -120334390.83552933 0 -120334390.83552933 -113873591.10261154 0 0 0 0 -42873682.974727869 -36196828.506629944 0 -36196828.506629944 -44457020.762786865 0 0 0 0 7914338.0616898537 312902.07522583008 0 312902.07522583008 12137233.093795776 0 0 0 0 41409935.11891675 -35236686.02885437 0 -35236686.02885437 -71933976.326858521 0 0 0 0 88870162.5987463 -59981714.414611816 0 -59981714.414611816 -106295805.96208191 0 0 0 0 91290535.84083724 -19486018.376335144 0 -19486018.376335144 -213972601.8503418 0 0 0 0 -34624346.892695189 79593661.113826752 0 79593661.113826752 -139556062.45994568 0 0 0 0 18583764.404957533 -49547705.574928284 0 -49547705.574928284 109589144.67407227 0 0 0 0 61569424.852437735 25622830.567173004 0 25622830.567173004 13824658.037101746 0 0 0 0 35199.761334908078 55689.132094649598 0 55689.132094649598 311790.79265102744 0 0 0 0 1880507.0424175262 7594065.4451179504 0 7594065.4451179504 31324502.393360138 0 0 0 0 -56820091.5217731 -21759028.469947815 0 -21759028.469947815 -18279770.461006165 0 0 0 0 -1372674.4632005692 -6781172.3837890625 0 -6781172.3837890625 21286726.684696198 0 0 0 0 259685.66941165924 -513938.97258758545 0 -513938.97258758545 18793908.441162109 0 0 0 0 -5731003.1218470335 -208751.04586791992 0 -208751.04586791992 34155324.465179443 0 0 0 0 -7992550.5573225021 -6082525.3671989441 0 -6082525.3671989441 32036253.330352783 0 0 0 0 24641265.172207832 22412914.66242218 0 22412914.66242218 -22923354.286376953 0 0 0 0 -99942324.264572665 -138651387.64004469 0 -138651387.64004469 226814400.16983795 0 0 0 0 -65551.625072946539 67669.780435051769 0 67669.780435051769 1111613.1472751554 0 0 0 0 -136170888.67685366 106921206.86191559 0 106921206.86191559 96474776.997451782 0 0 0 0 38356891.696467489 -95755574.850571632 0 -95755574.850571632 155472204.79142761 0 0 0 0 178740349.29386756 -91532258.852414131 0 -91532258.852414131 86184043.824028015 0 0 0 0 -132905441.90849018 58434290.201789856 0 58434290.201789856 227560783.7485199 0 0 0 0 2486639.8401911259 -57586062.593540192 0 -57586062.593540192 301256669.81282043 0 0 0 0 -371686.58968919516 128392121.83357382 0 128392121.83357382 585901920.82584381 0 0 0 0 -21592566.403602362 -296443578.24811363 0 -296443578.24811363 714320378.8379364 0 0 0 0 -16914104.150254965 39834803.707588196 0 39834803.707588196 457829135.38518524 0 0 0 0 -318494378.9341557 -126306613.27919769 0 -126306613.27919769 1459087148.6192236 0 0 0 0 -140595545.63485479 36001941.299240112 0 36001941.299240112 987802688.17150116 0 0 0 0 -261537675.23240626 -173164821.9397583 0 -173164821.9397583 1076156821.7390919 0 0 0 0 -128577464.47196341 -20141835.497505188 0 -20141835.497505188 653264714.08977699 0 0 0 0 38705765.285066843 254052650.01442719 0 254052650.01442719 362947114.11165237 0 0 0 0 -360748901.22389877 177715435.80047226 0 177715435.80047226 1800240662.2928505 0 0 0 0 -93606134.751882076 405124882.78816605 0 405124882.78816605 1320717651.4176025 0 0 0 0 150266760.09732351 689753012.2137394 0 689753012.2137394 1324703080.7049026 0 0 0 0 15254157.715295553 174005582.89260101 0 174005582.89260101 1417620649.2060261 0 0 0 0 -205247004.22805867 -132812027.3192091 0 -132812027.3192091 1864179183.2834892 0 0 0 0 -243626.00882307952 23705.579379893839 0 23705.579379893839 547387.89169569127 0 0 0 0 -594309188.81098104 -197041876.94919205 0 -197041876.94919205 2204836630.1931787 0 0 0 0 -25706620.60304888 132361310.43946075 0 132361310.43946075 2205273281.9854202 0 0 0 0 406961936.53891516 67955742.620735168 0 67955742.620735168 1992555586.8608646 0 0 0 0 -11384918.661954731 144441675.30112648 0 144441675.30112648 2214521831.9115677 0 0 0 0 -574585.5142234423 57742.945547131822 0 57742.945547131822 1019582.2296395686 0 0 0 0 13972772.100934913 142124160.55086613 0 142124160.55086613 2204701680.7855148 0 0 0 0 -70302.853232152527 -1714.90994411055 0 -1714.90994411055 597428.08376262151 0 0 0 0 144637428.79365492 695979127.76574802 0 695979127.76574802 1756160815.0172882 0 0 0 0 -25034.281034861415 -56495.875812288607 0 -56495.875812288607 670300.39021482691 0 0 0 0 256601309.67832947 275027999.12289429 0 275027999.12289429 2115556775.783699 0 0 0 0 -467623569.21620202 114622273.37322235 0 114622273.37322235 2512440546.8707733 0 0 0 0 -253219736.11661005 -66499054.087532043 0 -66499054.087532043 212751895.18875122 0 0 0 0 -46521330.269046068 -359767985.66041183 0 -359767985.66041183 681973821.77588654 0 0 0 0 1126169.6655465364 157670468.23344803 0 157670468.23344803 377080054.01018524 0 0 0 0 13457320.026966233 212217241.60862464 0 212217241.60862464 2114963689.9967804 0 0 0 0 -51295708.650297642 226842096.81865692 0 226842096.81865692 1942604202.1359673 0 0 0 0 -117963126.80142188 -228295350.44035339 0 -228295350.44035339 1484435373.3820648 0 0 0 0 42981968.817348957 -81948368.775615692 0 -81948368.775615692 1282230865.4128189 0 0 0 0 -59375290.625212669 -136346356.61796188 0 -136346356.61796188 1291038063.7471189 0 0 0 0 76501481.922719479 -219711813.15140533 0 -219711813.15140533 548481750.3306427 0 0 0 0 116263328.44321179 -88254681.015918732 0 -88254681.015918732 555003483.31363249 0 0 0 0 223951536.94862413 -100032686.96163559 0 -100032686.96163559 -181092992.09954071 0 0 0 0 55887863.680852175 184784504.7883606 0 184784504.7883606 -146940924.17529345 0 0 0 0 37094545.205264509 12762216.176404953 0 12762216.176404953 -131447239.0258255 0 0 0 0 -62367653.669010162 -86945105.51618576 0 -86945105.51618576 -59428933.146583557 0 0 0 0 -20977929.178394318 56690095.796028137 0 56690095.796028137 -78294978.385284424 0 0 0 0 -87198.928727054779 -16566.064614441711 0 -16566.064614441711 1361902.1024415419 0 0 0 0 -150621888.57870758 94942817.38621521 0 94942817.38621521 -49001601.509342194 0 0 0 0 -133717314.44514823 -58377567.395990372 0 -58377567.395990372 57958803.091026306 0 0 0 0 -85523965.075307369 6959506.1497039795 0 6959506.1497039795 -28772071.883430481 0 0 0 0 137948065.26253891 -11561198.785419464 0 -11561198.785419464 -71545844.168525696 0 0 0 0 6596179.7995682955 13109991.352273941 0 13109991.352273941 -141783425.61723042 0 0 0 0 -256117.73930055113 200453.34753446933 0 200453.34753446933 76041.618092559278 0 0 0 0 6701468.8811830133 9335556.9266905785 0 9335556.9266905785 -6524124.6063919067 0 0 0 0 26907530.71192646 13675723.77000618 0 13675723.77000618 15037429.235027313 0 0 0 0 24974066.189192891 4301612.7177333832 0 4301612.7177333832 3291341.4730701447 0 0 0 0 -111599.09263270449 54436.443060152233 0 54436.443060152233 1360080.1043291464 0 0 0 0 -403515.15156024951 304616.07459602598 0 304616.07459602598 203047.74325020984 0 0 0 0 -5407875.9635775089 6627470.2346878052 0 6627470.2346878052 -4862825.7191238403 0 0 0 0 -51132293.980223358 -24758953.721110344 0 -24758953.721110344 -8767822.4308242798 0 0 0 0 -45048946.912692547 -20767350.52066803 0 -20767350.52066803 -22621095.006049156 0 0 0 0 -12333168.591166496 -33296736.063476562 0 -33296736.063476562 -21958187.821073532 0 0 0 0 -45623131.398040295 -25498007.429946899 0 -25498007.429946899 -8020855.418548584 0 0 0 0 254543.6023043663 233515.75441739336 0 233515.75441739336 878515.20817029476 0 0 0 0 -7526756.2821578979 159841.52857208252 0 159841.52857208252 -860121.05024719238 0 0 0 0 6916466.310600996 6373227.4998188019 0 6373227.4998188019 5489850.0868377686 0 0 0 0 3339272.2363977432 4166286.8349761963 0 4166286.8349761963 6803147.0927276611 0 0 0 0 5274757.9072585106 -8277179.5634117126 0 -8277179.5634117126 -15835837.198722839 0 0 0 0 -789916.37349256384 242688.5789369829 0 242688.5789369829 1322233.3373424541 0 0 0 0 -19022757.730322838 -11335938.746417999 0 -11335938.746417999 4401067.2591018677 0 0 0 0 -10454490.545872688 -11209539.20539093 0 -11209539.20539093 799324.87301445007 0 0 0 0 -17971734.334188551 -18859943.121296406 0 -18859943.121296406 -11623766.745704651 0 0 0 0 -10260084.180838764 -12099633.094419479 0 -12099633.094419479 -5814574.7801361084 0 0 0 0 -43304199.70593667 -18535416.754253387 0 -18535416.754253387 -8928375.2507858276 0 0 0 0 -26785074.752639771 -29738568.561134338 0 -29738568.561134338 -11368989.679704666 0 0 0 0 -24134415.690732479 -18933517.269199371 0 -18933517.269199371 -6910890.3545513153 0 0 0 0 175758.53526163101 2987351.6515808105 0 2987351.6515808105 32482747.643722534 0 0 0 0 -175790.28243664233 -116952.45528429933 0 -116952.45528429933 808118.22841926105 0 0 0 0 -33962462.923974991 -23017355.441345215 0 -23017355.441345215 -6349933.3728637695 0 0 0 0 -32906382.490009069 -25667166.322044373 0 -25667166.322044373 -12186404.593340874 0 0 0 0 -26064023.925283372 -35110094.67629528 0 -35110094.67629528 -29868365.579795837 0 0 0 0 -24624333.458967686 -16768788.429941177 0 -16768788.429941177 -16725318.97902298 0 0 0 0 -25351488.621828511 -21459912.487406969 0 -21459912.487406969 -6096839.0586929321 0 0 0 0 16186587.241437078 29525852.256984711 0 29525852.256984711 38907948.54384613 0 0 0 0 -47125548.63100338 -42660779.997207642 0 -42660779.997207642 -24538611.529233932 0 0 0 0 -119611.03747071465 -93144.301699190401 0 -93144.301699190401 491672.86118336581 0 0 0 0 15496667.411567152 31031591.984603882 0 31031591.984603882 36143130.370658875 0 0 0 0 15124678.13513732 26625799.167337418 0 26625799.167337418 27661231.487888336 0 0 0 0 18925251.441292524 18757064.774181366 0 18757064.774181366 35742085.320907593 0 0 0 0 5484881.4407001734 9219395.5055527687 0 9219395.5055527687 38061288.886657715 0 0 0 0 6548116.9935200214 6451313.3301239014 0 6451313.3301239014 32093158.764507294 0 0 0 0 -5417876.5710892677 7755554.763507843 0 7755554.763507843 35846361.323436737 0 0 0 0 16480278.506181717 13835663.792514801 0 13835663.792514801 15475177.332213402 0 0 0 0 11714474.308327675 12416273.771492004 0 12416273.771492004 35947274.142120361 0 0 0 0 26393198.200344086 29052755.32062912 0 29052755.32062912 38452603.682380676 0 0 0 0 5686.6051612135198 47732.700163299683 0 47732.700163299683 30710.881245579571 0 0 0 0 -16544260.301762819 5011080.7579479218 0 5011080.7579479218 34086400.937282562 0 0 0 0 709677.43823111057 7707918.0394916534 0 7707918.0394916534 30613121.878326416 0 0 0 0 -3472782.9342294931 11995004.383041382 0 11995004.383041382 34244262.623811722 0 0 0 0 9158467.0224590302 24525056.215900421 0 24525056.215900421 36525891.431114435 0 0 0 0 3335346.3424475193 24686885.833637238 0 24686885.833637238 42003002.001121521 0 0 0 0 22849713.843607903 26481719.257238388 0 26481719.257238388 40082575.006889343 0 0 0 0 38833146.128935814 34308741.615520477 0 34308741.615520477 43831155.35382843 0 0 0 0 14926925.243141413 31751482.730571747 0 31751482.730571747 44873442.287612915 0 0 0 0 18774896.533371449 25503123.792228699 0 25503123.792228699 43534910.126177788 0 0 0 0 5371530.5686128139 24947733.450237274 0 24947733.450237274 50923219.543502808 0 0 0 0 18732714.664606825 29344344.60831514 0 29344344.60831514 57864494.341926575 0 0 0 0 23665829.838571072 19141667.682891846 0 19141667.682891846 36944023.217632294 0 0 0 0 25432503.736506641 12147805.59481144 0 12147805.59481144 56720255.025932312 0 0 0 0 25201695.05846405 20201036.746795654 0 20201036.746795654 50861099.416091919 0 0 0 0 6182397.1303792 19881221.806613922 0 19881221.806613922 34246240.684597015 0 0 0 0 -7303537.9437725544 8187931.9727973938 0 8187931.9727973938 38646797.543563843 0 0 0 0 2678579.8869234324 25338615.776565552 0 25338615.776565552 38176151.063896179 0 0 0 0 -3695077.147015214 2113330.9852905273 0 2113330.9852905273 16064786.14906311 0 0 0 0 64710.711047525037 642907.07262900495 0 642907.07262900495 46722.858528248966 0 0 0 0 50651270.205120564 28500471.316226274 0 28500471.316226274 5025761.3643875122 0 0 0 0 -8170469.7139804363 921730.88348197937 0 921730.88348197937 21616772.868160248 0 0 0 0 1930774.2463632822 5798132.735162735 0 5798132.735162735 -574176.67952728271 0 0 0 0 3748237.273506403 2955119.8056030273 0 2955119.8056030273 246149.00720691681 0 0 0 0 -19464930.001521826 19730533.808338165 0 19730533.808338165 -2419654.0376625061 0 0 0 0 1128544.5233337879 8568729.4778671265 0 8568729.4778671265 -4504819.6986956596 0 0 0 0 -10467735.72361064 16608538.544183731 0 16608538.544183731 21713809.18637085 0 0 0 0 -12778409.052036092 413180.37141156197 0 413180.37141156197 20826341.539115906 0 0 0 0 -41613943.195910692 3944135.9868831635 0 3944135.9868831635 22561930.912307739 0 0 0 0 -21526581.156420946 -18559172.595495224 0 -18559172.595495224 -9843480.5060577393 0 0 0 0 -16651634.859498024 11518758.404449463 0 11518758.404449463 -19128028.249845505 0 0 0 0 -57606241.901072025 949950.93371963501 0 949950.93371963501 46993569.091041565 0 0 0 0 -31742655.069453239 -26008785.298318863 0 -26008785.298318863 -3286735.6178894043 0 0 0 0 -215403.64758634649 182439.32114712894 0 182439.32114712894 718397.09053787403 0 0 0 0 -8549925.3080675602 2679905.6033935547 0 2679905.6033935547 10611380.426589966 0 0 0 0 -3833371.9654219151 2119977.7705879211 0 2119977.7705879211 6774906.7523880005 0 0 0 0 -2375879.0850868225 27651845.307914734 0 27651845.307914734 20654184.587474823 0 0 0 0 -42673023.076730728 -35708699.002838135 0 -35708699.002838135 -15401423.309692383 0 0 0 0 -54433824.830361605 -29745736.411594391 0 -29745736.411594391 -10811452.14074707 0 0 0 0 -7463088.1032185555 -1463607.0784606934 0 -1463607.0784606934 3815668.0889587402 0 0 0 0 -151469.62537963694 72241.926129244268 0 72241.926129244268 181091.65318397433 0 0 0 0 -56534181.331535816 -27681567.235692978 0 -27681567.235692978 5024853.0796012878 0 0 0 0 -18988859.251736403 4026354.4026947021 0 4026354.4026947021 19038494.716012955 0 0 0 0 -52409.784378190991 -130347.01382347383 0 -130347.01382347383 43113.10538896732 0 0 0 0 -3742372.7522860765 8704513.6366901398 0 8704513.6366901398 7403941.9051742554 0 0 0 0 -26388145.907807231 -136096.85775947571 0 -136096.85775947571 26465366.964912415 0 0 0 0 -264985.18685766397 121577.89040432125 0 121577.89040432125 334096.89367645234 0 0 0 0 -33370175.166680515 -4402902.0261039734 0 -4402902.0261039734 20978630.261604309 0 0 0 0 -29041935.372674942 8418599.7104682922 0 8418599.7104682922 6189579.5580101013 0 0 0 0 -11348228.595431805 -5900147.6493148804 0 -5900147.6493148804 1941606.2674102783 0 0 0 0 -24217569.665865898 -1696026.7654762268 0 -1696026.7654762268 16121952.721611023 0 0 0 0 -8177977.5698032379 11405897.260631561 0 11405897.260631561 19694168.10890007 0 0 0 0 -12789359.020070791 12367266.285636902 0 12367266.285636902 36555082.444671631 0 0 0 0 2522736.0020399094 -7217197.0049362183 0 -7217197.0049362183 13181380.910438538 0 0 0 0 18482486.29714489 12784538.716217041 0 12784538.716217041 -3231745.6565704346 0 0 0 0 7626990.5568246841 17623242.580322266 0 17623242.580322266 4180634.6647644043 0 0 0 0 2537224.028553009 17233403.447364807 0 17233403.447364807 2649581.0890884399 0 0 0 0 -5162505.4520354271 6029681.8274497986 0 6029681.8274497986 -9180500.6916437149 0 0 0 0 -13185438.629383564 3127334.3727874756 0 3127334.3727874756 16582901.852157593 0 0 0 0 -29214344.084367752 -10996970.745559692 0 -10996970.745559692 10431242.171432495 0 0 0 0 -11823948.256267548 -433558.20285797119 0 -433558.20285797119 9818827.3643341064 0 0 0 0 -28509714.05193305 4778824.8584098816 0 4778824.8584098816 14202992.528808594 0 0 0 0 -17201407.108078241 -1402690.5167579651 0 -1402690.5167579651 9459142.5099334717 0 0 0 0 -11717168.579572201 4978960.242401123 0 4978960.242401123 11185906.680894852 0 0 0 0 -9190848.2331757545 2627900.2430458069 0 2627900.2430458069 10269664.461212158 0 0 0 0 5709553.4641952515 5023120.5019607544 0 5023120.5019607544 7946630.5024414062 0 0 0 0 5657570.4371681213 5394256.6993255615 0 5394256.6993255615 5905806.9115066528 0 0 0 0 5440176.6571130753 11233571.451370239 0 11233571.451370239 11042450.969284058 0 0 0 0 -1748372.8579139709 5882838.1306686401 0 5882838.1306686401 9893887.3542251587 0 0 0 0 -2683429.7105665207 7399164.3603057861 0 7399164.3603057861 11097668.19392395 0 0 0 0 -35381.129328727722 12746306.218864441 0 12746306.218864441 15154462.214050293 0 0 0 0 17133230.344765075 -12535250.347565651 0 -12535250.347565651 126502.86888122559 0 0 0 0 23261713.268153191 4910876.7881088257 0 4910876.7881088257 9296669.185546875 0 0 0 0 -11806.294872208908 -587185.39711463032 0 -587185.39711463032 6063.1074630431831 0 0 0 0 22396116.678398132 6804034.1708145142 0 6804034.1708145142 10728174.483505249 0 0 0 0 -569464.8406586434 -3266945.5237447377 0 -3266945.5237447377 734313.02181789838 0 0 0 0 25297352.200361252 1844008.3373718262 0 1844008.3373718262 4281503.8055419922 0 0 0 0 -101405.2936769455 -57825.186745109037 0 -57825.186745109037 148054.39850628376 0 0 0 0 -1902199.2319959777 721150.17532347632 0 721150.17532347632 3774517.3180352338 0 0 0 0 -3863093.0649308525 41229.226475358009 0 41229.226475358009 2520451.1811065674 0 0 0 0 -5434651.8935322762 1168046.3886528015 0 1168046.3886528015 7898306.6925382614 0 0 0 0 8778922.2137126923 3464550.3068122864 0 3464550.3068122864 4688004.7687911987 0 0 0 0 -1463431.5029690871 3752878.2436309848 0 3752878.2436309848 6194540.5787657611 0 0 0 0 3530927.9238219261 276669.17014312744 0 276669.17014312744 7669621.2113265991 0 0 0 0 -3766118.1614546776 4138392.2765655518 0 4138392.2765655518 8739022.7474250793 0 0 0 0 -9161719.0811467171 2784425.8841629028 0 2784425.8841629028 8462897.8528289795 0 0 0 0 -3930982.3400799036 4825324.0784978867 0 4825324.0784978867 8410784.2190856934 0 0 0 0 -9356055.8648757935 2741119.5472450256 0 2741119.5472450256 9865982.2095870972 0 0 0 0 -8759798.8140625954 3107689.6665840149 0 3107689.6665840149 9748589.4488506317 0 0 0 0 -8697495.9728140831 2348892.0368347168 0 2348892.0368347168 9894277.7676944733 0 0 0 0 -9736373.0969032049 2826846.7705688477 0 2826846.7705688477 9700070.0143585205 0 0 0 0 15166869.938225612 13418576.214405715 0 13418576.214405715 -7103146.0520095825 0 0 0 0 200317.49042536874 2545013.0435638167 0 2545013.0435638167 155249.76687240601 0 0 0 0 -742239.92951096152 565616.31257604435 0 565616.31257604435 2417820.9599904269 0 0 0 0 -1123452.7938893326 5377511.6867815256 0 5377511.6867815256 4755751.8298721313 0 0 0 0 474584.97618196777 3284520.2730704807 0 3284520.2730704807 9789571.4638050888 0 0 0 0 -4624990.1892662048 9654735.1377677917 0 9654735.1377677917 -6358960.315002799 0 0 0 0 440054.59088659286 20562147.333312988 0 20562147.333312988 -6766892.4140603542 0 0 0 0 3641100.9808183908 20665969.844841003 0 20665969.844841003 -1356179.8825511932 0 0 0 0 1784898.7227759957 1794868.4168834686 0 1794868.4168834686 8786196.6924743652 0 0 0 0 -17891699.244233131 20745357.257907867 0 20745357.257907867 39031887.631576538 0 0 0 0 87660908.539467335 57825345.089042664 0 57825345.089042664 -886934.60316467285 0 0 0 0 -21282609.374241352 -26278763.181152344 0 -26278763.181152344 -3920515.2643280029 0 0 0 0 -73755917.667617798 -10225424.389724731 0 -10225424.389724731 25958397.739521027 0 0 0 0 -32645338.846782595 90858826.486431122 0 90858826.486431122 43778025.267745972 0 0 0 0 -21439196.453224182 7153942.8793907166 0 7153942.8793907166 11715413.595596313 0 0 0 0 -12093238.897949219 17635848.55078125 0 17635848.55078125 -3446706.0921173096 0 0 0 0 -8407974.6152906418 -372904.13139343262 0 -372904.13139343262 10897068.434936523 0 0 0 0 -4173315.1669831276 1897665.5191192627 0 1897665.5191192627 1820833.2285461426 0 0 0 0 -6316875.5973372459 9868973.7296981812 0 9868973.7296981812 8071961.9694366455 0 0 0 0 -335149.63467729435 375048.56488947757 0 375048.56488947757 504666.4077700749 0 0 0 0 -775735.25368499756 2004438.5558853149 0 2004438.5558853149 12468580.839414597 0 0 0 0 -1348504.789598298 -476512.44017372373 0 -476512.44017372373 6717313.034696579 0 0 0 0 -414793.61480097054 375345.85298012849 0 375345.85298012849 7118497.397775352 0 0 0 0 -2122912.5430979729 -423570.84405517578 0 -423570.84405517578 1755604.0185623169 0 0 0 0 -1603251.9815123216 -1039504.1364145381 0 -1039504.1364145381 7992506.4930891525 0 0 0 0 -317914.72174739838 -10635328.626243591 0 -10635328.626243591 200876.3702545166 0 0 0 0 -1514108.7146568298 -5814206.7701807022 0 -5814206.7701807022 6273689.1287536621 0 0 0 0 712558.62043762207 -9186327.3299942017 0 -9186327.3299942017 775941.36221313477 0 0 0 0 -26240826.778667569 -31361126.595582962 0 -31361126.595582962 -25977282.333099365 0 0 0 0 863923.69276618958 -1458614.754447937 0 -1458614.754447937 15526980.953651428 0 0 0 0 -957757.60213828087 -17619002.58368206 0 -17619002.58368206 -7307224.0835266113 0 0 0 0 919427.25468873978 -3677171.6423816681 0 -3677171.6423816681 -9188294.4431152344 0 0 0 0 1233891.6013269424 -2603521.4222412109 0 -2603521.4222412109 -12799285.179458618 0 0 0 0 -19902817.798198223 -12052179.250766754 0 -12052179.250766754 4277520.099067688 0 0 0 0 -836184.41856419202 -1034527.4247996109 0 -1034527.4247996109 10685951.274903569 0 0 0 0 -779685.49497614009 392495.38667017967 0 392495.38667017967 2111187.9333125278 0 0 0 0 -139942599.41888046 -52658262.252998352 0 -52658262.252998352 -9762810.2155170441 0 0 0 0 -151245844.83119082 75051838.298400879 0 75051838.298400879 1737548.3359832764 0 0 0 0 -249325810.97919136 71958777.270687103 0 71958777.270687103 42199863.54296875 0 0 0 0 -169049382.96610421 -211823610.04217148 0 -211823610.04217148 67091745.785400391 0 0 0 0 -80033801.854952693 -142152491.38438416 0 -142152491.38438416 8144928.725944519 0 0 0 0 -278254616.70682484 -11492244.676048279 0 -11492244.676048279 135743644.97128296 0 0 0 0 -71304183.67339325 137695480.30692291 0 137695480.30692291 29182613.224258423 0 0 0 0 -5280042.0765104294 30823950.334770203 0 30823950.334770203 -8017228.8574638367 0 0 0 0 4646026.5301399231 26047686.238258362 0 26047686.238258362 -5815983.3503112793 0 0 0 0 7703464.1900264025 16240048.071288109 0 16240048.071288109 -19349328.239486694 0 0 0 0 -5116187.8406105042 -22125769.156021118 0 -22125769.156021118 -57831581.219329834 0 0 0 0 21042249.783101082 29662881.676334381 0 29662881.676334381 -94605791.169284821 0 0 0 0 182669384.05197638 155743063.53396606 0 155743063.53396606 223631703.14359283 0 0 0 0 45823428.08208847 13464695.539001465 0 13464695.539001465 76594564.93951416 0 0 0 0 96336771.837376595 86153593.86668396 0 86153593.86668396 28226837.381954193 0 0 0 0 76504742.870233536 -121173263.44089508 0 -121173263.44089508 -11260041.84837532 0 0 0 0 7679530.5935638547 -276024889.29913902 0 -276024889.29913902 164636002.96243286 0 0 0 0 355547423.37934142 -68793127.674339294 0 -68793127.674339294 -2446952.8214092255 0 0 0 0 355045695.68708354 18873000.126251221 0 18873000.126251221 -68790193.341384888 0 0 0 0 -58153881.866241425 141199696.91335297 0 141199696.91335297 424037493.45274353 0 0 0 0 -74845192.604654521 13943627.455307007 0 13943627.455307007 -72150241.890922546 0 0 0 0 -217625125.14593828 137355839.02962494 0 137355839.02962494 173391955.94026184 0 0 0 0 174132.10494570382 377942.26791413501 0 377942.26791413501 500843.02539636567 0 0 0 0 130176369.34696953 -141417185.78670692 0 -141417185.78670692 92852187.869110107 0 0 0 0 19944945.879271209 -20025019.296730042 0 -20025019.296730042 286193859.51804543 0 0 0 0 69864807.650408506 -49336812.902992249 0 -49336812.902992249 -41687629.086668015 0 0 0 0 9566151.3323299885 97798394.085479736 0 97798394.085479736 13426330.967995644 0 0 0 0 16578880.457203865 -53242126.928794861 0 -53242126.928794861 -39664110.844833374 0 0 0 0 15506.177518958895 1246845.5866622273 0 1246845.5866622273 13608.672141268849 0 0 0 0 -298688607.40725952 86761741.033477783 0 86761741.033477783 77083650.621856689 0 0 0 0 71659488.928257167 151590750.66110229 0 151590750.66110229 -155952081.68400574 0 0 0 0 16401824.172988206 -51458349.306243896 0 -51458349.306243896 40691280.480300903 0 0 0 0 -64044776.061203122 57204304.544570923 0 57204304.544570923 -9503728.8089675903 0 0 0 0 -100058737.50373644 -16355942.586475372 0 -16355942.586475372 -19866367.600166321 0 0 0 0 68261.247493310788 3936530.7956908597 0 3936530.7956908597 19793.549492087215 0 0 0 0 -128513122.56335032 34097007.144104004 0 34097007.144104004 18392192.969047546 0 0 0 0 -3057342.4611729383 14947441.538608551 0 14947441.538608551 -8174380.1769714355 0 0 0 0 116059202.10241199 -20068936.596797943 0 -20068936.596797943 -29624672.760482788 0 0 0 0 412949.15644412441 1110315.8966969009 0 1110315.8966969009 1604947.6183875948 0 0 0 0 -24675746.716311038 33760578.415596008 0 33760578.415596008 215713836.21191406 0 0 0 0 -11347936.122754812 9263050.7579879761 0 9263050.7579879761 29800096.482643127 0 0 0 0 16454439.715639591 36878209.718421936 0 36878209.718421936 8255855.6775245667 0 0 0 0 -11441800.525974274 13949943.998813629 0 13949943.998813629 -1571198.6737213135 0 0 0 0 -15868989.581166267 38069435.068710327 0 38069435.068710327 -5117548.8634166718 0 0 0 0 -3263645.8128204346 -14062767.286795616 0 -14062767.286795616 10710085.243972778 0 0 0 0 -60176180.922882974 17052530.62229538 0 17052530.62229538 -3476399.5440216064 0 0 0 0 -30027127.817765474 24048989.805706024 0 24048989.805706024 10935023.931022644 0 0 0 0 -20701043.551716685 29370335.88743782 0 29370335.88743782 -44882344.082901001 0 0 0 0 -830825.46627427358 -757874.92042750493 0 -757874.92042750493 1629190.890995875 0 0 0 0 -15788487.620445848 -8526460.5840835571 0 -8526460.5840835571 12790647.721229553 0 0 0 0 -69451933.045413673 52706577.677645206 0 52706577.677645206 -8559313.7564926147 0 0 0 0 -64767302.559204936 22923787.160306931 0 22923787.160306931 -12523270.730926514 0 0 0 0 -42811394.28078723 46473703.610107422 0 46473703.610107422 1792924.4681682587 0 0 0 0 434244.69999829039 2990608.4922248032 0 2990608.4922248032 9616195.2513370849 0 0 0 0 -23555742.149362326 28477968.762031555 0 28477968.762031555 -1241510.2397689819 0 0 0 0 1824752.309191227 20593058.981822968 0 20593058.981822968 -4842244.7545566559 0 0 0 0 -267977.6296069622 16645089.987863541 0 16645089.987863541 4750154.9366989136 0 0 0 0 8028401.1376366615 1758191.8709869385 0 1758191.8709869385 2797281.282851696 0 0 0 0 -70498973.197188377 39651032.237146378 0 39651032.237146378 26974860.85231781 0 0 0 0 -36996878.495473385 8449801.927822113 0 8449801.927822113 25962914.442352295 0 0 0 0 -396482.69359164959 3143691.6921201507 0 3143691.6921201507 8970785.9714724906 0 0 0 0 -85743313.72902298 -60356216.228610992 0 -60356216.228610992 101261914.92777252 0 0 0 0 2699790.242184639 2936010.9100112915 0 2936010.9100112915 -56370557.741600037 0 0 0 0 11714493.919356108 26386646.398618698 0 26386646.398618698 15743894.765640259 0 0 0 0 20406660.340007544 4176574.8616294861 0 4176574.8616294861 45191097.91985321 0 0 0 0 9714806.7897281647 34478889.545074463 0 34478889.545074463 103556913.32046509 0 0 0 0 -3933929.6277220845 -14456748.152662277 0 -14456748.152662277 92230054.745658875 0 0 0 0 34831917.943396568 58970318.709884644 0 58970318.709884644 83858800.092235565 0 0 0 0 -60053.691445297445 -35216.626147216186 0 -35216.626147216186 181656.98892346211 0 0 0 0 -59209457.201920509 -64933551.710029602 0 -64933551.710029602 -59807867.345748901 0 0 0 0 -35349196.573219299 -57883588.566078186 0 -57883588.566078186 -44240408.948074341 0 0 0 0 -93003534.324781835 -31376376.803384304 0 -31376376.803384304 13262126.15914917 0 0 0 0 -85819991.810305595 -55768863.269897461 0 -55768863.269897461 -31351223.434036255 0 0 0 0 -217835.48651173752 2264399.3422912313 0 2264399.3422912313 7329572.3948549293 0 0 0 0 -58110572.831118584 -12838505.398860931 0 -12838505.398860931 -16046983.618551731 0 0 0 0 -22647207.104183123 10799434.409173965 0 10799434.409173965 12792438.46219635 0 0 0 0 -5590550.9992331266 10676267.250926971 0 10676267.250926971 -1873268.5287077427 0 0 0 0 -5112865.8116006255 13209401.450588226 0 13209401.450588226 9687190.3471374512 0 0 0 0 -39667052.421583176 26644276.336997986 0 26644276.336997986 28479897.471889496 0 0 0 0 -75320528.8974998 17490768.423000336 0 17490768.423000336 23199451.917129517 0 0 0 0 -20760513.107069492 8922865.1693382263 0 8922865.1693382263 24114393.867263794 0 0 0 0 -10962713.109114081 -9453931.4020614624 0 -9453931.4020614624 51324400.211791992 0 0 0 0 -61841518.74022603 74732153.921497345 0 74732153.921497345 -24185606.91532135 0 0 0 0 13897997.736125827 -32287697.608539581 0 -32287697.608539581 33635225.444152832 0 0 0 0 149297.75655318625 -115694.36590527743 0 -115694.36590527743 107118.92729757354 0 0 0 0 9636874.8882924616 -10198032.536994934 0 -10198032.536994934 4909472.9770736694 0 0 0 0 -18881883.771680504 15121241.588222504 0 15121241.588222504 17746953.3331604 0 0 0 0 -13277499.249802709 6593738.605140686 0 6593738.605140686 598627.64781951904 0 0 0 0 -54474979.295056045 14714579.509679794 0 14714579.509679794 16601209.185470581 0 0 0 0 -1141093.0525989339 2751896.1782168127 0 2751896.1782168127 4932359.2556241639 0 0 0 0 2000726.318800211 1145054.2750358582 0 1145054.2750358582 7664789.054977417 0 0 0 0 -20135249.285208702 7782201.4718322754 0 7782201.4718322754 17716923.559261322 0 0 0 0 -37920736.547208309 -27105162.496734619 0 -27105162.496734619 11058678.278079987 0 0 0 0 -948051.90179783432 -633927.54122005776 0 -633927.54122005776 3089653.835842263 0 0 0 0 -6480165.7804174423 1473486.2135391235 0 1473486.2135391235 -17477237.951792955 0 0 0 0 -8137804.074753046 6278419.6251277924 0 6278419.6251277924 -478947.88772583008 0 0 0 0 -5565185.9414320588 3364946.1347351074 0 3364946.1347351074 1328363.3964972496 0 0 0 0 3561428.6882070899 2793198.3889884949 0 2793198.3889884949 -10489662.744186401 0 0 0 0 3111080.5900773108 -3314828.1633536816 0 -3314828.1633536816 -17506972.196678162 0 0 0 0 -262583.37304437737 212899.24429891631 0 212899.24429891631 647282.76106215268 0 0 0 0 31247779.247407734 19232971.607162476 0 19232971.607162476 -14806134.334907532 0 0 0 0 9811167.3108568341 4384171.4333810806 0 4384171.4333810806 -22918892.108596802 0 0 0 0 -10831828.380362213 23042089.818840027 0 23042089.818840027 -3379192.8921585083 0 0 0 0 13814009.831019163 13258792.531967163 0 13258792.531967163 -10220594.283472776 0 0 0 0 -22250412.118953019 41928545.636959076 0 41928545.636959076 -1505871.7989044189 0 0 0 0 14586523.681543052 18245178.937835693 0 18245178.937835693 -8604313.4011878967 0 0 0 0 10490100.807255149 11503362.634305 0 11503362.634305 20243904.746574402 0 0 0 0 82437280.480948329 13758878.84009552 0 13758878.84009552 18209925.357837677 0 0 0 0 -4465612.2996703386 -17829658.439946175 0 -17829658.439946175 -24242141.815765381 0 0 0 0 4234056.7777703106 17838730.650029182 0 17838730.650029182 121393065.20896912 0 0 0 0 29375904.85343498 32918241.226379395 0 32918241.226379395 70350905.206298828 0 0 0 0 54690288.735732675 27303223.698272705 0 27303223.698272705 -17880438.876167297 0 0 0 0 -1461347.6304114461 1281253.5016975403 0 1281253.5016975403 -18978196.537261963 0 0 0 0 -53921772.019911289 10073708.331886292 0 10073708.331886292 10635365.650058746 0 0 0 0 -391853.78921999887 1389529.0984374359 0 1389529.0984374359 1362378.991342403 0 0 0 0 50641.692326560384 1855337.6872503604 0 1855337.6872503604 4115957.8556920849 0 0 0 0 19450703.18058157 6222119.4742240906 0 6222119.4742240906 -14189948.307518005 0 0 0 0 54463721.662310123 -7386177.0422229767 0 -7386177.0422229767 -12678719.952339172 0 0 0 0 443365.48113093135 1680294.8158832435 0 1680294.8158832435 2755048.9043629616 0 0 0 0 -10272426.490478218 6868616.6570358276 0 6868616.6570358276 -21890368.421394348 0 0 0 0 -34030005.305282831 59424835.968845367 0 59424835.968845367 13237285.350006104 0 0 0 0 13284357.197043777 24653618.480667114 0 24653618.480667114 -61918673.804527283 0 0 0 0 16484317.986749649 -206033395.99408722 0 -206033395.99408722 94394227.815765381 0 0 0 0 -82438488.316226572 -42799050.109817505 0 -42799050.109817505 337011850.7382431 0 0 0 0 21966954.347965434 -26374513.822284698 0 -26374513.822284698 96900822.357666016 0 0 0 0 32797842.293688737 51150959.366531372 0 51150959.366531372 142924853.0609436 0 0 0 0 -28765.541007746557 281485.89735549409 0 281485.89735549409 376581.74452503398 0 0 0 0 -18475913.307360113 12009715.959434509 0 12009715.959434509 193060708.60862303 0 0 0 0 -4654336.0704742074 -2888896.3452072144 0 -2888896.3452072144 191791661.64181519 0 0 0 0 -34834894.477921486 28407371.56697464 0 28407371.56697464 219138900.61074829 0 0 0 0 -17900877.758131504 294914.01540374756 0 294914.01540374756 -89339791.767951965 0 0 0 0 -6331032.749815464 -43999729.557098389 0 -43999729.557098389 2059689.6413497925 0 0 0 0 -50678869.092182159 -24750809.530344009 0 -24750809.530344009 -5834628.811416626 0 0 0 0 255583.39543100147 -29537.960949398577 0 -29537.960949398577 39664.40378424339 0 0 0 0 44841861.441759348 -73682267.924560547 0 -73682267.924560547 -130951083.75888824 0 0 0 0 17702896.906161249 -96346519.905448914 0 -96346519.905448914 -40359981.782165527 0 0 0 0 37700905.389633894 -91687096.760810852 0 -91687096.760810852 -102172792.63197327 0 0 0 0 68440735.461881518 -97408713.977729797 0 -97408713.977729797 -45381821.228713989 0 0 0 0 -4322531.9391973019 -38821057.397865295 0 -38821057.397865295 67272557.444267273 0 0 0 0 -4330860.5218184292 -39691117.693167925 0 -39691117.693167925 -1649692.841003418 0 0 0 0 13183213.146146715 -60461060.15063858 0 -60461060.15063858 93404149.824905396 0 0 0 0 -38568860.570237912 -20343231.565475464 0 -20343231.565475464 16514994.339782715 0 0 0 0 -37611370.09964788 -5455333.7583847046 0 -5455333.7583847046 78147966.883094788 0 0 0 0 -21020689.802238584 16583259.483562469 0 16583259.483562469 27885866.483612061 0 0 0 0 -22264718.617145538 13157676.406726837 0 13157676.406726837 41245871.625663757 0 0 0 0 -6345337.3951303959 19989107.483974457 0 19989107.483974457 55560109.589050293 0 0 0 0 -11315710.820762634 30474592.392425537 0 30474592.392425537 47696445.345397949 0 0 0 0 22237880.473339975 75684965.543079376 0 75684965.543079376 156045228.32290649 0 0 0 0 -7529416.2861931324 -3696693.0332527161 0 -3696693.0332527161 4212010.4939727783 0 0 0 0 -16983321.448347032 -10457753.542421818 0 -10457753.542421818 763891.45043182373 0 0 0 0 -25595610.512825012 -1226903.9895401001 0 -1226903.9895401001 11179102.259872437 0 0 0 0 -16604996.14461875 -5153655.3033218384 0 -5153655.3033218384 11440197.461418152 0 0 0 0 -8558618.8166725636 -15301949.134166718 0 -15301949.134166718 -25614949.74622345 0 0 0 0 -31765958.992515206 -23580554.446712494 0 -23580554.446712494 1839920.9738616943 0 0 0 0 -26737992.794773817 -15406266.353515625 0 -15406266.353515625 -5123990.5985717773 0 0 0 0 -4158805.3763715029 -5638233.5726928711 0 -5638233.5726928711 -6609565.0051651001 0 0 0 0 -19149783.085453629 13730589.062984467 0 13730589.062984467 5108583.2152252197 0 0 0 0 563005.77336377418 -130514.32382623293 0 -130514.32382623293 145920.12120504119 0 0 0 0 -20752080.738505483 -33216080.854049683 0 -33216080.854049683 -34144417.498687744 0 0 0 0 7089284.7082746029 -45714418.201179504 0 -45714418.201179504 115738798.52141571 0 0 0 0 94977124.156992912 -2316337.9067382812 0 -2316337.9067382812 31779880.9063797 0 0 0 0 -53816892.377794802 -72886467.549942017 0 -72886467.549942017 83405772.513076782 0 0 0 0 -42397797.45257774 -49508356.35643959 0 -49508356.35643959 115577380.10738373 0 0 0 0 -13776344.080970109 -83330455.6521492 0 -83330455.6521492 155254771.81678772 0 0 0 0 35469885.430049062 -56788531.444519043 0 -56788531.444519043 65077407.33997345 0 0 0 0 -27956821.922620773 65685833.872123718 0 65685833.872123718 250753110.18663788 0 0 0 0 121908.33211563813 -101128.15723711997 0 -101128.15723711997 96474.88068305701 0 0 0 0 3973614.8924793005 -5895882.6920547485 0 -5895882.6920547485 -15777085.000907898 0 0 0 0 -8178994.7275961861 -53233695.77425766 0 -53233695.77425766 122843025.92374039 0 0 0 0 -18490165.165288448 27119543.843147278 0 27119543.843147278 163860427.52012634 0 0 0 0 -2063727.2558777332 1842209.1104660034 0 1842209.1104660034 4322211.8002166748 0 0 0 0 330620.01070843317 -314679.20250751823 0 -314679.20250751823 280978.71884769946 0 0 0 0 -428335.8159275651 -10943971.020240784 0 -10943971.020240784 -5065030.8579864502 0 0 0 0 4562211.8429470062 2442826.4270172119 0 2442826.4270172119 2719890.9439315796 0 0 0 0 907096.69964516163 6096313.7369651794 0 6096313.7369651794 -5058220.0064125061 0 0 0 0 -7198207.9875069261 -2595476.6509552002 0 -2595476.6509552002 12001821.805007935 0 0 0 0 -3167389.6283926964 -634131.74327850342 0 -634131.74327850342 10257175.409828186 0 0 0 0 589259.69352413213 -306719.33551783673 0 -306719.33551783673 348193.91347482242 0 0 0 0 -5244600.8658809662 -5307494.042881012 0 -5307494.042881012 -2581161.9609718323 0 0 0 0 6463.8008218248433 -14841.115945230005 0 -14841.115945230005 555.69457786157727 0 0 0 0 -599417.26333808899 1095403.4805145264 0 1095403.4805145264 3172752.2189788818 0 0 0 0 -7004.0784120151511 -775012.73885918525 0 -775012.73885918525 1338419.7465999797 0 0 0 0 -3664653.3057589056 623083.04231071472 0 623083.04231071472 1694513.6556243896 0 0 0 0 -1490351.6589950193 2473892.3884506226 0 2473892.3884506226 2975515.6799273491 0 0 0 0 -7568628.6156315804 -4558887.704914093 0 -4558887.704914093 789122.37840270996 0 0 0 0 -2193723.1586878896 -3447895.3245081902 0 -3447895.3245081902 -1500432.3726425171 0 0 0 0 180348.51351482747 -1245444.7022323608 0 -1245444.7022323608 3089400.9322814941 0 0 0 0 964186.9174772253 -1474428.8859596252 0 -1474428.8859596252 2569721.7128753662 0 0 0 0 202650.12091095373 -1728158.1410522461 0 -1728158.1410522461 3901999.9099121094 0 0 0 0 -6506.0920247558115 35645.795066207647 0 35645.795066207647 -38508.288877017796 0 0 0 0 111188.12170018442 681105.72109985352 0 681105.72109985352 187200.6485748291 0 0 0 0 1485210.7614453905 -2908773.2861099243 0 -2908773.2861099243 4674221.4151153564 0 0 0 0 -1221006.5195658486 298796.59426498413 0 298796.59426498413 363965.88136291504 0 0 0 0 -834789.44497360918 70586.714735200629 0 70586.714735200629 923170.88327624276 0 0 0 0 -2501465.1224737167 549359.25124359131 0 549359.25124359131 3087248.7640380859 0 0 0 0 -290803.67015743256 -273146.11889648438 0 -273146.11889648438 51206.24634552002 0 0 0 0 -4043901.1855239868 621693.40617370605 0 621693.40617370605 4252835.4942016602 0 0 0 0 -4617284.9330644608 -1419125.7841033936 0 -1419125.7841033936 1916392.44921875 0 0 0 0 -606642.81420755386 349548.09372711182 0 349548.09372711182 2394680.6859436035 0 0 0 0 -91637.614539188624 -442662.50989315659 0 -442662.50989315659 812948.0259713456 0 0 0 0 240747.21690531541 -474490.92984771729 0 -474490.92984771729 1180751.4375953674 0 0 0 0 744319.81219828129 -1500029.6565799713 0 -1500029.6565799713 -36872.568084716797 0 0 0 0 -496.6176769781074 -786253.19454574585 0 -786253.19454574585 1927124.6375274658 0 0 0 0 816066.07936825533 -1175858.1831893921 0 -1175858.1831893921 800642.0514831543 0 0 0 0 495762.17345242063 -583248.39093017578 0 -583248.39093017578 1468976.1915893555 0 0 0 0 -13063.738125812954 79473.547647364438 0 79473.547647364438 -86941.288698889315 0 0 0 0 157997.10984562497 -1006260.3881978989 0 -1006260.3881978989 1418631.4028930664 0 0 0 0 -297790.21560723957 -96440.593591986224 0 -96440.593591986224 807710.99640258402 0 0 0 0 -516.77650276640884 -51675.54460144043 0 -51675.54460144043 440079.06147003174 0 0 0 0 41679.110724672675 -511839.8749332428 0 -511839.8749332428 -4063680.0258026123 0 0 0 0 340805.39792953862 -354964.95444798842 0 -354964.95444798842 308817.45887963846 0 0 0 0 37550446.486576207 17962002.81388855 0 17962002.81388855 -5097264.7900934219 0 0 0 0 383826.63467693795 -550656.16018374264 0 -550656.16018374264 519526.71788551286 0 0 0 0 -1616964.9888510704 -3045739.2901382446 0 -3045739.2901382446 -241338.31128025055 0 0 0 0 -5959932.7394690514 -728379.16802978516 0 -728379.16802978516 3937990.5852565765 0 0 0 0 -5396963.5395245552 -2205617.2091827393 0 -2205617.2091827393 2593497.5269622803 0 0 0 0 4578.8207321151804 -16746898.756764412 0 -16746898.756764412 69391870.386108398 0 0 0 0 9897037.334461106 -24210932.00342083 0 -24210932.00342083 -29173857.406604767 0 0 0 0 -9399.7942148534057 -40500.523712504655 0 -40500.523712504655 206605.6297165677 0 0 0 0 -36241133.573371351 30679535.72360611 0 30679535.72360611 163628785.1163826 0 0 0 0 40826310.497044995 -58752996.033145905 0 -58752996.033145905 169149965.79570007 0 0 0 0 36144005.772342235 25635344.283660889 0 25635344.283660889 -6279374.3106689453 0 0 0 0 -38449.826013904014 -49907.7087312527 0 -49907.7087312527 484697.63080673292 0 0 0 0 -8676580.5142428875 -47676347.843875885 0 -47676347.843875885 51763.901497125626 0 0 0 0 -41246771.967494354 -96991681.331083298 0 -96991681.331083298 -72342569.865493774 0 0 0 0 -73373852.962614551 30173570.844875813 0 30173570.844875813 195207168.85676575 0 0 0 0 -75841751.296478897 -98297736.045982361 0 -98297736.045982361 -21112275.142032623 0 0 0 0 85972307.946387678 3141348.7018165588 0 3141348.7018165588 -84069301.3749156 0 0 0 0 3627810.0675644614 51742750.845584869 0 51742750.845584869 90990754.517066956 0 0 0 0 -7841388.6489181044 -8544711.0449228287 0 -8544711.0449228287 8761804.3054084778 0 0 0 0 -20940770.974764049 -14605573.905414104 0 -14605573.905414104 48649062.887374878 0 0 0 0 -2216157.1650740304 27862358.474504471 0 27862358.474504471 29622286.09854126 0 0 0 0 -6642508.3407380842 -303587.37141799927 0 -303587.37141799927 5239712.6211547852 0 0 0 0 -43178.992185291107 131282.52056671213 0 131282.52056671213 42991.57755606994 0 0 0 0 3047609.6695182994 1618734.8229064941 0 1618734.8229064941 3619866.1573028564 0 0 0 0 2123164.5841524396 -2200984.6157150269 0 -2200984.6157150269 8705880.3585510254 0 0 0 0 -4627548.0701007545 2848421.0471496582 0 2848421.0471496582 6690547.810836792 0 0 0 0 -1342810.9707350191 3994604.0081176758 0 3994604.0081176758 6371527.3192596436 0 0 0 0 -2272250.4262864962 -1595204.9424858093 0 -1595204.9424858093 -199802.68524169922 0 0 0 0 -395430.43848837912 1145012.7917327881 0 1145012.7917327881 3079816.2405815125 0 0 0 0 -1208557.6613128949 -548931.40516662598 0 -548931.40516662598 3512990.8194580078 0 0 0 0 1406280.092094522 -187139.61555480957 0 -187139.61555480957 1227463.9844665527 0 0 0 0 1222864.2060452686 -34932.213813781738 0 -34932.213813781738 3453461.6142578125 0 0 0 0 2644371.153851585 -19372.807647705078 0 -19372.807647705078 1511851.3128662109 0 0 0 0 2098668.6421253616 1370157.0529327393 0 1370157.0529327393 4131616.2921066284 0 0 0 0 2771621.9714922784 774021.55850982666 0 774021.55850982666 2548751.4479370117 0 0 0 0 2762.5370216207925 544657.08102798462 0 544657.08102798462 12631796.958129883 0 0 0 0 111932.78046389401 -3703338.0515518188 0 -3703338.0515518188 4096808.4579277039 0 0 0 0 -1194824.3752856757 -2163665.9402008057 0 -2163665.9402008057 26461936.892974854 0 0 0 0 1165468.6524019046 50680.795724868774 0 50680.795724868774 10551168.737609863 0 0 0 0 1681764.6906615864 -3726332.1918411255 0 -3726332.1918411255 25825673.137006819 0 0 0 0 -6985421.8050102163 -17782001.019229889 0 -17782001.019229889 20009045.90713501 0 0 0 0 404137.5382795278 -4901063.9610824585 0 -4901063.9610824585 25827523.386886597 0 0 0 0 6529043.0785716698 -2270427.3257598877 0 -2270427.3257598877 7014126.3806343079 0 0 0 0 22132985.138374481 -13534678.643218994 0 -13534678.643218994 -7304344.8405761719 0 0 0 0 23957523.674493097 28593662.347080231 0 28593662.347080231 28939088.981552124 0 0 0 0 -60399.313981286286 78784.538209666498 0 78784.538209666498 71666.18433444947 0 0 0 0 14331007.258299081 22401421.614673615 0 22401421.614673615 16516843.894714355 0 0 0 0 5244430.7880871985 11942911.092651367 0 11942911.092651367 11982691.61290741 0 0 0 0 11971344.367174206 6352956.7858276367 0 6352956.7858276367 -1973526.0616149902 0 0 0 0 16074878.600910258 14704299.208447456 0 14704299.208447456 6835863.189453125 0 0 0 0 -487741.01840995997 22636166.930583954 0 22636166.930583954 39844749.174819946 0 0 0 0 2037187.4699042514 16481960.739028931 0 16481960.739028931 20184288.39944458 0 0 0 0 6574464.6755436882 13708527.284797668 0 13708527.284797668 11711654.789642334 0 0 0 0 -5249025.1025304981 12333575.493591309 0 12333575.493591309 27737817.885025024 0 0 0 0 -5269433.7363269776 12630785.989807129 0 12630785.989807129 25058483.792491913 0 0 0 0 -1311234.6444299221 7045501.0213851929 0 7045501.0213851929 11170300.487335205 0 0 0 0 297608.81353683397 7119370.3153991699 0 7119370.3153991699 7908780.7962188721 0 0 0 0 49961.492889605463 10251012.11315918 0 10251012.11315918 17440297.83234024 0 0 0 0 2258831.9179865704 6162696.6175422668 0 6162696.6175422668 8278847.75390625 0 0 0 0 624897.23115338013 2775196.9096832275 0 2775196.9096832275 3559257.2771987915 0 0 0 0 588575.79084604234 2779861.2712554932 0 2779861.2712554932 4307443.025604248 0 0 0 0 -25657.438076026738 5670390.2164382935 0 5670390.2164382935 11480888.732419968 0 0 0 0 -10899329.945414891 -3423027.7419986725 0 -3423027.7419986725 6774688.465637207 0 0 0 0 4819710.094555188 25368708.672885895 0 25368708.672885895 -4322764.6390981674 0 0 0 0 -204902.02264393953 291696.96265517641 0 291696.96265517641 185875.5701177083 0 0 0 0 -7539379.1385823786 1201449.0030975342 0 1201449.0030975342 4961511.7190704346 0 0 0 0 196269.2516315002 -1988355.7099990845 0 -1988355.7099990845 2208862.3386688232 0 0 0 0 -4574368.6248115562 -1674845.218963623 0 -1674845.218963623 -939906.51286315918 0 0 0 0 -430471.17446577037 710950.75902451156 0 710950.75902451156 305883.18894387409 0 0 0 0 2287850.160258878 5371075.9394416809 0 5371075.9394416809 -3654866.5722351074 0 0 0 0 -865780.8643943225 2735915.7107009888 0 2735915.7107009888 -1811010.3263092041 0 0 0 0 -567336.39689128101 -1369168.3835754395 0 -1369168.3835754395 -2718050.0824012756 0 0 0 0 -856614.96138426103 2284843.8266592026 0 2284843.8266592026 4451475.0706329346 0 0 0 0 -1540429.5609309711 3183229.7029495239 0 3183229.7029495239 3886430.862487793 0 0 0 0 -1771400.5379888117 -1081411.8028488159 0 -1081411.8028488159 705581.426612854 0 0 0 0 -974146.03854300594 1066555.9858054891 0 1066555.9858054891 1170209.0882126 0 0 0 0 -3654109.4844939709 -1420770.3007621765 0 -1420770.3007621765 7589657.7164535522 0 0 0 0 143730.69686035812 14817.45825958252 0 14817.45825958252 -4405311.0924301147 0 0 0 0 -2894724.8685193583 728408.73849105835 0 728408.73849105835 1994446.2651519775 0 0 0 0 -786431.22304466146 400194.60671007633 0 400194.60671007633 936050.78430636227 0 0 0 0 -308186.76947431482 248175.30253850995 0 248175.30253850995 902657.3047699891 0 0 0 0 -1568814.0072905757 -611626.75842285156 0 -611626.75842285156 -2298479.0440063477 0 0 0 0 -1029523.1769377287 638273.72464036569 0 638273.72464036569 1288277.9862395152 0 0 0 0 -698383.60467404127 46296.405578613281 0 46296.405578613281 1040042.2979736328 0 0 0 0 -683026.65911080909 660484.77944969991 0 660484.77944969991 791219.83413144946 0 0 0 0 -875542.25536409474 123327.7101237271 0 123327.7101237271 1296402.6796985203 0 0 0 0 -637052.24094462395 -77182.70238494873 0 -77182.70238494873 784431.48358154297 0 0 0 0 -1093194.4808503238 74703.723398514092 0 74703.723398514092 1939515.0458857028 0 0 0 0 -416550.32286137342 -478251.53601074219 0 -478251.53601074219 610582.79579162598 0 0 0 0 -344436.56008938886 -467679.02903747559 0 -467679.02903747559 1683066.1489100456 0 0 0 0 6139.9586191768922 -228241.93762931414 0 -228241.93762931414 1487233.6577980134 0 0 0 0 -221719.45244017907 -62693.889533996582 0 -62693.889533996582 1851017.1220898628 0 0 0 0 -51196.775342510635 92283.149481773376 0 92283.149481773376 1520222.055557251 0 0 0 0 -143231.50411970375 452427.35911796591 0 452427.35911796591 144226.79197492078 0 0 0 0 -287164.39197602629 8452.8174036890268 0 8452.8174036890268 489750.81966093183 0 0 0 0 -1615127.4016988371 1714120.8226470947 0 1714120.8226470947 787067.99583435059 0 0 0 0 -153637.75497469917 -218027.08299255371 0 -218027.08299255371 1500479.4156184196 0 0 0 0 -270370.27009078098 21373.025869369507 0 21373.025869369507 1592097.1610870361 0 0 0 0 717416.01473941095 1767342.7845573425 0 1767342.7845573425 552768.34982299805 0 0 0 0 444472.82929546572 1123352.1598625183 0 1123352.1598625183 -910526.90899658203 0 0 0 0 68.776002947719761 59300.110591888428 0 59300.110591888428 1651747.8477325439 0 0 0 0 -555864.5931689248 330646.4134979248 0 330646.4134979248 3080633.737903595 0 0 0 0 -564357.99126419215 -663343.38007354736 0 -663343.38007354736 1095419.1042022705 0 0 0 0 -81250.640779647394 5879.2536260541528 0 5879.2536260541528 146433.40374061465 0 0 0 0 1389787.7109758388 515015.37126922607 0 515015.37126922607 1473792.9879083633 0 0 0 0 4353.4970676687863 -160168.91938389465 0 -160168.91938389465 1338277.8954291986 0 0 0 0 -234273.89723958887 -45189.990039825439 0 -45189.990039825439 2116700.7701339722 0 0 0 0 -35100.908559428382 -3858.975513458252 0 -3858.975513458252 1582897.1864318848 0 0 0 0 18623.92429863452 -964005.09596252441 0 -964005.09596252441 1091164.4915030003 0 0 0 0 -68.120356824601004 -951072.04076004028 0 -951072.04076004028 1085794.6171569824 0 0 0 0 -490479.76421502186 -644315.84799194336 0 -644315.84799194336 1472025.4628067017 0 0 0 0 123617.36961678485 -702689.89610290527 0 -702689.89610290527 1273167.8947296143 0 0 0 0 -470217.83728817012 -946653.60569763184 0 -946653.60569763184 1178612.0232658386 0 0 0 0 -418013.2438675501 -616343.28462457657 0 -616343.28462457657 1338793.0276489258 0 0 0 0 -44855.744693624321 -1031613.6122322083 0 -1031613.6122322083 1021909.5450897217 0 0 0 0 -1288875.5514726522 -623750.71632194519 0 -623750.71632194519 1338767.4464874268 0 0 0 0 -713078.34800320724 -1376549.4046897888 0 -1376549.4046897888 976019.28874206543 0 0 0 0 322.98965258051817 -981339.23147201538 0 -981339.23147201538 981127.5531539917 0 0 0 0 -45927.238610841567 -1006360.7308921814 0 -1006360.7308921814 1033098.703125 0 0 0 0 52786.220380021259 -561095.16435241699 0 -561095.16435241699 1831874.7399215698 0 0 0 0 -764989.95848737611 -1818082.7950935364 0 -1818082.7950935364 608382.8362197876 0 0 0 0 180461.1107275465 -932461.76042556763 0 -932461.76042556763 768136.1690196991 0 0 0 0 -398558.93467619759 -757229.3313369751 0 -757229.3313369751 5285484.4277305603 0 0 0 0 27907.233905568719 -198819.13498687744 0 -198819.13498687744 1648429.0366439819 0 0 0 0 -9.3757875907580903 -940776.72486104292 0 -940776.72486104292 2151636.0684127808 0 0 0 0 -118161.66307044332 -217310.56198120117 0 -217310.56198120117 3724990.2524142265 0 0 0 0 -7888888.2999835014 -4554976.1197929382 0 -4554976.1197929382 2428230.4030914307 0 0 0 0 -3460443.6021627188 -879232.8090057373 0 -879232.8090057373 2591427.958946228 0 0 0 0 -63802.925557483206 -780391.27912938921 0 -780391.27912938921 1603476.3200310692 0 0 0 0 -9914219.7834706306 -5034561.7120361328 0 -5034561.7120361328 2631916.8704147339 0 0 0 0 -3754858.9146850118 -3301510.7581481934 0 -3301510.7581481934 3214134.4316211939 0 0 0 0 -6205629.4179246426 -4817536.566619873 0 -4817536.566619873 -456647.35545349121 0 0 0 0 -8160412.1308026314 920539.83631896973 0 920539.83631896973 2963543.1326332092 0 0 0 0 -2615362.6768748462 -2146562.8307209015 0 -2146562.8307209015 4163697.2687225342 0 0 0 0 -2922541.9995002747 4681760.5113525391 0 4681760.5113525391 11710214.214286804 0 0 0 0 -18923156.563213348 -7349891.8977508545 0 -7349891.8977508545 7181362.9688720703 0 0 0 0 -2395195.668386572 -1356914.0942001343 0 -1356914.0942001343 1628022.1288528442 0 0 0 0 -178936.02813072191 -708053.80241329013 0 -708053.80241329013 1872913.0969432369 0 0 0 0 1818812.9822343588 -8673747.2982311249 0 -8673747.2982311249 -1544986.0214691162 0 0 0 0 -3397627.1781191826 -658311.94404602051 0 -658311.94404602051 2533368.1379972696 0 0 0 0 -350909.8754224194 583522.84301859466 0 583522.84301859466 202650.48438985646 0 0 0 0 -11280975.460085392 9650022.792098999 0 9650022.792098999 8714052.2316436768 0 0 0 0 -16398.14458990097 2245244.7923583984 0 2245244.7923583984 -1331948.3513594866 0 0 0 0 -393876.21548035287 -458039.85506483947 0 -458039.85506483947 2151586.7737594843 0 0 0 0 -800328.16475182935 -64147.359906412661 0 -64147.359906412661 1257506.0476278365 0 0 0 0 -3616813.239081949 711245.55492305756 0 711245.55492305756 7858495.0155792236 0 0 0 0 -1485699.733528614 4567786.6695785522 0 4567786.6695785522 11586719.433429718 0 0 0 0 -151224.43404413364 5555.1570551656187 0 5555.1570551656187 297418.02521637827 0 0 0 0 1779145.5586671829 1140079.3396987915 0 1140079.3396987915 3328928.8591156006 0 0 0 0 -496663.18679881096 -7378451.3728256226 0 -7378451.3728256226 2035484.7334976196 0 0 0 0 624164.29159241915 -3544794.3176517487 0 -3544794.3176517487 8372721.3656997681 0 0 0 0 1366129.3298729658 -4101683.1813964844 0 -4101683.1813964844 8745611.5485076904 0 0 0 0 2414453.1899695396 34060.812854766846 0 34060.812854766846 10529520.535797119 0 0 0 0 386803.56155580282 9524224.1450386047 0 9524224.1450386047 16905250.554496765 0 0 0 0 -3143143.2906982601 1421598.6621217728 0 1421598.6621217728 16395371.872489929 0 0 0 0 3584648.6270329952 -1939199.9899787903 0 -1939199.9899787903 5252993.4511032104 0 0 0 0 -5094139.5082921982 -119970.37462234497 0 -119970.37462234497 4971238.7843589783 0 0 0 0 4379331.2557565942 4622280.8776421547 0 4622280.8776421547 721653.32988739014 0 0 0 0 -2771734.866355896 8092871.7637329102 0 8092871.7637329102 1523113.8698749542 0 0 0 0 -10186975.656974971 8289199.5461893082 0 8289199.5461893082 16972700.823196411 0 0 0 0 -1693749.8189157248 10319539.351882935 0 10319539.351882935 5414423.6048965454 0 0 0 0 -13134048.814771712 -266383.14233112335 0 -266383.14233112335 5942312.1824188232 0 0 0 0 -759500.15393781662 4685120.075088501 0 4685120.075088501 7292049.974609375 0 0 0 0 12268235.900356531 21939739.775749207 0 21939739.775749207 -14134615.192979813 0 0 0 0 3758833.3592977524 37731279.298618317 0 37731279.298618317 -17961149.738220215 0 0 0 0 7848417.8540883064 72247085.750991821 0 72247085.750991821 51416620.563221455 0 0 0 0 843259.37927031517 33970604.480651855 0 33970604.480651855 22596827.695995331 0 0 0 0 -1665940.168739161 18941153.162760451 0 18941153.162760451 -1902564.0487060547 0 0 0 0 6234561.5807851553 -3726525.2126159668 0 -3726525.2126159668 -11605139.367520332 0 0 0 0 8882524.0779857635 19011627.308517456 0 19011627.308517456 -15190781.571601868 0 0 0 0 -15966266.56303969 -37301872.970806122 0 -37301872.970806122 -52510413.067420959 0 0 0 0 35715311.680375338 20165281.023784637 0 20165281.023784637 -88128174.70401001 0 0 0 0 7023029.4578870535 -5641172.2653427124 0 -5641172.2653427124 -14999385.113700867 0 0 0 0 -21936924.071400046 -12692529.353614807 0 -12692529.353614807 4645371.2094192505 0 0 0 0 -4364167.3110976815 -6015938.9586105347 0 -6015938.9586105347 5759088.0866012573 0 0 0 0 2460804.5651600361 622682.86627960205 0 622682.86627960205 -2389022.0424804688 0 0 0 0 1160639.9186460972 -1214009.8008460999 0 -1214009.8008460999 15031949.850376129 0 0 0 0 -1746092.8821094036 -9149637.4054260254 0 -9149637.4054260254 7383303.4635734558 0 0 0 0 -4340132.6914501116 -1616695.8492994308 0 -1616695.8492994308 14130858.237693787 0 0 0 0 3907719.4485731125 -3567267.0322265625 0 -3567267.0322265625 14371920.683914185 0 0 0 0 -2223303.2574612945 5586690.0198001862 0 5586690.0198001862 4399345.9402542114 0 0 0 0 2863031.0013628006 9363379.7354431152 0 9363379.7354431152 9326271.8335418701 0 0 0 0 1253324.2735124603 5648060.1532859802 0 5648060.1532859802 4384354.624786377 0 0 0 0 7171745.170068413 4235581.5302810669 0 4235581.5302810669 2016999.7337527275 0 0 0 0 -2545965.5427183956 5088556.0318641663 0 5088556.0318641663 2095053.1165542603 0 0 0 0 1742737.8192976676 2591125.7368812561 0 2591125.7368812561 8963448.7098083496 0 0 0 0 4188928.0023579225 4113196.134147644 0 4113196.134147644 -7522145.5380783081 0 0 0 0 -388106.40585924452 1299920.3543744329 0 1299920.3543744329 1675559.5654687367 0 0 0 0 -3934422.2484673262 -4782834.6151752472 0 -4782834.6151752472 23909938.852203369 0 0 0 0 -678779.79636091401 1204190.5965518206 0 1204190.5965518206 1258307.5236266672 0 0 0 0 347581.22787024081 -3116184.0082473755 0 -3116184.0082473755 -867324.13288879395 0 0 0 0 -1498434.6051244736 -1694701.8019752502 0 -1694701.8019752502 14283670.932250977 0 0 0 0 3424589.6320574582 2145883.8867340088 0 2145883.8867340088 -9463471.8079638481 0 0 0 0 -2993890.8589264899 -1495486.0277824402 0 -1495486.0277824402 28203.733741760254 0 0 0 0 2162131.6657341197 531789.51094818115 0 531789.51094818115 -3501.9944196939468 0 0 0 0 -1850669.2960964441 -1337655.4433326721 0 -1337655.4433326721 8576323.8516998291 0 0 0 0 3375284.1911704242 2166712.8419113159 0 2166712.8419113159 1058563.0440063477 0 0 0 0 -213964.7211047411 291606.08479309082 0 291606.08479309082 10040780.661437988 0 0 0 0 5833417.0849300027 612965.10321807861 0 612965.10321807861 10052363.335464478 0 0 0 0 -1069036.5870169932 -1345412.770128727 0 -1345412.770128727 20535961.314468384 0 0 0 0 -668955.9530327078 2082784.8147730827 0 2082784.8147730827 18824898.632202148 0 0 0 0 4605585.6225839555 -2281874.5885238647 0 -2281874.5885238647 20759409.731548309 0 0 0 0 298159.94130547345 3220850.1956176758 0 3220850.1956176758 10207829.476810455 0 0 0 0 -1161771.9779252782 2495473.1963272095 0 2495473.1963272095 14296949.329162598 0 0 0 0 -2905199.376516372 3312586.8840179443 0 3312586.8840179443 20712078.621805191 0 0 0 0 -2130857.6362866908 8333485.3086776733 0 8333485.3086776733 18672587.801895142 0 0 0 0 -8035665.7635718882 10240063.731105804 0 10240063.731105804 33957234.808280945 0 0 0 0 -4723286.0918528736 5960064.5540466309 0 5960064.5540466309 21635924.357704163 0 0 0 0 -4922616.1519867033 5737094.6152153015 0 5737094.6152153015 30142075.523880005 0 0 0 0 -8559087.3130936772 8632261.1407012939 0 8632261.1407012939 29772951.272901535 0 0 0 0 -2025477.2383627892 4671305.6114044189 0 4671305.6114044189 31973151.035327911 0 0 0 0 -2335802.2760677487 299605.8716583252 0 299605.8716583252 34328104.18901062 0 0 0 0 -6877863.747269772 4956610.4658432007 0 4956610.4658432007 37419924.615280151 0 0 0 0 -2247768.0255827177 6683943.5947003365 0 6683943.5947003365 49360867.713928223 0 0 0 0 21301618.563218728 -786504.58744430542 0 -786504.58744430542 14500809.019111633 0 0 0 0 -3447351.6953229308 168075.51431274414 0 168075.51431274414 63656171.633361816 0 0 0 0 10239141.496431142 -14031465.12928772 0 -14031465.12928772 49066641.649246216 0 0 0 0 10096355.796193019 -7538509.0425796509 0 -7538509.0425796509 28327341.018768311 0 0 0 0 1473745.5398082137 7348940.6937217712 0 7348940.6937217712 15433636.235435486 0 0 0 0 -4355567.3441945612 -30451826.338394165 0 -30451826.338394165 481319.71912384033 0 0 0 0 3123997.1544878185 7207542.3143157959 0 7207542.3143157959 17008212.180953979 0 0 0 0 2826373.1501835436 4602488.7943382263 0 4602488.7943382263 10351181.814819336 0 0 0 0 13022970.979560331 5473202.3969497681 0 5473202.3969497681 9666259.1382637024 0 0 0 0 5671771.112199083 -3089120.8886871338 0 -3089120.8886871338 18995994.676422119 0 0 0 0 3646720.0724099912 1057368.8050909042 0 1057368.8050909042 22807180.598999023 0 0 0 0 -1761798.9210530072 3152012.3163566589 0 3152012.3163566589 6517020.8922271729 0 0 0 0 -638130.61875344813 3243233.1616744995 0 3243233.1616744995 5482384.322845459 0 0 0 0 -1001112.7653138563 7504357.9566059113 0 7504357.9566059113 13171336.60912323 0 0 0 0 -3769779.4201821238 4097241.1678161621 0 4097241.1678161621 9238280.9480905533 0 0 0 0 -3362827.1571383849 -1705938.1339454651 0 -1705938.1339454651 4362732.4880523682 0 0 0 0 13328.880821773972 87952.138161608949 0 87952.138161608949 367248.81727971695 0 0 0 0 -7818696.0391914025 304568.11485290527 0 304568.11485290527 13585845.745420694 0 0 0 0 -568891.73471490294 1103695.8340072632 0 1103695.8340072632 7105920.8515739441 0 0 0 0 -17052.613788620059 181562.28947727941 0 181562.28947727941 679681.58289170079 0 0 0 0 -453619.64934650715 1430353.9481906891 0 1430353.9481906891 3482239.0225219727 0 0 0 0 23494942.7930291 28225621.319961548 0 28225621.319961548 71782387.828962326 0 0 0 0 130244985.06191853 109887928.519104 0 109887928.519104 91417316.683364868 0 0 0 0 98862919.723592907 113898251.27330399 0 113898251.27330399 171127715.45626831 0 0 0 0 181637439.71726811 150432787.09629059 0 150432787.09629059 123310571.66308594 0 0 0 0 40021.54569835501 184295.21922029415 0 184295.21922029415 112503.24198652804 0 0 0 0 -40894784.009294748 37292599.651184082 0 37292599.651184082 -46566939.655872345 0 0 0 0 114235.50724940503 -28675.027253335342 0 -28675.027253335342 -47863.630458422005 0 0 0 0 44299355.738310553 163419677.09463358 0 163419677.09463358 -243090766.47499847 0 0 0 0 -40645796.237696528 28718211.376789093 0 28718211.376789093 -15023441.280548096 0 0 0 0 499349.54907545133 1952574.3113006633 0 1952574.3113006633 434329.71143140644 0 0 0 0 19074759.080118656 117788320.11305237 0 117788320.11305237 104292003.10113525 0 0 0 0 4732093.3922644854 120749647.09494781 0 120749647.09494781 327508280.58215332 0 0 0 0 44042.144400969148 2553770.4047317505 0 2553770.4047317505 4608146.2523040771 0 0 0 0 231359.05704451725 2629611.1088790894 0 2629611.1088790894 4384794.0072174072 0 0 0 0 109216.18839663267 2779190.1690292358 0 2779190.1690292358 4213075.2832794189 0 0 0 0 -199893.98260484636 2707607.0033874512 0 2707607.0033874512 4528282.5547637939 0 0 0 0 946356.76419575303 4173988.7928788741 0 4173988.7928788741 499707.4797760658 0 0 0 0 243695.30078881979 3942206.8423614502 0 3942206.8423614502 3763179.7044620514 0 0 0 0 1329135.4166809618 5210642.9295196533 0 5210642.9295196533 5049532.809463501 0 0 0 0 -50429410.495494723 -18446345.382526398 0 -18446345.382526398 4970366.0838012695 0 0 0 0 62764685.924032599 62596335.202243805 0 62596335.202243805 65870426.170349121 0 0 0 0 163191172.67102718 161244115.59428406 0 161244115.59428406 119055821.23065186 0 0 0 0 40959973.459685802 -4786909.5976104736 0 -4786909.5976104736 64152133.418312073 0 0 0 0 11227510.540592432 -86622928.289535522 0 -86622928.289535522 8045953.0126647949 0 0 0 0 226578390.11422086 28998181.437194824 0 28998181.437194824 -134938261.70838928 0 0 0 0 -27919011.906121016 -1028275.6697616577 0 -1028275.6697616577 47992369.885910034 0 0 0 0 46979420.857607365 -14152730.934669495 0 -14152730.934669495 -49547476.078048706 0 0 0 0 33660327.467951298 17781101.534788132 0 17781101.534788132 25200554.182189941 0 0 0 0 747049.67322932649 191673.77794075944 0 191673.77794075944 -1209574.0834218971 0 0 0 0 -594005.63427186012 20920106.511249542 0 20920106.511249542 -62909099.032302856 0 0 0 0 7008046.4725466967 4286969.6556396484 0 4286969.6556396484 -30694251.801315308 0 0 0 0 1514023.9686806365 4435968.1846604012 0 4435968.1846604012 224604.05948338285 0 0 0 0 -264313.81835434481 2436899.2124639433 0 2436899.2124639433 5823121.3595102271 0 0 0 0 28090.901402950287 4131715.6209182739 0 4131715.6209182739 -2792544.5183386803 0 0 0 0 200177.03518199519 1767816.1209295001 0 1767816.1209295001 4070354.2268484086 0 0 0 0 -3581382.4211083651 3754819.7394714355 0 3754819.7394714355 18178901.148319244 0 0 0 0 -117467.33936775848 5328409.3949966431 0 5328409.3949966431 6608368.7299575806 0 0 0 0 1238175.0754924188 6428931.0289692627 0 6428931.0289692627 2239744.2056833506 0 0 0 0 -547099.00935072452 4819832.8716659546 0 4819832.8716659546 6020783.516998291 0 0 0 0 389045.0669009462 4574424.8197631836 0 4574424.8197631836 5499938.0551782846 0 0 0 0 -842368.28738619387 7773970.3748016357 0 7773970.3748016357 8588299.5023498535 0 0 0 0 -475920.9798430074 5452182.3197417259 0 5452182.3197417259 4935301.387588501 0 0 0 0 -98425.223322705962 1439427.6201910507 0 1439427.6201910507 2534700.9108840805 0 0 0 0 -7111016.7569461465 2339683.5390853882 0 2339683.5390853882 29127321.636369944 0 0 0 0 973536.90219154954 6630950.2313690186 0 6630950.2313690186 1152002.3102731705 0 0 0 0 -587438.5033797659 -1574117.2014083862 0 -1574117.2014083862 18502821.978225708 0 0 0 0 -11349516.665728033 6803668.1686630249 0 6803668.1686630249 14502782.873744965 0 0 0 0 -1275289.6037604213 7721893.299571991 0 7721893.299571991 12881484.520690918 0 0 0 0 1571459.089577198 5570450.1079368591 0 5570450.1079368591 10515491.443130493 0 0 0 0 -2246077.5376601815 3698517.7986679077 0 3698517.7986679077 9597967.0669555664 0 0 0 0 -1083118.5268078744 10777306.05065918 0 10777306.05065918 5971797.8372802734 0 0 0 0 -1571040.6166609377 8737099.8722381592 0 8737099.8722381592 4694276.0494003296 0 0 0 0 -502089.4164482074 639649.19007908367 0 639649.19007908367 848812.42786668986 0 0 0 0 -13685283.993267059 18674397.54586792 0 18674397.54586792 2568098.1392288208 0 0 0 0 919456.32011356729 3938809.608083983 0 3938809.608083983 7029619.9316102266 0 0 0 0 -2274439.6032385677 7489837.1807098389 0 7489837.1807098389 11074644.615447998 0 0 0 0 -3785888.3243317157 13306425.613563538 0 13306425.613563538 8127236.9678497314 0 0 0 0 -26590515.735992968 2450741.4862060547 0 2450741.4862060547 18820136.288894653 0 0 0 0 -15958884.50797981 -11820827.002269745 0 -11820827.002269745 -6993625.3813934326 0 0 0 0 -51391904.911596537 -26798103.757865906 0 -26798103.757865906 3280289.8892974854 0 0 0 0 -21997458.54161191 -29383458.341644287 0 -29383458.341644287 -118464221.09922791 0 0 0 0 -45143889.500364855 141141.21367931366 0 141141.21367931366 6332485.8344268799 0 0 0 0 -1378197.0384533615 -395426.19706908427 0 -395426.19706908427 1975502.687841583 0 0 0 0 -21136457.485960007 -10852840.393669128 0 -10852840.393669128 15232081.785029411 0 0 0 0 -668839.68553481298 -1190759.1812610049 0 -1190759.1812610049 9377074.0729623139 0 0 0 0 -30196908.631781783 -75539285.773301601 0 -75539285.773301601 -97389184.130523682 0 0 0 0 9651053.9551330805 -88255602.33052063 0 -88255602.33052063 -94734640.420532227 0 0 0 0 -71314386.194971293 -28230903.063949585 0 -28230903.063949585 -56338638.393325806 0 0 0 0 59779473.633597508 21290430.900726318 0 21290430.900726318 -46568625.169616699 0 0 0 0 -38228721.936994851 10875427.240760803 0 10875427.240760803 -38699688.489624023 0 0 0 0 40678250.20124197 -42259205.025817871 0 -42259205.025817871 -115944482.2547226 0 0 0 0 -26413411.426252246 -534674.01756668091 0 -534674.01756668091 54646094.832695007 0 0 0 0 -10633943.244080067 -20270156.285423279 0 -20270156.285423279 79155263.107284546 0 0 0 0 -50336726.664858818 54636877.316368103 0 54636877.316368103 44478859.690238953 0 0 0 0 214030.38569465966 1058512.2927913032 0 1058512.2927913032 72141.580844122916 0 0 0 0 -34971831.940697312 7696084.6530008316 0 7696084.6530008316 151626217.34590149 0 0 0 0 -751316.58830766077 -1268843.4647009727 0 -1268843.4647009727 10162037.449731559 0 0 0 0 -13732608.307482779 -47087600.394438505 0 -47087600.394438505 128126996.34011841 0 0 0 0 32593685.949311256 -124164679.34133148 0 -124164679.34133148 270779151.86825562 0 0 0 0 41933160.00479126 -46761237.036504745 0 -46761237.036504745 52820599.056247711 0 0 0 0 79830269.556451797 26161327.019035339 0 26161327.019035339 -114110639.5341301 0 0 0 0 -21005796.544170424 -8359006.7139569521 0 -8359006.7139569521 30074942.403541565 0 0 0 0 264137.84165847301 -12823301.077254295 0 -12823301.077254295 50327231.988693237 0 0 0 0 16141807.261351585 -9960260.5211830139 0 -9960260.5211830139 4160072.3371276855 0 0 0 0 8319439.2037010193 4849995.3457746506 0 4849995.3457746506 1047232.0392227173 0 0 0 0 2038683.2084374428 13644363.298500061 0 13644363.298500061 9286795.686630249 0 0 0 0 -5745279.1058254242 7532499.1944160461 0 7532499.1944160461 7041041.2160339355 0 0 0 0 855858.52505234547 4080075.9094310738 0 4080075.9094310738 -5306.7448384575546 0 0 0 0 16000211.454133987 14448339.439760208 0 14448339.439760208 -9362010.834186554 0 0 0 0 -13221221.62692219 22911292.83196497 0 22911292.83196497 31784058.952484131 0 0 0 0 -4002952.4478857517 6098818.1329803467 0 6098818.1329803467 8806669.6495666504 0 0 0 0 405596.01917143655 3421028.5209151041 0 3421028.5209151041 6920201.244053442 0 0 0 0 -4782248.3609400392 6499515.0000953674 0 6499515.0000953674 12526387.454193115 0 0 0 0 2413435.8683827519 7267749.1744499207 0 7267749.1744499207 7210013.224609375 0 0 0 0 -30228.191058422322 -640.95835613459349 0 -640.95835613459349 368711.87245679088 0 0 0 0 596584.06698393822 5620122.9170780182 0 5620122.9170780182 15630999.839736938 0 0 0 0 3235502.332763195 4389862.6199855804 0 4389862.6199855804 1199088.1394577026 0 0 0 0 -325641.05558273289 340470.29309802875 0 340470.29309802875 4800517.6613016212 0 0 0 0 6424681.7061526775 -1592579.3412094116 0 -1592579.3412094116 12120629.162290573 0 0 0 0 2657029.5403196812 5827103.6987094879 0 5827103.6987094879 22712660.877521515 0 0 0 0 -1539607.5873603821 7455009.3217926025 0 7455009.3217926025 24676820.456463814 0 0 0 0 3432168.6748933792 852958.57073020935 0 852958.57073020935 14952135.187877655 0 0 0 0 -185424.89642968494 161807.934063958 0 161807.934063958 2462063.3265846753 0 0 0 0 -4869630.6699299812 348522.3697681427 0 348522.3697681427 40491872.163757324 0 0 0 0 -6243536.0742037296 23385777.877967834 0 23385777.877967834 54876590.496326447 0 0 0 0 3727526.724255085 34177533.802774429 0 34177533.802774429 46016808.159927368 0 0 0 0 -148096.67367667879 69693.538924299181 0 69693.538924299181 187907.1385365054 0 0 0 0 -25401486.505908966 -29396762.765872955 0 -29396762.765872955 -2075237.9034500122 0 0 0 0 -20782906.547582865 -8849436.1487045288 0 -8849436.1487045288 31465159.64682579 0 0 0 0 -15130795.739651859 18309383.738521576 0 18309383.738521576 41314300.864189148 0 0 0 0 -10724996.198397994 19744441.088554382 0 19744441.088554382 41219614.117088318 0 0 0 0 -2209757.3514713049 19828042.985973358 0 19828042.985973358 32477002.315210342 0 0 0 0 2267099.4404625595 28201369.790384293 0 28201369.790384293 37474575.307373047 0 0 0 0 -6815384.0312480927 15509828.812152863 0 15509828.812152863 21231365.332767487 0 0 0 0 -15107951.131286383 13876329.120830536 0 13876329.120830536 33708544.665634155 0 0 0 0 -14598080.477662086 11970042.764282227 0 11970042.764282227 39665566.392865658 0 0 0 0 5113681.1093579531 15961044.870155334 0 15961044.870155334 31585388.961662292 0 0 0 0 -13832003.61555028 21580495.181987762 0 21580495.181987762 29840421.40297699 0 0 0 0 -12424505.23108305 12438920.001472473 0 12438920.001472473 31355122.964408875 0 0 0 0 -3477365.5647608787 16881946.287545204 0 16881946.287545204 18638232.364349365 0 0 0 0 -4744854.535790801 11789169.522815704 0 11789169.522815704 25105080.681640625 0 0 0 0 -83986.943168930127 9716.636978533119 0 9716.636978533119 780401.05455024634 0 0 0 0 -2113940.1661298871 6282063.5568323135 0 6282063.5568323135 6050746.3250007629 0 0 0 0 -5386219.9285187721 9958472.8378105164 0 9958472.8378105164 34117155.73002243 0 0 0 0 -1945334.638258934 2783572.7002754211 0 2783572.7002754211 29038983.56244278 0 0 0 0 -140681.11561536789 7118265.6375160217 0 7118265.6375160217 16917244.218650818 0 0 0 0 -221720.08266234398 5918759.436378479 0 5918759.436378479 16326541.234081268 0 0 0 0 2751728.6059347987 14001525.938825607 0 14001525.938825607 19966771.306037903 0 0 0 0 -709950.29868738202 652153.15196276363 0 652153.15196276363 3282460.8742304686 0 0 0 0 4934513.1510429382 8264204.0613594055 0 8264204.0613594055 15985117.582824707 0 0 0 0 -787396.86712222756 1267816.8617408946 0 1267816.8617408946 2659161.4602038041 0 0 0 0 41406.514792442322 8144834.5355377197 0 8144834.5355377197 22699631.240753174 0 0 0 0 481534.11897705914 4977351.0810894519 0 4977351.0810894519 -1386693.5100977935 0 0 0 0 2081447.6113717705 17014578.424920082 0 17014578.424920082 23831543.113433838 0 0 0 0 367541.04624640942 3380928.0519180298 0 3380928.0519180298 14447502.777576447 0 0 0 0 413453.9480984211 -1419486.059387207 0 -1419486.059387207 -4380533.9063110352 0 0 0 0 -2033784.5380740811 1214480.4117126018 0 1214480.4117126018 8780534.370029252 0 0 0 0 3562707.1213725805 12815201.164642334 0 12815201.164642334 -5942055.4878540039 0 0 0 0 -5787090.1345503032 8386822.3991966248 0 8386822.3991966248 54963582.053382874 0 0 0 0 1094665.743210122 11828159.180027008 0 11828159.180027008 28340624.724357605 0 0 0 0 6331607.7799321413 911131.3052520752 0 911131.3052520752 61101480.734222412 0 0 0 0 -6765410.9487071037 22421169.048416138 0 22421169.048416138 30883967.035888672 0 0 0 0 -3160777.5995934159 6428593.9915351868 0 6428593.9915351868 34554042.355407715 0 0 0 0 -8565402.6750500798 15720979.478302002 0 15720979.478302002 59585364.843917847 0 0 0 0 11259155.521143079 25491175.520256042 0 25491175.520256042 26021218.600608826 0 0 0 0 667980.76675579918 5029639.4780595805 0 5029639.4780595805 4312958.3542804616 0 0 0 0 -1002295.1541253328 11847305.993896484 0 11847305.993896484 -12229144.468849182 0 0 0 0 851394.1612008214 2770249.0267868042 0 2770249.0267868042 15546513.972686768 0 0 0 0 4633640.5222774744 6870507.5324878693 0 6870507.5324878693 5729827.224571228 0 0 0 0 -19492890.372080207 25369855.147338867 0 25369855.147338867 30591000.870236397 0 0 0 0 -20658016.935532928 11125004.140914917 0 11125004.140914917 33352052.471797943 0 0 0 0 -334433.42165505933 -2049.3773947171867 0 -2049.3773947171867 789786.56911253557 0 0 0 0 16625796.571188331 27444972.048690796 0 27444972.048690796 -8195618.700088501 0 0 0 0 -10605786.690305769 29761137.222797394 0 29761137.222797394 41226216.13420105 0 0 0 0 955537.55732743989 4979442.817796791 0 4979442.817796791 3884180.7214087555 0 0 0 0 2721895.7407245636 750524.46431732178 0 750524.46431732178 -25165363.859827042 0 0 0 0 23096224.557289064 -317173.2328414917 0 -317173.2328414917 -27457264.103725433 0 0 0 0 3918367.4010004997 4645379.173324585 0 4645379.173324585 8549657.3989944458 0 0 0 0 -24627875.761128426 10742437.08631134 0 10742437.08631134 170568034.62837982 0 0 0 0 -11427336.451245427 69465591.673057556 0 69465591.673057556 68033000.387527466 0 0 0 0 17447581.014452457 46594249.586685181 0 46594249.586685181 72214195.729270935 0 0 0 0 11051617.102501512 8195486.1235198975 0 8195486.1235198975 170736330.11166382 0 0 0 0 2389796.5444797277 4024143.1589660645 0 4024143.1589660645 60789255.019058228 0 0 0 0 26015528.620491743 7861389.029006958 0 7861389.029006958 61384773.630867004 0 0 0 0 521160.20716728352 131401.17641510442 0 131401.17641510442 785010.77483518049 0 0 0 0 -8574359.9101416469 12522720.753623962 0 12522720.753623962 106888898.61000061 0 0 0 0 -21613739.074379623 -17665881.438392639 0 -17665881.438392639 143420414.2365303 0 0 0 0 86753673.41055131 -68796639.499423981 0 -68796639.499423981 157878839.01502991 0 0 0 0 247881.91098101105 2338.994594309479 0 2338.994594309479 212790.46300305147 0 0 0 0 233157096.77697942 58736042.229831696 0 58736042.229831696 -215096050.7348175 0 0 0 0 -75215350.503269434 -3527453.8028259277 0 -3527453.8028259277 356811658.95874023 0 0 0 0 63780084.052837744 25090802.487754822 0 25090802.487754822 40781395.474739075 0 0 0 0 -87245822.76146251 -11811491.141143799 0 -11811491.141143799 45125375.12071991 0 0 0 0 -51781781.324337527 93420704.498905659 0 93420704.498905659 -81780535.223205566 0 0 0 0 -34239554.289019346 8858804.0316009521 0 8858804.0316009521 16304658.674858093 0 0 0 0 603958.48876412655 315139.81126550958 0 315139.81126550958 1602917.0317139495 0 0 0 0 -9707329.1989940405 19662410.533180237 0 19662410.533180237 -36651133.15877533 0 0 0 0 -3288203.0431235433 -6555281.0564727783 0 -6555281.0564727783 78043046.494544983 0 0 0 0 -10121207.130507052 16744076.857910156 0 16744076.857910156 66857751.498764038 0 0 0 0 7900728.3515697122 -2956211.1655731201 0 -2956211.1655731201 67824909.361915588 0 0 0 0 6260405.6871205568 -27561363.505981445 0 -27561363.505981445 103810248.72799683 0 0 0 0 -34269860.296552181 2326380.6040458679 0 2326380.6040458679 29139583.450157166 0 0 0 0 -15334540.83957386 -8268452.3042602539 0 -8268452.3042602539 34984302.191688538 0 0 0 0 -15012392.633086085 -2575054.2243347168 0 -2575054.2243347168 24162949.940338135 0 0 0 0 -15473337.264452815 6498357.9155273438 0 6498357.9155273438 34061709.365684509 0 0 0 0 -13157108.114474535 12619740.2921772 0 12619740.2921772 25385725.466247559 0 0 0 0 -38026453.492895305 18427118.819000244 0 18427118.819000244 12623674.950462341 0 0 0 0 -15793817.639178455 4676348.5594749451 0 4676348.5594749451 10126141.732841492 0 0 0 0 -60841529.592478275 -6027303.291469574 0 -6027303.291469574 67713070.029403687 0 0 0 0 -49810143.452062011 13158187.612815857 0 13158187.612815857 23705105.56489563 0 0 0 0 -38980860.69990024 -35684884.447784424 0 -35684884.447784424 97007097.393802643 0 0 0 0 16639513.51669018 -27415973.43372345 0 -27415973.43372345 44873750.501480103 0 0 0 0 -19549027.877907187 -14516853.145996094 0 -14516853.145996094 43228530.051856995 0 0 0 0 -20631369.389333352 -27954535.450698614 0 -27954535.450698614 47929660.700546265 0 0 0 0 -23043702.610066026 -19529270.054779053 0 -19529270.054779053 33182697.26374054 0 0 0 0 7105783.3927640021 -23569183.47883606 0 -23569183.47883606 26150965.315635681 0 0 0 0 -32894050.385867767 -7520048.8822174072 0 -7520048.8822174072 44773219.639694214 0 0 0 0 -35481602.22611773 -17423452.61026001 0 -17423452.61026001 40792547.682182312 0 0 0 0 -35693924.361620963 -13643985.836959839 0 -13643985.836959839 36978792.439628601 0 0 0 0 -22417307.321780086 -12147070.212974548 0 -12147070.212974548 32515690.473754883 0 0 0 0 -34648575.68298766 -15692513.954139709 0 -15692513.954139709 34912330.773551941 0 0 0 0 -42327970.091834232 793062.13377380371 0 793062.13377380371 16224288.891113281 0 0 0 0 -16999406.558494568 7719914.2305221558 0 7719914.2305221558 17087742.904994965 0 0 0 0 -20434606.398280725 75166598.083171844 0 75166598.083171844 251018.46096801758 0 0 0 0 -61709134.288107447 32592802.4504776 0 32592802.4504776 9984703.203830719 0 0 0 0 -21810730.771325141 4976067.3825531006 0 4976067.3825531006 -2008621.3731384277 0 0 0 0 -45315327.274307422 8013912.5978469849 0 8013912.5978469849 40078179.835083008 0 0 0 0 -14499.583241549699 -31994.434230120853 0 -31994.434230120853 -131924.16999588907 0 0 0 0 -90273778.605608851 87873690.511341095 0 87873690.511341095 1882734.5095062256 0 0 0 0 40534874.076212578 -87384115.968074799 0 -87384115.968074799 -156124250.4993515 0 0 0 0 -151935684.82641709 29337911.866821289 0 29337911.866821289 35813509.211303711 0 0 0 0 -13367238.026056588 44162357.671234131 0 44162357.671234131 -113945818.04750252 0 0 0 0 -66761855.202127397 -71166060.134025574 0 -71166060.134025574 16782768.431060791 0 0 0 0 -124600.22817033745 90363.918172067031 0 90363.918172067031 405752.13166616205 0 0 0 0 -18423246.728395283 84976944.908828735 0 84976944.908828735 -318788308.18698883 0 0 0 0 -22327945.358270764 987130.96536254883 0 987130.96536254883 48873141.744544983 0 0 0 0 442123.20251073269 2424535.5575735401 0 2424535.5575735401 1043983.9336502468 0 0 0 0 -1006518.1987270573 -1676584.6420125011 0 -1676584.6420125011 1499068.6709956415 0 0 0 0 92429.376822471619 648849.52827453613 0 648849.52827453613 5162971.4307441711 0 0 0 0 -3899654.2658215761 -5249330.759475708 0 -5249330.759475708 34979655.082557678 0 0 0 0 -24081256.401059389 -6583988.865562439 0 -6583988.865562439 40536139.667755127 0 0 0 0 6261485.8345198631 18346048.261878967 0 18346048.261878967 41926940.263885498 0 0 0 0 -1463210.3995648352 -1210905.9017133806 0 -1210905.9017133806 2451793.1153316107 0 0 0 0 1876873.2340282202 17989129.754954338 0 17989129.754954338 43013180.728912354 0 0 0 0 -3042296.2947878838 -1221079.6990127563 0 -1221079.6990127563 38843751.131660461 0 0 0 0 -1488806.5065124631 13832084.930994987 0 13832084.930994987 52879300.293548584 0 0 0 0 -588294.52788496017 1172058.4632949829 0 1172058.4632949829 5144435.5882644653 0 0 0 0 -21895.384966015816 928078.30483150482 0 928078.30483150482 4492034.9553222656 0 0 0 0 312321.41857634776 2750379.4151358958 0 2750379.4151358958 2012577.9168858882 0 0 0 0 -3248476.5465121567 27880925.0204916 0 27880925.0204916 -87357428.022331238 0 0 0 0 -1566431.1385984421 15981214.897338867 0 15981214.897338867 -65327688.422950745 0 0 0 0 -9855677.5887412876 13112912.348670959 0 13112912.348670959 -54183890.333763123 0 0 0 0 -40979425.756355643 9208047.9133682251 0 9208047.9133682251 -53276854.32308197 0 0 0 0 -2382283.0868844166 6113590.9009952545 0 6113590.9009952545 -58710891.600799561 0 0 0 0 -10186102.526457608 20197517.346164703 0 20197517.346164703 -30793711.106864929 0 0 0 0 13680295.53716445 19205142.560668945 0 19205142.560668945 -65396638.59161377 0 0 0 0 11243534.590880394 11848061.909740448 0 11848061.909740448 -27574053.808685303 0 0 0 0 -2027979.8985563517 3185320.4100646973 0 3185320.4100646973 -4574831.3519058228 0 0 0 0 -3391413.9105918407 26105703.051071167 0 26105703.051071167 2295759.3163070679 0 0 0 0 10948430.059227381 21205850.654137611 0 21205850.654137611 3298707.7410812378 0 0 0 0 -10242411.532480538 -27370929.537368774 0 -27370929.537368774 6589358.9782962799 0 0 0 0 -14346158.045666315 8131581.6755738258 0 8131581.6755738258 10357170.546958923 0 0 0 0 -35995273.214195698 30180341.315265656 0 30180341.315265656 -19775018.638633728 0 0 0 0 8024176.1187559962 -2849543.525554657 0 -2849543.525554657 -11775418.548366547 0 0 0 0 -36222053.279119946 -40828012.828737773 0 -40828012.828737773 -43857094.341270447 0 0 0 0 -55490.40155085783 -49929.733838299289 0 -49929.733838299289 -43801.058675520122 0 0 0 0 -47395092.420527577 57338194.839933395 0 57338194.839933395 -37170109.553215027 0 0 0 0 -19977840.192218699 -31149285.264045715 0 -31149285.264045715 17504728.882446289 0 0 0 0 -105422674.10875547 80220920.162117004 0 80220920.162117004 42157219.673599243 0 0 0 0 -14966440.276888728 53371674.075508118 0 53371674.075508118 -56525975.132995605 0 0 0 0 -93450813.731625527 147400292.36309052 0 147400292.36309052 -23487027.420059204 0 0 0 0 89299773.517340228 10233799.46969986 0 10233799.46969986 -46934492.270751953 0 0 0 0 3717389.0397888459 -2638075.8587303162 0 -2638075.8587303162 -35118726.250091553 0 0 0 0 -56539371.387204327 -9218534.2053222656 0 -9218534.2053222656 2467521.4941711426 0 0 0 0 -1947.9648112559626 -86731.8670724853 0 -86731.8670724853 9924.7012291252613 0 0 0 0 -12014.573580864557 -248370.06563254591 0 -248370.06563254591 45463.040157295763 0 0 0 0 82453979.138734221 -18077800.159076691 0 -18077800.159076691 -40334040.257595062 0 0 0 0 13362819.647843987 22740676.507471085 0 22740676.507471085 30274591.053131104 0 0 0 0 6388506.3410303593 -14035626.146418333 0 -14035626.146418333 14805884.3646698 0 0 0 0 42559781.975059181 -54165749.189334869 0 -54165749.189334869 -4703811.8619689941 0 0 0 0 -55114766.088064171 -7433534.6782251 0 -7433534.6782251 48909223.974098206 0 0 0 0 37205830.186245792 -57459584.012084961 0 -57459584.012084961 5798669.935760498 0 0 0 0 -32161.981195700868 -339080.38020681514 0 -339080.38020681514 75590.982328552753 0 0 0 0 18824330.087710567 2557397.4582977295 0 2557397.4582977295 485411.31973266602 0 0 0 0 37866093.75104177 -17266800.352348328 0 -17266800.352348328 320717.83056640625 0 0 0 0 30684014.139383972 -23226478.924964905 0 -23226478.924964905 153409.23095703125 0 0 0 0 9333962.3386032432 -25247967.61681366 0 -25247967.61681366 8124349.594581604 0 0 0 0 -34413.486771922006 -34830.494220750406 0 -34830.494220750406 83676.939637489384 0 0 0 0 106535361.17783806 -64557653.323472977 0 -64557653.323472977 39403056.561408997 0 0 0 0 37127584.799220562 -41242526.461242676 0 -41242526.461242676 -105007980.64750338 0 0 0 0 58419518.426011205 -77922306.203796387 0 -77922306.203796387 8064463.856492281 0 0 0 0 31384875.317515522 -69174990.852222443 0 -69174990.852222443 8300201.9555088282 0 0 0 0 98301305.592911154 34270989.943229675 0 34270989.943229675 70680352.544017792 0 0 0 0 37956861.006491378 -98341420.581344604 0 -98341420.581344604 117343133.66035461 0 0 0 0 25803593.715262026 -6174788.379611969 0 -6174788.379611969 51307530.716766357 0 0 0 0 27310170.227171659 -7438247.0758705139 0 -7438247.0758705139 -10300950.906208038 0 0 0 0 338939.79209348559 29244165.569385529 0 29244165.569385529 7825722.3139820099 0 0 0 0 83567104.727017432 5060428.1724700928 0 5060428.1724700928 2711010.8890991211 0 0 0 0 43443833.957916602 13461049.729511261 0 13461049.729511261 10047631.452072144 0 0 0 0 40548905.831188187 23097317.751529694 0 23097317.751529694 6046593.3901519775 0 0 0 0 56091363.19942224 9801675.6006164551 0 9801675.6006164551 2113167.1659793854 0 0 0 0 42721707.932356149 25734846.585712433 0 25734846.585712433 6932630.6773071289 0 0 0 0 39081460.568161689 38192294.561058044 0 38192294.561058044 8388865.242559433 0 0 0 0 27471929.075843204 15183046.066688538 0 15183046.066688538 -6867158.3198394775 0 0 0 0 67698993.11209628 37139206.820213318 0 37139206.820213318 -12305822.009340286 0 0 0 0 41857131.699121751 31419436.464870453 0 31419436.464870453 -8253163.3193740845 0 0 0 0 38833778.145500913 2647011.70911026 0 2647011.70911026 -15312924.12727356 0 0 0 0 28465437.656745642 17636467.801956177 0 17636467.801956177 -25848090.52878952 0 0 0 0 9654321.339556694 -25692835.572914124 0 -25692835.572914124 -6318634.4975967407 0 0 0 0 -29294532.26833991 52277178.987037659 0 52277178.987037659 -5817355.5204563141 0 0 0 0 -8942961.8755280375 23005639.044620514 0 23005639.044620514 -17087168.668518066 0 0 0 0 -8648610.8504067957 65535477.062889099 0 65535477.062889099 -40691875.650016785 0 0 0 0 80200.06357007171 68994.866684192792 0 68994.866684192792 -78234.651508629322 0 0 0 0 -4438112.1736276671 5610323.8523330688 0 5610323.8523330688 496648.58527374268 0 0 0 0 37520379.387206405 -252480.49635314941 0 -252480.49635314941 -14840874.575309753 0 0 0 0 52651.602300537874 57080.299445007928 0 57080.299445007928 -2214.8620189800858 0 0 0 0 -103183672.51075833 117836828.76386929 0 117836828.76386929 88413434.962890625 0 0 0 0 111218109.68927284 38638695.408527374 0 38638695.408527374 -21493.201705932617 0 0 0 0 13979854.302364368 14145053.986551285 0 14145053.986551285 -66546958.157531738 0 0 0 0 -15746533.925905704 -32676086.117248535 0 -32676086.117248535 9014484.2546234131 0 0 0 0 64859350.986017644 15177654.304889679 0 15177654.304889679 30025132.573364258 0 0 0 0 6311236.1564578712 -5775815.4465408325 0 -5775815.4465408325 140150577.24627686 0 0 0 0 81911135.362525403 -37159327.733703613 0 -37159327.733703613 98025483.734710693 0 0 0 0 66786397.7964615 91012079.096081734 0 91012079.096081734 321905027.80331421 0 0 0 0 58177212.979118496 22205764.330230713 0 22205764.330230713 65341897.995925903 0 0 0 0 78916653.486299023 150266311.90124118 0 150266311.90124118 89033006.349861145 0 0 0 0 -32818738.04343535 4843257.312582016 0 4843257.312582016 211130061.9168396 0 0 0 0 10003342.773566335 9250588.6949768066 0 9250588.6949768066 60747945.547672272 0 0 0 0 54174666.087605804 91718127.313537598 0 91718127.313537598 113138977.28507701 0 0 0 0 -5539195.6197900455 11878365.527713776 0 11878365.527713776 113517648.45765686 0 0 0 0 3423844.0863975808 22296537.755661011 0 22296537.755661011 79948127.516204834 0 0 0 0 683150.14237250015 11838280.514575958 0 11838280.514575958 54476848.685714722 0 0 0 0 20735937.887116157 29385309.16740799 0 29385309.16740799 32903495.849235535 0 0 0 0 26214877.633584477 44673734.779724121 0 44673734.779724121 63204116.364582062 0 0 0 0 33737825.315472968 33035238.778083801 0 33035238.778083801 32370970.607780457 0 0 0 0 42132490.176479273 47326418.567256927 0 47326418.567256927 35195194.393676758 0 0 0 0 28298765.999420591 46660040.086091995 0 46660040.086091995 35178973.499923706 0 0 0 0 -1179141.482211262 17231571.711093903 0 17231571.711093903 11908704.846557617 0 0 0 0 19141483.804772839 11780219.085525513 0 11780219.085525513 20484857.793464661 0 0 0 0 21707937.344516605 22531008.767280579 0 22531008.767280579 25203227.068586349 0 0 0 0 21026762.348299667 19962444.445281982 0 19962444.445281982 55877955.005432129 0 0 0 0 3354637.2720684707 5740221.3902854919 0 5740221.3902854919 65706304.577720642 0 0 0 0 8929347.8687949032 -6326276.4142570496 0 -6326276.4142570496 46151066.326751709 0 0 0 0 9565.8973941904187 27732.111725250259 0 27732.111725250259 116420.69081903063 0 0 0 0 11001720.758821759 -11769088.340078831 0 -11769088.340078831 -10271762.633506775 0 0 0 0 8718.2009782113746 -24680.343566356227 0 -24680.343566356227 43566.927418909967 0 0 0 0 -4664918.0753494482 -30719594.47200346 0 -30719594.47200346 13679507.523628235 0 0 0 0 2802452.4712711927 18921635.96312809 0 18921635.96312809 33070390.789810181 0 0 0 0 1134292.3582181633 23086880.961196899 0 23086880.961196899 53400030.42360878 0 0 0 0 -2288160.2981172428 7903855.9254837036 0 7903855.9254837036 13562785.991312385 0 0 0 0 -9890945.3997896966 8612682.0602874756 0 8612682.0602874756 33831691.218681335 0 0 0 0 14517.715456157486 -51920.007488494739 0 -51920.007488494739 92530.154293809086 0 0 0 0 -14665024.123653229 -10019860.959564209 0 -10019860.959564209 13199022.988961458 0 0 0 0 -13039209.711382844 -6560001.0319194794 0 -6560001.0319194794 16618461.616249084 0 0 0 0 9869620.2397198975 1088605.2766571045 0 1088605.2766571045 15160263.963758469 0 0 0 0 -2025511.6281051189 13213648.622833252 0 13213648.622833252 42696373.497764587 0 0 0 0 3807223.4728561342 -11910944.266361237 0 -11910944.266361237 65994238.337497711 0 0 0 0 27646729.668264925 -1461585.530090332 0 -1461585.530090332 38630361.62682724 0 0 0 0 4029556.3607918844 15031702.43396759 0 15031702.43396759 28172519.159233093 0 0 0 0 17013363.035472557 6746891.1599693298 0 6746891.1599693298 17249323.831382751 0 0 0 0 28398538.940933153 23087419.830207825 0 23087419.830207825 16516724.721168518 0 0 0 0 42101675.633487165 18288826.901611328 0 18288826.901611328 16856940.253567696 0 0 0 0 24667268.620427553 10332676.506030083 0 10332676.506030083 20728575.111251831 0 0 0 0 44922045.651795477 -3856341.026802063 0 -3856341.026802063 30489074.435264587 0 0 0 0 58560636.344073996 -26078028.485754013 0 -26078028.485754013 44235214.174972534 0 0 0 0 45437257.50941807 -10580389.050697327 0 -10580389.050697327 25952868.443050385 0 0 0 0 29782090.443707831 -25813860.927440643 0 -25813860.927440643 63743256.689834595 0 0 0 0 3400789.2458488345 -17395760.755319595 0 -17395760.755319595 69574777.686637878 0 0 0 0 112137063.68466409 -48671896.035845757 0 -48671896.035845757 38499474.635101318 0 0 0 0 36003598.606989875 -61088636.885761261 0 -61088636.885761261 125372860.15747833 0 0 0 0 -3638684.6946083903 21879317.564891815 0 21879317.564891815 129574013.14545155 0 0 0 0 10584993.47130271 1978060.640171051 0 1978060.640171051 33603042.689361572 0 0 0 0 -39190.545964328659 -45654.278396585956 0 -45654.278396585956 227474.68267074157 0 0 0 0 38230.611084937438 -92568.237001437694 0 -92568.237001437694 157042.11081204936 0 0 0 0 1507739.4285400063 301435.03820419312 0 301435.03820419312 42879122.376142263 0 0 0 0 -9036.4371722644064 -18550.737456636503 0 -18550.737456636503 139620.49004281289 0 0 0 0 -6802806.9214369878 5938677.8250312805 0 5938677.8250312805 73987570.143737793 0 0 0 0 -1499123.9827459753 -12474096.893165588 0 -12474096.893165588 66897054.331741333 0 0 0 0 2970821.8078689277 -17318167.080104828 0 -17318167.080104828 71528308.935215473 0 0 0 0 4527657.7939447165 -3764589.1209373474 0 -3764589.1209373474 44558680.093139648 0 0 0 0 -898271.51461303234 -13675296.299079895 0 -13675296.299079895 66888124.483863831 0 0 0 0 664697.35454564728 -17805848.505919456 0 -17805848.505919456 77287029.114494324 0 0 0 0 11880217.54461007 -3985264.4526596069 0 -3985264.4526596069 56195266.621582031 0 0 0 0 10516101.979571322 -17108311.25030899 0 -17108311.25030899 64947854.273590088 0 0 0 0 59343.725556703284 -6327206.3453102112 0 -6327206.3453102112 57285558.70942688 0 0 0 0 2070119.5710269529 -8017464.5871162415 0 -8017464.5871162415 56980779.229705811 0 0 0 0 -1759066.0433770325 3112811.6034469604 0 3112811.6034469604 51641358.476867676 0 0 0 0 2342622.6683483906 -7494610.643989563 0 -7494610.643989563 57480359.188167572 0 0 0 0 820789.15817528102 45801.091136455536 0 45801.091136455536 50625123.54460144 0 0 0 0 971902.23820310086 -2425489.6641998291 0 -2425489.6641998291 47977468.962257385 0 0 0 0 -1407872.9159576111 2848756.7199325562 0 2848756.7199325562 44959807.60710144 0 0 0 0 3162732.7276129499 -690381.72241592407 0 -690381.72241592407 40251126.195243835 0 0 0 0 411.08318927961591 -10682.226723043248 0 -10682.226723043248 78475.418557573692 0 0 0 0 -1697304.0917844134 7048178.5858001709 0 7048178.5858001709 29491657.320465088 0 0 0 0 -1802977.2395283272 1563743.6136550903 0 1563743.6136550903 42247909.65247345 0 0 0 0 1511249.6802587733 2083181.8492660522 0 2083181.8492660522 39465171.798374176 0 0 0 0 1201.2512826589518 -5172.0004366319627 0 -5172.0004366319627 26589.355752108619 0 0 0 0 -1769670.7857968584 -1346173.7126617432 0 -1346173.7126617432 6401630.6658372879 0 0 0 0 1426798.5276599792 1112621.7640151978 0 1112621.7640151978 41787539.882965088 0 0 0 0 -3489837.5432817116 -2616074.935459137 0 -2616074.935459137 50626754.775157928 0 0 0 0 -750.44371696425594 -2981656.1795845032 0 -2981656.1795845032 41340137.417697906 0 0 0 0 1299955.7256175224 -306775.76942062378 0 -306775.76942062378 51636471.657590866 0 0 0 0 -5378.0501141039094 -4493688.3921737671 0 -4493688.3921737671 56699894.303375244 0 0 0 0 933477.08183770813 -5032594.4381027222 0 -5032594.4381027222 55762097.739807129 0 0 0 0 3332.3499377428593 -4093760.1188201904 0 -4093760.1188201904 55290265.153079987 0 0 0 0 4082318.7220889204 -7395046.8547935486 0 -7395046.8547935486 42995518.393562317 0 0 0 0 1343049.1622140976 -3335886.4545936584 0 -3335886.4545936584 62779349.746994019 0 0 0 0 9345969.285844624 -18035982.451467991 0 -18035982.451467991 40590282.484428406 0 0 0 0 9346922.5017464347 -18650635.877164841 0 -18650635.877164841 -8917906.1187210083 0 0 0 0 -4036398.8338617338 10036468.08149004 0 10036468.08149004 89175826.769447327 0 0 0 0 5718.2375093533246 -26295.502772647887 0 -26295.502772647887 50909.199367970228 0 0 0 0 4996128.3327821102 -11832840.496437073 0 -11832840.496437073 61166012.220811844 0 0 0 0 20841636.238109443 -2483809.2763633728 0 -2483809.2763633728 19370651.464828491 0 0 0 0 -15054582.746584881 3129623.2338524461 0 3129623.2338524461 31727621.243377686 0 0 0 0 384507.59396308661 4309948.0118122101 0 4309948.0118122101 37052138.470855713 0 0 0 0 -3888794.6775947921 11220869.739429474 0 11220869.739429474 25918695.450977325 0 0 0 0 -240700.99361425452 6278385.3296298981 0 6278385.3296298981 64362787.491088867 0 0 0 0 -4499094.7808775557 -4937892.8558006287 0 -4937892.8558006287 52104266.607322693 0 0 0 0 16830767.881952293 9183728.936580658 0 9183728.936580658 43422986.402862549 0 0 0 0 -179.68025400319675 1230057.1196250916 0 1230057.1196250916 43285431.409240723 0 0 0 0 270246.76550151175 -8540662.3827323914 0 -8540662.3827323914 32045538.417709351 0 0 0 0 4775889.2803018922 -2072278.7932605743 0 -2072278.7932605743 43960808.746322632 0 0 0 0 -312154.11155319214 10371093.782424927 0 10371093.782424927 -7152347.5761370659 0 0 0 0 -1055344.5199422836 14195676.988311768 0 14195676.988311768 -810296.29253387451 0 0 0 0 8293770.114358902 15590043.52620697 0 15590043.52620697 -845840.90723967552 0 0 0 0 -7478460.8913002014 16754563.024501801 0 16754563.024501801 5909888.4519615173 0 0 0 0 -7751165.9451603889 16339457.443450928 0 16339457.443450928 7078609.8522949219 0 0 0 0 -9489778.2673978806 12686826.685508728 0 12686826.685508728 5753308.3633499146 0 0 0 0 -4988999.2760486603 13130595.916286469 0 13130595.916286469 513027.1219329834 0 0 0 0 -4626442.5397453308 12865191.292892456 0 12865191.292892456 -1440442.4483947754 0 0 0 0 -406208.30921052396 18521613.588035136 0 18521613.588035136 1957148.324798584 0 0 0 0 -7230869.2002105713 11681133.943817139 0 11681133.943817139 866994.61538314819 0 0 0 0 37977236.550060272 -40927313.503593445 0 -40927313.503593445 -80621667.002153397 0 0 0 0 33717.608593845274 3206632.9531406881 0 3206632.9531406881 6078885.5241467496 0 0 0 0 -5314973.1984424591 12050164.82585144 0 12050164.82585144 938074.54926681519 0 0 0 0 -11726429.475105286 11577550.136436462 0 11577550.136436462 -13128219.367370605 0 0 0 0 -4198336.5111627579 -6914986.7397155762 0 -6914986.7397155762 31490030.626716614 0 0 0 0 42594935.665027618 -185092648.60751343 0 -185092648.60751343 13442862.772276878 0 0 0 0 26833267.33694458 7295250.6724128723 0 7295250.6724128723 -7584914.5169315338 0 0 0 0 15675832.308753014 -2170656.7709579468 0 -2170656.7709579468 171402093.0338974 0 0 0 0 15779400.930625916 93772.2121925354 0 93772.2121925354 180429049.71929932 0 0 0 0 26319629.255524635 151161767.48547256 0 151161767.48547256 -12057746.476640701 0 0 0 0 -36877149.626190186 35214370.968070984 0 35214370.968070984 416017262.86723328 0 0 0 0 -10053478.796924591 -251166535.17852783 0 -251166535.17852783 121720578.95692444 0 0 0 0 -86516839.419250488 -231183444.73149109 0 -231183444.73149109 325362465.35828781 0 0 0 0 -9280874.0163421631 2830507.6230545044 0 2830507.6230545044 -7342575.5510523319 0 0 0 0 -4555686.8511962891 11436845.772850037 0 11436845.772850037 -274668.06332015991 0 0 0 0 1616502.6157235736 4826142.0709366286 0 4826142.0709366286 6865393.3847267563 0 0 0 0 11101775.209321022 4950202.9753379822 0 4950202.9753379822 -32232932.368560791 0 0 0 0 -5412909.5061176606 1586427.9511666242 0 1586427.9511666242 10518870.19858364 0 0 0 0 -31161437.524785995 -15899112.982496262 0 -15899112.982496262 48202958.018652916 0 0 0 0 -1874975.9534628391 4762152.1374225616 0 4762152.1374225616 8980551.1426048279 0 0 0 0 -1169467.1242377188 6610633.5656018443 0 6610633.5656018443 5598700.8422520123 0 0 0 0 -3971578.5332846469 -580653.62554416806 0 -580653.62554416806 13088635.683270663 0 0 0 0 9139214.795830369 -29928087.878456235 0 -29928087.878456235 -48654284.905570984 0 0 0 0 13329881.988344669 21887742.030435562 0 21887742.030435562 -10183070.410675049 0 0 0 0 12898704.053768158 13604015.14238739 0 13604015.14238739 -26084900.125152588 0 0 0 0 924614.60027217865 13814751.45606041 0 13814751.45606041 7780536.1990661621 0 0 0 0 24157709.391766548 23330341.571157455 0 23330341.571157455 9795860.959186554 0 0 0 0 90954907.895347118 -31164730.816472054 0 -31164730.816472054 8850186.9821624756 0 0 0 0 -9793143.2396144867 4384384.9849624634 0 4384384.9849624634 -1000327.969493866 0 0 0 0 -13816790.333349228 -10690272.097753525 0 -10690272.097753525 151782740.21019363 0 0 0 0 -7682755.955370903 1023278.8647537231 0 1023278.8647537231 110552313.1020031 0 0 0 0 53485401.595839262 69402522.646076679 0 69402522.646076679 78895091.91292572 0 0 0 0 -9340088.6753816605 -9676296.0895042419 0 -9676296.0895042419 41627102.171546936 0 0 0 0 -11515949.914377213 14454507.155990601 0 14454507.155990601 66363679.529872894 0 0 0 0 -853692.17995691299 25282845.586494446 0 25282845.586494446 13648328.691680908 0 0 0 0 -12915702.062074661 15333023.190505981 0 15333023.190505981 25189008.021255493 0 0 0 0 -11231262.555594921 8109882.301410675 0 8109882.301410675 19646054.477012634 0 0 0 0 -15533070.421268463 6630339.2550506592 0 6630339.2550506592 27212106.517807007 0 0 0 0 -18061942.315734863 -934947.7067565918 0 -934947.7067565918 5877850.0138893127 0 0 0 0 23447203.449278355 32069244.976745605 0 32069244.976745605 18405593.698504448 0 0 0 0 -3006428.168692112 5709758.4843292236 0 5709758.4843292236 12756527.663323402 0 0 0 0 -18277766.412436485 7442856.4208545685 0 7442856.4208545685 7828287.8058357239 0 0 0 0 -1235878.841005371 2820122.9129733271 0 2820122.9129733271 2623211.7622190081 0 0 0 0 -14179522.104237556 11373014.912227631 0 11373014.912227631 10113277.42340374 0 0 0 0 -14019648.11256361 11252843.148846626 0 11252843.148846626 10148917.247665405 0 0 0 0 -31675.215864495025 3250347.6675799266 0 3250347.6675799266 12384589.524763817 0 0 0 0 -42247684.015093327 69283947.707483292 0 69283947.707483292 36354062.517995834 0 0 0 0 4256528.2402157784 1663986.4734382629 0 1663986.4734382629 -18307814.987205505 0 0 0 0 11415710.84740591 -5219874.8111848831 0 -5219874.8111848831 -23614774.075050354 0 0 0 0 721839.24876458792 901101.39297920745 0 901101.39297920745 -1179041.3028592616 0 0 0 0 -39789903.836695671 10227860.383853436 0 10227860.383853436 17375844.427852631 0 0 0 0 -20944707.508311272 3389383.7087402344 0 3389383.7087402344 12097429.035707951 0 0 0 0 -29956341.955768585 -13141410.474901199 0 -13141410.474901199 21758739.91522789 0 0 0 0 -2358869.8199462891 -3915323.7783021927 0 -3915323.7783021927 7697376.9402198792 0 0 0 0 -1799089.3445997238 -17196668.516096115 0 -17196668.516096115 4283881.2488746643 0 0 0 0 -302310.9459695816 3635663.329665184 0 3635663.329665184 16230175.69682312 0 0 0 0 -617877.57049909444 2266223.951099732 0 2266223.951099732 11224137.348125258 0 0 0 0 -11469326.000509262 18347919.974456787 0 18347919.974456787 -2558802.9714126587 0 0 0 0 -2646925.5361201763 -1080175.4967922568 0 -1080175.4967922568 17125600.698249817 0 0 0 0 5911821.3144564629 -10977488.91590023 0 -10977488.91590023 28226731.576395035 0 0 0 0 -244371.85439494322 293004.96104448801 0 293004.96104448801 4554748.9761754433 0 0 0 0 -4298946.06594944 2353971.961022377 0 2353971.961022377 22234565.917562485 0 0 0 0 3905582.3569495678 1177436.5269241333 0 1177436.5269241333 9644940.2225837708 0 0 0 0 3884352.0784420967 349935.89561843872 0 349935.89561843872 14375639.497339249 0 0 0 0 22644682.384723663 -11486507.175931931 0 -11486507.175931931 5022885.4750638008 0 0 0 0 15911552.335107803 31009504.046928406 0 31009504.046928406 14510367.680494308 0 0 0 0 -5879887.8502242565 8346472.7077283859 0 8346472.7077283859 5365068.2439956665 0 0 0 0 2098269.3965377808 12721465.550922394 0 12721465.550922394 1876478.3204565048 0 0 0 0 -10625626.689943314 10208374.652901649 0 10208374.652901649 1918687.7241287231 0 0 0 0 -1192999.9475898729 848833.93358587474 0 848833.93358587474 1766425.9867273271 0 0 0 0 -10270587.66034174 16506286.206798553 0 16506286.206798553 1108852.1650695801 0 0 0 0 -12951735.341077805 17941315.605560303 0 17941315.605560303 11679142.938873291 0 0 0 0 -532759.25054508261 6044871.1244290657 0 6044871.1244290657 -1085195.92463932 0 0 0 0 -1661840.5992593765 6959398.4053726196 0 6959398.4053726196 2997498.9919052124 0 0 0 0 -414670.98928356171 7544335.1087265015 0 7544335.1087265015 -2941007.2853088379 0 0 0 0 579735.00396734197 4185712.5875645746 0 4185712.5875645746 1234566.1715364773 0 0 0 0 -546451.05529177189 3762242.6438384056 0 3762242.6438384056 -116360.26072692871 0 0 0 0 -146444.57108982187 2822280.7306481455 0 2822280.7306481455 3751977.3689306434 0 0 0 0 -2134103.3078894615 16827.023017883301 0 16827.023017883301 3163674.3561553955 0 0 0 0 -672575.69769191742 1737472.5049171448 0 1737472.5049171448 235875.89458709955 0 0 0 0 -816018.4846663475 1715640.9829006195 0 1715640.9829006195 1922633.8822555542 0 0 0 0 -683493.46599578857 1063630.2806015015 0 1063630.2806015015 917982.52542877197 0 0 0 0 -1193175.4233977397 271541.60183804389 0 271541.60183804389 5005246.1365790972 0 0 0 0 -70299.339681764133 654073.31101130135 0 654073.31101130135 11725430.033180317 0 0 0 0 -927247.75993442535 2185574.103635788 0 2185574.103635788 2789948.7913479805 0 0 0 0 -55670878.932949543 8775362.191028595 0 8775362.191028595 -19931230.027679443 0 0 0 0 540729.5684146327 2333762.9978622878 0 2333762.9978622878 -1464022.7924262565 0 0 0 0 -509740.61236410355 897800.65011492558 0 897800.65011492558 3702689.6152212983 0 0 0 0 -1033114.0146007538 5841357.2460231781 0 5841357.2460231781 2280347.5626373291 0 0 0 0 -615346.14809599519 832240.6877822876 0 832240.6877822876 1024485.1565704346 0 0 0 0 -1537387.4285538038 4684628.850422319 0 4684628.850422319 4219938.8061319906 0 0 0 0 -29071286.450113297 26683059.091056824 0 26683059.091056824 -22633144.738574982 0 0 0 0 -39606355.990881443 36139462.646870136 0 36139462.646870136 27804764.513458252 0 0 0 0 -1902099.9852366447 5036918.6818351746 0 5036918.6818351746 1505857.4226989746 0 0 0 0 -40181945.292931557 32065172.387252808 0 32065172.387252808 616096.30962562561 0 0 0 0 1704047.3023667191 2039829.2982190261 0 2039829.2982190261 -1876350.4175459668 0 0 0 0 1507926.6442327499 -430587.56669998169 0 -430587.56669998169 1235378.0336244106 0 0 0 0 -1998250.8084745035 -90741.114072293043 0 -90741.114072293043 170893.82661819458 0 0 0 0 -1596919.121528147 3664391.215898986 0 3664391.215898986 3699379.892470222 0 0 0 0 -702372.59488619608 866395.35758176306 0 866395.35758176306 5437492.4444556162 0 0 0 0 -3384344.2094430923 8168387.4525775909 0 8168387.4525775909 3366336.5131320953 0 0 0 0 158645.00673494977 201021.24110535532 0 201021.24110535532 -258807.72941651754 0 0 0 0 14563031.120385885 6687498.1938314438 0 6687498.1938314438 564463.17254638672 0 0 0 0 -2653400.0467190742 629740.16784286499 0 629740.16784286499 2892953.2138710022 0 0 0 0 -6064802.3969063759 4692244.5431785583 0 4692244.5431785583 9697568.2316818237 0 0 0 0 30588543.235509396 -4225165.6339073181 0 -4225165.6339073181 -2576197.8378334045 0 0 0 0 30728771.662938118 67037326.150913239 0 67037326.150913239 14597790.399993896 0 0 0 0 -37974525.240605354 20260097.015073776 0 20260097.015073776 86473071.484703064 0 0 0 0 -24197444.981593132 -4504442.949634552 0 -4504442.949634552 130976298.31526566 0 0 0 0 17947911.418726504 -22122578.865876853 0 -22122578.865876853 28759154.943115234 0 0 0 0 -3785620.3695073128 2133084.356426239 0 2133084.356426239 28849880.967285156 0 0 0 0 -33337221.871256828 40539777.288749695 0 40539777.288749695 23370154.205158234 0 0 0 0 -279186.91385936737 3284113.9343261719 0 3284113.9343261719 -1913310.804561615 0 0 0 0 3138432.523973465 5422774.8889408112 0 5422774.8889408112 -2428447.6475191116 0 0 0 0 3241492.3841266632 5725200.0017280579 0 5725200.0017280579 -1552359.7173309326 0 0 0 0 -106072.01365470886 7926384.6515350342 0 7926384.6515350342 4656457.0587997437 0 0 0 0 5375986.7148194313 2968987.7857589722 0 2968987.7857589722 6010049.7159872055 0 0 0 0 7712284.5617132187 -481650.25157356262 0 -481650.25157356262 7970366.4558086395 0 0 0 0 6813719.8642201424 2878381.9851074219 0 2878381.9851074219 -49759.361738204956 0 0 0 0 11714620.250036478 -4819937.7184095383 0 -4819937.7184095383 5747030.2824745178 0 0 0 0 3509536.5940284729 3268853.94024086 0 3268853.94024086 9279919.7758905888 0 0 0 0 4046888.2501792908 3492684.823682785 0 3492684.823682785 9254499.4757232666 0 0 0 0 -21355.967543230741 1118837.8718119906 0 1118837.8718119906 3032070.3884420004 0 0 0 0 -2035151.7188768387 13210300.761911392 0 13210300.761911392 13311296.40929985 0 0 0 0 -3012270.3954806328 2046024.9965171814 0 2046024.9965171814 22283906.752098083 0 0 0 0 -1676807.0045342445 739166.52378320694 0 739166.52378320694 5247616.9882316589 0 0 0 0 143881931.99966812 -55144744.438167572 0 -55144744.438167572 54217367.070011139 0 0 0 0 -97748.300124321133 627662.56977500208 0 627662.56977500208 1232078.6125831027 0 0 0 0 50304756.276764393 -109540057.41893387 0 -109540057.41893387 95849843.011552811 0 0 0 0 6153458.3071513176 55376632.830467224 0 55376632.830467224 173570292.55176926 0 0 0 0 -4563046.7285466194 5348680.4402008057 0 5348680.4402008057 -1859700.1079216003 0 0 0 0 -20172130.65694952 16110059.384679317 0 16110059.384679317 158483507.71323395 0 0 0 0 12873.996271366952 65479.037809579633 0 65479.037809579633 272893.04774058796 0 0 0 0 1443505.3549579382 209404.99307221314 0 209404.99307221314 -316387.27824836131 0 0 0 0 43491418.345988274 42347384.602043152 0 42347384.602043152 -28502688.170276284 0 0 0 0 89185993.575269699 -36830709.093804359 0 -36830709.093804359 75071348.898962021 0 0 0 0 6566680.7334690094 39845473.354038239 0 39845473.354038239 16307726.242865324 0 0 0 0 96842714.876282603 92420187.368792117 0 92420187.368792117 33921978.358718872 0 0 0 0 23961205.867346764 -19370928.773685455 0 -19370928.773685455 162092607.22239304 0 0 0 0 -219801648.16415435 44644579.992888808 0 44644579.992888808 120841315.21316528 0 0 0 0 433145705.44433665 126113131.54468536 0 126113131.54468536 -143176190.2081604 0 0 0 0 239397494.41736794 557089059.87627792 0 557089059.87627792 -147522330.08081675 0 0 0 0 -185504775.82088685 352397060.06997061 0 352397060.06997061 64669314.935348511 0 0 0 0 37597345.993255138 114844645.43714619 0 114844645.43714619 -29998048.213523865 0 0 0 0 3747283.2388000488 -10183751.988304138 0 -10183751.988304138 6538386.8466682434 0 0 0 0 177615689.67308331 -73706364.208721161 0 -73706364.208721161 21664041.488193512 0 0 0 0 531565.44629952987 -7762.8353098207153 0 -7762.8353098207153 -144323.46147634694 0 0 0 0 -58271247.728647709 59386464.251689911 0 59386464.251689911 109738928.57012558 0 0 0 0 -78094967.318943024 -47447862.221773148 0 -47447862.221773148 209128915.69747734 0 0 0 0 336615008.3517046 -253211088.56872368 0 -253211088.56872368 -58794501.476257324 0 0 0 0 -2343433.0025401828 -1495573.276020186 0 -1495573.276020186 8471429.6411385126 0 0 0 0 -16529309.607949734 -21170435.21194458 0 -21170435.21194458 -30261244.581680298 0 0 0 0 -13086501.565351725 -2875317.8167347908 0 -2875317.8167347908 2797936.0721359253 0 0 0 0 1656303.3701057434 6613887.2962532043 0 6613887.2962532043 -26545369.815624237 0 0 0 0 10425594.899150133 5115218.1678447723 0 5115218.1678447723 2917134.8451461792 0 0 0 0 6660035.0007835627 11640800.379242897 0 11640800.379242897 16202809.280342102 0 0 0 0 2688060.7997133732 4084709.2577209473 0 4084709.2577209473 8994269.5507278442 0 0 0 0 1776622.8404860497 5158842.7932014465 0 5158842.7932014465 7843526.0260696411 0 0 0 0 -3401390.1136276973 -682183.04490327183 0 -682183.04490327183 8864128.8409841768 0 0 0 0 8524.0120656490326 1123561.3602542877 0 1123561.3602542877 8234473.3604049683 0 0 0 0 -5876328.7433700562 -14797786.659934998 0 -14797786.659934998 -6761829.0321578979 0 0 0 0 87412561.970802307 -141743221.62548828 0 -141743221.62548828 117573313.39903259 0 0 0 0 -1418831.0298186927 -2892986.6906297756 0 -2892986.6906297756 -185587.41704634205 0 0 0 0 17574866.111808628 -36228696.795316458 0 -36228696.795316458 78579078.212421417 0 0 0 0 161409649.17988205 8610380.8306808472 0 8610380.8306808472 -71739691.14727211 0 0 0 0 729127.54591033934 752360.71895020781 0 752360.71895020781 -753578.98465822265 0 0 0 0 -1143090.8648624388 -3055582.6789221764 0 -3055582.6789221764 -341499.53059706278 0 0 0 0 -77152288.10140419 77953924.446044922 0 77953924.446044922 2290623.5358467102 0 0 0 0 161622726.05981255 208649532.38247871 0 208649532.38247871 -240464468.56232452 0 0 0 0 -2139720.3929076195 1156739.4299907684 0 1156739.4299907684 7430604.5303421021 0 0 0 0 -4546607.1160937427 455500.80944123585 0 455500.80944123585 9369363.8905470595 0 0 0 0 -16564191.688688278 -22838093.919532299 0 -22838093.919532299 -11113018.929504395 0 0 0 0 16596188.744428635 -15834108.467475414 0 -15834108.467475414 -14582050.387008667 0 0 0 0 142170824.1595192 122756136.43068314 0 122756136.43068314 137551327.95117188 0 0 0 0 -477583.9452667404 -734778.52543368284 0 -734778.52543368284 8672.5989717021585 0 0 0 0 129256712.25429058 72204573.174269676 0 72204573.174269676 8697222.9209060669 0 0 0 0 -34779710.828359604 26642515.355010986 0 26642515.355010986 46441201.557601929 0 0 0 0 42545006.397338867 43797992.419540405 0 43797992.419540405 -4811294.6571826935 0 0 0 0 45625030.563770294 31325984.420179367 0 31325984.420179367 11484050.569335938 0 0 0 0 -4436942.0197181702 3336611.4353580475 0 3336611.4353580475 8859621.1345863342 0 0 0 0 -1057025.6249768734 4614332.3614006042 0 4614332.3614006042 8506251.4079256058 0 0 0 0 -832215.89144825935 5626578.7742176056 0 5626578.7742176056 9647484.1779537201 0 0 0 0 -534552.50446090102 7490851.9843707085 0 7490851.9843707085 12361691.480735779 0 0 0 0 -214826.95257306099 5258803.8908462524 0 5258803.8908462524 9865652.2842254639 0 0 0 0 1364780.782810837 8349399.471778512 0 8349399.471778512 13489899.859298706 0 0 0 0 -420114.09237098694 5855114.4824047089 0 5855114.4824047089 16059231.106349945 0 0 0 0 -2242101.0006530285 6996527.4609451294 0 6996527.4609451294 22948103.982961655 0 0 0 0 -2454092.3748269081 5143217.9773769379 0 5143217.9773769379 15012814.98103714 0 0 0 0 -2575074.0570104122 5529009.735874176 0 5529009.735874176 12812682.074436188 0 0 0 0 -2428652.2337465286 6610353.5259895325 0 6610353.5259895325 15273616.225235939 0 0 0 0 -2548346.9092707634 5655725.3709621429 0 5655725.3709621429 8872193.6679782867 0 0 0 0 -13929490.426381826 2688639.0562477112 0 2688639.0562477112 14747055.596031189 0 0 0 0 -2993085.5637161732 4939034.766295433 0 4939034.766295433 14153111.374435425 0 0 0 0 -116996.34780500329 11584.79146271199 0 11584.79146271199 252793.2912370041 0 0 0 0 -13077480.152284503 -9086059.0154933929 0 -9086059.0154933929 -867574.77393341064 0 0 0 0 5657646.2989754677 13402743.531322479 0 13402743.531322479 32346775.990150452 0 0 0 0 -3585999.7518280651 -1187897.7529358864 0 -1187897.7529358864 4840899.9353523254 0 0 0 0 -2143158.6856258512 1733155.6451187134 0 1733155.6451187134 5161545.8196182251 0 0 0 0 -8210153.982074976 4816399.6711006165 0 4816399.6711006165 11418851.084411621 0 0 0 0 -861429.77102780342 5654566.8980827332 0 5654566.8980827332 11861666.806613922 0 0 0 0 -3050376.8425991535 6613737.0374202728 0 6613737.0374202728 11222502.300507784 0 0 0 0 -636245.635597229 6457352.4280891418 0 6457352.4280891418 10046315.980072021 0 0 0 0 -2433146.4962043762 6421425.9717578888 0 6421425.9717578888 10056575.095817566 0 0 0 0 -2107844.6631007195 4629293.462682724 0 4629293.462682724 11161532.116661072 0 0 0 0 24518567.863218546 34096252.66337204 0 34096252.66337204 29694036.601840973 0 0 0 0 6104584.0539493505 22713243.873901844 0 22713243.873901844 37789829.97366333 0 0 0 0 -3052406.311696291 24257121.691696167 0 24257121.691696167 47847222.758080482 0 0 0 0 39740344.105294585 57370519.644453049 0 57370519.644453049 62533062.956926584 0 0 0 0 22976917.966397762 22812684.033197403 0 22812684.033197403 35249906.632148743 0 0 0 0 799652.0812729001 8023600.7489833832 0 8023600.7489833832 25336593.107814789 0 0 0 0 -2389618.0684570223 -9292063.7979984283 0 -9292063.7979984283 -742042.4161567688 0 0 0 0 -2565122.6709161699 15611168.769950867 0 15611168.769950867 22031642.772010803 0 0 0 0 -97608.882735830615 165396.55840756185 0 165396.55840756185 391431.40506351367 0 0 0 0 -239214.3487140956 104478.48206119239 0 104478.48206119239 675416.76138757914 0 0 0 0 -1323955.6986281425 3568488.9274139404 0 3568488.9274139404 9274203.9803161621 0 0 0 0 494585.07538363338 1568642.8206863403 0 1568642.8206863403 10227652.750159264 0 0 0 0 -1211643.0780569315 3690446.797039032 0 3690446.797039032 10397148.251190186 0 0 0 0 1386123.7419267297 1720646.647693634 0 1720646.647693634 11246817.92556572 0 0 0 0 -406806.48241885006 -542890.7473988533 0 -542890.7473988533 5636171.7677345276 0 0 0 0 -293131.00503527734 267282.02774567157 0 267282.02774567157 1158530.834298145 0 0 0 0 -224262.67593349502 531609.55069260392 0 531609.55069260392 1174155.9173751697 0 0 0 0 -4506060.8643327057 -8440986.1511865854 0 -8440986.1511865854 10969967.980365753 0 0 0 0 -392448.43317433057 471497.22205944173 0 471497.22205944173 1960634.5604715683 0 0 0 0 83550.07742112875 546868.73817253113 0 546868.73817253113 9681219.0468902588 0 0 0 0 1543929.6275930405 4142067.6189575195 0 4142067.6189575195 10510597.011364937 0 0 0 0 -2374873.5835859776 17036634.515285492 0 17036634.515285492 10779726.392181396 0 0 0 0 1177946.678838253 359221.92240142822 0 359221.92240142822 12239938.931632996 0 0 0 0 16503226.629477262 14472290.658639908 0 14472290.658639908 12726643.159637451 0 0 0 0 -2794135.6783044934 10288188.119955063 0 10288188.119955063 45782347.909622192 0 0 0 0 -130994.55971777439 2237094.6324310303 0 2237094.6324310303 14128684.151699066 0 0 0 0 -2304958.5695470572 9989423.7560768127 0 9989423.7560768127 37148449.799171448 0 0 0 0 -1531436.583094418 2564735.341714859 0 2564735.341714859 15708931.91986084 0 0 0 0 131719.1207763789 5043792.2791656796 0 5043792.2791656796 -294439.75075107557 0 0 0 0 -2120672.7382116914 9452466.3957099915 0 9452466.3957099915 36222045.786476135 0 0 0 0 -1006507.9421974495 5293315.053062439 0 5293315.053062439 42120589.993431091 0 0 0 0 -1988356.9341083169 3370110.2398176193 0 3370110.2398176193 17303561.517917633 0 0 0 0 -211279.13307912528 5085841.2631290574 0 5085841.2631290574 655627.80122892186 0 0 0 0 -1303495.6371719837 10774736.966583252 0 10774736.966583252 35707742.428981781 0 0 0 0 -404975.18202519417 7670940.6783218384 0 7670940.6783218384 28818394.81174469 0 0 0 0 -5003313.322953105 4069706.1099472046 0 4069706.1099472046 33839405.401191711 0 0 0 0 748057.64052209258 679535.1112947464 0 679535.1112947464 9386175.2091903687 0 0 0 0 -4027797.6624201536 -2402942.0395965576 0 -2402942.0395965576 21464822.208757401 0 0 0 0 -2460178.3745208681 2497218.6486129761 0 2497218.6486129761 27228704.691429138 0 0 0 0 930791.70133423805 -2108626.0438919067 0 -2108626.0438919067 16746373.35345459 0 0 0 0 273095.4504468739 8468514.1645812988 0 8468514.1645812988 36140352.719894409 0 0 0 0 -4009425.1570879817 -35632.134346008301 0 -35632.134346008301 33951147.882249832 0 0 0 0 -1886354.5872625113 2580362.4036483765 0 2580362.4036483765 36802729.446533203 0 0 0 0 -1874885.8553031534 2810762.1261367798 0 2810762.1261367798 40637534.048583984 0 0 0 0 -887851.15553325415 -5950275.0687713623 0 -5950275.0687713623 30712132.979263306 0 0 0 0 -920358.62863367796 -5147026.0515575409 0 -5147026.0515575409 39855400.168701172 0 0 0 0 -1115087.3200405836 -2830474.5400238037 0 -2830474.5400238037 45360142.265045166 0 0 0 0 514560.26192651223 725679.90065602399 0 725679.90065602399 2955855.8453001594 0 0 0 0 -346654.83570659161 481641.62481689453 0 481641.62481689453 44125045.369752884 0 0 0 0 1384120.7070099115 204425.81415557861 0 204425.81415557861 42461834.754547119 0 0 0 0 -4887416.8534272909 -2426071.7839927673 0 -2426071.7839927673 23896742.74353981 0 0 0 0 5050049.6067794561 7942194.4819526672 0 7942194.4819526672 25766139.094227791 0 0 0 0 -2363892.4981579185 4357915.2713165283 0 4357915.2713165283 36466163.789649963 0 0 0 0 -2201109.8520507812 4036516.8849601746 0 4036516.8849601746 10951933.658421993 0 0 0 0 -4761505.6537661552 5130940.4564876556 0 5130940.4564876556 47061414.963768005 0 0 0 0 -854252.85563620133 5531367.2534815203 0 5531367.2534815203 3232804.4334065239 0 0 0 0 -3094138.0474928021 5078672.5436306 0 5078672.5436306 15272746.996555328 0 0 0 0 -3618061.5516114235 3512749.2673482895 0 3512749.2673482895 17191722.173675537 0 0 0 0 -540169.80962913856 5189739.6485955901 0 5189739.6485955901 1729819.6896433537 0 0 0 0 -1885602.6202507019 3000041.2411155701 0 3000041.2411155701 44106542.564301252 0 0 0 0 -116852.88754320145 9917279.061340332 0 9917279.061340332 31446795.163093567 0 0 0 0 1582009.0573164225 977309.02141952515 0 977309.02141952515 29741229.893684387 0 0 0 0 -4502823.572217226 -299574.18774795532 0 -299574.18774795532 26855048.824230194 0 0 0 0 -1268959.9474980831 -4942949.6812286377 0 -4942949.6812286377 8757141.7561187744 0 0 0 0 -1511579.1203160286 4469030.6561355591 0 4469030.6561355591 17466678.686687469 0 0 0 0 -2568448.9507134659 -1344697.7508757785 0 -1344697.7508757785 8683533.5236024968 0 0 0 0 -46116921.172085762 -22265137.406902313 0 -22265137.406902313 3534472.7745056152 0 0 0 0 1050311.55749017 7370417.9447212219 0 7370417.9447212219 21365201.759830475 0 0 0 0 -5009673.5523713231 -4147707.3217105865 0 -4147707.3217105865 13854393.985321045 0 0 0 0 -30799449.296429634 -87753086.834041595 0 -87753086.834041595 -18200800.716949463 0 0 0 0 -2694817.1653481554 -1148665.6341276858 0 -1148665.6341276858 10093770.985191427 0 0 0 0 -51708734.448382378 -741189.94977760315 0 -741189.94977760315 85113870.317344666 0 0 0 0 -3995198.233206749 8212211.583114624 0 8212211.583114624 306590.31805992126 0 0 0 0 40742706.604180336 1439640.907409668 0 1439640.907409668 20539707.160888672 0 0 0 0 12743352.06678772 34217958.622940063 0 34217958.622940063 40664708.329559326 0 0 0 0 -17934646.124229431 -6272863.5831260681 0 -6272863.5831260681 20678597.668624878 0 0 0 0 22524956.324221611 60722608.363945007 0 60722608.363945007 22998859.989330292 0 0 0 0 -396639.4998267272 -12776.624025380239 0 -12776.624025380239 1021961.0402815752 0 0 0 0 1883606.8289203644 25711935.279407501 0 25711935.279407501 60287353.953510284 0 0 0 0 40730.006644010544 38325017.333907127 0 38325017.333907127 -13111405.911834717 0 0 0 0 -34357085.279426575 14167257.257946014 0 14167257.257946014 28255098.334751248 0 0 0 0 -29857526.459058762 48670538.14289856 0 48670538.14289856 34128991.505516052 0 0 0 0 -5252185.7354488373 22726432.304790497 0 22726432.304790497 42399075.066802979 0 0 0 0 -44729520.269019067 53893463.619644284 0 53893463.619644284 20084533.131248474 0 0 0 0 -47309648.65703392 8396632.8356056213 0 8396632.8356056213 38989165.507774353 0 0 0 0 -6313512.9288891554 -6143407.1753158569 0 -6143407.1753158569 9413879.1143703461 0 0 0 0 -532789.01779513527 796895.88683818094 0 796895.88683818094 1459306.0794453472 0 0 0 0 -2790862.6544617149 -1299905.3870377038 0 -1299905.3870377038 7912019.6949245781 0 0 0 0 -6607757.5239229202 4585105.0102882385 0 4585105.0102882385 11550479.101913452 0 0 0 0 -3009550.7691664249 -447488.82771015167 0 -447488.82771015167 10245615.98084259 0 0 0 0 3909762.2975430489 6179933.7184085846 0 6179933.7184085846 20465335.661045074 0 0 0 0 193834.78280713037 1307487.3171359468 0 1307487.3171359468 3252135.651246693 0 0 0 0 -1802399.0412376509 -669411.42190103978 0 -669411.42190103978 4640877.8971210159 0 0 0 0 -4055066.4538574219 4086586.4511108398 0 4086586.4511108398 14663131.361709595 0 0 0 0 4199908.3308056593 1979836.1827192307 0 1979836.1827192307 12882755.987731934 0 0 0 0 -11848694.760798454 1583893.1530189514 0 1583893.1530189514 20458031.127487183 0 0 0 0 26979371.793804169 12731857.760848999 0 12731857.760848999 23460710.381127357 0 0 0 0 -14741124.614368439 2614111.350692749 0 2614111.350692749 46307625.713592529 0 0 0 0 -32368.088598116301 249617.57476404868 0 249617.57476404868 1068427.738648463 0 0 0 0 4179291.1243934631 1834288.7765312195 0 1834288.7765312195 15212728.28288269 0 0 0 0 6246180.9834938049 7447903.4950485229 0 7447903.4950485229 10909970.363136292 0 0 0 0 15201428.519601822 9358536.0730323792 0 9358536.0730323792 10071968.908874512 0 0 0 0 9760485.2820878029 -2815791.4166736603 0 -2815791.4166736603 2771563.5597381592 0 0 0 0 9532413.7511863708 12200726.094306946 0 12200726.094306946 8933149.3605194092 0 0 0 0 -7638704.6979722977 -5376115.9481735229 0 -5376115.9481735229 31683907.856407166 0 0 0 0 -2573755.6347661037 94581.814894217998 0 94581.814894217998 4368967.0911373477 0 0 0 0 -6053235.0989365578 4266910.8418111801 0 4266910.8418111801 14758796.362823486 0 0 0 0 -7583141.551109314 -679238.38785171509 0 -679238.38785171509 12318729.324230194 0 0 0 0 -39941601.033220291 -67404242.559829712 0 -67404242.559829712 82183054.662696838 0 0 0 0 60798041.907504082 4506906.6337032318 0 4506906.6337032318 -6033565.8082504272 0 0 0 0 -330532.6318959631 441881.51670731045 0 441881.51670731045 999310.38356727548 0 0 0 0 -65834035.401382446 8824451.5690231323 0 8824451.5690231323 19560081.811164856 0 0 0 0 9659418.3795826957 29628021.916375935 0 29628021.916375935 34252786.542922974 0 0 0 0 34993953.906484604 37536946.535369873 0 37536946.535369873 32957204.546844482 0 0 0 0 -118752278.85541344 -126093263.86198807 0 -126093263.86198807 87567285.76373291 0 0 0 0 26419665.608840942 12524825.919715881 0 12524825.919715881 5764029.2302217484 0 0 0 0 -569246.73231409257 15935.141159013845 0 15935.141159013845 1142506.8635896537 0 0 0 0 -66327560.688285828 7068951.2804641724 0 7068951.2804641724 67888997.30581665 0 0 0 0 61412410.325752258 145883578.96965027 0 145883578.96965027 218737190.99620056 0 0 0 0 175282235.21390533 -123322642.7807312 0 -123322642.7807312 108013359.11549473 0 0 0 0 -1445033.4716320038 46821347.179786682 0 46821347.179786682 119317407.23895264 0 0 0 0 -476325.56885115779 -231388.26251503266 0 -231388.26251503266 1451935.3702764884 0 0 0 0 -52955756.589595795 9525749.8091926575 0 9525749.8091926575 85983567.512641907 0 0 0 0 -52765675.66493988 -18144049.475818634 0 -18144049.475818634 46014262.785949707 0 0 0 0 -3933397.5934579372 -466863.23133945465 0 -466863.23133945465 1908388.2132110596 0 0 0 0 -11417955.063567638 12505545.170347214 0 12505545.170347214 32888298.477340698 0 0 0 0 -119636.47503948212 2852399.4325675964 0 2852399.4325675964 -3133860.2094039917 0 0 0 0 -2550019.0588321686 3089062.474445343 0 3089062.474445343 -325425.92150878906 0 0 0 0 -1523410.7825918198 1697196.8637714386 0 1697196.8637714386 1429570.6295089722 0 0 0 0 -608319.78963851929 -2736487.7669944763 0 -2736487.7669944763 -4180185.0006055832 0 0 0 0 22322377.295054436 34887832.284160614 0 34887832.284160614 12426606.094619751 0 0 0 0 3593172.9608516693 16196540.91550827 0 16196540.91550827 9656954.0041351318 0 0 0 0 -2341359.362537384 17900455.874017715 0 17900455.874017715 18136499.107681274 0 0 0 0 -3724677.0390110016 20741427.492530823 0 20741427.492530823 28050726.677702904 0 0 0 0 -7122622.5153427124 13119969.113292694 0 13119969.113292694 18846177.066543579 0 0 0 0 -3399967.4003124237 3808693.2467193604 0 3808693.2467193604 2162132.150932312 0 0 0 0 -12256267.465701342 4840537.1357650757 0 4840537.1357650757 30414658.702545166 0 0 0 0 -3537601.118478775 4436429.3099365234 0 4436429.3099365234 30204472.151390076 0 0 0 0 -8360234.0775181055 17285671.156017303 0 17285671.156017303 42889494.854858398 0 0 0 0 -2528795.7767112255 8109387.9171981812 0 8109387.9171981812 7351066.3634872437 0 0 0 0 -10650573.387194037 10147966.388599396 0 10147966.388599396 7863946.3114013672 0 0 0 0 4151220.7054743767 5892190.504524231 0 5892190.504524231 -31040352.621574402 0 0 0 0 27381907.493095875 -14654203.679756165 0 -14654203.679756165 14255760.08637619 0 0 0 0 1137618.2201708555 56773193.535385132 0 56773193.535385132 -7557287.2111358643 0 0 0 0 -21530179.961560249 -2565987.6650314331 0 -2565987.6650314331 14475304.877761841 0 0 0 0 -10308273.861154795 13425074.187080383 0 13425074.187080383 58404766.515213013 0 0 0 0 18815332.958988667 24415907.466861725 0 24415907.466861725 33074385.514335632 0 0 0 0 -1319336.5659034746 -1484901.7998087369 0 -1484901.7998087369 1190776.7306777015 0 0 0 0 -8001160.9103279114 -3757468.0864715576 0 -3757468.0864715576 11437400.161777496 0 0 0 0 16298283.854880333 -31988718.303253174 0 -31988718.303253174 24251732.517181396 0 0 0 0 -36566292.546945274 12466013.257174492 0 12466013.257174492 23104151.581718445 0 0 0 0 -23638541.224622726 -22200950.318878174 0 -22200950.318878174 47683776.974365234 0 0 0 0 -1538031.2306184699 -917082.75961678475 0 -917082.75961678475 2334228.5274551902 0 0 0 0 -4071284.7335710526 804823.74271774292 0 804823.74271774292 6694392.0389099121 0 0 0 0 -281786.97215610044 2215655.5585080516 0 2215655.5585080516 4671433.2038708255 0 0 0 0 49534742.085134983 50390277.514783859 0 50390277.514783859 -14026997.834991455 0 0 0 0 -2843091.2450562408 -625671.32210465707 0 -625671.32210465707 3756039.704305511 0 0 0 0 666319.86475563049 1010495.3599319458 0 1010495.3599319458 2207247.8350143433 0 0 0 0 -2168164.0512065887 -688877.77732849121 0 -688877.77732849121 5891572.7305488586 0 0 0 0 -1795909.1849151389 2593292.1452457644 0 2593292.1452457644 7489427.7421128675 0 0 0 0 -2466713.5177516937 2564627.3461532593 0 2564627.3461532593 3262754.2984542847 0 0 0 0 -3013662.1796836853 557176.2629776001 0 557176.2629776001 5243004.9161148071 0 0 0 0 -800305.67217628378 -7724.3937880303711 0 -7724.3937880303711 3949573.9329347629 0 0 0 0 -5654831.464618206 4932003.6139714718 0 4932003.6139714718 11489159.372894287 0 0 0 0 84189.322513580322 964467.81999206543 0 964467.81999206543 1995868.3215942383 0 0 0 0 -1110199.3983752769 1837118.9743135907 0 1837118.9743135907 3331285.2992253788 0 0 0 0 -18800161.819141388 13126568.411277771 0 13126568.411277771 100349867.00646591 0 0 0 0 26403354.394914627 -89019017.199520111 0 -89019017.199520111 -38633993.630836487 0 0 0 0 -112084878.00401592 89830342.852222443 0 89830342.852222443 57756334.09552002 0 0 0 0 62881826.146474838 45552788.799263 0 45552788.799263 -80929214.125473022 0 0 0 0 76132693.122926712 7705423.4067344666 0 7705423.4067344666 -6988599.7180404663 0 0 0 0 -734943.64131402969 862189.21420669556 0 862189.21420669556 1528805.4606323242 0 0 0 0 -666970.63366864156 2197673.6054962017 0 2197673.6054962017 4452882.3939559087 0 0 0 0 18116894.500106812 6523439.7844543457 0 6523439.7844543457 27291956.807128906 0 0 0 0 132145.53382432461 1017073.0707073212 0 1017073.0707073212 3677902.6019515991 0 0 0 0 -2278911.3842037637 -246898.17010060698 0 -246898.17010060698 2697587.7707948834 0 0 0 0 -839828.86945343018 782513.1614074707 0 782513.1614074707 1059626.4673461914 0 0 0 0 -498514.31411343114 1646934.1704868842 0 1646934.1704868842 4387655.1421003286 0 0 0 0 397281.30117004877 1288404.6409626324 0 1288404.6409626324 4016981.1336961873 0 0 0 0 -2544049.4729574318 -831492.64416829403 0 -831492.64416829403 2450577.7553441599 0 0 0 0 -720547.90400218964 734185.9665184021 0 734185.9665184021 2125666.7974777222 0 0 0 0 -48160.037670135498 879961.28215026855 0 879961.28215026855 2157012.9952774048 0 0 0 0 -2548450.8772955947 -220284.75379353203 0 -220284.75379353203 5576070.7738362104 0 0 0 0 1668704.4757137299 -297013.58015441895 0 -297013.58015441895 1008315.806602478 0 0 0 0 -778906.6482005209 1241028.4383616149 0 1241028.4383616149 3349276.9093820229 0 0 0 0 -1536284.6314485245 -816458.69727732055 0 -816458.69727732055 2270987.8192609679 0 0 0 0 -735868.64820945263 593420.34938812256 0 593420.34938812256 2882364.122467041 0 0 0 0 3243098.7121427059 10902390.711208344 0 10902390.711208344 23322168.300891876 0 0 0 0 -846981.62976884842 1157790.3198127747 0 1157790.3198127747 4787656.7752609253 0 0 0 0 9178.8294721981511 1237796.9722450227 0 1237796.9722450227 2592382.8537358753 0 0 0 0 -464302.1595672369 1209288.137014389 0 1209288.137014389 4002375.981918335 0 0 0 0 -252320.91994181054 565870.17377688736 0 565870.17377688736 904081.970666565 0 0 0 0 -3534351.2468121052 12302397.183227539 0 12302397.183227539 45730154.41267395 0 0 0 0 -8913531.658613205 10791350.071914673 0 10791350.071914673 68170895.384857178 0 0 0 0 289323.53506398201 23136683.01839447 0 23136683.01839447 -39443735.341791153 0 0 0 0 18160895.813394785 27697685.46805191 0 27697685.46805191 -61350903.658981323 0 0 0 0 5981380.0111647844 27072562.94821167 0 27072562.94821167 -82269355.566162109 0 0 0 0 -17788097.41617012 41503624.328720093 0 41503624.328720093 -62400407.274658203 0 0 0 0 90352.785595603753 3290614.3634219803 0 3290614.3634219803 3306774.8663068507 0 0 0 0 -17579613.323925018 22904254.871261597 0 22904254.871261597 -61860105.504081726 0 0 0 0 476490.16788864136 54800350.197143555 0 54800350.197143555 -83394300.588527679 0 0 0 0 14040044.540688515 5489347.7718048096 0 5489347.7718048096 -111033421.07191467 0 0 0 0 -312890.18222693994 213438.13939262927 0 213438.13939262927 693566.21765817329 0 0 0 0 5520581.7418251038 43054108.191192627 0 43054108.191192627 -63097509.652862549 0 0 0 0 16187369.950544834 43104555.003120422 0 43104555.003120422 -63239555.826416016 0 0 0 0 -1153079.5376255512 40505410.143550873 0 40505410.143550873 -39796570.859710693 0 0 0 0 13349776.21853447 26076757.137779236 0 26076757.137779236 -35408660.186143875 0 0 0 0 -13388505.027207732 71896391.743034363 0 71896391.743034363 -41094559.290435791 0 0 0 0 -56849492.471485853 60183275.176683426 0 60183275.176683426 -33750365.59664917 0 0 0 0 -1604164.2727694511 17139681.085720062 0 17139681.085720062 -31993832.636917114 0 0 0 0 639546.82315715542 3299524.7907621823 0 3299524.7907621823 3617525.8445043801 0 0 0 0 -5218663.0150990486 42097257.31129837 0 42097257.31129837 -44813784.405609131 0 0 0 0 -168964791.66551971 -77147410.906417847 0 -77147410.906417847 87418195.712165833 0 0 0 0 -16777067.763343811 3773368.192949295 0 3773368.192949295 13016968.311837196 0 0 0 0 -1495498.8909046911 1971808.5032976838 0 1971808.5032976838 3010505.4816566603 0 0 0 0 -8415342.009226799 -6675964.6483230591 0 -6675964.6483230591 1751267.5726165771 0 0 0 0 144624.76104992209 3988369.3661907646 0 3988369.3661907646 8790597.5949888378 0 0 0 0 252867.44996923662 3296811.4074743441 0 3296811.4074743441 8200525.7602772601 0 0 0 0 -59695038.682200432 10474038.831853867 0 10474038.831853867 21595531.124771118 0 0 0 0 -163930076.02202809 148816992.08309555 0 148816992.08309555 -82631085.560577393 0 0 0 0 22052130.218890667 73512500.075721741 0 73512500.075721741 -127910971.93813133 0 0 0 0 35904352.99132061 -2801274.1203079224 0 -2801274.1203079224 -66604518.895565033 0 0 0 0 24748595.042269707 75833064.49912262 0 75833064.49912262 -41021873.621334076 0 0 0 0 -63565728.847866535 27070198.441459656 0 27070198.441459656 -4864289.8947906494 0 0 0 0 11232493.479709625 45789205.360401154 0 45789205.360401154 -7824588.5557937622 0 0 0 0 198451.78066077922 -161813.15741803776 0 -161813.15741803776 -76015.402593698353 0 0 0 0 66285991.882378817 51873767.594371796 0 51873767.594371796 -14964754.521869659 0 0 0 0 27339962.466714978 39249066.587947845 0 39249066.587947845 -99087345.727291107 0 0 0 0 10386291.430249929 29495363.819641113 0 29495363.819641113 28929851.788303375 0 0 0 0 41144292.732283831 9214280.7604026794 0 9214280.7604026794 2693478.734375 0 0 0 0 31700856.701781511 18599010.451934814 0 18599010.451934814 -38892196.427177429 0 0 0 0 8133720.1181373 28347149.282704353 0 28347149.282704353 -8187533.6332244873 0 0 0 0 8663114.08573246 -16873025.207679749 0 -16873025.207679749 17447788.521923065 0 0 0 0 12366766.983510971 -2675040.7228851318 0 -2675040.7228851318 1508773.0454711914 0 0 0 0 -209488.70801370498 -168672.47071231157 0 -168672.47071231157 311267.66121856868 0 0 0 0 -231442.26844990067 29204.034309769049 0 29204.034309769049 -93816.622675815597 0 0 0 0 -535742.25728225708 -425189.39009094238 0 -425189.39009094238 1282578.9942741394 0 0 0 0 -23189.815845489502 -322092.22301483154 0 -322092.22301483154 578171.72737121582 0 0 0 0 -629257.80285429955 -484798.94932365417 0 -484798.94932365417 349586.25129699707 0 0 0 0 -334620.97022914886 118715.37139129639 0 118715.37139129639 -76679.025009155273 0 0 0 0 -873353.59537174692 111958.96153647825 0 111958.96153647825 293422.04891863558 0 0 0 0 -773232.61419868469 115794.57810974121 0 115794.57810974121 464628.31875991821 0 0 0 0 151049.0684337616 -275381.05227661133 0 -275381.05227661133 -409176.84764099121 0 0 0 0 -767840.2995685041 -15472.143922602758 0 -15472.143922602758 382356.56445065048 0 0 0 0 76341.30228805542 305823.10397338867 0 305823.10397338867 707227.55867767334 0 0 0 0 732748.16100025177 -498191.51585006714 0 -498191.51585006714 136290.09414672852 0 0 0 0 -1266897.2106246948 -685244.34916687012 0 -685244.34916687012 128753.78196334839 0 0 0 0 -9906.993706127163 9451.863149382174 0 9451.863149382174 11916.644897762686 0 0 0 0 95461314.924591064 -48879340.142753601 0 -48879340.142753601 -103272093.3810463 0 0 0 0 -6685.2314672470093 -583081.38911628723 0 -583081.38911628723 1085041.4832839966 0 0 0 0 -250249.04950809479 -1057796.179523468 0 -1057796.179523468 1085014.4099807739 0 0 0 0 -644354.63537610834 28507.238860890269 0 28507.238860890269 -145354.04811710492 0 0 0 0 -37552.148691964801 -861275.01695081592 0 -861275.01695081592 860345.26771102659 0 0 0 0 32849156.86447525 28126521.609848022 0 28126521.609848022 -41585046.95741272 0 0 0 0 -66279019.053031921 47459869.936485291 0 47459869.936485291 67987433.537811279 0 0 0 0 55761082.780306339 -9135704.523431778 0 -9135704.523431778 -16691199.103363037 0 0 0 0 146383217.19740677 -172584723.37065125 0 -172584723.37065125 120699761.07389832 0 0 0 0 20425.80047774408 -53981.920709893107 0 -53981.920709893107 29577.398813213222 0 0 0 0 -70942005.809928894 -44576773.969467163 0 -44576773.969467163 -2722552.4549102783 0 0 0 0 39775339.000985146 73834797.773683548 0 73834797.773683548 -192066.77461242676 0 0 0 0 -199721437.2568512 38156803.219482422 0 38156803.219482422 24277778.72076416 0 0 0 0 5995370.7944126129 10871790.477680206 0 10871790.477680206 -65610225.11164856 0 0 0 0 -7367610.8461914062 14086924.592590332 0 14086924.592590332 -32088976.833770752 0 0 0 0 -491432.5690051578 537559.47433754429 0 537559.47433754429 938080.35275834799 0 0 0 0 -218541.9684371464 -279464.88230775297 0 -279464.88230775297 80431.521948197857 0 0 0 0 -67719443.675247192 39492797.862701416 0 39492797.862701416 35320191.557754517 0 0 0 0 209648296.5214777 407261238.62270546 0 407261238.62270546 -202709433.29986572 0 0 0 0 -228909021.70171356 32909775.845481873 0 32909775.845481873 25397797.868423462 0 0 0 0 -25105760.737026215 -30273593.413528442 0 -30273593.413528442 -5382530.1856079102 0 0 0 0 -36930709.300552368 -4439830.3561782837 0 -4439830.3561782837 9933551.917350769 0 0 0 0 -75125073.976922989 -12370754.200748444 0 -12370754.200748444 22525849.065452576 0 0 0 0 -29125625.582149506 22412911.606491089 0 22412911.606491089 25456869.626373291 0 0 0 0 -36179995.507835388 -4802987.123085022 0 -4802987.123085022 24197411.724105835 0 0 0 0 -37437705.234003067 -1198690.1480827332 0 -1198690.1480827332 23570806.664518833 0 0 0 0 9394935.2265892029 -21955324.492599487 0 -21955324.492599487 22759236.470493317 0 0 0 0 -1039534.8602142334 -3085259.9843292236 0 -3085259.9843292236 12592895.784217834 0 0 0 0 -15032110.670081615 -2440571.7658958435 0 -2440571.7658958435 17057381.695449829 0 0 0 0 -17989851.726646423 2369098.2347335815 0 2369098.2347335815 16726276.770040989 0 0 0 0 -19301033.200935364 -9197149.8505821228 0 -9197149.8505821228 20033574.717025757 0 0 0 0 -8514493.9009876251 15725300.865436554 0 15725300.865436554 23839365.173837185 0 0 0 0 -29501801.521864414 -5325342.1794395447 0 -5325342.1794395447 5689662.1034584045 0 0 0 0 32809341.782752037 19237603.57126236 0 19237603.57126236 22522338.356594086 0 0 0 0 -5880524.934109211 5821146.7310361862 0 5821146.7310361862 36178356.227882385 0 0 0 0 -867375.6272046566 -7560835.7612799406 0 -7560835.7612799406 44324680.679130554 0 0 0 0 19294418.443811417 11267137.082382202 0 11267137.082382202 27971097.106987 0 0 0 0 -4909875.5767645836 11761837.227488518 0 11761837.227488518 105739478.95721436 0 0 0 0 17554803.09078145 7553823.2273926735 0 7553823.2273926735 59821568.01486969 0 0 0 0 -1081876.6752624512 4749577.7175216675 0 4749577.7175216675 63044256.247875214 0 0 0 0 36576057.263793945 46899970.753761292 0 46899970.753761292 38075470.936632156 0 0 0 0 42453943.487801552 33640163.508331299 0 33640163.508331299 33625359.947891235 0 0 0 0 22376659.182014108 45630157.42821312 0 45630157.42821312 38226964.354263306 0 0 0 0 24322706.378513336 28476940.453681946 0 28476940.453681946 32253597.708618164 0 0 0 0 3135166.8052272797 -2030529.025642395 0 -2030529.025642395 -5133980.6782817841 0 0 0 0 1678083.8148822784 2085528.6617889404 0 2085528.6617889404 -3687814.9765739441 0 0 0 0 -2230012.374578476 -4229022.1519241333 0 -4229022.1519241333 -3311821.3622627258 0 0 0 0 39084323.52614212 113853684.41415405 0 113853684.41415405 68682357.507377625 0 0 0 0 -570937.95940755215 -67510.378711909056 0 -67510.378711909056 640025.90869864821 0 0 0 0 40281916.676528931 32395255.605484009 0 32395255.605484009 26449198.720611572 0 0 0 0 56506144.534141541 64452935.185821533 0 64452935.185821533 106452039.37434387 0 0 0 0 18813784.243114471 66416174.609397888 0 66416174.609397888 136206490.7250824 0 0 0 0 -34377.792146844789 -23993.760536292568 0 -23993.760536292568 1782.5700658326969 0 0 0 0 -15711449.800155163 171124370.73793602 0 171124370.73793602 11247445.791107178 0 0 0 0 -7944499.5235652924 -37848280.323822021 0 -37848280.323822021 109546265.57155609 0 0 0 0 108284225.95082664 -54384788.793792725 0 -54384788.793792725 137172388.58074951 0 0 0 0 -3897300.5331172943 50090614.706596375 0 50090614.706596375 61395309.666610718 0 0 0 0 4841841.4129462242 83997779.180202484 0 83997779.180202484 192550601.36042786 0 0 0 0 -36830572.863431931 4693742.2177505493 0 4693742.2177505493 72889565.014221191 0 0 0 0 -29347491.859910965 -39138429.41708374 0 -39138429.41708374 29835905.827468872 0 0 0 0 -29973522.009497643 -13286477.598503113 0 -13286477.598503113 17379855.444969177 0 0 0 0 -41086506.364566803 -26110308.392250061 0 -26110308.392250061 63074004.682617188 0 0 0 0 6518426.0173006058 4677302.6505088806 0 4677302.6505088806 100993.40745353699 0 0 0 0 -261027.30962634087 2644476.347743988 0 2644476.347743988 2232049.1791687012 0 0 0 0 -59435.019374847412 -784871.55800628662 0 -784871.55800628662 1266052.9188079834 0 0 0 0 1677744.0340671539 -656646.65913391113 0 -656646.65913391113 -3626223.3539123535 0 0 0 0 14515846.878406525 -15157799.331703186 0 -15157799.331703186 15850807.005256653 0 0 0 0 1481892.9314565659 -1535398.9977378845 0 -1535398.9977378845 -1493358.7220840454 0 0 0 0 -154324.64473324968 -326276.44245398417 0 -326276.44245398417 185360.32247029524 0 0 0 0 -367840.19533538818 1023467.7308063507 0 1023467.7308063507 -1568939.9971008301 0 0 0 0 -90832.595637573861 -27026.591789552942 0 -27026.591789552942 229754.45406594686 0 0 0 0 -1232706.1016318956 441537.32261843234 0 441537.32261843234 868957.13756847382 0 0 0 0 2091779.9065693617 1863389.22458148 0 1863389.22458148 -200868.87104797363 0 0 0 0 6700307.0848398209 29282234.16727066 0 29282234.16727066 40397419.734474182 0 0 0 0 -110882.90864522569 -183968.02063945867 0 -183968.02063945867 47130.21853321325 0 0 0 0 4936627.2178821564 13186494.8409729 0 13186494.8409729 52608318.912498474 0 0 0 0 -1645894.5530719757 24004012.325569153 0 24004012.325569153 75918677.999206543 0 0 0 0 -2074501.6061458588 31457970.10308075 0 31457970.10308075 68367127.194747925 0 0 0 0 1923969.4925804138 22441673.543670654 0 22441673.543670654 67483388.317199707 0 0 0 0 -6392702.4643783569 6005919.1097412109 0 6005919.1097412109 66810606.306137085 0 0 0 0 -7312831.6790428162 37835096.270301819 0 37835096.270301819 83238566.926315308 0 0 0 0 12145217.636953354 60378888.916149139 0 60378888.916149139 109307399.72577667 0 0 0 0 45356781.466440201 60334619.705093384 0 60334619.705093384 76772593.771087646 0 0 0 0 -32442548.328550339 13444260.385051727 0 13444260.385051727 123223866.88557434 0 0 0 0 49216670.239393234 102639599.57608032 0 102639599.57608032 142701349.69616699 0 0 0 0 20978800.849651337 41184100.502944946 0 41184100.502944946 161734955.16698456 0 0 0 0 48737682.525756836 6828266.225402832 0 6828266.225402832 87966881.935562134 0 0 0 0 -12650617.132616043 29449094.570476532 0 29449094.570476532 79884234.163192749 0 0 0 0 16872761.756737709 59692974.615472794 0 59692974.615472794 44316873.345809937 0 0 0 0 17676571.5297966 45557969.730812073 0 45557969.730812073 68899674.67817688 0 0 0 0 17662748.392555237 34838090.984840393 0 34838090.984840393 47244022.427032471 0 0 0 0 25125963.250494003 38612991.764028549 0 38612991.764028549 29324384.986446381 0 0 0 0 16733141.555938721 54014588.444511414 0 54014588.444511414 68619023.706787109 0 0 0 0 12720132.278018951 41892853.581871033 0 41892853.581871033 46783496.10508728 0 0 0 0 15526843.841590881 37042736.321647644 0 37042736.321647644 45763278.028036118 0 0 0 0 17198384.35925293 33978524.727684021 0 33978524.727684021 50249090.056521416 0 0 0 0 13091206.349963188 40582639.392263412 0 40582639.392263412 51085028.767562866 0 0 0 0 9341381.5881404877 31857592.75075531 0 31857592.75075531 66190723.47568512 0 0 0 0 -5724.4830290202517 324367.74915279087 0 324367.74915279087 100547.95567969978 0 0 0 0 10677768.476688385 -20945443.963882446 0 -20945443.963882446 7499892.3720703125 0 0 0 0 -112790.5176063776 272652.6816277504 0 272652.6816277504 375307.9838104248 0 0 0 0 -780824.04861081252 -153616.81766812131 0 -153616.81766812131 639220.95653676614 0 0 0 0 -7211.2734267250635 -7299.9827212765813 0 -7299.9827212765813 -95074.76036365889 0 0 0 0 13642909.035928726 367276.37944030762 0 367276.37944030762 -261226.58899307251 0 0 0 0 3917942.7949266434 -6789931.606590271 0 -6789931.606590271 11683936.487792969 0 0 0 0 82753515.44284296 78779252.011159897 0 78779252.011159897 39989727.000221252 0 0 0 0 55693156.195007324 47843406.176246643 0 47843406.176246643 16476803.815780878 0 0 0 0 31944404.504125595 22850549.454238892 0 22850549.454238892 65434218.372741699 0 0 0 0 29048125.560237408 75516458.843398094 0 75516458.843398094 111274256.22517395 0 0 0 0 35041486.448998928 -14463206.785416603 0 -14463206.785416603 17712444.019096375 0 0 0 0 -510358.43638436729 -122176.98035711795 0 -122176.98035711795 415638.11503162235 0 0 0 0 1110829.1302452087 17284.621742248535 0 17284.621742248535 -2885493.5378799438 0 0 0 0 -255562.95794773102 1136412.1247348785 0 1136412.1247348785 2618621.3343276978 0 0 0 0 345280.98378753662 2559094.607635498 0 2559094.607635498 -3190172.0503034592 0 0 0 0 -452149.26190152625 739930.25790982298 0 739930.25790982298 -21425.929566204548 0 0 0 0 -523301.6825170517 137925.39054870605 0 137925.39054870605 370584.38201904297 0 0 0 0 116536.90383243561 -749756.09870147705 0 -749756.09870147705 350096.34627532959 0 0 0 0 1405046.1683893204 1133300.2556533813 0 1133300.2556533813 -1211120.4674377441 0 0 0 0 -2191269.5296974182 979290.69778251648 0 979290.69778251648 -609537.52013397217 0 0 0 0 -125306.25717181165 451850.07490562275 0 451850.07490562275 -115320.27973904833 0 0 0 0 -35682.456077036331 157749.41723352962 0 157749.41723352962 -40767.41887531057 0 0 0 0 -3945761.9664230347 -773972.7905960083 0 -773972.7905960083 10914821.305229187 0 0 0 0 1477963.7669677734 -1067858.9355773926 0 -1067858.9355773926 846108.98882293701 0 0 0 0 1159832.6819248199 1343319.5425033569 0 1343319.5425033569 -733593.33776092529 0 0 0 0 -5515728.1233539581 -743170.06063461304 0 -743170.06063461304 6739672.5754928589 0 0 0 0 366003.19526481628 -2665763.6628074646 0 -2665763.6628074646 5492216.0297698975 0 0 0 0 -822973.6903591156 329490.35394287109 0 329490.35394287109 3220282.063167572 0 0 0 0 384916.88239574432 -1197571.8900337219 0 -1197571.8900337219 2544078.5220718384 0 0 0 0 -757352.33152566943 -250166.03305660561 0 -250166.03305660561 386454.69998203963 0 0 0 0 -3665068.4349374771 2205195.1246109009 0 2205195.1246109009 -33209.430644989014 0 0 0 0 261820.30214881897 582800.10722732544 0 582800.10722732544 -1978648.5858001709 0 0 0 0 -1448298.1400203705 3487880.1278152466 0 3487880.1278152466 3268085.3932418823 0 0 0 0 -313814.64887237549 5372474.4755706787 0 5372474.4755706787 -998150.30732345581 0 0 0 0 -435463.07533071563 -269193.02517509088 0 -269193.02517509088 252782.03009540588 0 0 0 0 -6903863.6113379002 -4985596.0062599182 0 -4985596.0062599182 7233946.8600921631 0 0 0 0 1825304.3024539948 3642759.3787231445 0 3642759.3787231445 8929166.0376625061 0 0 0 0 8229588.2376365662 -5032344.7474403381 0 -5032344.7474403381 -6616534.2320709229 0 0 0 0 -7914450.3949546814 27748435.92086792 0 27748435.92086792 -42952427.230033875 0 0 0 0 -258400.72077123262 -133531.4993038103 0 -133531.4993038103 252045.4657099992 0 0 0 0 32943176.040517807 11087377.322311401 0 11087377.322311401 -12208255.369689941 0 0 0 0 -23140393.405797005 -12676846.891777039 0 -12676846.891777039 48812581.780193329 0 0 0 0 -31163196.30441761 408236.33045578003 0 408236.33045578003 46926244.670539856 0 0 0 0 -106667814.96852303 49299949.798946381 0 49299949.798946381 31823553.340560913 0 0 0 0 -58426917.945515633 29480335.300991058 0 29480335.300991058 26965121.324234009 0 0 0 0 -4187050.3173332214 6649221.965461731 0 6649221.965461731 -18622117.870605469 0 0 0 0 -4720197.2764303684 202698.34516239166 0 202698.34516239166 4548599.8572692871 0 0 0 0 -6143053.224905014 744012.35364532471 0 744012.35364532471 4351116.7145996094 0 0 0 0 -10742964.021206379 -6260309.4770145416 0 -6260309.4770145416 20437983.113876343 0 0 0 0 -19696031.275188446 2692189.0098495483 0 2692189.0098495483 13511780.330219269 0 0 0 0 2450752.7083482742 -20074033.01490593 0 -20074033.01490593 19444871.837409973 0 0 0 0 -26108982.325044632 -22428528.33820343 0 -22428528.33820343 34078104.209579468 0 0 0 0 -11451227.219561815 -21405609.457499504 0 -21405609.457499504 32879012.40750885 0 0 0 0 -5187611.6211342812 -19746783.165758133 0 -19746783.165758133 25870985.372817993 0 0 0 0 -12778616.116252422 -21052373.692494392 0 -21052373.692494392 49417409.934860229 0 0 0 0 4443220.8448390961 -31966630.755435944 0 -31966630.755435944 65096347.502677917 0 0 0 0 91622604.53619957 98687619.70246315 0 98687619.70246315 91805629.474175453 0 0 0 0 20432371.856657028 -15097828.33190918 0 -15097828.33190918 -6712615.3614273071 0 0 0 0 21851219.907734275 -24930069.390276194 0 -24930069.390276194 9289221.4137496948 0 0 0 0 -182361.8064475318 47906.482265296392 0 47906.482265296392 398010.41905430332 0 0 0 0 -6853610.4807777405 19072544.418327332 0 19072544.418327332 -4218234.5795121193 0 0 0 0 2169217.7949829102 5665856.2476549149 0 5665856.2476549149 14654264.058654785 0 0 0 0 -100723.87301468849 807661.10281467438 0 807661.10281467438 17093161.967315674 0 0 0 0 2619303.3496294022 2705500.3184089661 0 2705500.3184089661 9939066.901512146 0 0 0 0 2671146.6095895767 -3449510.3035240173 0 -3449510.3035240173 7449495.3341369629 0 0 0 0 -16404998.845883369 1402654.5130157471 0 1402654.5130157471 53538211.044061661 0 0 0 0 -16913170.447202325 5062270.2994184494 0 5062270.2994184494 29017312.910812378 0 0 0 0 19071505.351049423 32479051.054721832 0 32479051.054721832 29224457.227180481 0 0 0 0 -30858838.994601727 1110558.5206756592 0 1110558.5206756592 32932911.396209717 0 0 0 0 -28951205.911762238 13908333.973060608 0 13908333.973060608 2958848.0960998535 0 0 0 0 -8472547.9179811478 19820611.014022827 0 19820611.014022827 13965619.018413544 0 0 0 0 -63706059.182105303 31115692.748252869 0 31115692.748252869 19922657.6563797 0 0 0 0 -50772931.931114316 -2041379.4174003601 0 -2041379.4174003601 13536145.76651001 0 0 0 0 24194512.879358768 34757927.724246025 0 34757927.724246025 5723157.1453781128 0 0 0 0 -3664023.2137761116 9034553.8515882492 0 9034553.8515882492 6999883.851600647 0 0 0 0 25411120.338579178 21112641.842418671 0 21112641.842418671 20211310.980829239 0 0 0 0 -521326.14683829155 1206209.7911529541 0 1206209.7911529541 1383154.399679251 0 0 0 0 26176832.263782501 32472596.352874756 0 32472596.352874756 13343995.98167038 0 0 0 0 -35474991.417146444 -4543051.854932785 0 -4543051.854932785 18453367.998603821 0 0 0 0 -13144865.997138977 -2970961.0912399292 0 -2970961.0912399292 -1528341.5754032135 0 0 0 0 -164072.54181294423 387291.75865972601 0 387291.75865972601 463555.14127154648 0 0 0 0 -19404216.205348849 -48935724.947391033 0 -48935724.947391033 99135708.65901947 0 0 0 0 21519291.194729805 -43662881.541133881 0 -43662881.541133881 19095394.989526749 0 0 0 0 104084567.61444902 76071718.07188797 0 76071718.07188797 41859259.281360626 0 0 0 0 -10169678.803070903 -2763228.0318031311 0 -2763228.0318031311 39676368.615837097 0 0 0 0 -31617257.009934187 50726814.78380537 0 50726814.78380537 104291850.22961426 0 0 0 0 237489479.07541847 -11658485.893508911 0 -11658485.893508911 -70762221.889678955 0 0 0 0 103963072.74474716 -65937144.035491943 0 -65937144.035491943 -81824315.690349579 0 0 0 0 -43773778.729921341 30715472.493789673 0 30715472.493789673 104523201.39048719 0 0 0 0 3087418.7699165344 37772337.273750305 0 37772337.273750305 83271908.535320282 0 0 0 0 -153026.84145930968 -179910.51719812304 0 -179910.51719812304 117922.63240634371 0 0 0 0 -22390798.581551552 1190274.271572113 0 1190274.271572113 62404089.479095459 0 0 0 0 20004736.314581394 34564690.308391571 0 34564690.308391571 45213047.352874756 0 0 0 0 18023237.185503006 36907582.37210083 0 36907582.37210083 54428968.730798721 0 0 0 0 17642249.596017838 33284346.681236267 0 33284346.681236267 48720297.93497467 0 0 0 0 44019257.293798447 31350212.081817627 0 31350212.081817627 36682030.136619568 0 0 0 0 9399753.2091088295 -7770195.7278385162 0 -7770195.7278385162 36693113.086730957 0 0 0 0 26170048.31952095 47386357.57378006 0 47386357.57378006 60890230.384971619 0 0 0 0 -17520603.396280766 7901473.092912674 0 7901473.092912674 52838956.776245117 0 0 0 0 -39298477.923751831 -12601797.417224884 0 -12601797.417224884 46119149.103065491 0 0 0 0 -12624890.744873047 -6996330.1166801453 0 -6996330.1166801453 43116385.975891113 0 0 0 0 -13670412.660213888 -2046886.1435918808 0 -2046886.1435918808 39297180.661231995 0 0 0 0 -26752778.431561947 -8098586.5620384216 0 -8098586.5620384216 38119229.995117188 0 0 0 0 -28390680.612882376 -4461339.8341903687 0 -4461339.8341903687 31052981.762710571 0 0 0 0 -24015314.989854813 -1916129.5323257446 0 -1916129.5323257446 20393631.834991455 0 0 0 0 -21847030.404697418 -15571378.950759888 0 -15571378.950759888 35304643.352104187 0 0 0 0 -13650829.140234709 -28989255.736557007 0 -28989255.736557007 37235747.686401367 0 0 0 0 -30480300.659588337 -20752678.734706879 0 -20752678.734706879 33213894.70652771 0 0 0 0 -72147175.248122215 -47708296.75365448 0 -47708296.75365448 31245781.13155365 0 0 0 0 -7682823.807800293 -68881292.658107758 0 -68881292.658107758 -5629921.7183227539 0 0 0 0 -30470690.599121571 29645129.568195343 0 29645129.568195343 38833174.808128357 0 0 0 0 -79588767.581634045 -10179263.951629639 0 -10179263.951629639 49113612.438738823 0 0 0 0 -284282.17344673513 -248654.79108933732 0 -248654.79108933732 220475.16010075435 0 0 0 0 -38746689.407276154 -61977848.124038696 0 -61977848.124038696 -70063395.792938232 0 0 0 0 -110387131.03041995 -39353569.539363861 0 -39353569.539363861 12448623.12550354 0 0 0 0 -96642474.761698723 35975386.309814453 0 35975386.309814453 35523295.071266174 0 0 0 0 -28675916.706171989 706563.5376739502 0 706563.5376739502 80509585.41443634 0 0 0 0 18044959.467022896 51362885.94984436 0 51362885.94984436 20358798.140449524 0 0 0 0 -35647154.776532173 28565348.778507233 0 28565348.778507233 -27914814.160469055 0 0 0 0 10441137.866069794 29227218.462486267 0 29227218.462486267 52765640.86190033 0 0 0 0 13961560.163697243 28096422.255508423 0 28096422.255508423 49213074.837005615 0 0 0 0 18472605.487565041 34146989.863735199 0 34146989.863735199 46942187.071594238 0 0 0 0 17429302.048557639 32440885.009763241 0 32440885.009763241 45720724.506469727 0 0 0 0 16371795.892250061 30885543.87676239 0 30885543.87676239 45637176.704871178 0 0 0 0 15878529.806653023 27083346.45602417 0 27083346.45602417 47144816.708999634 0 0 0 0 13763691.345909119 20040686.870674133 0 20040686.870674133 33932240.799137115 0 0 0 0 20473250.896387577 29998864.15058136 0 29998864.15058136 39465965.894721985 0 0 0 0 4022754.9887189865 9172059.0738449097 0 9172059.0738449097 30901443.77488327 0 0 0 0 -1532918.4146203995 20392717.475322723 0 20392717.475322723 24174076.899368286 0 0 0 0 -2020216.6001228094 12737131.966399431 0 12737131.966399431 45950100.015136719 0 0 0 0 -720022.26522126421 -479065.41515247896 0 -479065.41515247896 556028.4350976143 0 0 0 0 -1219290.0548667908 -575882.83982849121 0 -575882.83982849121 47370200.664525986 0 0 0 0 5870502.3334474564 16966810.778457642 0 16966810.778457642 47923209.908180237 0 0 0 0 -9331736.0867919922 -14020845.803627014 0 -14020845.803627014 -1186447.6768074036 0 0 0 0 6768320.9311256409 13642437.416755676 0 13642437.416755676 55983450.69833374 0 0 0 0 5304800.6563453674 27645343.254760742 0 27645343.254760742 63227265.513961792 0 0 0 0 -90477.128532067873 27165.269830394536 0 27165.269830394536 98595.361037746072 0 0 0 0 7489579.8488292694 33076563.404243469 0 33076563.404243469 76656284.462753296 0 0 0 0 5540989.9403495789 22986652.702323914 0 22986652.702323914 61859519.557693481 0 0 0 0 5993950.0159339905 17956181.180328369 0 17956181.180328369 74457253.858827591 0 0 0 0 11414977.335090637 23793527.256103516 0 23793527.256103516 45745966.819252014 0 0 0 0 11094913.683414459 22565520.040725708 0 22565520.040725708 61851188.232009888 0 0 0 0 761491.0085041523 -5774573.5119142532 0 -5774573.5119142532 4955661.4765777588 0 0 0 0 -11532410.436260223 -4102091.8502426147 0 -4102091.8502426147 19116929.836975098 0 0 0 0 -33097680.718811035 -15882035.867622375 0 -15882035.867622375 27998706.763267517 0 0 0 0 -27401819.913836479 -20639579.219421387 0 -20639579.219421387 24104267.925605774 0 0 0 0 -21651068.117385864 -14396326.234909058 0 -14396326.234909058 8646713.6222305298 0 0 0 0 -17310052.457125187 -18801695.508953094 0 -18801695.508953094 1725882.9259567261 0 0 0 0 -38273389.113794804 -32675682.120922089 0 -32675682.120922089 10930646.312408447 0 0 0 0 -28887759.221817017 -17408855.386672974 0 -17408855.386672974 -8038631.6087799072 0 0 0 0 -38378055.085883141 -23886781.282688141 0 -23886781.282688141 25569354.575447083 0 0 0 0 -29362819.359976768 -21513372.622585297 0 -21513372.622585297 1052353.804473877 0 0 0 0 -40045331.907356262 -24081889.979850769 0 -24081889.979850769 34443266.549365997 0 0 0 0 -15867781.748408318 -8832833.4295845032 0 -8832833.4295845032 24246216.306861877 0 0 0 0 -20999689.471824169 14242587.343326569 0 14242587.343326569 -3724107.7420396805 0 0 0 0 -19299869.793256283 1371471.5036125183 0 1371471.5036125183 53070782.801929474 0 0 0 0 -19082737.838077545 53038813.217758179 0 53038813.217758179 4768013.5410404205 0 0 0 0 -14671218.978619576 60852414.665710449 0 60852414.665710449 17392167.606872559 0 0 0 0 -27495005.683721542 54447225.07333374 0 54447225.07333374 28428025.198654175 0 0 0 0 -31382148.310874939 48235164.005794525 0 48235164.005794525 19209174.874511719 0 0 0 0 -27185432.219544411 39462936.12506485 0 39462936.12506485 16313699.140609741 0 0 0 0 -3640343.6869525909 -19208959.838176727 0 -19208959.838176727 9849620.6250348091 0 0 0 0 -45336901.231062889 -31879611.166191101 0 -31879611.166191101 40506029.505699158 0 0 0 0 -33112746.704758644 37841529.519077301 0 37841529.519077301 17970289.777900696 0 0 0 0 309088.54991274606 -649468.1556879608 0 -649468.1556879608 -562992.11908278242 0 0 0 0 -7742689.4988285899 -36695062.327075005 0 -36695062.327075005 -25434080.179683685 0 0 0 0 -23191795.031041145 -1885119.4342880249 0 -1885119.4342880249 32418903.525948524 0 0 0 0 -430823.1829588539 -3078412.0413340172 0 -3078412.0413340172 7700130.4579661405 0 0 0 0 12270802.771803379 -14968627.024145126 0 -14968627.024145126 -4433922.346282959 0 0 0 0 11772321.142707825 -22574279.137882233 0 -22574279.137882233 -31710477.683559418 0 0 0 0 -9333374.189232111 -35860771.052138329 0 -35860771.052138329 -33360922.009506226 0 0 0 0 324470.2692827126 -2701809.2868395336 0 -2701809.2868395336 7181058.7933149394 0 0 0 0 -4780689.7038507462 -25634593.054073334 0 -25634593.054073334 -41849454.858818054 0 0 0 0 -11462881.607556261 -3726180.9326393604 0 -3726180.9326393604 9407514.2026443481 0 0 0 0 -9130122.2610764503 19363249.644359589 0 19363249.644359589 -42203734.317390442 0 0 0 0 807428.65664359927 -30132326.072414398 0 -30132326.072414398 26679499.166604996 0 0 0 0 1214294.1595117263 17706011.302226543 0 17706011.302226543 54221211.761054993 0 0 0 0 -39355351.655836821 -40463891.16875267 0 -40463891.16875267 8562647.9623641968 0 0 0 0 -17327361.925985336 -7694985.3292274475 0 -7694985.3292274475 -5105280.7221622467 0 0 0 0 10541943.214091778 -25234371.905879974 0 -25234371.905879974 4331457.0671539307 0 0 0 0 -4395572.9931040406 6536135.0705485344 0 6536135.0705485344 37479668.021430969 0 0 0 0 2980932.1899574995 -19126391.990960598 0 -19126391.990960598 -21224387.156150818 0 0 0 0 62687394.322417602 36758120.565142632 0 36758120.565142632 36271115.085651398 0 0 0 0 12226021.044893384 -6032040.0853919983 0 -6032040.0853919983 46981572.168552399 0 0 0 0 -27221825.547595978 -12601122.668022156 0 -12601122.668022156 -32362723.329658508 0 0 0 0 -49780608.69483757 -27229030.011917114 0 -27229030.011917114 4799111.9856567383 0 0 0 0 -72718372.584518433 89063917.195854187 0 89063917.195854187 -112111982.45940399 0 0 0 0 254526.69610897405 -3157444.9950195681 0 -3157444.9950195681 7051774.6379607413 0 0 0 0 -33518024.288193703 -40163208.491565704 0 -40163208.491565704 -16344134.345554352 0 0 0 0 -2934263.3347207275 333237.77784695849 0 333237.77784695849 2801795.7786564007 0 0 0 0 -23414222.602692604 18608052.27684021 0 18608052.27684021 22957032.709827423 0 0 0 0 -58040494.731157303 70397356.221691132 0 70397356.221691132 -141787736.10378265 0 0 0 0 211961360.55488014 -100325529.19750214 0 -100325529.19750214 -92019317.215145111 0 0 0 0 34436.253532409668 -66927033.480888367 0 -66927033.480888367 -52545539.225753784 0 0 0 0 56984598.004480839 -201993889.977911 0 -201993889.977911 -17965384.097335815 0 0 0 0 -155037848.2298224 -63553613.955142021 0 -63553613.955142021 -450026742.08525848 0 0 0 0 100533810.89550114 200177295.05699158 0 200177295.05699158 214529423.78672791 0 0 0 0 -90831835.088575363 124905588.79717255 0 124905588.79717255 440667749.4865942 0 0 0 0 5716882.2453308105 -228941971.3641243 0 -228941971.3641243 401229966.57171631 0 0 0 0 301281.64221811178 -2447492.427874716 0 -2447492.427874716 5645974.3463437371 0 0 0 0 -393576640.06991768 -282208826.67366409 0 -282208826.67366409 791358602.0638504 0 0 0 0 -55080312.497178078 -29939464.800489426 0 -29939464.800489426 23997110.688179016 0 0 0 0 8993187.6095485687 -6484705.6879425049 0 -6484705.6879425049 -12191496.507129669 0 0 0 0 35760511.57233572 49944173.45939064 0 49944173.45939064 26916980.290420532 0 0 0 0 15309496.709511995 68244609.830234528 0 68244609.830234528 111711517.66752625 0 0 0 0 5122839.0490732193 28528524.253135681 0 28528524.253135681 57951070.123703003 0 0 0 0 -17069883.660421371 50350564.207237244 0 50350564.207237244 45638566.321548462 0 0 0 0 8645731.7153682709 58952414.557189941 0 58952414.557189941 24042436.908752441 0 0 0 0 -165712578.11848068 -178292923.99372101 0 -178292923.99372101 -193663441.25158691 0 0 0 0 263993.95919802412 -537579.12892330252 0 -537579.12892330252 709305.05089270324 0 0 0 0 257125.30301352404 -1558953.2916207109 0 -1558953.2916207109 3527791.7228237838 0 0 0 0 -24589494.936702609 -20123661.718521595 0 -20123661.718521595 36338392.66544342 0 0 0 0 45889058.795928992 98580072.024343967 0 98580072.024343967 166109980.71091843 0 0 0 0 62678915.567143679 51358889.768482208 0 51358889.768482208 72840700.391628265 0 0 0 0 28795588.319515705 53484697.797122955 0 53484697.797122955 81401613.046417236 0 0 0 0 2513703.1237254143 353914.06137084961 0 353914.06137084961 32096873.258148193 0 0 0 0 4001673.6130371392 41516881.807303905 0 41516881.807303905 72209848.330162048 0 0 0 0 80648307.073251009 108022451.28664017 0 108022451.28664017 112511966.13082886 0 0 0 0 39745627.296291709 82769465.780620575 0 82769465.780620575 133042628.8999939 0 0 0 0 49852384.51001215 51789183.890926361 0 51789183.890926361 57652329.385066986 0 0 0 0 65288821.85943602 109894010.27014923 0 109894010.27014923 194658165.84238434 0 0 0 0 130965426.95174363 139225820.38391304 0 139225820.38391304 178148293.04730988 0 0 0 0 145151497.92722279 89739239.001565933 0 89739239.001565933 213284321.9992981 0 0 0 0 85480443.142988443 121961774.99184608 0 121961774.99184608 197367017.60668182 0 0 0 0 95074004.622514009 101026537.86063766 0 101026537.86063766 182944613.86512852 0 0 0 0 50621664.803880692 81161240.379942894 0 81161240.379942894 265423262.8499527 0 0 0 0 49152720.188406944 93092660.530738831 0 93092660.530738831 187176436.56798553 0 0 0 0 67559716.360381126 100401809.60581589 0 100401809.60581589 96032249.243341446 0 0 0 0 38491040.946928978 72008565.843584061 0 72008565.843584061 134860669.32608032 0 0 0 0 64790333.393266678 82199133.340301514 0 82199133.340301514 69834417.537640572 0 0 0 0 52900582.818819046 130087383.12927246 0 130087383.12927246 182096022.77061462 0 0 0 0 45424005.90404129 41310030.192621231 0 41310030.192621231 43080349.884628296 0 0 0 0 89444193.465065002 2951184.6745300293 0 2951184.6745300293 -41189703.45904541 0 0 0 0 122464568.06650925 88186356.622970581 0 88186356.622970581 -20473297.774053574 0 0 0 0 100621227.40431404 139620055.48918915 0 139620055.48918915 101586932.52729416 0 0 0 0 52510606.582366943 100281419.90486145 0 100281419.90486145 186512254.80102539 0 0 0 0 154240341.86525726 169112102.16496658 0 169112102.16496658 131747795.7066803 0 0 0 0 153379411.93322885 190887944.66370642 0 190887944.66370642 286917672.68481445 0 0 0 0 69901582.530258179 93529990.659240723 0 93529990.659240723 290489937.90135956 0 0 0 0 50865748.851705074 135176142.25027657 0 135176142.25027657 243523069.5294342 0 0 0 0 48451196.544576645 81675553.217353821 0 81675553.217353821 289127600.56808472 0 0 0 0 55803466.218101501 114656034.78064728 0 114656034.78064728 321789498.68783569 0 0 0 0 53131351.584438324 96207367.704490662 0 96207367.704490662 320460258.63259888 0 0 0 0 90368881.103384018 22519656.287521362 0 22519656.287521362 330592479.2519598 0 0 0 0 70046105.28097041 101822586.19135332 0 101822586.19135332 493695463.1335907 0 0 0 0 43595426.517318487 88189209.998811722 0 88189209.998811722 273664686.8602829 0 0 0 0 54612529.983517647 86229515.994106293 0 86229515.994106293 218608770.16115952 0 0 0 0 34025163.555008888 102525827.10570145 0 102525827.10570145 277335562.6210022 0 0 0 0 56014929.366093636 68088748.227024078 0 68088748.227024078 292050716.44113922 0 0 0 0 69276317.384249687 88097916.521133423 0 88097916.521133423 278848166.40686798 0 0 0 0 50055339.217102289 76718807.535207748 0 76718807.535207748 277895792.14102936 0 0 0 0 102786538.78051758 70027436.220783234 0 70027436.220783234 266534209.40389228 0 0 0 0 115956119.06207681 159106218.38940668 0 159106218.38940668 128975809.52458191 0 0 0 0 108419801.96324396 39867715.10616684 0 39867715.10616684 229481105.01022339 0 0 0 0 63291870.573899269 64153641.09633255 0 64153641.09633255 266989887.05230713 0 0 0 0 30248109.98734808 62718602.670787811 0 62718602.670787811 309545509.77542877 0 0 0 0 -1148113.7788052559 126525616.318367 0 126525616.318367 261731368.31243896 0 0 0 0 78856245.363617897 4664299.5761508942 0 4664299.5761508942 389014090.54590893 0 0 0 0 57367992.696298361 144276330.31417847 0 144276330.31417847 326554640.06904411 0 0 0 0 266940078.559614 64621690.756124496 0 64621690.756124496 199272419.06402588 0 0 0 0 73009272.291701078 65669533.701383591 0 65669533.701383591 271677112.76544952 0 0 0 0 -96356993.174724102 51126803.071370125 0 51126803.071370125 -85707697.80431366 0 0 0 0 -28064647.254589558 22482035.615542412 0 22482035.615542412 14939283.128753662 0 0 0 0 -73454533.037349701 -6803761.6664962769 0 -6803761.6664962769 14822455.029291153 0 0 0 0 -18171585.823278427 52550587.25844574 0 52550587.25844574 -10126045.922212601 0 0 0 0 -18153954.706277847 50522614.21736908 0 50522614.21736908 35211870.589689255 0 0 0 0 10477927.2693367 32347379.527687073 0 32347379.527687073 23375565.480007172 0 0 0 0 10278782.953915834 28136947.671153545 0 28136947.671153545 91670539.881225586 0 0 0 0 -23248473.263286591 -2774820.419303894 0 -2774820.419303894 86827956.656433105 0 0 0 0 -11899081.17698288 -14520098.157493591 0 -14520098.157493591 73246060.797813416 0 0 0 0 -40993634.364477158 -51523111.689682007 0 -51523111.689682007 190355881.00889587 0 0 0 0 -14041154.984037399 -5618668.9867839813 0 -5618668.9867839813 186032317.44244385 0 0 0 0 -72374685.783069611 -55749404.758014679 0 -55749404.758014679 337969081.3482666 0 0 0 0 -72147716.154411316 -46400540.251289368 0 -46400540.251289368 254397661.47586823 0 0 0 0 -35653526.881046295 1167300.1493530273 0 1167300.1493530273 196167751.64199829 0 0 0 0 -55970943.227584839 -84688634.586463928 0 -84688634.586463928 182791805.5641346 0 0 0 0 -85098918.585546583 -108502858.28876829 0 -108502858.28876829 -103613342.80571747 0 0 0 0 -79465553.512546539 -137205646.13122559 0 -137205646.13122559 151388559.47527695 0 0 0 0 -291062314.65752888 -264594260.66357803 0 -264594260.66357803 200392929.19480896 0 0 0 0 -84367473.924520493 -89502863.631973267 0 -89502863.631973267 177200642.15198898 0 0 0 0 -39087818.191820145 -71034081.73406601 0 -71034081.73406601 39720060.654708862 0 0 0 0 263076641.9322567 338755710.13433456 0 338755710.13433456 217050099.27576447 0 0 0 0 -118218.97468930576 -209689.75598597713 0 -209689.75598597713 1256744.0781237371 0 0 0 0 155815482.07750893 187488688.95293808 0 187488688.95293808 45899105.557861328 0 0 0 0 33987943.716173172 189036998.74454498 0 189036998.74454498 268273871.29900742 0 0 0 0 110080898.75426006 240175743.56586075 0 240175743.56586075 235738236.50093651 0 0 0 0 -359322056.32277012 -8608253.2408256531 0 -8608253.2408256531 235365781.4719162 0 0 0 0 -154989102.49768925 443603756.06337357 0 443603756.06337357 467654420.78952026 0 0 0 0 304237285.89489365 39651581.081039429 0 39651581.081039429 197396134.74191284 0 0 0 0 -19479.626877814298 -845905.3493205104 0 -845905.3493205104 2893658.440567147 0 0 0 0 -229805667.56847966 -69414471.51506567 0 -69414471.51506567 317050.83218383789 0 0 0 0 -218020920.53664589 35435547.564613342 0 35435547.564613342 17067237.296562195 0 0 0 0 -79387282.444896698 27155997.340946198 0 27155997.340946198 -22688402.640449524 0 0 0 0 -93839538.682449341 -34818306.251785278 0 -34818306.251785278 -49146763.375152588 0 0 0 0 -124239215.66787338 1767490.3231372833 0 1767490.3231372833 33344914.578186035 0 0 0 0 474901629.36689854 -577260791.45701599 0 -577260791.45701599 -689323710.53469849 0 0 0 0 1056585587.1215305 1077910687.4175339 0 1077910687.4175339 490560941.14561462 0 0 0 0 172255394.19723701 -96371120.476615906 0 -96371120.476615906 400507089.46086884 0 0 0 0 -565659723.89224815 -317749909.3506279 0 -317749909.3506279 101420816.98155212 0 0 0 0 72066.380948196165 -488146.17627652176 0 -488146.17627652176 1170868.106154684 0 0 0 0 -90880403.610545397 -24859445.081243515 0 -24859445.081243515 31737315.790229797 0 0 0 0 357537.77766975621 -1168078.9615091234 0 -1168078.9615091234 2352581.413965296 0 0 0 0 -77072394.171113968 9710310.9858398438 0 9710310.9858398438 8974519.2521896362 0 0 0 0 -78700899.757997513 26717030.964183807 0 26717030.964183807 57091384.505432129 0 0 0 0 -72148185.160926819 29679150.281600952 0 29679150.281600952 22834232.209997177 0 0 0 0 -93163693.624620438 10620636.402023315 0 10620636.402023315 51654201.760253906 0 0 0 0 -50385778.503782272 26781463.012527466 0 26781463.012527466 48458840.042033195 0 0 0 0 -69345430.925262451 42147061.809059143 0 42147061.809059143 82923541.431854248 0 0 0 0 -50466371.731044769 46557707.648490906 0 46557707.648490906 61857212.715000153 0 0 0 0 -40626170.248588562 49028294.791755676 0 49028294.791755676 63738105.517814636 0 0 0 0 -54286787.280090332 55881164.573043823 0 55881164.573043823 87175614.378692627 0 0 0 0 -19830309.123369217 51167787.948921204 0 51167787.948921204 55098241.109451294 0 0 0 0 -40633034.781600952 62683369.88306427 0 62683369.88306427 95340823.575698853 0 0 0 0 -30525306.646369934 37377906.70406723 0 37377906.70406723 59329845.399017334 0 0 0 0 -71194987.776341915 53548762.452609062 0 53548762.452609062 65708677.054595947 0 0 0 0 -89021026.031069279 32136360.403814316 0 32136360.403814316 36187291.885932922 0 0 0 0 -33163801.958580017 51510554.851406097 0 51510554.851406097 21150574.108718872 0 0 0 0 14635343.346432686 43670431.028347015 0 43670431.028347015 19313309.091133118 0 0 0 0 14183900.498987198 39271002.060768127 0 39271002.060768127 20513939.723876953 0 0 0 0 -29953431.389379501 44532477.697052002 0 44532477.697052002 71527140.918731689 0 0 0 0 -20894768.957670212 57743867.347434998 0 57743867.347434998 67694659.920478821 0 0 0 0 -28707005.127325058 42756809.26802063 0 42756809.26802063 106005591.65357971 0 0 0 0 -27541065.401378632 29583744.903819084 0 29583744.903819084 239292959.83084106 0 0 0 0 -8891403.6960906982 160293413.63483429 0 160293413.63483429 69929093.23866272 0 0 0 0 -11664543.674983978 200865179.58670425 0 200865179.58670425 199679296.43467712 0 0 0 0 14729714.411746979 115283743.27119446 0 115283743.27119446 49695226.189914703 0 0 0 0 -20352000.597507477 112166389.03614044 0 112166389.03614044 163308912.63245392 0 0 0 0 -20822860.327396393 78495910.464950562 0 78495910.464950562 89862900.14540863 0 0 0 0 -30356018.574061871 84587356.077936172 0 84587356.077936172 92124732.586685181 0 0 0 0 -45854538.603404999 58192938.575614929 0 58192938.575614929 99624437.03691864 0 0 0 0 -26634066.205429077 58141304.511260986 0 58141304.511260986 86092575.353445053 0 0 0 0 -9105373.8975200653 51834281.009586334 0 51834281.009586334 100721388.05653381 0 0 0 0 -15323564.159270287 59859471.559288025 0 59859471.559288025 92391071.391967773 0 0 0 0 32164064.764549255 86969942.125259399 0 86969942.125259399 90334865.96210289 0 0 0 0 40963786.977493286 42419033.458072662 0 42419033.458072662 97755425.261680603 0 0 0 0 -6885521.0663766861 37051554.113777161 0 37051554.113777161 112327262.15209579 0 0 0 0 273564.06719577685 68427.310892159119 0 68427.310892159119 -189373.96697370009 0 0 0 0 48917300.514514923 90685216.683021545 0 90685216.683021545 63864925.682411194 0 0 0 0 2300088.6320533752 11028201.952007294 0 11028201.952007294 16365212.180999756 0 0 0 0 -51595917.852434158 12561798.273468018 0 12561798.273468018 -2523873.9045257568 0 0 0 0 -163343.50678716414 -88398.842119142413 0 -88398.842119142413 95198.972993702628 0 0 0 0 -191516.95132192736 161927.57746703736 0 161927.57746703736 59913.674115005881 0 0 0 0 88429574.533987045 89445278.738712311 0 89445278.738712311 81377903.260528564 0 0 0 0 -19855457.281470776 94654969.907779694 0 94654969.907779694 206449056.09527588 0 0 0 0 35076409.631549835 30855066.029495239 0 30855066.029495239 17278845.107139587 0 0 0 0 -17891532.035427094 -18981045.074989319 0 -18981045.074989319 1404144.896194458 0 0 0 0 -33417986.283245087 52992129.489578247 0 52992129.489578247 127151122.81782913 0 0 0 0 -32810031.699872017 56718734.655166626 0 56718734.655166626 128899068.45809937 0 0 0 0 -31556283.465986252 27708220.764419556 0 27708220.764419556 121171226.80136108 0 0 0 0 -54042096.762373924 45645609.641304016 0 45645609.641304016 115524450.91149902 0 0 0 0 -61298877.721248627 28755604.312446594 0 28755604.312446594 77367866.383621216 0 0 0 0 -37374404.94073391 37355453.655303955 0 37355453.655303955 72865964.311279297 0 0 0 0 -34356469.084341049 45258694.028862 0 45258694.028862 81628258.941534042 0 0 0 0 -40334723.029602051 37944807.367767334 0 37944807.367767334 114348695.57339478 0 0 0 0 -5187403.3440742493 35058648.307922363 0 35058648.307922363 114581216.71980953 0 0 0 0 -24586918.316968918 4995606.3345565796 0 4995606.3345565796 127765616.21041489 0 0 0 0 -61354261.233240128 12501319.570667267 0 12501319.570667267 127629549.87583923 0 0 0 0 -59447317.223720551 -56003294.782661438 0 -56003294.782661438 76919738.233955383 0 0 0 0 -74407920.650506973 21579687.582946777 0 21579687.582946777 181224646.25371552 0 0 0 0 -61925556.624329567 39716271.742084503 0 39716271.742084503 193311767.06781006 0 0 0 0 -132324569.65821457 8091338.0260543823 0 8091338.0260543823 292087871.43688965 0 0 0 0 -128363311.81412315 -46072181.995796204 0 -46072181.995796204 191066982.6882323 0 0 0 0 -42840689.247220993 61832671.772773743 0 61832671.772773743 208056929.60527039 0 0 0 0 -70170099.837034225 41234777.838809967 0 41234777.838809967 217885252.58103943 0 0 0 0 9320.1654600072652 -8351.2554799355567 0 -8351.2554799355567 -44798.369295643643 0 0 0 0 -818167.67274076352 134486.19589887373 0 134486.19589887373 759170.30119804293 0 0 0 0 305005187.50809479 -255325525.34355164 0 -255325525.34355164 -124611892.72161865 0 0 0 0 -793114944.53004074 192353482.56257629 0 192353482.56257629 -78511853.970890999 0 0 0 0 -154917130.73593521 -135375066.0737915 0 -135375066.0737915 -74454127.144462585 0 0 0 0 -341939609.10303688 -6621583.9493255615 0 -6621583.9493255615 28287903.506881714 0 0 0 0 167991570.64301586 16803151.647380829 0 16803151.647380829 -91640896.387641907 0 0 0 0 -73935756.103979111 241455774.56859779 0 241455774.56859779 -193500198.19039154 0 0 0 0 -134982506.27047634 87925538.326351166 0 87925538.326351166 48235771.615299225 0 0 0 0 45184379.693508148 114477728.77819824 0 114477728.77819824 25028273.430412292 0 0 0 0 -1293745.4863308107 644706.40231964923 0 644706.40231964923 637166.01915252954 0 0 0 0 -88588225.915456772 -96290552.9815979 0 -96290552.9815979 -86530617.666559219 0 0 0 0 -48895870.018915176 51200713.615638733 0 51200713.615638733 3742261.729177475 0 0 0 0 -20440639.781461716 -39603695.689762115 0 -39603695.689762115 -9661597.6296424866 0 0 0 0 2783069.2555246353 2322947.8314476013 0 2322947.8314476013 4082899.3741226196 0 0 0 0 4721251.964050293 6065631.1447906494 0 6065631.1447906494 -7988936.407081604 0 0 0 0 5084501.1042900085 8522236.3347702026 0 8522236.3347702026 1874101.8511505127 0 0 0 0 -1135194.1336112635 666523.28224439546 0 666523.28224439546 393708.15337849036 0 0 0 0 142730577.37654781 -28783178.82516861 0 -28783178.82516861 5679955.389128685 0 0 0 0 3682393.4092555046 -855271.04582977295 0 -855271.04582977295 -553473.60482788086 0 0 0 0 -315971.17841148376 726456.28425979614 0 726456.28425979614 3359693.7037239075 0 0 0 0 -1070702.0870637894 2379689.9613800049 0 2379689.9613800049 86208.386070251465 0 0 0 0 -2671004.0116785765 -6953666.9737324715 0 -6953666.9737324715 -10922001.241783142 0 0 0 0 -480221.53097726777 -59794.416063271463 0 -59794.416063271463 566967.25361738354 0 0 0 0 -7473053.9065294266 2743454.8210868835 0 2743454.8210868835 1912861.2613830566 0 0 0 0 9289870.8065109253 2882775.7486038208 0 2882775.7486038208 575158.46023178101 0 0 0 0 45901265.587852478 59071639.902101517 0 59071639.902101517 24538651.188476562 0 0 0 0 -3207148.0694898367 -24536564.687962532 0 -24536564.687962532 -26890800.788108826 0 0 0 0 -254855.37930005975 -21277.310198029503 0 -21277.310198029503 282945.14738228358 0 0 0 0 -3589744.5314331055 16379693.241413116 0 16379693.241413116 32135146.713596344 0 0 0 0 -6565619.276014328 30242754.661327362 0 30242754.661327362 8193192.201428175 0 0 0 0 -74553572.783683777 10659197.904018402 0 10659197.904018402 17254026.505161285 0 0 0 0 165575.61952713341 2595575.8521856209 0 2595575.8521856209 7358966.9784852229 0 0 0 0 12832964.677694321 22882244.969444275 0 22882244.969444275 -4327611.8012237549 0 0 0 0 23192337.131324768 12123819.765815735 0 12123819.765815735 -23532337.327056885 0 0 0 0 -48197882.102249146 27506198.281879425 0 27506198.281879425 6280570.8580036163 0 0 0 0 -49769.046928024734 1686659.9513343547 0 1686659.9513343547 5952779.7136641517 0 0 0 0 -523038316.38875628 207593995.31503868 0 207593995.31503868 185595024.21878815 0 0 0 0 -156023058.70958781 -180199994.43417549 0 -180199994.43417549 15687940.571891785 0 0 0 0 -187322.5963019873 718066.4089424808 0 718066.4089424808 3689264.2425204962 0 0 0 0 -236114602.19427967 -128036909.04197121 0 -128036909.04197121 226834220.32262421 0 0 0 0 9030836.7577018738 25817892.933082581 0 25817892.933082581 -19973475.557777405 0 0 0 0 -31628692.362108231 35948879.853397369 0 35948879.853397369 37370703.617500305 0 0 0 0 14431491.660743713 7108807.6762104034 0 7108807.6762104034 42547441.662384033 0 0 0 0 38309860.353961945 19246139.597663879 0 19246139.597663879 7962904.4685592651 0 0 0 0 28163938.596439838 50529131.557387352 0 50529131.557387352 37389304.010025024 0 0 0 0 -5143194.6811695099 22819703.029922485 0 22819703.029922485 26648420.001029968 0 0 0 0 33761691.686292648 1856115.3368301392 0 1856115.3368301392 115252449.15683937 0 0 0 0 35716732.977373123 44753762.500869751 0 44753762.500869751 85761001.687561035 0 0 0 0 194838895.71200943 3108.2079849243164 0 3108.2079849243164 -2675854.8360023499 0 0 0 0 56340501.707712173 -45587696.273414612 0 -45587696.273414612 264483799.49105835 0 0 0 0 81173224.605104446 100853965.03225708 0 100853965.03225708 -52340879.186328888 0 0 0 0 68142691.949817657 -17189642.398124695 0 -17189642.398124695 31990617.309112549 0 0 0 0 -78761.320222908165 -87402.189634781331 0 -87402.189634781331 50608.696668792516 0 0 0 0 46714011.971863747 9988262.6417236328 0 9988262.6417236328 -110219657.34262085 0 0 0 0 -5142744.3814163208 17470379.224487305 0 17470379.224487305 41652892.480888367 0 0 0 0 58817105.675542831 47698741.262512207 0 47698741.262512207 -78136725.174415588 0 0 0 0 -23143738.510717392 69260500.782436371 0 69260500.782436371 -34807452.919898987 0 0 0 0 22748793.481983185 23410777.665565491 0 23410777.665565491 -30199041.2376194 0 0 0 0 23184860.511239216 13920408.15254952 0 13920408.15254952 -52182793.21005249 0 0 0 0 5094730.8052101135 -8835294.166053772 0 -8835294.166053772 -4093731.2463188171 0 0 0 0 -42949444.402910233 -134052689.06049538 0 -134052689.06049538 89189389.059135437 0 0 0 0 321161.16216897184 -305930.23699939623 0 -305930.23699939623 22650.255545556545 0 0 0 0 21615145.841048956 45556532.125898361 0 45556532.125898361 16826801.851486206 0 0 0 0 83238289.076065063 1795123.4914264679 0 1795123.4914264679 -69808027.783561707 0 0 0 0 -3516491.2214283943 17238616.996433258 0 17238616.996433258 40158919.596591949 0 0 0 0 282397469.2438221 -176829612.597229 0 -176829612.597229 88972680.060482025 0 0 0 0 295209217.317873 212330031.51821518 0 212330031.51821518 -93731424.887405396 0 0 0 0 -91492064.626433849 41436238.910488129 0 41436238.910488129 -22960804.484222412 0 0 0 0 -291301115.39752913 356549521.16728973 0 356549521.16728973 -48685165.6925354 0 0 0 0 -189609508.34108305 -83557578.276878357 0 -83557578.276878357 31205505.549761772 0 0 0 0 -112635627.0610882 131374844.58126259 0 131374844.58126259 608862572.03208923 0 0 0 0 6642932.4653126001 -153361449.36921692 0 -153361449.36921692 93194653.950668335 0 0 0 0 -44288430.167481899 -64549677.580863953 0 -64549677.580863953 118897885.19953918 0 0 0 0 -539216.77932611573 -640411.43814897863 0 -640411.43814897863 1914581.5890239924 0 0 0 0 150455214.72700238 -116800764.92040253 0 -116800764.92040253 84067382.540382385 0 0 0 0 15886791.916152 36184866.20532608 0 36184866.20532608 76413544.419094086 0 0 0 0 135136271.60505959 255566870.22905052 0 255566870.22905052 311357348.67037964 0 0 0 0 -167124.78580710333 -306976.87201650394 0 -306976.87201650394 675409.5849952735 0 0 0 0 435128968.0108335 -307216240.27296448 0 -307216240.27296448 138583736.07507324 0 0 0 0 2119121.1347982883 -33550309.095703125 0 -33550309.095703125 494543630.88543701 0 0 0 0 -9605206.9313888252 70786750.765439987 0 70786750.765439987 306026283.02287292 0 0 0 0 6360277.6951875687 26230044.04794693 0 26230044.04794693 88721197.857704163 0 0 0 0 -712934.89572790731 815976.24890327454 0 815976.24890327454 1267469.3463781327 0 0 0 0 -96013942.561409712 253073566.70970917 0 253073566.70970917 -308166659.88977051 0 0 0 0 -33663552.035395145 21562764.787029266 0 21562764.787029266 223132019.28054047 0 0 0 0 -43224556.647292376 143723300.78272247 0 143723300.78272247 260899674.44419861 0 0 0 0 -80873693.556923807 153799756.94620132 0 153799756.94620132 246335526.01664734 0 0 0 0 -53941881.576116085 148068357.61869431 0 148068357.61869431 -24163397.751152039 0 0 0 0 50295964.882391691 140496350.54431152 0 140496350.54431152 -256680940.76450348 0 0 0 0 -97379988.853423595 115488251.8431778 0 115488251.8431778 -33724906.387321472 0 0 0 0 -92736611.648071766 116624935.19980812 0 116624935.19980812 -99205991.013534546 0 0 0 0 -1590839.7425984531 942373.35576231033 0 942373.35576231033 2169495.9514049795 0 0 0 0 -161705749.68135548 79906867.214935303 0 79906867.214935303 21245677.423740387 0 0 0 0 -1071693.6449579389 -1307129.1554721529 0 -1307129.1554721529 4143483.7052752599 0 0 0 0 -57309663.687361091 -46443336.062887788 0 -46443336.062887788 -32652111.707626343 0 0 0 0 41308687.273962021 -81525743.638496399 0 -81525743.638496399 113058470.15173721 0 0 0 0 -1805951.0764936949 416084.43091460131 0 416084.43091460131 1474955.8060097471 0 0 0 0 30548077.710328102 -94399111.358787537 0 -94399111.358787537 110605688.42654419 0 0 0 0 -16617889.648066521 -70390495.733467102 0 -70390495.733467102 -34256918.290466309 0 0 0 0 -109055646.4064827 -99849037.393211365 0 -99849037.393211365 -11742859.604877472 0 0 0 0 -234968498.08019972 -61637538.38196975 0 -61637538.38196975 54753771.039718628 0 0 0 0 -31234388.143731117 -100793392.27987289 0 -100793392.27987289 -4489724.3802375793 0 0 0 0 -727450.33875947585 -1320953.8195083486 0 -1320953.8195083486 3782030.9982808717 0 0 0 0 -289695880.97459579 23139966.603327811 0 23139966.603327811 146820484.19088745 0 0 0 0 -118473060.14427185 23462598.63318634 0 23462598.63318634 172750408.80503464 0 0 0 0 -126651390.40307045 63562724.734741211 0 63562724.734741211 -10709606.073318481 0 0 0 0 -32807818.727588654 -109940074.02956581 0 -109940074.02956581 4788083.1197891235 0 0 0 0 25638186.281899333 -266423607.53164291 0 -266423607.53164291 293471194.68026733 0 0 0 0 -106493411.5741111 65577208.959396362 0 65577208.959396362 266009978.01981354 0 0 0 0 260780718.05901337 113061817.67111969 0 113061817.67111969 -78686409.921127319 0 0 0 0 150815355.38318443 149539974.13668823 0 149539974.13668823 -57392262.661491394 0 0 0 0 25947473.844055176 33790907.953962326 0 33790907.953962326 6394795.3615570068 0 0 0 0 47478986.872306824 48868921.449111938 0 48868921.449111938 12003546.159044266 0 0 0 0 84600003.275816917 204281328.58733368 0 204281328.58733368 212535337.48144007 0 0 0 0 -6838120.9753060341 114184.99145698547 0 114184.99145698547 47041159.907142639 0 0 0 0 16929.966860923218 -105482.60393532086 0 -105482.60393532086 433595.9239041619 0 0 0 0 99856133.124548912 163031953.48918152 0 163031953.48918152 50322484.321990967 0 0 0 0 52692027.212696075 133814743.60647583 0 133814743.60647583 162665507.7582016 0 0 0 0 40129986.633207321 96886769.818014145 0 96886769.818014145 54124949.901367188 0 0 0 0 99097513.083770752 157593987.68132782 0 157593987.68132782 20159737.637710571 0 0 0 0 69187679.095300674 63729847.242286682 0 63729847.242286682 49370643.87269783 0 0 0 0 10219976.929679871 -1598410.413772583 0 -1598410.413772583 15694997.671401978 0 0 0 0 174191381.46381593 32306102.133701324 0 32306102.133701324 13640224.945068359 0 0 0 0 -21808903.05764389 -130636918.65553284 0 -130636918.65553284 -368327913.22790337 0 0 0 0 -257835910.50897694 -17030236.956710815 0 -17030236.956710815 229356695.0763855 0 0 0 0 -712463.40348917665 257628.98515854031 0 257628.98515854031 539676.82830489054 0 0 0 0 -393375412.97898674 -199594575.00727844 0 -199594575.00727844 207811239.33769989 0 0 0 0 -116935065.36080074 -56307219.903709412 0 -56307219.903709412 136708836.98814392 0 0 0 0 -178192409.16426277 -306876837.80109024 0 -306876837.80109024 12557452.499710083 0 0 0 0 285664059.80825424 34053331.385410309 0 34053331.385410309 -65073920.037071228 0 0 0 0 226640099.99227428 -186422587.20462036 0 -186422587.20462036 93372712.814598083 0 0 0 0 -62665137.992887497 251076432.78930664 0 251076432.78930664 -290863563.21381378 0 0 0 0 -86688.780171360122 137302.37160587753 0 137302.37160587753 1162817.9831557535 0 0 0 0 -3571114.6240170002 184114237.15720654 0 184114237.15720654 487986707.73905945 0 0 0 0 326977983.53621674 552128324.41444397 0 552128324.41444397 -160568447.66360879 0 0 0 0 -59489841.957947612 -24252815.10798645 0 -24252815.10798645 54267223.471992493 0 0 0 0 202794388.98904985 -112790498.49348736 0 -112790498.49348736 153800166.90924835 0 0 0 0 -20289262.03303051 41096190.655651093 0 41096190.655651093 81197995.730139732 0 0 0 0 230847607.29844952 50837460.31905365 0 50837460.31905365 -177176979.82966733 0 0 0 0 135542401.42940176 219578201.03344235 0 219578201.03344235 360026412.52072144 0 0 0 0 215431.79104738915 -258627.3435366163 0 -258627.3435366163 420176.25288041309 0 0 0 0 135054090.63187599 138781124.95730591 0 138781124.95730591 156837286.36922455 0 0 0 0 88166708.602628708 164560707.86297607 0 164560707.86297607 252262219.56987 0 0 0 0 -5841700.9209418297 112410584.47808838 0 112410584.47808838 373950147.29207611 0 0 0 0 122709761.0351162 93117538.668388367 0 93117538.668388367 49702277.32862854 0 0 0 0 49793640.23260498 89555708.641044617 0 89555708.641044617 175412665.57465363 0 0 0 0 194148.94783466961 -358590.346582531 0 -358590.346582531 873195.98526817188 0 0 0 0 84649594.602397919 27629986.420654297 0 27629986.420654297 33960660.428394318 0 0 0 0 32170732.626752853 29011404.690315247 0 29011404.690315247 45803511.869651794 0 0 0 0 -31196721.258769989 -198370637.54158783 0 -198370637.54158783 713033576.32084656 0 0 0 0 39285022.807878494 43351505.592567444 0 43351505.592567444 43769026.174837112 0 0 0 0 19131492.0350914 49853443.137228012 0 49853443.137228012 43045080.533309937 0 0 0 0 27990509.526937485 49703171.580863953 0 49703171.580863953 98606295.362060547 0 0 0 0 35430961.400878906 40136350.137924194 0 40136350.137924194 102037941.02152252 0 0 0 0 7514760.6229991913 15315727.189758301 0 15315727.189758301 88701026.316261292 0 0 0 0 7862072.5335540771 39735889.204105377 0 39735889.204105377 180671622.38237 0 0 0 0 -9239850.9458045959 41023380.523109436 0 41023380.523109436 181750441.03390503 0 0 0 0 49750089.975194097 88785995.083399296 0 88785995.083399296 166782595.21165466 0 0 0 0 -26714250.341819763 61246692.16355896 0 61246692.16355896 248801660.78964615 0 0 0 0 -5470195.332611084 58115205.305130005 0 58115205.305130005 246458596.302948 0 0 0 0 -35887039.121518135 8099983.714220047 0 8099983.714220047 252525114.76896667 0 0 0 0 -63817326.892776489 11377817.9425354 0 11377817.9425354 255263118.73892975 0 0 0 0 -105290289.46419907 2476162.7410125732 0 2476162.7410125732 352298265.35862732 0 0 0 0 -94536674.397768021 22171843.395889282 0 22171843.395889282 388370487.90431213 0 0 0 0 -84693975.72819519 30397303.416976929 0 30397303.416976929 333183000.70447111 0 0 0 0 -51368942.445355415 44586251.951507568 0 44586251.951507568 334068392.36853027 0 0 0 0 -99733006.191903114 68900977.446025848 0 68900977.446025848 358682228.545578 0 0 0 0 -40907248.062381744 62428992.630367279 0 62428992.630367279 351578651.30702972 0 0 0 0 -133526517.92577171 48371545.607055664 0 48371545.607055664 388264729.4503898 0 0 0 0 -94482353.850286484 120377406.47029114 0 120377406.47029114 264859094.36623383 0 0 0 0 -58941810.401958466 62377235.206851959 0 62377235.206851959 350645742.15248871 0 0 0 0 -52774560.904778481 90649166.545749664 0 90649166.545749664 335259639.20756531 0 0 0 0 115121217.53881407 72015293.845541954 0 72015293.845541954 214994032.66150665 0 0 0 0 50600514.01436615 76190579.629760742 0 76190579.629760742 331836740.72306824 0 0 0 0 -33302672.482871532 47430358.425526619 0 47430358.425526619 362951283.78458405 0 0 0 0 65039815.087444305 27835907.921417236 0 27835907.921417236 457746330.46895599 0 0 0 0 97795467.661434174 269471299.61549187 0 269471299.61549187 316542134.93344212 0 0 0 0 287202129.71870899 127274683.21635246 0 127274683.21635246 256226562.07028198 0 0 0 0 87057634.171268463 157762977.29845428 0 157762977.29845428 263799744.13579941 0 0 0 0 95752700.183286667 110795748.71737671 0 110795748.71737671 169352405.68980026 0 0 0 0 60669069.78362751 100174690.55010986 0 100174690.55010986 233569948.75683212 0 0 0 0 58793258.534250736 99769460.891233444 0 99769460.891233444 238044827.34777832 0 0 0 0 51616354.623415947 61098591.978126526 0 61098591.978126526 295956751.54691696 0 0 0 0 36850035.487153053 17218497.638046265 0 17218497.638046265 166238414.55252421 0 0 0 0 14121971.954201221 55090564.207129478 0 55090564.207129478 113108922.79360962 0 0 0 0 -28998303.970172882 -15428387.976947784 0 -15428387.976947784 60112639.698863983 0 0 0 0 -128901239.5478611 50919821.577522278 0 50919821.577522278 127362025.51767731 0 0 0 0 -145786696.67714691 180193069.82496643 0 180193069.82496643 243695064.01816559 0 0 0 0 8236505.6487140656 63565530.450464249 0 63565530.450464249 96958803.401802063 0 0 0 0 -24362167.55068779 78540397.140995026 0 78540397.140995026 215984641.00502777 0 0 0 0 106013036.85074902 -316960397.644104 0 -316960397.644104 199088123.78892899 0 0 0 0 82362518.543031335 -222316698.21984482 0 -222316698.21984482 123227389.0515976 0 0 0 0 -49202940.08168149 -185963800.06495476 0 -185963800.06495476 208913496.79723358 0 0 0 0 71641740.962255478 -172411370.49011993 0 -172411370.49011993 91561778.130899429 0 0 0 0 -129716.8197741379 -536698.41171854571 0 -536698.41171854571 1143101.8739436679 0 0 0 0 -145257960.65530252 -112448569.66504288 0 -112448569.66504288 133139447.71224213 0 0 0 0 -429793.11098881171 -1131546.5147396273 0 -1131546.5147396273 2912034.4846089594 0 0 0 0 -293610409.52378273 102411038.22982025 0 102411038.22982025 181388175.6268959 0 0 0 0 57656718.857666492 358444712.86439133 0 358444712.86439133 288752988.54566193 0 0 0 0 26242824.998698711 48096372.750597954 0 48096372.750597954 36453154.37752533 0 0 0 0 92190711.448834896 -30523041.437888145 0 -30523041.437888145 736881783.12312317 0 0 0 0 450468259.02790546 -187131535.53154373 0 -187131535.53154373 202092704.84162903 0 0 0 0 437292640.90616417 205902913.9006424 0 205902913.9006424 375078278.14353943 0 0 0 0 335975521.90221459 -468765797.08043671 0 -468765797.08043671 369413478.67064667 0 0 0 0 -46797938.562030792 -152386763.46710968 0 -152386763.46710968 721418670.88402557 0 0 0 0 70436414.675174713 -34218002.949068069 0 -34218002.949068069 235950103.59760284 0 0 0 0 14430255.958058357 76726050.708030701 0 76726050.708030701 146763413.66005707 0 0 0 0 -91193807.465423107 -72031006.794654846 0 -72031006.794654846 365085633.76802444 0 0 0 0 -47925364.853677601 -125087123.0249579 0 -125087123.0249579 282040751.2126236 0 0 0 0 10171259.011622667 -213211011.87966156 0 -213211011.87966156 364361094.88962173 0 0 0 0 5965111.2288419008 -2003339.3701295853 0 -2003339.3701295853 -5497259.1282653809 0 0 0 0 220177.70357128431 -101063.31297700945 0 -101063.31297700945 -159374.08199677989 0 0 0 0 -902504.21140009165 17335819.061160088 0 17335819.061160088 -735242.42125701904 0 0 0 0 -167631699.30414295 14893048.041627884 0 14893048.041627884 1571926.2414016724 0 0 0 0 -168762824.74207115 23345194.908683777 0 23345194.908683777 150730325.47262573 0 0 0 0 84277397.672695398 -52013964.279319763 0 -52013964.279319763 104589424.93328857 0 0 0 0 35387755.345563412 16881886.357564926 0 16881886.357564926 -67753901.790878296 0 0 0 0 73035436.926380157 97990317.142929077 0 97990317.142929077 98018643.109752417 0 0 0 0 -111740646.08141136 125992680.95232201 0 125992680.95232201 27494191.290044785 0 0 0 0 121414973.74422681 -35564962.978837967 0 -35564962.978837967 9835691.4654159546 0 0 0 0 167904446.96112108 55073591.997257233 0 55073591.997257233 -9142721.4575433731 0 0 0 0 311183077.80608273 102051488.15751648 0 102051488.15751648 105327839.35417938 0 0 0 0 227207859.2233181 -66762444.307300568 0 -66762444.307300568 162756772.56246948 0 0 0 0 311157743.21001226 -111459661.4695991 0 -111459661.4695991 27188561.125480652 0 0 0 0 257221021.50942898 -37097600.191192627 0 -37097600.191192627 -1771049.7639541626 0 0 0 0 209042254.78393054 -82536014.33029747 0 -82536014.33029747 -42541668.534347534 0 0 0 0 292318818.67904568 -51581802.52116394 0 -51581802.52116394 -63771610.913719177 0 0 0 0 592634.81011075666 421128.01797860861 0 421128.01797860861 -66748.186163123697 0 0 0 0 86863404.490602016 -100636952.30929947 0 -100636952.30929947 18922278.881141663 0 0 0 0 25310874.40823245 -36468397.843942642 0 -36468397.843942642 -22159115.520664215 0 0 0 0 -341077.27457114472 544207.43581345398 0 544207.43581345398 940480.88563911617 0 0 0 0 -805493.24855351448 130013.05959320068 0 130013.05959320068 432371.21337890625 0 0 0 0 262342.21398417361 535124.94273309503 0 535124.94273309503 1179813.8030380718 0 0 0 0 -523146.58671343327 2191201.4969100952 0 2191201.4969100952 1871610.9096450806 0 0 0 0 13464018.066085339 65557390.042985916 0 65557390.042985916 -41293245.212323189 0 0 0 0 981063.84376645088 1550456.9981384277 0 1550456.9981384277 1455239.9459533691 0 0 0 0 37415.37147128582 1557211.518579483 0 1557211.518579483 1804101.3000106812 0 0 0 0 22259.046586275101 1908737.5597057343 0 1908737.5597057343 1611462.2047309875 0 0 0 0 -177578.47738933621 1330285.5383808594 0 1330285.5383808594 1810267.6084543057 0 0 0 0 -173361231.31836605 -59663944.297798157 0 -59663944.297798157 40892750.356842041 0 0 0 0 -138002255.91243744 24973418.749692917 0 24973418.749692917 64896234.951637268 0 0 0 0 -32227825.731428385 -25401519.905582428 0 -25401519.905582428 -125798.64293670654 0 0 0 0 -28453154.844653368 -50721062.724675179 0 -50721062.724675179 114327498.79309082 0 0 0 0 227033291.24593022 -143249777.63575318 0 -143249777.63575318 173838844.21682739 0 0 0 0 108439931.05595493 -35225228.081260681 0 -35225228.081260681 91546974.40517807 0 0 0 0 247566826.69875431 -96723554.733558655 0 -96723554.733558655 30676235.571863174 0 0 0 0 98972580.311512947 -69501159.403118134 0 -69501159.403118134 24351708.433145285 0 0 0 0 102096332.56896973 -14990267.775112152 0 -14990267.775112152 27155036.530845642 0 0 0 0 144920007.25400853 -24340971.514844894 0 -24340971.514844894 -19941901.188545227 0 0 0 0 199295036.61513424 -45966966.310577393 0 -45966966.310577393 -27733529.417825699 0 0 0 0 271751689.98499846 6161074.2786693573 0 6161074.2786693573 -22367004.346473694 0 0 0 0 188697569.64906979 -58516638.975063324 0 -58516638.975063324 73273029.842067719 0 0 0 0 92818064.921622634 -33460838.50659585 0 -33460838.50659585 -45194997.238456726 0 0 0 0 187797117.6799345 -44530238.335174561 0 -44530238.335174561 -78013708.593830109 0 0 0 0 95703770.14710331 -13322480.66604805 0 -13322480.66604805 10218108.083755493 0 0 0 0 -32602633.894052505 -19121593.146503448 0 -19121593.146503448 -19397705.442796707 0 0 0 0 -46919973.058973312 9336907.6175193787 0 9336907.6175193787 -67641288.142059326 0 0 0 0 -25142496.990273476 -14529186.084821701 0 -14529186.084821701 25035528.930561066 0 0 0 0 -29794105.307186306 -65342197.430483222 0 -65342197.430483222 -36834713.95085144 0 0 0 0 -1510104.2674120066 -2453660.8475427097 0 -2453660.8475427097 4339847.4276216384 0 0 0 0 -141836221.58869648 -69166484.783313751 0 -69166484.783313751 4882785.5899047852 0 0 0 0 -140167981.9431839 -97920173.546028137 0 -97920173.546028137 -57808914.047012329 0 0 0 0 -6327906.2873106003 -2831832.2355766296 0 -2831832.2355766296 6662661.7942466736 0 0 0 0 -4344179.1334590912 -3286895.5190491676 0 -3286895.5190491676 6295675.0918807983 0 0 0 0 -4997246.9818181992 -255398.60640716553 0 -255398.60640716553 10248915.00164032 0 0 0 0 -4400906.2481365204 -1690029.4660739899 0 -1690029.4660739899 7080362.0710391998 0 0 0 0 -4556728.9797906876 -1043045.8118267059 0 -1043045.8118267059 4866297.3583755493 0 0 0 0 -6947678.5344486237 -1745996.0969848633 0 -1745996.0969848633 7540298.6426544189 0 0 0 0 -5306507.2018680573 -3887035.9919261932 0 -3887035.9919261932 3290686.3699150085 0 0 0 0 -9133569.6860342026 -4089379.169424057 0 -4089379.169424057 5139491.9796218872 0 0 0 0 -9686156.2547864914 -4688602.4267444611 0 -4688602.4267444611 4865153.1399345398 0 0 0 0 -1037952.4855227012 -2608718.7716838643 0 -2608718.7716838643 4845346.8271391615 0 0 0 0 8507415.4611501694 -14789812.057044983 0 -14789812.057044983 4761314.5304450989 0 0 0 0 -36415.803965854459 -587078.90742459334 0 -587078.90742459334 565202.79234395921 0 0 0 0 -11157642.854802847 -1003402.2775554657 0 -1003402.2775554657 4870613.3245162964 0 0 0 0 -1155613.8642144203 -7248120.8680591583 0 -7248120.8680591583 5834885.9758853912 0 0 0 0 -901792.68107046629 -3109107.7170208711 0 -3109107.7170208711 4985674.0003234856 0 0 0 0 -3024458.5354404449 -9432726.7844944 0 -9432726.7844944 6936349.7138347626 0 0 0 0 1558599.2368031251 -5155753.1229303312 0 -5155753.1229303312 -555608.08349957131 0 0 0 0 -1991158.0414161682 -10037872.199363708 0 -10037872.199363708 -38164008.592888594 0 0 0 0 3367779.5055789948 -10343909.965995789 0 -10343909.965995789 5688351.013092041 0 0 0 0 4206348.0653018951 -12685255.514419556 0 -12685255.514419556 9325403.6844139099 0 0 0 0 7266056.6113524437 -5903923.9355735779 0 -5903923.9355735779 611880.97902679443 0 0 0 0 8024472.8713150024 -12408196.87607193 0 -12408196.87607193 649426.52690505981 0 0 0 0 13157488.281024933 -10259672.690296173 0 -10259672.690296173 -3470354.1153678894 0 0 0 0 15345475.161982536 -5296728.6381225586 0 -5296728.6381225586 157645.05231189728 0 0 0 0 -242039.25467249844 -162325.52294871397 0 -162325.52294871397 -32341.620252594352 0 0 0 0 -2623802.3307290077 -7339417.2422466278 0 -7339417.2422466278 2309422.7932128906 0 0 0 0 5146925.7179043852 -6951578.4578477545 0 -6951578.4578477545 2687570.7525727786 0 0 0 0 -15043106.882137775 18730177.459564209 0 18730177.459564209 448564.10771179199 0 0 0 0 36162552.743298531 -92607170.230985641 0 -92607170.230985641 -63235471.327863216 0 0 0 0 33154501.470245361 -48278012.978328705 0 -48278012.978328705 3799798.2141649723 0 0 0 0 -59185732.088443756 -78629447.238985062 0 -78629447.238985062 13532386.985635757 0 0 0 0 3570098.1501688757 -8218796.7404739764 0 -8218796.7404739764 6941325.1657181773 0 0 0 0 52853506.940933228 -16530149.659370422 0 -16530149.659370422 -82461080.613445282 0 0 0 0 -57762094.985744476 -34583977.747396469 0 -34583977.747396469 37107966.292037964 0 0 0 0 -4048742.7782902718 -2130936.9088487625 0 -2130936.9088487625 7179244.9669647217 0 0 0 0 -16384104.89661026 -97891.109188079834 0 -97891.109188079834 19299689.177112579 0 0 0 0 -432910.63832412986 -2147111.5567491613 0 -2147111.5567491613 2120668.9400348421 0 0 0 0 -4307172.6939924629 -1589905.4537937269 0 -1589905.4537937269 7644672.107086271 0 0 0 0 -2824574.7163791656 -2812389.1275062561 0 -2812389.1275062561 5981588.3905296326 0 0 0 0 -4287768.7664318085 -26304.711050033569 0 -26304.711050033569 8891635.0823516846 0 0 0 0 -2144843.0618960331 -2467637.7384210094 0 -2467637.7384210094 11203473.7786578 0 0 0 0 -46671096.034957886 -41875502.235565186 0 -41875502.235565186 101091907.17322636 0 0 0 0 50374127.666834891 -60758807.106740534 0 -60758807.106740534 37114552.250297546 0 0 0 0 52085244.676315069 -99027232.167459369 0 -99027232.167459369 66443070.701034546 0 0 0 0 -80420265.585464478 3266317.0870990753 0 3266317.0870990753 20895192.983312488 0 0 0 0 -78915612.66718483 43496573.532753944 0 43496573.532753944 -8013711.0904197693 0 0 0 0 -69612240.764371872 22046771.051089287 0 22046771.051089287 41136645.565415382 0 0 0 0 -140973620.16672134 111883235.1905098 0 111883235.1905098 94328144.657187879 0 0 0 0 -59402738.728192329 -44673268.509572029 0 -44673268.509572029 129112780.85295486 0 0 0 0 -160040735.36495018 66638853.574401855 0 66638853.574401855 152944039.08010864 0 0 0 0 5788367.8133459091 -162341779.50930309 0 -162341779.50930309 248303842.69857788 0 0 0 0 13195852.625537872 -139801515.34703827 0 -139801515.34703827 223481222.75542641 0 0 0 0 -231980584.64117813 53674868.526889801 0 53674868.526889801 386634747.76711845 0 0 0 0 -108974657.96431732 63429102.099842072 0 63429102.099842072 92296140.584182739 0 0 0 0 253271175.95895767 -225899265.77462196 0 -225899265.77462196 175987242.3653183 0 0 0 0 18061705.471618652 55854370.184124947 0 55854370.184124947 211815499.13918591 0 0 0 0 266815410.20718956 -41514976.773082912 0 -41514976.773082912 2946727.8845825195 0 0 0 0 1104503.1367609878 -1388888.4116524104 0 -1388888.4116524104 -271849.13283258118 0 0 0 0 20056570.633337021 598630410.78478432 0 598630410.78478432 297417381.31188107 0 0 0 0 -141657280.73556137 -121567114.6082592 0 -121567114.6082592 652853914.38214111 0 0 0 0 64941120.655441284 -289389788.75057602 0 -289389788.75057602 462393264.47860718 0 0 0 0 161373805.34479904 -91792025.441282272 0 -91792025.441282272 44820159.329532623 0 0 0 0 13023202.705618858 25627071.218880653 0 25627071.218880653 45901668.104567528 0 0 0 0 -44827145.549263 -152371517.57361031 0 -152371517.57361031 359823688.98178959 0 0 0 0 -20101991.430324554 -98432249.795826912 0 -98432249.795826912 35421399.033426285 0 0 0 0 8323672.5530757904 -23831199.185812473 0 -23831199.185812473 31748424.730149269 0 0 0 0 -6025783.067609787 -36807147.861815929 0 -36807147.861815929 25802989.517980576 0 0 0 0 -6847211.0588884354 -54097178.98738575 0 -54097178.98738575 131084497.92416859 0 0 0 0 1631310.551451683 2978744.886631012 0 2978744.886631012 6418725.3026094437 0 0 0 0 10652856.282194957 6824357.8625192046 0 6824357.8625192046 7972521.2918806076 0 0 0 0 948727.77882385254 -6800724.1208696365 0 -6800724.1208696365 4995191.6343569756 0 0 0 0 13067794.990129769 -7417836.365352571 0 -7417836.365352571 3985108.7737312317 0 0 0 0 3056001.3367467741 -3908131.5958895306 0 -3908131.5958895306 -642551.42783835717 0 0 0 0 4508024.7968519926 -7293271.6166353226 0 -7293271.6166353226 -5840597.496219635 0 0 0 0 978729.47565403976 275196.67998727271 0 275196.67998727271 -1155763.4706098395 0 0 0 0 58140436.399638176 -35814014.970582008 0 -35814014.970582008 -15083103.868141174 0 0 0 0 91434549.235243082 16112266.374361038 0 16112266.374361038 -17647585.045127869 0 0 0 0 155527787.56234741 -37151448.666082382 0 -37151448.666082382 -24087621.698223114 0 0 0 0 145321178.58437037 28558602.220516443 0 28558602.220516443 -19725899.054561615 0 0 0 0 8657073.9409046173 13482502.724162817 0 13482502.724162817 11850982.19318682 0 0 0 0 15014180.342023298 3856365.1512104571 0 3856365.1512104571 4200176.1191587448 0 0 0 0 8130794.9244230986 6236681.1397449076 0 6236681.1397449076 4239596.1470718384 0 0 0 0 6679051.4449970759 3365412.9234221242 0 3365412.9234221242 8591013.3779793736 0 0 0 0 11864802.400922805 -23395341.946100056 0 -23395341.946100056 21602035.663793564 0 0 0 0 2434773.726941797 3582073.1851112563 0 3582073.1851112563 17754053.795006067 0 0 0 0 10969863.806985855 17047066.116814137 0 17047066.116814137 33306166.542854309 0 0 0 0 8655558.4655857086 10124522.596495628 0 10124522.596495628 12648159.706656694 0 0 0 0 7452545.6723670959 15336351.209214211 0 15336351.209214211 33274776.836471558 0 0 0 0 4981406.1391792297 16909002.239374161 0 16909002.239374161 36514672.619697571 0 0 0 0 3672299.9866485596 16449883.6205616 0 16449883.6205616 46084328.03805542 0 0 0 0 -934712.15440940857 15714215.886661649 0 15714215.886661649 36369141.642501831 0 0 0 0 -1348616.4225234985 11805221.567738533 0 11805221.567738533 33434291.389251709 0 0 0 0 1214960.800819397 13830558.173708439 0 13830558.173708439 36660338.740560532 0 0 0 0 35601577.693603992 7630981.5055961609 0 7630981.5055961609 -63607050.742259979 0 0 0 0 1920430.011279773 -871337.60565276816 0 -871337.60565276816 -4154944.0084164739 0 0 0 0 -5683860.5086285686 -7931771.4011902418 0 -7931771.4011902418 18573313.402277052 0 0 0 0 3029341.8658218384 10365285.028875351 0 10365285.028875351 43107981.927223206 0 0 0 0 346056.58098506927 7729360.530834198 0 7729360.530834198 50610772.0230093 0 0 0 0 1836064.858757019 9552349.8268785477 0 9552349.8268785477 52100628.589092255 0 0 0 0 -3084105.3219649433 -4408652.9755725767 0 -4408652.9755725767 15709145.03375428 0 0 0 0 -6345379.6129915714 -15058862.826599121 0 -15058862.826599121 2184536.9616394043 0 0 0 0 -8059294.9739688486 -20953933.7429142 0 -20953933.7429142 -22023745.924500972 0 0 0 0 -8308621.4227148294 -11882698.984004974 0 -11882698.984004974 533644.36705780029 0 0 0 0 -32984416.697333515 -10451026.822189331 0 -10451026.822189331 -21920749.096557617 0 0 0 0 -1177697.7533647227 -7518101.837481725 0 -7518101.837481725 9423435.1232704893 0 0 0 0 1090771.2034544945 -7814326.5912427902 0 -7814326.5912427902 1560148.3864173889 0 0 0 0 5858149.2813505065 1055133.5100880181 0 1055133.5100880181 3543492.1790085072 0 0 0 0 -11018666.401583821 -12145253.758205414 0 -12145253.758205414 -8100628.0199432373 0 0 0 0 -5031611.8718957901 -14583754.776954651 0 -14583754.776954651 -18011353.100158691 0 0 0 0 2306327.2301254938 -8601866.2263371758 0 -8601866.2263371758 -7083352.6346949581 0 0 0 0 -1723883.3172356486 -6758928.5501384735 0 -6758928.5501384735 -1957644.6722259521 0 0 0 0 -3716070.1557961991 -17873730.878853776 0 -17873730.878853776 11151943.913161216 0 0 0 0 -2133006.1504909554 -11947458.652678933 0 -11947458.652678933 12584311.948129456 0 0 0 0 2128150.4230513819 -5083540.7911891453 0 -5083540.7911891453 -5339160.2853895389 0 0 0 0 3574201.779001236 -18087682.503982544 0 -18087682.503982544 -50734489.755401611 0 0 0 0 -14034901.748234034 -26474094.69146347 0 -26474094.69146347 -48735295.205581665 0 0 0 0 -534071.54213799571 -319602.3698138101 0 -319602.3698138101 859778.33865860105 0 0 0 0 -8742468.181125164 -35262282.027496338 0 -35262282.027496338 -41980584.361984253 0 0 0 0 -48223538.204750061 -36369324.866195679 0 -36369324.866195679 9150307.3377380371 0 0 0 0 3798444.364900589 -6885482.5378799438 0 -6885482.5378799438 -7111886.5159988403 0 0 0 0 4857935.0771205463 -7914789.3931247201 0 -7914789.3931247201 -16973813.978445835 0 0 0 0 6353898.5769569632 -4606040.3350133598 0 -4606040.3350133598 -4023899.7454684712 0 0 0 0 2118210.1408644761 -4933750.3745008577 0 -4933750.3745008577 -1495992.041877307 0 0 0 0 20455713.223915696 -12039884.896312714 0 -12039884.896312714 -34125765.681007385 0 0 0 0 17291076.918080568 -1533328.3171615601 0 -1533328.3171615601 -15544487.416080475 0 0 0 0 -534713.70227468014 -34679573.424795866 0 -34679573.424795866 -39665853.652580261 0 0 0 0 -1970612.6624325514 -53535552.497240067 0 -53535552.497240067 -8843734.1924285889 0 0 0 0 -44978673.045199394 -38664649.655578613 0 -38664649.655578613 -2100470.9537086487 0 0 0 0 -45185264.153886795 -15168005.639762878 0 -15168005.639762878 -3014943.7357711792 0 0 0 0 6852505.6579093933 -22841595.775016785 0 -22841595.775016785 -49890688.196456909 0 0 0 0 33770117.425426245 31732682.76650238 0 31732682.76650238 -136747682.99713898 0 0 0 0 -36690831.5313375 -52940976.147708893 0 -52940976.147708893 29175652.607376099 0 0 0 0 19855528.041491508 49009461.502979279 0 49009461.502979279 -16431838.447198868 0 0 0 0 -49803596.041572988 -59335187.819190264 0 -59335187.819190264 5559595.3338165283 0 0 0 0 76382.240627547028 -2352054.1903630253 0 -2352054.1903630253 758101.47203901038 0 0 0 0 5861378.6397342682 -21187886.748550415 0 -21187886.748550415 -60396279.324474335 0 0 0 0 -60048300.887124062 -91654611.890644073 0 -91654611.890644073 -9813978.5361557007 0 0 0 0 -12815095.715488911 -38770312.107049942 0 -38770312.107049942 77448432.251602173 0 0 0 0 22570039.833230495 -4921008.0029277802 0 -4921008.0029277802 32251567.535118103 0 0 0 0 -3371262.5266008377 -51379688.565975189 0 -51379688.565975189 20883536.050422668 0 0 0 0 40008516.474019527 -12686196.49467659 0 -12686196.49467659 -124390623.49170303 0 0 0 0 -7004984.1598376501 -10662411.523199892 0 -10662411.523199892 20191075.388200127 0 0 0 0 -40966003.326531753 -114672597.76529312 0 -114672597.76529312 -98786049.686302185 0 0 0 0 14553272.473329127 -42287994.625734329 0 -42287994.625734329 -28451920.773132324 0 0 0 0 16084978.850270271 13715418.357269287 0 13715418.357269287 -255277.05849456787 0 0 0 0 355060.54759082274 -1258821.2467245068 0 -1258821.2467245068 -1345429.750126455 0 0 0 0 -103098473.3997252 -169023921.75760269 0 -169023921.75760269 173641253.75988007 0 0 0 0 58700713.019895077 45662022.375469208 0 45662022.375469208 -68251965.785743713 0 0 0 0 52701067.590619802 27102215.667785645 0 27102215.667785645 -107960760.48451233 0 0 0 0 13184105.702452887 -12589121.542176247 0 -12589121.542176247 -80733501.8126297 0 0 0 0 73685524.582946345 -55818841.808712006 0 -55818841.808712006 -77792717.171081543 0 0 0 0 98190519.826779872 16295990.433416367 0 16295990.433416367 -141088768.19478607 0 0 0 0 120966284.71907522 -4082986.1107063293 0 -4082986.1107063293 -38449560.569351196 0 0 0 0 65443030.166913539 -14949195.522321701 0 -14949195.522321701 96831532.664962769 0 0 0 0 -561446.82047645305 -920862.60518929176 0 -920862.60518929176 1184770.994504042 0 0 0 0 113142539.6545285 -67599923.497028351 0 -67599923.497028351 -49052462.394721985 0 0 0 0 55511088.446269631 177121063.55659103 0 177121063.55659103 -189884014.92481613 0 0 0 0 61384715.813536227 162127649.59704947 0 162127649.59704947 173017569.84044647 0 0 0 0 -407623.51851842541 -161315.7737931367 0 -161315.7737931367 659851.34368675575 0 0 0 0 226461544.56967124 56903848.46830368 0 56903848.46830368 59732861.207023621 0 0 0 0 -12815455.39364624 20290071.787765503 0 20290071.787765503 193347528.47727263 0 0 0 0 -5027048.0617008209 57608763.926830292 0 57608763.926830292 83383023.576446533 0 0 0 0 -73592400.057587624 -24358440.951557159 0 -24358440.951557159 91006472.096366882 0 0 0 0 -54374523.795301437 45393099.853054047 0 45393099.853054047 47291153.870983124 0 0 0 0 -19819857.727903605 1803233.0495405197 0 1803233.0495405197 101848433.62361145 0 0 0 0 14858371.978571892 97745148.885921478 0 97745148.885921478 156402022.94901657 0 0 0 0 7350502.3082642555 20605023.387210846 0 20605023.387210846 41830811.491512299 0 0 0 0 30694442.274615288 124620397.28156662 0 124620397.28156662 230617724.43959808 0 0 0 0 30339214.926560283 180402561.53316513 0 180402561.53316513 294235695.57273865 0 0 0 0 -22627948.687147141 93095028.091625214 0 93095028.091625214 244502896.1505127 0 0 0 0 14507415.922533035 107368243.81051636 0 107368243.81051636 192372513.20121425 0 0 0 0 -15396796.999044418 90898150.993534088 0 90898150.993534088 292418674.18946838 0 0 0 0 51515151.58628273 230294206.65486526 0 230294206.65486526 364678107.33123779 0 0 0 0 -4327340.5786132812 70516320.598640442 0 70516320.598640442 488755808.4787178 0 0 0 0 4999607.153383255 102246354.34728241 0 102246354.34728241 278858468.58642578 0 0 0 0 5559071.6734695435 3691778.0619049072 0 3691778.0619049072 282723621.23720503 0 0 0 0 19050845.632586479 4455684.4649887085 0 4455684.4649887085 361973705.64588928 0 0 0 0 38482599.978759766 56988494.323570251 0 56988494.323570251 334136121.51234436 0 0 0 0 33696220.351927757 26769990.694934845 0 26769990.694934845 226441698.74446106 0 0 0 0 80740279.699445724 -58326015.46887207 0 -58326015.46887207 152400908.20162201 0 0 0 0 9868289.0287795067 46952057.752033234 0 46952057.752033234 156214320.31549072 0 0 0 0 23956861.431026459 -33900247.96672821 0 -33900247.96672821 208183092.48382187 0 0 0 0 121796874.83209229 -81361352.212516785 0 -81361352.212516785 73788437.61668396 0 0 0 0 62218775.493085861 -67411194.208503723 0 -67411194.208503723 256520351.40161133 0 0 0 0 93402731.829851151 -16769871.32743454 0 -16769871.32743454 186169894.25205231 0 0 0 0 98383474.846157074 -9383763.7751922607 0 -9383763.7751922607 399385739.29217148 0 0 0 0 73497193.566963196 -102535322.05567932 0 -102535322.05567932 369432262.75643921 0 0 0 0 133116025.18781662 -160792767.1102066 0 -160792767.1102066 412753054.39126587 0 0 0 0 135676018.67792511 -25904720.317520142 0 -25904720.317520142 204423222.46907043 0 0 0 0 42120034.036128998 21582080.826885223 0 21582080.826885223 640638512.37194824 0 0 0 0 179879658.63380432 -201143468.46990967 0 -201143468.46990967 829973514.22310638 0 0 0 0 -6120366.0419235229 171748461.01745605 0 171748461.01745605 1004540764.5973969 0 0 0 0 299056378.36082697 510780774.68831825 0 510780774.68831825 618806394.9535675 0 0 0 0 78568469.646312714 201969730.45420837 0 201969730.45420837 485056057.1147995 0 0 0 0 7771178.336315155 7797513.7279434204 0 7797513.7279434204 604258092.38659668 0 0 0 0 32896298.232079506 246057216.51329422 0 246057216.51329422 596295421.98184204 0 0 0 0 -243271496.88171196 -119880369.85054398 0 -119880369.85054398 605410272.12376404 0 0 0 0 -108690445.1621542 148144026.319767 0 148144026.319767 926575579.05915833 0 0 0 0 -197337845.69328117 -26579105.429279327 0 -26579105.429279327 645037805.34341431 0 0 0 0 -54610678.493534088 224664724.93067932 0 224664724.93067932 809218066.52365112 0 0 0 0 303922284.3769722 461238725.38633728 0 461238725.38633728 824726747.67635727 0 0 0 0 724121157.36151123 82525240.279327393 0 82525240.279327393 442975904.34759521 0 0 0 0 -128397621.98975372 -9410997.2332077026 0 -9410997.2332077026 452625827.03038788 0 0 0 0 -77325919.968296051 -14174683.946228027 0 -14174683.946228027 351279242.05625916 0 0 0 0 -86360204.112140656 -129982758.44589806 0 -129982758.44589806 358606327.99571228 0 0 0 0 -117231250.65116882 -85891496.998893738 0 -85891496.998893738 359647650.06742859 0 0 0 0 -110395710.01916122 -57294380.085647583 0 -57294380.085647583 448527175.03948975 0 0 0 0 -127632028.16720581 82754691.0832901 0 82754691.0832901 528552239.14701843 0 0 0 0 -141189744.95081329 22859546.672149658 0 22859546.672149658 645668989.47872925 0 0 0 0 -152653465.11981392 -89405242.540107727 0 -89405242.540107727 476718483.14401245 0 0 0 0 -86900295.118289948 81185599.317764282 0 81185599.317764282 534619360.08007812 0 0 0 0 -147736666.05517292 -15739095.780650139 0 -15739095.780650139 475509435.69888306 0 0 0 0 -133838163.29746723 42001023.156423569 0 42001023.156423569 452478199.50526428 0 0 0 0 -126714757.67954826 -9346944.6259384155 0 -9346944.6259384155 406919159.03242493 0 0 0 0 56995817.000761986 127914746.82569885 0 127914746.82569885 177132474.01087952 0 0 0 0 -133694291.29850769 56418963.336402893 0 56418963.336402893 433369760.93521881 0 0 0 0 -146586354.0151329 108481308.8819046 0 108481308.8819046 457492764.71777725 0 0 0 0 -120385230.36455345 71296907.866600037 0 71296907.866600037 543568656.58914185 0 0 0 0 159414690.2351017 273224225.90275574 0 273224225.90275574 381254634.84283066 0 0 0 0 381446.85971839144 -332099.5758220423 0 -332099.5758220423 -303593.28363588825 0 0 0 0 184683576.53516006 376694679.52487946 0 376694679.52487946 521898868.01049805 0 0 0 0 -266053017.15014362 -95138160.541721344 0 -95138160.541721344 290174584.0303421 0 0 0 0 10485768.653591156 166478346.45999146 0 166478346.45999146 455138301.6366272 0 0 0 0 35654415.035066605 209199889.74879456 0 209199889.74879456 593870151.56367493 0 0 0 0 21281302.385080338 -80779286.416015625 0 -80779286.416015625 -29407135.103858948 0 0 0 0 1421870.3568982296 -1368618.6789801577 0 -1368618.6789801577 -1391346.4565165862 0 0 0 0 8911873.6804513931 78535067.954387665 0 78535067.954387665 -42598087.898742676 0 0 0 0 -104132184.83544254 20620357.688999176 0 20620357.688999176 -7391560.8886795044 0 0 0 0 11391713.786916733 25076592.777839661 0 25076592.777839661 101040943.32773399 0 0 0 0 -63545726.357342005 5762975.6997241974 0 5762975.6997241974 119019654.27830505 0 0 0 0 370.77904066443443 -320565.20463516284 0 -320565.20463516284 463294.76637579128 0 0 0 0 -135954340.45397568 87345267.434354305 0 87345267.434354305 -22404679.448600769 0 0 0 0 -166944088.63261461 -12506786.940423965 0 -12506786.940423965 40217285.822151184 0 0 0 0 -1917416.9696521759 37076478.819288254 0 37076478.819288254 -27122420.058189392 0 0 0 0 1874058.3329187501 -4073831.7698981632 0 -4073831.7698981632 -1019297.2715463694 0 0 0 0 31776391.228433609 -14035588.370048523 0 -14035588.370048523 -27367782.495628357 0 0 0 0 2081580.620323658 44100345.803367615 0 44100345.803367615 -18762603.786354065 0 0 0 0 30224798.895879745 -5744368.1873779297 0 -5744368.1873779297 -38580534.734753609 0 0 0 0 5692098.2979421616 -25844381.499834061 0 -25844381.499834061 -24224810.083221436 0 0 0 0 48620454.589993477 -19689876.599689484 0 -19689876.599689484 -28096436.114343643 0 0 0 0 33332299.652196407 4180942.5416574478 0 4180942.5416574478 1697730.9230194092 0 0 0 0 28044611.702312469 -46349435.288860321 0 -46349435.288860321 114589441.56401825 0 0 0 0 41616790.956851959 5452503.8660831451 0 5452503.8660831451 109886688.94258118 0 0 0 0 86044969.502166748 -42581617.283695221 0 -42581617.283695221 24610601.775634766 0 0 0 0 59397747.699083328 23019227.794151306 0 23019227.794151306 55954412.359253883 0 0 0 0 53484506.656937599 -8651568.3469028473 0 -8651568.3469028473 -13444732.168113708 0 0 0 0 16363088.228635721 -11174977.051216602 0 -11174977.051216602 281915795.33221436 0 0 0 0 -21033369.502978116 -33005019.986682892 0 -33005019.986682892 273686492.47066498 0 0 0 0 369431.11353544286 -29013474.517028809 0 -29013474.517028809 290685492.39431381 0 0 0 0 23702192.870894089 -44075000.55909729 0 -44075000.55909729 299705098.80789948 0 0 0 0 87760528.04151389 -39791867.026536942 0 -39791867.026536942 293019986.20446777 0 0 0 0 16619430.57046473 -25287945.581295013 0 -25287945.581295013 347522712.25702667 0 0 0 0 -120225.32582215806 -141098837.09407806 0 -141098837.09407806 389491440.54344177 0 0 0 0 -9283585.60336487 -64073144.683677673 0 -64073144.683677673 289457611.02207851 0 0 0 0 -21441299.000087485 -45215759.970180511 0 -45215759.970180511 260259217.20115662 0 0 0 0 -42067136.941979729 -33825767.902362823 0 -33825767.902362823 260394505.69071579 0 0 0 0 -25833744.901445702 -57094744.90512085 0 -57094744.90512085 230688832.66449738 0 0 0 0 -42531683.385022163 -28625315.280956507 0 -28625315.280956507 222570808.57349396 0 0 0 0 -52368611.433248013 6595154.830581665 0 6595154.830581665 250349529.67572212 0 0 0 0 -22303089.702310398 -23070344.78528595 0 -23070344.78528595 236069716.07546997 0 0 0 0 -23294847.310973287 58492944.271152496 0 58492944.271152496 266596678.39308929 0 0 0 0 -23570968.73992613 -16781710.487041473 0 -16781710.487041473 251651912.29272461 0 0 0 0 -42169619.963007003 25061034.320869446 0 25061034.320869446 208427071.22663689 0 0 0 0 -75184180.482713744 -23776347.623369217 0 -23776347.623369217 214347883.33004761 0 0 0 0 -36711895.144049734 -35534878.355592728 0 -35534878.355592728 127926144.39572906 0 0 0 0 -32736567.570420712 16121308.256767273 0 16121308.256767273 178082959.35771179 0 0 0 0 -43622866.956116736 11055249.072547913 0 11055249.072547913 179776602.18582153 0 0 0 0 -23284362.330627501 39463146.329917908 0 39463146.329917908 185290428.58529139 0 0 0 0 -33280647.918429986 22320346.238824844 0 22320346.238824844 184330072.03902435 0 0 0 0 15363675.674633471 59772953.101860046 0 59772953.101860046 163241406.81002045 0 0 0 0 13848783.052090108 34476353.737911224 0 34476353.737911224 133746044.88899231 0 0 0 0 -1185491.1431131512 2573865.1770057678 0 2573865.1770057678 261184152.56640816 0 0 0 0 2835317.4386614435 -13950330.369213104 0 -13950330.369213104 323160060.22147369 0 0 0 0 -2260.3886021515723 -1097552.3955927903 0 -1097552.3955927903 -970265.88107299805 0 0 0 0 43933010.533166304 138695939.64276123 0 138695939.64276123 377141688.19880676 0 0 0 0 -123968.40126049523 -16597.493048574775 0 -16597.493048574775 335060.51494394243 0 0 0 0 -868773.49961887812 -836637.36980056763 0 -836637.36980056763 -121915.56091690063 0 0 0 0 9745262.9435868263 49055948.361320496 0 49055948.361320496 129794874.87588501 0 0 0 0 -35400.600395819958 -143812.46569671109 0 -143812.46569671109 395801.1670262292 0 0 0 0 -854915.33821967826 -1510583.3128201962 0 -1510583.3128201962 -327777.68840789795 0 0 0 0 -1021901.5535312314 -590307.06648635864 0 -590307.06648635864 432109.73162078857 0 0 0 0 2194.2433197527457 -1694940.4825248718 0 -1694940.4825248718 619594.15699768066 0 0 0 0 -1410020.4956372678 -1255543.7034454346 0 -1255543.7034454346 3132067.0636978149 0 0 0 0 -1514653.1699685622 -648832.79810333252 0 -648832.79810333252 698336.29657745361 0 0 0 0 -1214765.6119175255 -138640.18291854858 0 -138640.18291854858 1275092.3888015747 0 0 0 0 -1792362.0380228306 2155744.5136427879 0 2155744.5136427879 -315685.42274475098 0 0 0 0 8257.8806353534383 -19598.594534842297 0 -19598.594534842297 22792.980243552476 0 0 0 0 -819.21937526762486 -920437.60208129883 0 -920437.60208129883 5275188.3338336945 0 0 0 0 -6776311.0253246725 -4212117.5801391602 0 -4212117.5801391602 4857606.4815063477 0 0 0 0 -1924773.229082101 1636340.5510635376 0 1636340.5510635376 3433872.2604031563 0 0 0 0 -49.020631267143102 -1987896.8302536011 0 -1987896.8302536011 19205260.738948822 0 0 0 0 4574524.7641431168 774986.34928894043 0 774986.34928894043 -1109035.0355834961 0 0 0 0 289412.5498880893 -845696.74724578857 0 -845696.74724578857 2708485.4439029694 0 0 0 0 486206.19901826978 -601156.22717666626 0 -601156.22717666626 2092672.8672637939 0 0 0 0 806974.59240653738 -877639.07563018799 0 -877639.07563018799 1815873.6515350342 0 0 0 0 445764.81892843544 -613916.58846282959 0 -613916.58846282959 5208970.0260467529 0 0 0 0 359913.39766165614 -243863.46971893311 0 -243863.46971893311 1430889.6338195801 0 0 0 0 -1186478.4099776507 -97035.841322898865 0 -97035.841322898865 316277.75092315674 0 0 0 0 18858.353119488802 -60386.471571352333 0 -60386.471571352333 79483.398895278573 0 0 0 0 243891.07191382721 -782588.89293861389 0 -782588.89293861389 1961492.8701934814 0 0 0 0 753389.34065579623 -87379.245788574219 0 -87379.245788574219 -266841.10077667236 0 0 0 0 49190.682604396425 -5655.5220534410328 0 -5655.5220534410328 -59855.930720161647 0 0 0 0 4628872.9847384337 12947440.299717903 0 12947440.299717903 5114732.9315490723 0 0 0 0 59028.871888396003 -327490.54995207861 0 -327490.54995207861 41669.272588118911 0 0 0 0 -4410313.666154623 -29879383.187042236 0 -29879383.187042236 62114774.066314697 0 0 0 0 -951185.95255784597 -408195.99062347412 0 -408195.99062347412 360267.0906457901 0 0 0 0 3207059.0101230759 -10328078.128238559 0 -10328078.128238559 34835603.700614929 0 0 0 0 44877.249879646573 -244979.21293296479 0 -244979.21293296479 366162.16166297346 0 0 0 0 14448179.397965699 32403975.122817993 0 32403975.122817993 39832675.986990929 0 0 0 0 -12975121.805701196 8874753.8171081543 0 8874753.8171081543 84631658.667663574 0 0 0 0 -17656664.68982935 10209101.162948608 0 10209101.162948608 131621911.42604065 0 0 0 0 -24423743.657061547 20613163.601699829 0 20613163.601699829 130284388.22093201 0 0 0 0 -22443082.077081144 10468256.932868958 0 10468256.932868958 147830347.23576164 0 0 0 0 -29298714.612772822 -15272887.559616089 0 -15272887.559616089 143154663.11037064 0 0 0 0 23832241.831723511 -7335286.8022384644 0 -7335286.8022384644 153274654.25009155 0 0 0 0 32244114.647118688 -80209387.152042389 0 -80209387.152042389 57867111.428009033 0 0 0 0 51769.865714906235 -34088.563080983236 0 -34088.563080983236 -26981.491544738412 0 0 0 0 -25846214.261575937 -276097.37120056152 0 -276097.37120056152 159834257.57275391 0 0 0 0 -36540690.469478965 37481752.631126404 0 37481752.631126404 1731514.160949707 0 0 0 0 -15835086.054286122 669161.05661773682 0 669161.05661773682 139301450.27864456 0 0 0 0 -459782.56635522842 -27557306.118186951 0 -27557306.118186951 201772298.36236954 0 0 0 0 4344.1947847693809 -10714.109036322683 0 -10714.109036322683 67481.068654991686 0 0 0 0 1801647.2191668153 -18358220.098873138 0 -18358220.098873138 203371582.91856384 0 0 0 0 -49746417.148124337 2522683.8815689087 0 2522683.8815689087 140469222.30384827 0 0 0 0 -55970905.968563378 -28836894.627590179 0 -28836894.627590179 29396889.136672974 0 0 0 0 -214418.38451438025 -901495.50179004669 0 -901495.50179004669 158708.85185241699 0 0 0 0 671.23486341290118 -347652.87641585246 0 -347652.87641585246 548235.01871106401 0 0 0 0 -4770967.7919780016 8158609.6785964966 0 8158609.6785964966 37667298.259618759 0 0 0 0 64181.790289898294 -321035.78257189691 0 -321035.78257189691 33620.93106649071 0 0 0 0 -134812.68475494161 -513783.63120937347 0 -513783.63120937347 -11283.03971862793 0 0 0 0 281671.93788403273 -596974.01458740234 0 -596974.01458740234 5320.594898223877 0 0 0 0 -170136.03559856117 -553931.6282043457 0 -553931.6282043457 1525839.9968261719 0 0 0 0 493963.6166763939 -964761.09953689575 0 -964761.09953689575 593935.41668701172 0 0 0 0 -637404.0903211683 -764940.03078079224 0 -764940.03078079224 661784.43647766113 0 0 0 0 -114870.41336554289 -340467.64185333252 0 -340467.64185333252 496352.18605804443 0 0 0 0 40351.827788963914 -977173.38182640076 0 -977173.38182640076 178806.96781921387 0 0 0 0 54775.90771253407 -49215.970569610596 0 -49215.970569610596 627009.40357971191 0 0 0 0 339021.7733913064 52086.240181446075 0 52086.240181446075 1209593.4071426392 0 0 0 0 -164325.80076695979 -60676.125865936279 0 -60676.125865936279 1506674.8585569859 0 0 0 0 -47340042.316413283 -41163623.679111481 0 -41163623.679111481 -26400613.538368225 0 0 0 0 348804.92314755917 -34938206.358421326 0 -34938206.358421326 -30807641.657863617 0 0 0 0 94552.428704074759 -340787.54390983284 0 -340787.54390983284 408944.73013787717 0 0 0 0 -369787.30959179997 -227047.66522979736 0 -227047.66522979736 889808.59506392479 0 0 0 0 54516.672481925125 -357294.27221698686 0 -357294.27221698686 513337.44864040986 0 0 0 0 -65786772.769966006 -57270761.91060257 0 -57270761.91060257 -11857716.854644775 0 0 0 0 -51838105.082448661 -14291345.068887711 0 -14291345.068887711 21051401.014190674 0 0 0 0 -14944279.311742395 -27878286.6147995 0 -27878286.6147995 91354635.58669281 0 0 0 0 -21105092.683133483 5163220.9102287292 0 5163220.9102287292 5751003.0660362244 0 0 0 0 -29811988.974116087 382123.54076385498 0 382123.54076385498 -13224852.444264889 0 0 0 0 -31226059.401908234 -25329263.221019745 0 -25329263.221019745 60612738.649841309 0 0 0 0 -28162551.558207095 -2787571.4007225037 0 -2787571.4007225037 139204373.99325562 0 0 0 0 -25400379.19770813 17174629.570999146 0 17174629.570999146 66402216.117985725 0 0 0 0 -18548140.53744711 20485659.435667992 0 20485659.435667992 92242896.266677856 0 0 0 0 -25699576.010973096 -6477652.7472724915 0 -6477652.7472724915 172637430.95193505 0 0 0 0 -53323163.399805099 -5197814.5200977325 0 -5197814.5200977325 172723182.7612381 0 0 0 0 -38891258.533801436 -38376359.603767395 0 -38376359.603767395 124709852.03630829 0 0 0 0 -36785987.305166513 43573833.042959213 0 43573833.042959213 275054159.88252258 0 0 0 0 -70649.320458779403 -22326.17880114913 0 -22326.17880114913 64654.313289217651 0 0 0 0 4050631.1426683962 10222404.246049881 0 10222404.246049881 177482305.30413818 0 0 0 0 -41430083.599583328 14887259.920761108 0 14887259.920761108 177259190.90983582 0 0 0 0 -28022851.407171369 -4016243.8696060181 0 -4016243.8696060181 181745050.0488739 0 0 0 0 -2209050.8213681579 -4590340.2559432983 0 -4590340.2559432983 178660397.15769958 0 0 0 0 -33727704.801324785 -7073005.6818161011 0 -7073005.6818161011 179695065.22967911 0 0 0 0 -20617164.298989341 -679379.7755446434 0 -679379.7755446434 169720487.59333801 0 0 0 0 -1968187.0247411132 -4373112.9068145752 0 -4373112.9068145752 169950123.18711853 0 0 0 0 -8209910.9431834221 2858905.2646980286 0 2858905.2646980286 171606288.47838974 0 0 0 0 -13718720.78493984 -13672814.236469269 0 -13672814.236469269 193447727.98537445 0 0 0 0 -134388.9157798893 -48611.851953057572 0 -48611.851953057572 123599.49613340572 0 0 0 0 -13768849.329547465 14645119.068214417 0 14645119.068214417 228589203.22759247 0 0 0 0 -11777602.57733427 6192628.5898857117 0 6192628.5898857117 222405582.96856594 0 0 0 0 -15924737.607793219 19634948.37612915 0 19634948.37612915 296710927.57074165 0 0 0 0 -64819.893534348666 -28441.051730120555 0 -28441.051730120555 67456.987939569168 0 0 0 0 -617615.9860794656 -11154403.873578072 0 -11154403.873578072 182491513.42814636 0 0 0 0 -14774920.239663571 -6720232.7312927246 0 -6720232.7312927246 181796090.2207737 0 0 0 0 -46933457.99271962 9986637.6865010262 0 9986637.6865010262 203890703.30432892 0 0 0 0 -51165734.421561629 -6932836.259311676 0 -6932836.259311676 183165243.78767776 0 0 0 0 -86374862.307308376 -21940437.62322998 0 -21940437.62322998 187524049.96080399 0 0 0 0 -7849691.5306820869 -4939319.1277871132 0 -4939319.1277871132 157731239.57971954 0 0 0 0 -45967735.079827249 11286514.77897644 0 11286514.77897644 210155321.31013489 0 0 0 0 -63085493.598254979 13396342.756530762 0 13396342.756530762 220937231.13411713 0 0 0 0 -50698287.228516847 23414073.276702881 0 23414073.276702881 188391108.45604324 0 0 0 0 -49133239.069770336 37248338.924057007 0 37248338.924057007 234828606.04518509 0 0 0 0 -9996305.8367038667 110886528.61655426 0 110886528.61655426 274424657.58600044 0 0 0 0 -47149543.004493356 -15299467.230384827 0 -15299467.230384827 364455849.7301178 0 0 0 0 8681369.5882747173 -65539143.11359787 0 -65539143.11359787 303540364.53600311 0 0 0 0 -53074012.580375686 6386369.0818634033 0 6386369.0818634033 306031668.57722473 0 0 0 0 -8917780.0853360891 -58147183.150550842 0 -58147183.150550842 245206764.88187027 0 0 0 0 1452411.1123969406 -41099978.95677948 0 -41099978.95677948 230086408.28924561 0 0 0 0 58679724.31890709 -92200166.208336353 0 -92200166.208336353 165159598.50934601 0 0 0 0 56749810.959030874 -104921510.22407866 0 -104921510.22407866 186920286.55561829 0 0 0 0 22103345.66116631 -59309403.74017334 0 -59309403.74017334 148260825.67220306 0 0 0 0 21185848.70574528 -60395086.026554108 0 -60395086.026554108 166099136.26247025 0 0 0 0 -22264923.505788624 -29397281.517542839 0 -29397281.517542839 184571765.4240036 0 0 0 0 -32858202.723080873 -31680621.637874603 0 -31680621.637874603 204163335.48934269 0 0 0 0 -4807390.4441644549 -5753847.9346122742 0 -5753847.9346122742 95181034.699020386 0 0 0 0 8468069.3362825662 -33243208.151014328 0 -33243208.151014328 139132865.18481445 0 0 0 0 26215075.639679939 -29253862.083054066 0 -29253862.083054066 86202181.92930603 0 0 0 0 56241911.100703001 -44115125.449420929 0 -44115125.449420929 92585027.336181641 0 0 0 0 24696416.374874502 -37774534.608970642 0 -37774534.608970642 96820641.781501293 0 0 0 0 -7493833.2283700109 -38064004.958263397 0 -38064004.958263397 38335224.018465042 0 0 0 0 9073097.492598474 -2512671.4958782196 0 -2512671.4958782196 27097528.461090088 0 0 0 0 79980650.233690828 -35832780.430675507 0 -35832780.430675507 36577623.791898727 0 0 0 0 70188620.952486366 -69837384.439422607 0 -69837384.439422607 53464742.471496582 0 0 0 0 55234595.037878752 -51213614.110466003 0 -51213614.110466003 31306483.03578186 0 0 0 0 64469734.018616185 -81691175.006679058 0 -81691175.006679058 7475818.0713195801 0 0 0 0 55285890.067147568 -45686926.531021118 0 -45686926.531021118 -22901684.7472229 0 0 0 0 51334953.080443829 -90684599.895124435 0 -90684599.895124435 -14618383.427986145 0 0 0 0 -151659.13283871842 19386.418174128979 0 19386.418174128979 269830.82958846912 0 0 0 0 11764117.576457638 -16147340.137413025 0 -16147340.137413025 15626727.719036102 0 0 0 0 24786302.659822404 -13542050.051639557 0 -13542050.051639557 14158871.193229675 0 0 0 0 8261.9601958729818 -100.11804584413767 0 -100.11804584413767 1152.1174322385341 0 0 0 0 68836419.203033924 -41707675.74630928 0 -41707675.74630928 3815248.197769165 0 0 0 0 142478462.09413511 -55011628.140579224 0 -55011628.140579224 5076813.764919281 0 0 0 0 135076439.05463225 -44771887.973648071 0 -44771887.973648071 30345101.690742493 0 0 0 0 195915037.57844383 -71550357.478271961 0 -71550357.478271961 9305121.1651916504 0 0 0 0 4763.1169285733149 -51641.053991123743 0 -51641.053991123743 68400.405651390553 0 0 0 0 95791654.797462747 -81634045.615177155 0 -81634045.615177155 109229063.50245667 0 0 0 0 1250239.9020183198 5431082.6872707009 0 5431082.6872707009 24646448.708190918 0 0 0 0 12897560.617768586 -69116748.103160858 0 -69116748.103160858 57671276.768531799 0 0 0 0 83725208.281428695 -57548099.872024536 0 -57548099.872024536 49593790.557617188 0 0 0 0 82537401.490540057 -55520019.202867508 0 -55520019.202867508 72902974.516494751 0 0 0 0 56947840.257710338 -50805101.251525879 0 -50805101.251525879 86883754.617229462 0 0 0 0 69378687.51396668 -85498275.233991623 0 -85498275.233991623 118203347.7782135 0 0 0 0 72007358.35870263 -66351100.629584789 0 -66351100.629584789 91700915.108177185 0 0 0 0 71029318.878300831 -1378826.4248352051 0 -1378826.4248352051 64709945.667747498 0 0 0 0 76823530.527830064 -9282889.4513435364 0 -9282889.4513435364 71062465.399494171 0 0 0 0 113584008.66765003 79238432.331684113 0 79238432.331684113 99694197.488142014 0 0 0 0 33312244.701865133 -39059762.983104706 0 -39059762.983104706 33580357.66027832 0 0 0 0 -11494535.885983467 36759623.601886749 0 36759623.601886749 88078040.753799438 0 0 0 0 61859627.394241631 -82524142.536380768 0 -82524142.536380768 77498421.349090576 0 0 0 0 30165181.448997721 23272573.469764709 0 23272573.469764709 -2056998.1211433411 0 0 0 0 -79842.84292285805 128521.67054135539 0 128521.67054135539 280337.34314252809 0 0 0 0 4127302.5929297209 -21029883.348506927 0 -21029883.348506927 31401752.228279114 0 0 0 0 14849067.199054331 -6161997.8857011795 0 -6161997.8857011795 14403745.651237488 0 0 0 0 4525060.6645376906 -15231674.63790226 0 -15231674.63790226 16181462.336860657 0 0 0 0 12572640.466525376 -15023276.100208282 0 -15023276.100208282 16096365.329208374 0 0 0 0 29040203.919110179 28586144.868854523 0 28586144.868854523 6300345.6687240601 0 0 0 0 17374740.635295033 -4536737.2277412415 0 -4536737.2277412415 15415571.934997559 0 0 0 0 22225047.734067202 39864644.638219833 0 39864644.638219833 -9827487.4103393555 0 0 0 0 82524174.636135817 11373060.52671051 0 11373060.52671051 -21448904.361461639 0 0 0 0 -40714421.452441007 164033878.62321758 0 164033878.62321758 425022605.50634003 0 0 0 0 164830.25311284966 -165080.74672780931 0 -165080.74672780931 65381.278999239206 0 0 0 0 -85670087.922007799 -67910479.351860046 0 -67910479.351860046 350026080.39251709 0 0 0 0 -44180.291681149014 93281.065558133647 0 93281.065558133647 160119.25389713608 0 0 0 0 58582920.543653488 -39076154.096233368 0 -39076154.096233368 38331802.651630402 0 0 0 0 63372852.650053263 181174746.24474335 0 181174746.24474335 358275134.45835114 0 0 0 0 47237865.356028795 210563670.86545563 0 210563670.86545563 -138708779.96807861 0 0 0 0 -94498264.599944115 16596301.254737854 0 16596301.254737854 635157499.27760315 0 0 0 0 203237377.05084133 246858603.79721832 0 246858603.79721832 -610168041.02404404 0 0 0 0 78213282.520956039 24157401.00944519 0 24157401.00944519 634582884.4959898 0 0 0 0 -93248051.752625942 -81131117.02256012 0 -81131117.02256012 576665858.8825531 0 0 0 0 -163850.41260751593 367220.47186582349 0 367220.47186582349 441440.82337439526 0 0 0 0 -103991640.1930064 120515160.14364433 0 120515160.14364433 38381934.720817566 0 0 0 0 152473627.29025459 191253297.33474731 0 191253297.33474731 -188567873.63019562 0 0 0 0 -54572710.485822096 -5090941.6212706566 0 -5090941.6212706566 -282942984.92010498 0 0 0 0 166217818.95054102 63691892.972541809 0 63691892.972541809 42883410.821200371 0 0 0 0 229738078.88430789 -84907430.517327309 0 -84907430.517327309 -44980930.050643921 0 0 0 0 157386112.29764134 -22191129.555301666 0 -22191129.555301666 98948349.925800323 0 0 0 0 251942767.37582341 -92761596.897708893 0 -92761596.897708893 73260877.401893616 0 0 0 0 151535164.91974616 -12728498.534164429 0 -12728498.534164429 39895517.829666138 0 0 0 0 121775244.7688707 -119150045.48102188 0 -119150045.48102188 132548158.40484619 0 0 0 0 579073.88651832938 -71156103.728820801 0 -71156103.728820801 347336582.7569561 0 0 0 0 161992347.64372736 -205802256.89769363 0 -205802256.89769363 261491078.72666931 0 0 0 0 574286558.12206042 -242568221.25883865 0 -242568221.25883865 189041300.82180405 0 0 0 0 69289910.196496308 -229618030.3699646 0 -229618030.3699646 691337481.77882385 0 0 0 0 93196292.097509384 271825057.52349472 0 271825057.52349472 618454148.57649899 0 0 0 0 665478.59352528397 -830803.89652719256 0 -830803.89652719256 908630.15922449157 0 0 0 0 187177697.74994597 -458832159.52768326 0 -458832159.52768326 637485003.51199341 0 0 0 0 85209713.116611034 -236883049.99415207 0 -236883049.99415207 167176119.30415344 0 0 0 0 -4144347.9790097475 -6031171.1776847839 0 -6031171.1776847839 264643529.0042038 0 0 0 0 10200831.286719024 80937675.001684189 0 80937675.001684189 734677023.71980286 0 0 0 0 309206679.96141434 261846523.0880909 0 261846523.0880909 310774490.91017914 0 0 0 0 167643310.55186564 -107644755.73867035 0 -107644755.73867035 8199798.4344863892 0 0 0 0 135297716.70236892 -225320942.90244675 0 -225320942.90244675 185786040.16962814 0 0 0 0 89118031.934563771 -249993920.37014627 0 -249993920.37014627 173893238.89279938 0 0 0 0 462637352.25557184 -249574802.16894245 0 -249574802.16894245 4190128.0168838501 0 0 0 0 46421456.202445358 49915837.292818069 0 49915837.292818069 152122013.63764191 0 0 0 0 6746447.1329496354 68410603.279691696 0 68410603.279691696 145225881.78914642 0 0 0 0 1349521.4903325438 -2067581.9557211166 0 -2067581.9557211166 2810689.1184466854 0 0 0 0 -86579423.356595993 -138651454.84471989 0 -138651454.84471989 -45446540.431091309 0 0 0 0 -10746938.285250902 1072918.813369751 0 1072918.813369751 -2647838.0931667089 0 0 0 0 -6161465.0152931213 14890146.23105526 0 14890146.23105526 -109968621.77933502 0 0 0 0 -7588670.6038889885 8329759.4902410507 0 8329759.4902410507 69878552.088478088 0 0 0 0 -69828506.298584938 120571635.79666901 0 120571635.79666901 17799915.938339233 0 0 0 0 -134736286.19341707 88879322.804168701 0 88879322.804168701 154044288.63523865 0 0 0 0 -116321713.90609694 36353656.48679924 0 36353656.48679924 214193326.62798309 0 0 0 0 -95478739.459061146 -5185929.6254520416 0 -5185929.6254520416 266066874.18623352 0 0 0 0 -50965981.256327629 54780482.941357613 0 54780482.941357613 100158600.57279968 0 0 0 0 -59044803.308833599 37078120.63747406 0 37078120.63747406 111512748.18047333 0 0 0 0 -71001491.491672039 51193789.595199585 0 51193789.595199585 120458783.51255417 0 0 0 0 -58664838.75278616 32613685.32403183 0 32613685.32403183 144136244.82239532 0 0 0 0 -12533063.284594059 28748945.176700592 0 28748945.176700592 142649553.27816772 0 0 0 0 -13291099.140264034 36517574.361816406 0 36517574.361816406 108474144.17897415 0 0 0 0 20534367.632815242 43009923.68504715 0 43009923.68504715 122577899.5634079 0 0 0 0 47489906.669204593 -12198792.708965302 0 -12198792.708965302 97857280.954093933 0 0 0 0 16423006.258264825 23789455.062324524 0 23789455.062324524 56388840.523330688 0 0 0 0 23051700.675117612 -47884839.419387817 0 -47884839.419387817 235245258.51318359 0 0 0 0 22598559.727385692 -151317485.84173107 0 -151317485.84173107 139407038.0067749 0 0 0 0 -84977795.56921652 30760662.263646603 0 30760662.263646603 178183382.08863068 0 0 0 0 29494668.251585014 66079480.749435425 0 66079480.749435425 170894952.95341492 0 0 0 0 50485443.97368072 35090865.236461639 0 35090865.236461639 120695584.34306335 0 0 0 0 18256098.525940418 54047374.670143127 0 54047374.670143127 179145979.94700623 0 0 0 0 467858.66623453988 58479.590359871276 0 58479.590359871276 -385735.18292304873 0 0 0 0 87315549.404167771 65309962.329933167 0 65309962.329933167 15122596.445915222 0 0 0 0 113028.25133011007 12483.213477911428 0 12483.213477911428 9037.5005197636783 0 0 0 0 4504455.3528473377 72648713.812858582 0 72648713.812858582 173360153.34147263 0 0 0 0 23588462.218587756 10876232.246391296 0 10876232.246391296 144103982.31713867 0 0 0 0 -12822490.818765879 28866316.946910858 0 28866316.946910858 72454298.513145447 0 0 0 0 12635830.9638879 37852608.370838642 0 37852608.370838642 66982230.249008179 0 0 0 0 12194125.151470423 15224221.275783539 0 15224221.275783539 8289085.5648193359 0 0 0 0 1249904.9546381235 1443649.6535129547 0 1443649.6535129547 1191436.0632362366 0 0 0 0 2096962.7098418747 403542.95585264079 0 403542.95585264079 -580734.40108697489 0 0 0 0 15998375.847000599 -4286553.0664749146 0 -4286553.0664749146 13233522.534002423 0 0 0 0 -415996.69710515696 940916.24620515201 0 940916.24620515201 1315969.9269790016 0 0 0 0 965495.10606908798 1099060.2310638428 0 1099060.2310638428 1254482.5555510521 0 0 0 0 2357838.2486025095 2138852.5343437195 0 2138852.5343437195 1612015.2227134705 0 0 0 0 7943852.8038666248 4365195.5081653595 0 4365195.5081653595 6951375.8753738403 0 0 0 0 1565822.7733322834 1123072.0512616476 0 1123072.0512616476 -801622.5199335292 0 0 0 0 1614849.2936570644 1444067.8518867493 0 1444067.8518867493 1525748.2897462845 0 0 0 0 1833421.2194151059 1629531.0788617134 0 1629531.0788617134 1670102.6832885742 0 0 0 0 1011040.1259330511 1660306.1789779663 0 1660306.1789779663 1852693.9842262268 0 0 0 0 -468314.09592460631 1571818.4486751901 0 1571818.4486751901 4600942.3397785649 0 0 0 0 -208656602.57786703 -42830803.787046432 0 -42830803.787046432 176616931.64538574 0 0 0 0 -267633342.72757053 52762991.162345886 0 52762991.162345886 58538672.796722412 0 0 0 0 -3960636.7138366699 12234588.321796417 0 12234588.321796417 451616.77284049988 0 0 0 0 687088.55646706477 2135726.033094828 0 2135726.033094828 -361536.61379752681 0 0 0 0 1843227.1127805114 1813875.2355269194 0 1813875.2355269194 2210442.6144180298 0 0 0 0 9830810.2743625641 5711439.5535850525 0 5711439.5535850525 -3665205.1187763214 0 0 0 0 -297123.93629575637 825189.93450392224 0 825189.93450392224 2996102.1475408077 0 0 0 0 -149822775.49520636 149550337.50210667 0 149550337.50210667 20609379.505432129 0 0 0 0 7966663.026506424 6244254.666053772 0 6244254.666053772 3959205.4634742737 0 0 0 0 -26487266.042366147 13260170.998222351 0 13260170.998222351 16688322.748298645 0 0 0 0 -3503203.3820519447 4771698.1469688416 0 4771698.1469688416 82074099.959503174 0 0 0 0 -41016713.933796883 250124.30347442627 0 250124.30347442627 81716764.1898489 0 0 0 0 -34881137.479892731 -22194265.88028717 0 -22194265.88028717 163606842.21878052 0 0 0 0 -26305674.017807961 33592496.325695038 0 33592496.325695038 143769688.58461761 0 0 0 0 -99427.132989493432 234947.01754703838 0 234947.01754703838 1043578.7224946581 0 0 0 0 44335972.742585182 -108206429.61696053 0 -108206429.61696053 155318427.92349243 0 0 0 0 15950273.797784805 -53052179.620307922 0 -53052179.620307922 48886394.268871307 0 0 0 0 -57904483.167139053 -19760586.231712341 0 -19760586.231712341 165098878.0692749 0 0 0 0 -58869794.791921735 -63582562.620709956 0 -63582562.620709956 267269440.44407654 0 0 0 0 -76872817.726603508 747420452.17737198 0 747420452.17737198 166634705.67045593 0 0 0 0 427314946.06480694 123997911.05400848 0 123997911.05400848 -125009391.11737442 0 0 0 0 -307310342.72951603 29412304.980995178 0 29412304.980995178 101354910.62874603 0 0 0 0 962797.89062332094 -2504737.7633627793 0 -2504737.7633627793 5092584.176471822 0 0 0 0 -194905113.23088136 -68541467.880755424 0 -68541467.880755424 15718749.267662048 0 0 0 0 487266.14592552185 84818503.035331726 0 84818503.035331726 -6241360.0570640564 0 0 0 0 459074.18385410309 88184845.634311676 0 88184845.634311676 -90499516.54177475 0 0 0 0 -27941183.878913879 95088892.186294556 0 95088892.186294556 121051244.029953 0 0 0 0 -28370381.587931633 134723190.27428436 0 134723190.27428436 -40780646.414554596 0 0 0 0 90175187.916462898 145228068.9238472 0 145228068.9238472 -57472821.110843658 0 0 0 0 16534920.896254182 70948548.755412102 0 70948548.755412102 46959983.15335083 0 0 0 0 54065565.356571972 -145686181.69005251 0 -145686181.69005251 134334664.74223328 0 0 0 0 415709836.47733974 -26661079.949707031 0 -26661079.949707031 69666651.08344841 0 0 0 0 288118374.39781082 -253993497.76883793 0 -253993497.76883793 181489371.78378296 0 0 0 0 -41033404.469947815 -17579832.445461273 0 -17579832.445461273 7794921.7578887939 0 0 0 0 -29204178.286700249 -88862227.645397186 0 -88862227.645397186 436392414.11270523 0 0 0 0 214177796.57821465 239750401.75940704 0 239750401.75940704 191565481.49380493 0 0 0 0 694065.66287448269 -38733.899215159938 0 -38733.899215159938 -23054.800587916747 0 0 0 0 384275038.58913374 -21958508.596851349 0 -21958508.596851349 -482633009.92327881 0 0 0 0 306379285.34642506 -51005588.109863281 0 -51005588.109863281 -492462704.69186401 0 0 0 0 -84725011.507531166 -75596022.403430939 0 -75596022.403430939 -197231829.25035095 0 0 0 0 378646753.24996758 -181010500.94092941 0 -181010500.94092941 -432162294.48642731 0 0 0 0 111242560.17826843 117168910.06891251 0 117168910.06891251 420390836.72402382 0 0 0 0 460264105.83311164 -69572112.915542603 0 -69572112.915542603 -581126447.16221619 0 0 0 0 -233614829.89275843 -237678091.46871567 0 -237678091.46871567 85131416.247192383 0 0 0 0 -41559093.348974675 367856838.15232849 0 367856838.15232849 538838734.09934998 0 0 0 0 656837.75282527262 -1854704.7979344176 0 -1854704.7979344176 4016909.5242978372 0 0 0 0 -35379796.670008898 -131519917.05879974 0 -131519917.05879974 433308962.77607727 0 0 0 0 44207458.289630294 -262506271.71869659 0 -262506271.71869659 208243600.91287994 0 0 0 0 60282678.10267771 -130993729.23671162 0 -130993729.23671162 184539996.77853394 0 0 0 0 61514600.081540123 -87652679.587112904 0 -87652679.587112904 39906559.268615723 0 0 0 0 12538278.825595796 -69326993.708385468 0 -69326993.708385468 83262397.065689087 0 0 0 0 10076469.953380913 -15940794.72315979 0 -15940794.72315979 -100827440.58705902 0 0 0 0 -13214383.925698578 8215809.6335983276 0 8215809.6335983276 3250111.6788406372 0 0 0 0 -135726579.54328543 44342160.465667725 0 44342160.465667725 19154501.334762573 0 0 0 0 46464810.020341009 -11383841.357227325 0 -11383841.357227325 15512358.565692902 0 0 0 0 44613030.769790992 -21922375.564423084 0 -21922375.564423084 154118456.33857727 0 0 0 0 -9531051.3314158022 26422276.25812149 0 26422276.25812149 82147281.910697937 0 0 0 0 39920944.597576223 36746465.84753637 0 36746465.84753637 44627199.450637817 0 0 0 0 -12819464.191887558 42583152.443649292 0 42583152.443649292 93389341.696720123 0 0 0 0 -4858384.7490336895 64609508.093379974 0 64609508.093379974 84889201.388881683 0 0 0 0 14752473.45108591 36729982.494384766 0 36729982.494384766 124502939.94815063 0 0 0 0 -15961528.060366929 42530361.692237854 0 42530361.692237854 100970862.08355713 0 0 0 0 -10198549.581609033 46453650.342088699 0 46453650.342088699 42937152.711990356 0 0 0 0 -84459464.98826611 31735670.736755371 0 31735670.736755371 56604611.613105774 0 0 0 0 -56896659.233882755 28015201.466556549 0 28015201.466556549 24338956.188751221 0 0 0 0 -60569862.050436504 -26494244.038765907 0 -26494244.038765907 -23494957.954269409 0 0 0 0 1397665.0789507558 -2693931.7702772571 0 -2693931.7702772571 4482884.0281561017 0 0 0 0 224856084.62731123 -580249849.88174438 0 -580249849.88174438 -96111595.763198853 0 0 0 0 -78402658.595467061 -20973089.637531281 0 -20973089.637531281 46784019.245758057 0 0 0 0 -40542840.665856257 11955362.593196869 0 11955362.593196869 39970350.37853241 0 0 0 0 -39709382.192019731 63133398.54265976 0 63133398.54265976 83145819.645469666 0 0 0 0 -14702951.364457041 70926328.334804535 0 70926328.334804535 104147352.38500595 0 0 0 0 -33520362.833732098 53702114.028205872 0 53702114.028205872 154652739.91273499 0 0 0 0 2886948.8540406227 10755398.709892273 0 10755398.709892273 15780452.991258621 0 0 0 0 -15891053.439407885 57250307.495929718 0 57250307.495929718 155021732.42906952 0 0 0 0 -22812137.754375458 78194533.02547884 0 78194533.02547884 184021214.36508942 0 0 0 0 -14963426.625169903 53258019.232881546 0 53258019.232881546 124524364.13497925 0 0 0 0 -23367801.722722441 51153645.176795959 0 51153645.176795959 163509672.89865112 0 0 0 0 -22030869.633509204 72749690.093921661 0 72749690.093921661 123496298.58082581 0 0 0 0 21719652.045294598 -9826619.6168670654 0 -9826619.6168670654 150542266.5348587 0 0 0 0 2943918.7323102951 14476904.381629944 0 14476904.381629944 120001132.87325764 0 0 0 0 -520682.61627072096 29752031.546247482 0 29752031.546247482 162440289.62598419 0 0 0 0 -30477374.483730316 16343076.214679718 0 16343076.214679718 167706067.10616302 0 0 0 0 -5152684.4365906566 -8630239.7594089508 0 -8630239.7594089508 150775862.3816452 0 0 0 0 5653292.7684035152 -39160285.724029541 0 -39160285.724029541 149777598.1552124 0 0 0 0 -2055458.0303057283 -19462155.776714325 0 -19462155.776714325 187034106.9926815 0 0 0 0 7244840.9110060111 -30858287.312864304 0 -30858287.312864304 173113567.48457336 0 0 0 0 14840016.044285733 -42168935.970019817 0 -42168935.970019817 120311814.15463257 0 0 0 0 15326067.40686506 -44777821.116451263 0 -44777821.116451263 120204556.18154907 0 0 0 0 -6631763.6443678662 -61682067.460006714 0 -61682067.460006714 140879908.11209869 0 0 0 0 21001511.77207616 -29469639.089202881 0 -29469639.089202881 145070733.89011192 0 0 0 0 19775454.614593133 -21639280.612319946 0 -21639280.612319946 116230269.91556549 0 0 0 0 39111310.162832797 -36284186.10600853 0 -36284186.10600853 95150503.16255188 0 0 0 0 45938687.803619564 -21800724.537399292 0 -21800724.537399292 115920106.97785854 0 0 0 0 6992712.7709404193 -19613835.259487152 0 -19613835.259487152 88920466.371536255 0 0 0 0 26027945.716141813 -38818527.213827133 0 -38818527.213827133 98351797.776412964 0 0 0 0 35431736.601995468 -26453820.801120758 0 -26453820.801120758 101784666.91370773 0 0 0 0 48828651.198750407 -36776045.324035645 0 -36776045.324035645 106334011.30652618 0 0 0 0 84585523.332462221 -15841691.426761627 0 -15841691.426761627 94434516.812988281 0 0 0 0 65236418.882739961 -273584.1869468689 0 -273584.1869468689 90460448.598213196 0 0 0 0 38162582.393930331 -8612116.5434303284 0 -8612116.5434303284 93551781.30430603 0 0 0 0 48495931.115090966 8189861.5732803345 0 8189861.5732803345 120671406.2351284 0 0 0 0 20062864.543277018 38261339.813770294 0 38261339.813770294 89917605.10193634 0 0 0 0 76456331.244303465 16609694.245159149 0 16609694.245159149 84143821.061796188 0 0 0 0 39859173.883246005 25937329.724479884 0 25937329.724479884 95503207.495178223 0 0 0 0 89020317.21980153 -5243073.2866916656 0 -5243073.2866916656 134745934.82804871 0 0 0 0 94339075.951077461 9716428.9797439575 0 9716428.9797439575 74531291.237251282 0 0 0 0 185838745.39482644 -72584851.276754856 0 -72584851.276754856 141434694.75457764 0 0 0 0 83785887.022844464 -47175108.090070724 0 -47175108.090070724 136873330.69215393 0 0 0 0 127511128.928873 -6968814.0436019897 0 -6968814.0436019897 88391168.591722488 0 0 0 0 170579192.70338893 25770831.716274261 0 25770831.716274261 145611474.48103714 0 0 0 0 46528869.304495573 -77292381.563476562 0 -77292381.563476562 105707925.12807083 0 0 0 0 53497260.885216892 -37436682.17232132 0 -37436682.17232132 312465443.46972656 0 0 0 0 5320677.070143342 -97352832.745067596 0 -97352832.745067596 223844386.65419388 0 0 0 0 32605400.479586661 -52035356.302963257 0 -52035356.302963257 75477297.888793945 0 0 0 0 71021784.392715096 -156029021.43212891 0 -156029021.43212891 211159074.62584305 0 0 0 0 123104961.71674576 -74524717.783864975 0 -74524717.783864975 28005233.406181335 0 0 0 0 150530.68738486126 -223365.93644050136 0 -223365.93644050136 63674.165128398687 0 0 0 0 -1481085.1207600236 23382883.690078735 0 23382883.690078735 12918798.927886963 0 0 0 0 1589850.9345027651 -461593.26870602742 0 -461593.26870602742 103453.43987590913 0 0 0 0 65203869.005271152 -67063798.363237381 0 -67063798.363237381 43168057.911323547 0 0 0 0 -54736512.714851379 -167477523.17480469 0 -167477523.17480469 -212569385.77643776 0 0 0 0 -77650053.692496538 -257583715.25065994 0 -257583715.25065994 32017060.075119019 0 0 0 0 -210055.72547763799 -240528.19049571641 0 -240528.19049571641 347242.56387284398 0 0 0 0 -184490238.66670379 93253568.737255096 0 93253568.737255096 -45418677.789896011 0 0 0 0 -1803446.2511098087 -3283278.5030355453 0 -3283278.5030355453 91216475.395278931 0 0 0 0 -109216.63142685237 -171276.34097402543 0 -171276.34097402543 237533.77936573327 0 0 0 0 1975921.3194923815 -1376199.4942543358 0 -1376199.4942543358 424267.27044455055 0 0 0 0 1604460.8982052654 4924113.5175094604 0 4924113.5175094604 63489474.267944336 0 0 0 0 486849.72316961514 -669501.15630156733 0 -669501.15630156733 15829.190381329507 0 0 0 0 -12236945.819037437 8027793.5814971924 0 8027793.5814971924 -8728763.1018314362 0 0 0 0 27985104.508945495 100031965.80311203 0 100031965.80311203 268967638.94008636 0 0 0 0 18219692.185801178 38632033.835014343 0 38632033.835014343 73809112.053344727 0 0 0 0 -68168031.380843803 -7241970.9792823792 0 -7241970.9792823792 93897337.924339294 0 0 0 0 -12083018.922196269 51139214.103961945 0 51139214.103961945 149386785.3651886 0 0 0 0 -55155018.184994057 26885659.432380676 0 26885659.432380676 145043459.10745239 0 0 0 0 -50559437.610503241 -13274026.037773132 0 -13274026.037773132 185666193.3981514 0 0 0 0 -5835069.8659650609 -2709946.3900127411 0 -2709946.3900127411 158284651.93759155 0 0 0 0 41869278.059950888 -81648816.661315918 0 -81648816.661315918 278447084.08085775 0 0 0 0 16307952.547900982 -46721709.360054016 0 -46721709.360054016 163262223.47529602 0 0 0 0 73423616.876873314 -29134915.598258972 0 -29134915.598258972 106031199.1748178 0 0 0 0 -22502375.902472399 -1605064.9537734985 0 -1605064.9537734985 117203348.70608521 0 0 0 0 -78296164.783886209 40207576.344413757 0 40207576.344413757 139612895.90974045 0 0 0 0 -20446611.920283392 1246437.8122177124 0 1246437.8122177124 117902354.96732712 0 0 0 0 -4523951.3269054592 53886546.767381668 0 53886546.767381668 71113940.580215454 0 0 0 0 -17945024.18625775 13219677.640655518 0 13219677.640655518 62623024.442108154 0 0 0 0 -138111939.90613276 99151288.498981476 0 99151288.498981476 132791660.99062538 0 0 0 0 -36251062.780192316 77245070.874744415 0 77245070.874744415 136610617.75663757 0 0 0 0 -153759176.08472812 19756273.965641022 0 19756273.965641022 166226624.51143646 0 0 0 0 -48377781.469743043 19960055.975364685 0 19960055.975364685 63817971.640893936 0 0 0 0 -21717660.642812673 75980833.862277031 0 75980833.862277031 128549562.63008118 0 0 0 0 -35323448.259447202 113668218.83170319 0 113668218.83170319 75931648.539093018 0 0 0 0 64977413.198705889 4801865.0061264038 0 4801865.0061264038 130450582.99827576 0 0 0 0 -24872024.531935953 70950905.78313446 0 70950905.78313446 168680318.96841431 0 0 0 0 -29025515.928861707 -22561600.989837646 0 -22561600.989837646 202539055.01785278 0 0 0 0 -44323467.181878209 35514023.475048065 0 35514023.475048065 107034545.87411499 0 0 0 0 -198058296.76565942 40948763.980796814 0 40948763.980796814 126581021.33091736 0 0 0 0 -210482729.92529935 97759013.220142365 0 97759013.220142365 70875909.476043701 0 0 0 0 -87139566.17376256 -5355205.0867004395 0 -5355205.0867004395 79682042.659942627 0 0 0 0 68947269.618949696 -4859744.5352039337 0 -4859744.5352039337 258333614.09038544 0 0 0 0 543463.86760699085 -14046222.295085907 0 -14046222.295085907 325810405.02148438 0 0 0 0 46069689.040267713 8181751.6934814453 0 8181751.6934814453 260739621.66251373 0 0 0 0 62648949.642637581 91082715.887727022 0 91082715.887727022 281944454.53134918 0 0 0 0 62516198.797599167 85896531.142951965 0 85896531.142951965 113623396.40015411 0 0 0 0 -4892.758486023964 -1518288.671875 0 -1518288.671875 -1384133.9561767578 0 0 0 0 -110715.02732339525 94908.793156035244 0 94908.793156035244 253472.23640087992 0 0 0 0 180277492.14191732 175953191.96599579 0 175953191.96599579 160460995.47149658 0 0 0 0 2403.4799062746633 -1506899.7165298462 0 -1506899.7165298462 -1393873.9031867981 0 0 0 0 57772455.909809642 97917658.87134552 0 97917658.87134552 86611140.465423584 0 0 0 0 55409887.646613643 68086113.396057129 0 68086113.396057129 70796777.104827881 0 0 0 0 -120067.98215623994 5776.340717503801 0 5776.340717503801 370179.58321129158 0 0 0 0 -2410698.5345532885 -390234.38900756836 0 -390234.38900756836 4078977.827545166 0 0 0 0 -2592880.3539129002 -1673459.0219573975 0 -1673459.0219573975 677217.88645935059 0 0 0 0 -4226245.7062789947 1164052.875906077 0 1164052.875906077 -31383475.062423289 0 0 0 0 -119003.73378992686 1048924.9067993164 0 1048924.9067993164 312489.94822692871 0 0 0 0 -581142.32807878032 582105.56781005859 0 582105.56781005859 365497.23339939117 0 0 0 0 -219633.85779244709 533617.13863754272 0 533617.13863754272 113377.85778236389 0 0 0 0 3368170.7882531104 125038.22127504461 0 125038.22127504461 -39864.621374405921 0 0 0 0 14368588.863218779 -1794165.0139980316 0 -1794165.0139980316 -286705.98883056641 0 0 0 0 -604098.19246208016 669858.52129745483 0 669858.52129745483 71114.958511352539 0 0 0 0 -611766.14756258205 402159.81906890869 0 402159.81906890869 351779.16636657715 0 0 0 0 -16735292.498285353 1317293.9266395569 0 1317293.9266395569 16155293.334732056 0 0 0 0 91508.464746526646 55925.876845871564 0 55925.876845871564 482669.1290339902 0 0 0 0 -6116844.8069480471 -1467794.7100372314 0 -1467794.7100372314 134701.1830329895 0 0 0 0 683761.9618600423 -2575358.4036177937 0 -2575358.4036177937 166667.11925168149 0 0 0 0 -174753.16977732297 397313.74740780331 0 397313.74740780331 423472.88769602589 0 0 0 0 13088465.680555433 8657669.4483413696 0 8657669.4483413696 -17447238.280174255 0 0 0 0 13655815.950225979 -46723710.09803009 0 -46723710.09803009 59672328.782821655 0 0 0 0 27907819.095945865 -10211761.536392212 0 -10211761.536392212 11334288.413818359 0 0 0 0 -6429737.0365297794 -16214465.623405457 0 -16214465.623405457 13885676.467567444 0 0 0 0 -73187.475164060612 320513.38748487644 0 320513.38748487644 324151.91145660635 0 0 0 0 21304201.976121292 -3523497.7612457275 0 -3523497.7612457275 -14517003.62538147 0 0 0 0 -363296.40646723751 8388.1135730743408 0 8388.1135730743408 348631.61912536621 0 0 0 0 -1186604.1376473131 162553.39805221558 0 162553.39805221558 404165.02011871338 0 0 0 0 -139298.11180880741 -98495.266537451185 0 -98495.266537451185 429022.55197653919 0 0 0 0 -33295946.959142342 -2016097.583366394 0 -2016097.583366394 48835194.657852173 0 0 0 0 14253826.324662596 25508579.904426575 0 25508579.904426575 40927254.974227905 0 0 0 0 -1939084.3652356565 283838.43536758423 0 283838.43536758423 8892301.8865661621 0 0 0 0 -65343.83542315368 38488.772671695799 0 38488.772671695799 93774.949364287313 0 0 0 0 -34939569.463615313 20992476.780460358 0 20992476.780460358 93417349.897193909 0 0 0 0 6450071.3581364229 -30323648.678710938 0 -30323648.678710938 24790382.374435425 0 0 0 0 -21828153.288099546 -54240801.9270401 0 -54240801.9270401 82050021.844833374 0 0 0 0 3545142.3514639661 -42356395.002799988 0 -42356395.002799988 84895826.185089111 0 0 0 0 936661.52974318713 -62581413.005264282 0 -62581413.005264282 93471812.28325367 0 0 0 0 -18776042.892736256 -7518196.36668396 0 -7518196.36668396 27590057.887435913 0 0 0 0 -30120.682812139003 42321.641000023112 0 42321.641000023112 55080.865395661443 0 0 0 0 12212127.134677649 -16940367.650314331 0 -16940367.650314331 25330464.600128174 0 0 0 0 -28667104.557803649 -9856501.6182069778 0 -9856501.6182069778 55896107.606430054 0 0 0 0 2652809.5057058632 -47823596.299255371 0 -47823596.299255371 83361689.826370239 0 0 0 0 8296328.9565582275 -23092265.662689209 0 -23092265.662689209 22905413.19115448 0 0 0 0 -10431752.544437811 -32369360.305900574 0 -32369360.305900574 70499529.163818359 0 0 0 0 -3396919.6622013301 -63950229.411499023 0 -63950229.411499023 124595576.04769707 0 0 0 0 17414581.465208173 -48306317.629638672 0 -48306317.629638672 69478905.348937988 0 0 0 0 889148.86062377691 -36285856.973178864 0 -36285856.973178864 75739946.773925781 0 0 0 0 11376854.119064808 -58674734.215637207 0 -58674734.215637207 80011945.816623688 0 0 0 0 -11063781.475169208 -71371185.02722168 0 -71371185.02722168 180043965.34635925 0 0 0 0 -18638365.214158144 -45461172.333320618 0 -45461172.333320618 126614981.18553925 0 0 0 0 -12296197.896908605 -47539515.290333748 0 -47539515.290333748 181437405.86366272 0 0 0 0 -23677908.357041292 -37237191.721672058 0 -37237191.721672058 222214282.94482517 0 0 0 0 -27506167.416405506 -54344588.574638367 0 -54344588.574638367 182865529.88833618 0 0 0 0 -12867543.254438557 -73078904.291763306 0 -73078904.291763306 180098834.2162323 0 0 0 0 -29406485.090094492 -58224158.992366791 0 -58224158.992366791 231946699.15797424 0 0 0 0 -11153397.281289831 -94256034.513664246 0 -94256034.513664246 251601449.08831596 0 0 0 0 16801712.879077695 -91634907.322967529 0 -91634907.322967529 192886869.07026672 0 0 0 0 18961367.614507169 -105604407.55502319 0 -105604407.55502319 192472803.14035416 0 0 0 0 187817905.67774281 -155246189.75524139 0 -155246189.75524139 123547316.73154449 0 0 0 0 37709.003053749751 -23307.844919004478 0 -23307.844919004478 199544.44523973763 0 0 0 0 33366587.372339249 -154429388.10264587 0 -154429388.10264587 336018126.46742916 0 0 0 0 -68353449.87568441 -14860951.677284241 0 -14860951.677284241 157031718.2454834 0 0 0 0 101167611.95536119 -43127623.307243347 0 -43127623.307243347 -3332932.138458252 0 0 0 0 -47522.865001926475 -7862708.8725836854 0 -7862708.8725836854 -68979844.264587402 0 0 0 0 19241015.722891003 19815229.724746704 0 19815229.724746704 8507821.8072052002 0 0 0 0 46080531.160243154 -43038242.059410095 0 -43038242.059410095 36781869.334907532 0 0 0 0 33457123.247945666 -82782731.968688965 0 -82782731.968688965 96832572.191326141 0 0 0 0 13840919.861448601 -66272891.108810425 0 -66272891.108810425 115413679.51847839 0 0 0 0 95523413.718014568 -122065359.48149872 0 -122065359.48149872 102852471.80244446 0 0 0 0 36011923.579451866 -42944325.566002369 0 -42944325.566002369 42425625.252319336 0 0 0 0 6002087.2333135996 -4713127.0134887695 0 -4713127.0134887695 1982367.4658279419 0 0 0 0 354406.02445078455 -17750706.128276825 0 -17750706.128276825 37193105.367342412 0 0 0 0 -24198.017104512957 -6393158.9971885681 0 -6393158.9971885681 46353403.464485168 0 0 0 0 -1991369.71593141 -11977614.147079468 0 -11977614.147079468 37090978.272158325 0 0 0 0 -2259500.0338343922 -11362206.5716362 0 -11362206.5716362 75833698.042327881 0 0 0 0 -2980457.9238891602 15571401.500331879 0 15571401.500331879 55241549.005302429 0 0 0 0 21280453.161732204 -32907283.251232147 0 -32907283.251232147 40714972.455112457 0 0 0 0 19499954.987612985 12497907.967338562 0 12497907.967338562 4326506.2965774536 0 0 0 0 -12383.092050611143 88703.251163510606 0 88703.251163510606 55189.75944295153 0 0 0 0 284923.01803159714 847950.37440490723 0 847950.37440490723 -436816.74378204346 0 0 0 0 -18643.054230451584 -1104633.0737304688 0 -1104633.0737304688 5824572.4286842346 0 0 0 0 -42467.137804470178 291270.22954954905 0 291270.22954954905 125569.78143903613 0 0 0 0 2140831.3167133778 -2368479.7504234314 0 -2368479.7504234314 -806266.80809020996 0 0 0 0 -2070918.7974595353 10349420.507528305 0 10349420.507528305 2572193.2316741943 0 0 0 0 1011463.2760733224 172114.36282770708 0 172114.36282770708 2372382.3257035315 0 0 0 0 1360946.8800755888 2589653.0152206421 0 2589653.0152206421 -5614763.2451286316 0 0 0 0 -4352886.3665950894 1745506.8725547791 0 1745506.8725547791 4894491.7583084106 0 0 0 0 1907147.2016147748 821687.34475708008 0 821687.34475708008 -1069609.6363258362 0 0 0 0 -3302281.4931003172 -369671.02598571777 0 -369671.02598571777 -1605300.4858703613 0 0 0 0 -7158585.7729746401 -1687077.6230802536 0 -1687077.6230802536 8372403.0421447754 0 0 0 0 22651.87830479347 -7183564.5589523315 0 -7183564.5589523315 11718021.61730957 0 0 0 0 -60756.131904952184 -14529053.626338959 0 -14529053.626338959 4439491.6200866699 0 0 0 0 -8312373.0490535703 -11381682.052433014 0 -11381682.052433014 9603805.5968971252 0 0 0 0 -29388260.390587248 -24437208.203589439 0 -24437208.203589439 21115191.17086792 0 0 0 0 -22760608.537044771 12605008.975094795 0 12605008.975094795 -7202918.7892913818 0 0 0 0 -106014979.72724473 3087419.2713165283 0 3087419.2713165283 31627227.394298553 0 0 0 0 -33441.756252774801 660502.84652063809 0 660502.84652063809 82298.288863483816 0 0 0 0 -13226137.918736145 2106581.9582824707 0 2106581.9582824707 3754509.6006546021 0 0 0 0 39749298.388065778 109402816.79354858 0 109402816.79354858 297812044.88571167 0 0 0 0 274749317.55324209 -345513345.76055527 0 -345513345.76055527 336105854.3039093 0 0 0 0 421481131.03898823 -561653218.2956543 0 -561653218.2956543 654009036.4379425 0 0 0 0 -93349.801699963107 -5650.8225156990811 0 -5650.8225156990811 722063.65239251405 0 0 0 0 -164261200.16627884 -79973677.73336792 0 -79973677.73336792 1373796783.2369385 0 0 0 0 -135090071.07874119 -394801532.34772491 0 -394801532.34772491 702898071.72572708 0 0 0 0 -143026.69240562528 -153169688.14644241 0 -153169688.14644241 207708928.82092285 0 0 0 0 -51600889.086692579 36699414.045928955 0 36699414.045928955 -16143360.717094421 0 0 0 0 -310690.00845937827 -87759.257122147828 0 -87759.257122147828 246155.25751263648 0 0 0 0 333867977.87608433 -446315006.57925415 0 -446315006.57925415 402741872.20489502 0 0 0 0 -1025277.5564424545 -123934936.88742828 0 -123934936.88742828 601018869.63762569 0 0 0 0 65537081.34103319 -266605195.11836243 0 -266605195.11836243 618632428.40332031 0 0 0 0 169701.77657802159 -28662.866165118292 0 -28662.866165118292 458706.06996557489 0 0 0 0 195683803.33344609 -204646725.18861961 0 -204646725.18861961 438443709.44976807 0 0 0 0 145691418.39785567 -117625728.11940384 0 -117625728.11940384 500255868.26370239 0 0 0 0 49956796.168902338 -141943103.98662567 0 -141943103.98662567 495295033.01327515 0 0 0 0 68661314.967232585 -119167744.1016922 0 -119167744.1016922 425744066.57733154 0 0 0 0 157668916.68300623 -212929005.98583221 0 -212929005.98583221 440506510.86175537 0 0 0 0 109053706.15271695 -67326551.409210205 0 -67326551.409210205 246747771.71488953 0 0 0 0 123388540.07262765 -127651985.20956802 0 -127651985.20956802 293332324.34931946 0 0 0 0 42643384.597494155 -63125576.865505219 0 -63125576.865505219 310935086.55619812 0 0 0 0 127868.03949501163 -63329318.606517218 0 -63329318.606517218 475832827.01275635 0 0 0 0 56307288.641302243 -64844630.612091064 0 -64844630.612091064 383779776.67938232 0 0 0 0 74355842.18513228 -79692356.725662231 0 -79692356.725662231 349433670.39694214 0 0 0 0 113341090.99644604 -160013075.74296188 0 -160013075.74296188 404818968.2182312 0 0 0 0 -147857872.15310967 4528905.451713562 0 4528905.451713562 3086552.2911071777 0 0 0 0 -176892536.82428205 8889351.346534729 0 8889351.346534729 13176620.509979248 0 0 0 0 -163973067.96191114 43348215.965122223 0 43348215.965122223 104837003.08370972 0 0 0 0 -77331435.024183869 -45954996.102493286 0 -45954996.102493286 37168132.797058105 0 0 0 0 -61716898.043409035 -96617327.456272125 0 -96617327.456272125 160569651.95336914 0 0 0 0 69336374.158573627 -61027918.833320618 0 -61027918.833320618 163727703.41736603 0 0 0 0 -41658778.226256348 -54224917.577125549 0 -54224917.577125549 239893814.83604431 0 0 0 0 -36761222.176272988 -248001264.34274292 0 -248001264.34274292 348197245.63934326 0 0 0 0 39096449.065392613 -139585329.94657135 0 -139585329.94657135 199022016.31951904 0 0 0 0 63357031.662410676 -177784947.18991089 0 -177784947.18991089 377774709.19540405 0 0 0 0 13594014.090111002 -144834135.06443787 0 -144834135.06443787 402544742.93754578 0 0 0 0 -39277424.20758152 -172151584.77419281 0 -172151584.77419281 471249911.52653503 0 0 0 0 40869328.715601742 -264733237.79608154 0 -264733237.79608154 465296738.18296099 0 0 0 0 -169085.94194158184 9170.9077934660017 0 9170.9077934660017 164499.68047414348 0 0 0 0 -204613829.17004889 -313853162.28970718 0 -313853162.28970718 63289210.550315857 0 0 0 0 -137191249.73171943 -153768958.73468781 0 -153768958.73468781 440440000.24113464 0 0 0 0 -100210490.15446389 -180004987.60814762 0 -180004987.60814762 469321232.06634521 0 0 0 0 38409590.126547456 -131992882.36315918 0 -131992882.36315918 441844719.14557266 0 0 0 0 -103000040.31973726 -172629242.17084312 0 -172629242.17084312 615747300.38819885 0 0 0 0 -44416969.614685774 -259927720.21395874 0 -259927720.21395874 566485073.89493561 0 0 0 0 -6055191.686088264 -239273796.8830719 0 -239273796.8830719 572574320.48816299 0 0 0 0 95441306.055970073 -182511344.40978622 0 -182511344.40978622 622636402.9888916 0 0 0 0 99707.643941808084 89987.665911413729 0 89987.665911413729 293775.92257743515 0 0 0 0 36219303.744695187 -212275181.53809357 0 -212275181.53809357 459463694.13551331 0 0 0 0 35953095.208362669 -262500564.8298111 0 -262500564.8298111 633960079.70510864 0 0 0 0 122836313.05802 -156433147.71277618 0 -156433147.71277618 296915884.07184792 0 0 0 0 -96852.342147100979 91461.632597433403 0 91461.632597433403 2081544.9389869198 0 0 0 0 -359861.86250670068 1522793.513800621 0 1522793.513800621 -1108861.0640182495 0 0 0 0 -32947560.381861806 -208805175.02381897 0 -208805175.02381897 460993103.94707298 0 0 0 0 -37243767.818646431 -163247564.96688461 0 -163247564.96688461 304035182.91705322 0 0 0 0 -121941039.67980152 -209652925.33642673 0 -209652925.33642673 560029299.84205627 0 0 0 0 -118266662.24852681 -182894485.25252676 0 -182894485.25252676 490864965.43673706 0 0 0 0 -30501925.666411519 -233958923.27923584 0 -233958923.27923584 436445254.52175522 0 0 0 0 -132356042.51778162 -133581516.53360939 0 -133581516.53360939 619748197.67723083 0 0 0 0 -178387109.13369322 -153988193.30117798 0 -153988193.30117798 619736459.51778412 0 0 0 0 -139977539.36938977 -103318671.03087616 0 -103318671.03087616 500314518.32040405 0 0 0 0 586643426.84046865 541274149.86705017 0 541274149.86705017 524450927.04361725 0 0 0 0 -146436801.49576139 -323619732.03946686 0 -323619732.03946686 1425910101.2886658 0 0 0 0 469283841.95807981 -695241773.40241921 0 -695241773.40241921 604511333.34648132 0 0 0 0 103608493.77695227 -222355063.75409698 0 -222355063.75409698 260859609.2641449 0 0 0 0 132728906.7547397 -279505082.74398613 0 -279505082.74398613 313097022.20524597 0 0 0 0 294356529.25115585 -183397298.51954651 0 -183397298.51954651 132854109.19010925 0 0 0 0 -99792857.314099789 -276010856.57471466 0 -276010856.57471466 671311311.6616993 0 0 0 0 -111035824.31153035 -223624496.82187653 0 -223624496.82187653 539547712.94142151 0 0 0 0 -9450100.8527311087 10728482.623413086 0 10728482.623413086 80741669.067604065 0 0 0 0 -63166625.405774593 -47783355.885372162 0 -47783355.885372162 513871991.13510513 0 0 0 0 -7148369.3321237564 -50508448.095249176 0 -50508448.095249176 24524719.462776184 0 0 0 0 24587492.210103512 -143558641.90161896 0 -143558641.90161896 333589095.63065052 0 0 0 0 91820139.968825698 6521501.3084745407 0 6521501.3084745407 57008926.297088623 0 0 0 0 -10547531.583092809 40770143.737421989 0 40770143.737421989 -37911242.021224976 0 0 0 0 60685294.395664096 36901026.995176315 0 36901026.995176315 -55866855.690620422 0 0 0 0 -2605111.2105077333 -1283578.194205489 0 -1283578.194205489 2882941.0949152522 0 0 0 0 -73046156.159162998 -14826553.22562027 0 -14826553.22562027 1635048.9396333694 0 0 0 0 -216753457.94170249 -33695094.116111755 0 -33695094.116111755 -1056298.32629776 0 0 0 0 -38988684.529744536 -33975806.813627243 0 -33975806.813627243 -8201151.8134460449 0 0 0 0 -990243.90115505806 303289.66797097772 0 303289.66797097772 705443.9896093905 0 0 0 0 16711351.022660136 -66780018.81907177 0 -66780018.81907177 11105629.480880737 0 0 0 0 -223924183.76179361 -14571495.836791992 0 -14571495.836791992 70907563.636360168 0 0 0 0 -165276449.79730082 -71298614.957576752 0 -71298614.957576752 73678124.948486328 0 0 0 0 -203799769.40586448 -206304162.41338348 0 -206304162.41338348 331599184.01934814 0 0 0 0 -229188381.93980289 -119983885.99190712 0 -119983885.99190712 41822271.672851562 0 0 0 0 -64514112.542094231 -81800244.60628891 0 -81800244.60628891 -4474561.8665008545 0 0 0 0 -31226511.606658399 72235944.394232273 0 72235944.394232273 20706566.956825256 0 0 0 0 -352464347.93466645 131736651.53251779 0 131736651.53251779 664688510.27384949 0 0 0 0 -2414083.6866730326 -1397940.409161333 0 -1397940.409161333 3030048.2063887119 0 0 0 0 -347914311.82032967 313823716.3619957 0 313823716.3619957 62157262.993130922 0 0 0 0 34834942.809477329 -132041308.14596558 0 -132041308.14596558 385792884.95802307 0 0 0 0 626626.21442113677 -2607314.3581873756 0 -2607314.3581873756 2513837.2597943358 0 0 0 0 -116472889.66465664 -39549877.395027161 0 -39549877.395027161 17083517.301940918 0 0 0 0 58200420.838712215 84011796.444889069 0 84011796.444889069 14031877.650299072 0 0 0 0 450971969.69190985 -254733317.57613313 0 -254733317.57613313 -43001897.197067261 0 0 0 0 -120708443.05685472 -604119552.72209167 0 -604119552.72209167 1283539752.4939804 0 0 0 0 289801.5663369851 -918537.62714116275 0 -918537.62714116275 926694.40415760875 0 0 0 0 -81934626.15733704 327429388.98192215 0 327429388.98192215 1691190265.156662 0 0 0 0 -99579639.785685301 -132005358.6389389 0 -132005358.6389389 932062731.71300125 0 0 0 0 -115396421.18870696 105067354.09649611 0 105067354.09649611 657224241.27738953 0 0 0 0 -18018270.211232662 -28766429.493940353 0 -28766429.493940353 -27185908.822990417 0 0 0 0 -65930867.231231689 -19553609.28578186 0 -19553609.28578186 34561121.462982178 0 0 0 0 -25752472.365808249 10588652.487559319 0 10588652.487559319 45683836.446868896 0 0 0 0 -41229070.150451183 -18907734.687087059 0 -18907734.687087059 22890675.72354126 0 0 0 0 -2310402.3172951378 929707.65313692391 0 929707.65313692391 2260872.6992980819 0 0 0 0 -4053260.2004055977 5783887.7098770142 0 5783887.7098770142 7227577.7320861816 0 0 0 0 2924378.4912289358 -1482243.6262584161 0 -1482243.6262584161 1006923.9599303738 0 0 0 0 100236.47080993652 5791632.2131576538 0 5791632.2131576538 10254468.25888443 0 0 0 0 55460639.42440176 -385729958.99413681 0 -385729958.99413681 442363670.74478149 0 0 0 0 3994369.5366097484 -1957286.9780422691 0 -1957286.9780422691 1579299.8327073758 0 0 0 0 233374713.39939427 -95178770.603061676 0 -95178770.603061676 -142010972.2239151 0 0 0 0 8401696.487552762 -14400463.639032364 0 -14400463.639032364 4382669.5989761353 0 0 0 0 -2088229.6493386934 298372.37460226007 0 298372.37460226007 1880574.3351760469 0 0 0 0 -78005.131168681473 -232868.8897521235 0 -232868.8897521235 473613.64777378645 0 0 0 0 -51657330.916819334 101659079.91513824 0 101659079.91513824 246010856.49368572 0 0 0 0 1260977.6619587541 3274216.821937561 0 3274216.821937561 -15862534.281293869 0 0 0 0 -123272196.55967569 145335732.21747589 0 145335732.21747589 611149314.60836124 0 0 0 0 -5956514.1342281699 2615317.3868331909 0 2615317.3868331909 16126886.242256165 0 0 0 0 -3808903.8592211902 4497013.1350135803 0 4497013.1350135803 1236277.5198974609 0 0 0 0 -163057.0420217514 4728488.7195129395 0 4728488.7195129395 1242045.0210056305 0 0 0 0 212315.97538334131 7704448.4764633179 0 7704448.4764633179 -4923591.6161651611 0 0 0 0 -871122.17568331957 -1110904.2392807007 0 -1110904.2392807007 -256695.02977371216 0 0 0 0 -3562190.5612787604 5268074.8756256104 0 5268074.8756256104 12423604.235977173 0 0 0 0 894107.43922001123 808109.69708633423 0 808109.69708633423 13030449.975395203 0 0 0 0 -4223336.8941245675 5860741.611989975 0 5860741.611989975 21736616.367874146 0 0 0 0 -4589337.7738402784 6208892.8727607727 0 6208892.8727607727 17171857.691723824 0 0 0 0 -7590864.1162617803 4387749.306306839 0 4387749.306306839 38308433.756324768 0 0 0 0 -1486573.3519804478 -19136244.717018127 0 -19136244.717018127 51365384.194583893 0 0 0 0 4179436.1769765019 -5541849.0990028381 0 -5541849.0990028381 22950631.818218231 0 0 0 0 -3433848.6582778692 -60053.75528717041 0 -60053.75528717041 18565733.944152832 0 0 0 0 -5698240.5546991825 -2219679.8928527832 0 -2219679.8928527832 28676035.852706909 0 0 0 0 -4921051.2051349282 -584603.67699432373 0 -584603.67699432373 21437967.598083496 0 0 0 0 -4636275.3665101677 -1260347.2574901581 0 -1260347.2574901581 18169889.577644348 0 0 0 0 -4137847.4190023094 114578.35967254639 0 114578.35967254639 17435708.984062195 0 0 0 0 -651677.72780942917 1800658.2247924805 0 1800658.2247924805 8467945.2606258392 0 0 0 0 -2012243.267361047 1387703.1367010307 0 1387703.1367010307 2657429.6313415747 0 0 0 0 37067064.598248482 74507109.248058319 0 74507109.248058319 -60925244.229730606 0 0 0 0 -49559602.205723763 37615585.823745728 0 37615585.823745728 876643.13029098511 0 0 0 0 27066727.490407944 -15019974.471977234 0 -15019974.471977234 -18444134.044250488 0 0 0 0 -16099469.432930946 -50777588.11075592 0 -50777588.11075592 -8992904.3547267914 0 0 0 0 -2187937.6179117002 1249843.6769983284 0 1249843.6769983284 2458979.4249311537 0 0 0 0 -4038224.8616189957 -1318715.2840766907 0 -1318715.2840766907 18602530.148643494 0 0 0 0 -2080409.5578896403 -5822475.8826351166 0 -5822475.8826351166 24776904.723556519 0 0 0 0 -2080418.2005105019 -4930230.9923553467 0 -4930230.9923553467 23241271.934770584 0 0 0 0 -1385607.1080605984 -5369130.4948005676 0 -5369130.4948005676 24656902.044799805 0 0 0 0 -2409173.9460840523 -5832394.6388530731 0 -5832394.6388530731 26639664.303588867 0 0 0 0 3084956.8750276566 -5941807.8934707642 0 -5941807.8934707642 24682620.454589844 0 0 0 0 9485581.9800958633 -11164714.401123047 0 -11164714.401123047 27395902.183105469 0 0 0 0 805821.93316364288 -4659131.0165405273 0 -4659131.0165405273 24758891.824615479 0 0 0 0 2368544.5049657822 -5768114.8751983643 0 -5768114.8751983643 24605211.977935791 0 0 0 0 1012166.4400859177 -7260499.644525528 0 -7260499.644525528 26836754.075317383 0 0 0 0 30759567.231639862 -11329510.806915283 0 -11329510.806915283 -109543855.7562561 0 0 0 0 4728244.0571532249 -9245593.2240753174 0 -9245593.2240753174 27231756.739227295 0 0 0 0 1209438.4916605949 -7055721.7860412598 0 -7055721.7860412598 28487881.740158081 0 0 0 0 -1795061.4044310469 934543.223987028 0 934543.223987028 4528042.4218557328 0 0 0 0 615557.82285428047 -14220406.988433838 0 -14220406.988433838 39285559.763397217 0 0 0 0 -2190177.8570718765 -11039718.378540039 0 -11039718.378540039 41828103.368011475 0 0 0 0 -88899.128033175482 330115.721328279 0 330115.721328279 -843334.26362694614 0 0 0 0 23502740.833339691 47144574.233642578 0 47144574.233642578 -98752219.381210327 0 0 0 0 8170231.4845032692 -9513829.2844238281 0 -9513829.2844238281 25804928.692100525 0 0 0 0 2303119.296081543 -6543476.1342010498 0 -6543476.1342010498 26789980.265197754 0 0 0 0 4909315.9276633263 -12615614.880004883 0 -12615614.880004883 30420716.207702637 0 0 0 0 5625257.0611877441 -12725116.853363037 0 -12725116.853363037 29359407.041397095 0 0 0 0 2119528.7980794907 -9920518.6761779785 0 -9920518.6761779785 30835187.483802795 0 0 0 0 2503514.006067276 -13101449.766845703 0 -13101449.766845703 32834873.65246582 0 0 0 0 2833260.8941123486 -11423464.798690796 0 -11423464.798690796 32121317.841796875 0 0 0 0 -288205.59070682526 -8894202.0328979492 0 -8894202.0328979492 36621270.894634247 0 0 0 0 1234544.0944781303 -8093553.6444702148 0 -8093553.6444702148 30012490.938674927 0 0 0 0 649590.41510105133 -11965115.071868896 0 -11965115.071868896 36396070.57477951 0 0 0 0 -724366.68114233017 -7038882.0455551147 0 -7038882.0455551147 34172215.216674805 0 0 0 0 -50073.088215827942 -10754833.793701172 0 -10754833.793701172 34418883.043426514 0 0 0 0 3337841.1420092583 -14507955.743484497 0 -14507955.743484497 34838027.929718018 0 0 0 0 37856859.437667847 23977142.72756958 0 23977142.72756958 -87453713.76590538 0 0 0 0 29453918.96396637 39783207.71270752 0 39783207.71270752 -65939172.744735718 0 0 0 0 19562793.396572113 12601234.194442749 0 12601234.194442749 -24159193.208557129 0 0 0 0 24562184.664863586 8313367.6137542725 0 8313367.6137542725 -47065782.973144531 0 0 0 0 25713991.46289444 9699689.2607727051 0 9699689.2607727051 -72196381.926639557 0 0 0 0 25983061.184326172 -18445777.948638916 0 -18445777.948638916 -88151598.065237045 0 0 0 0 18476830.650222778 -14938033.280883789 0 -14938033.280883789 -66952106.358795166 0 0 0 0 -4674963.8621292114 -47230770.418731689 0 -47230770.418731689 -93511141.54309082 0 0 0 0 -25923827.340324402 -54610225.800323486 0 -54610225.800323486 -77452502.936401367 0 0 0 0 10247527.374843597 -13720260.160671234 0 -13720260.160671234 28510444.334716797 0 0 0 0 6969395.0579662323 -15961843.851257324 0 -15961843.851257324 31708902.205871582 0 0 0 0 -4952081.7958097458 15806488.417236328 0 15806488.417236328 -30339742.96812439 0 0 0 0 -72558281.109858513 -31288484.255943298 0 -31288484.255943298 -36759531.593292236 0 0 0 0 -8957927.8980385065 4909037.9121284485 0 4909037.9121284485 23859029.555969238 0 0 0 0 -10663148.572263718 -1576597.2540130615 0 -1576597.2540130615 28497592.617996216 0 0 0 0 -87045426.028812408 55909711.569702148 0 55909711.569702148 -29781497.534484863 0 0 0 0 -110799220.97207069 14542964.844963074 0 14542964.844963074 -15576729.00604248 0 0 0 0 -3309139.4452548027 -7897946.7982940674 0 -7897946.7982940674 43631866.224761963 0 0 0 0 -2809445.1360111237 -2290719.6607666016 0 -2290719.6607666016 44989790.27191925 0 0 0 0 -1625116.7612462044 -7141064.530128479 0 -7141064.530128479 39011333.848144531 0 0 0 0 -44793511.379486084 70607688.487426758 0 70607688.487426758 -44830024.437438965 0 0 0 0 16079708.725304514 27702716.494270802 0 27702716.494270802 -21447516.053100586 0 0 0 0 16181618.356479645 39269120.489822388 0 39269120.489822388 -54333157.7890625 0 0 0 0 -28539729.323760986 47094520.038162231 0 47094520.038162231 -5375387.1746826172 0 0 0 0 13652109.344192505 42303909.215240479 0 42303909.215240479 -43747909.614471436 0 0 0 0 -20349496.174575806 69303754.256164551 0 69303754.256164551 -49117870.713069916 0 0 0 0 -28858321.831870079 37903456.764854431 0 37903456.764854431 -24630121.697143555 0 0 0 0 -35063753.509122849 13256100.850143433 0 13256100.850143433 -15855977.369506836 0 0 0 0 -54746283.868961334 35471927.216461182 0 35471927.216461182 -8900350.7415771484 0 0 0 0 -8536160.7092857361 22848021.780960083 0 22848021.780960083 -8658827.5642185211 0 0 0 0 -33499692.327846527 13437521.866615295 0 13437521.866615295 30897178.719451904 0 0 0 0 -1603843.3031539917 5516734.4770050049 0 5516734.4770050049 -1567511.2947616577 0 0 0 0 -6981805.9347305298 -18137780.98197937 0 -18137780.98197937 -35354659.910125732 0 0 0 0 -57556551.652862549 812725.79431152344 0 812725.79431152344 -1175910.5851135254 0 0 0 0 749571.20088195801 23997374.331794739 0 23997374.331794739 81654752.185684204 0 0 0 0 -20258234.509679794 -8469882.8885803223 0 -8469882.8885803223 141846340.0790863 0 0 0 0 3972203.1355438232 -1258548.8551330566 0 -1258548.8551330566 34333266.240154266 0 0 0 0 -19431633.621003151 25067667.824859619 0 25067667.824859619 53733480.177856445 0 0 0 0 -2385007.6924114227 -2836497.690322876 0 -2836497.690322876 69598610.363555908 0 0 0 0 -15642230.676839828 1272801.8360137939 0 1272801.8360137939 126787272.32896423 0 0 0 0 99269.609561920166 37366672.877593994 0 37366672.877593994 -11088399.435623169 0 0 0 0 6822645.1267623901 14249055.107772827 0 14249055.107772827 15739342.491317749 0 0 0 0 3753198.6046638489 5935656.1648254395 0 5935656.1648254395 35135019.863983154 0 0 0 0 7961935.0917906761 14352163.202610016 0 14352163.202610016 -20951867.553894043 0 0 0 0 978508.01764678955 -647662.65483474731 0 -647662.65483474731 44833474.67010498 0 0 0 0 4890068.4307422638 -8673855.4638824463 0 -8673855.4638824463 32294707.197149277 0 0 0 0 -24136386.27323246 -31283936.789474487 0 -31283936.789474487 188317969.33912659 0 0 0 0 -16077588.818050385 -37893654.431228638 0 -37893654.431228638 136160568.051548 0 0 0 0 -8399079.4531383514 -7270652.4646377563 0 -7270652.4646377563 141953632.29202271 0 0 0 0 -35413703.981898308 -21318582.090408325 0 -21318582.090408325 244210159.7880249 0 0 0 0 -70587512.299856186 -23486749.140640259 0 -23486749.140640259 5742967.7509155273 0 0 0 0 -11876002.124317169 -15223793.223022461 0 -15223793.223022461 2760370.0833435059 0 0 0 0 -26633646.462680817 -33884336.325653076 0 -33884336.325653076 30684062.080062866 0 0 0 0 -39357596.408000946 1529933.3889312744 0 1529933.3889312744 23573151.273014069 0 0 0 0 -49875542.767786026 -53952940.831390381 0 -53952940.831390381 -39679762.886047363 0 0 0 0 -38396534.136623383 -34514496.87828064 0 -34514496.87828064 -6809324.2907104492 0 0 0 0 -9098195.880947113 -27527658.536392212 0 -27527658.536392212 -34036348.345275879 0 0 0 0 -2305256.2649641037 -36704494.848548889 0 -36704494.848548889 -52519988.364196777 0 0 0 0 11235712.543221474 -26041582.768676758 0 -26041582.768676758 -35327079.416534424 0 0 0 0 5843041.9785919189 -13334243.278961182 0 -13334243.278961182 -17223270.445068359 0 0 0 0 10500904.538280487 -19406098.347259521 0 -19406098.347259521 19538984.741668701 0 0 0 0 13742676.487426758 -7065905.1486816406 0 -7065905.1486816406 -14175553.860671997 0 0 0 0 -7939208.3620471954 -26363634.843719482 0 -26363634.843719482 34050724.52355957 0 0 0 0 5658630.9976234436 -28617672.82333374 0 -28617672.82333374 32707755.91305542 0 0 0 0 -1593153.978228569 -36600396.979721069 0 -36600396.979721069 -12393761.032653809 0 0 0 0 -16790166.181932449 -46143486.657821655 0 -46143486.657821655 96200936.97164917 0 0 0 0 -3286789.3296661377 -39907835.136993408 0 -39907835.136993408 103527978.76196289 0 0 0 0 -9920447.3131103516 -40992059.822006226 0 -40992059.822006226 103362101.83467102 0 0 0 0 -19746632.830459595 -58128542.027267456 0 -58128542.027267456 174082076.73989868 0 0 0 0 2369491.2543210983 -47168084.906669617 0 -47168084.906669617 94871105.597717285 0 0 0 0 3364006.8924026489 -87514193.930145264 0 -87514193.930145264 150909132.78846741 0 0 0 0 17774654.726495743 -66663260.30670929 0 -66663260.30670929 86772676.796142578 0 0 0 0 9414345.8548355103 -41913884.742553711 0 -41913884.742553711 23492129.775947571 0 0 0 0 -3469750.3005027771 -9618204.6734313965 0 -9618204.6734313965 20311897.59728241 0 0 0 0 46521950.824158669 -119921359.42199707 0 -119921359.42199707 172395065.30410767 0 0 0 0 -4170020.331227541 -48695321.863436699 0 -48695321.863436699 133052179.32119751 0 0 0 0 -25991450.399024963 -73376692.832077026 0 -73376692.832077026 218271590.29063416 0 0 0 0 -12890125.984487534 -68923824.174850464 0 -68923824.174850464 172362770.84220695 0 0 0 0 -9053151.2894706726 -116051017.54592896 0 -116051017.54592896 231109366.4717598 0 0 0 0 -49557463.05175972 -117786710.88085175 0 -117786710.88085175 352839153.45909119 0 0 0 0 -62956317.72136116 -129943452.51462555 0 -129943452.51462555 348217464.82117462 0 0 0 0 -14709827.774008751 -120659613.74187469 0 -120659613.74187469 281329910.31938171 0 0 0 0 12699994.414072037 -177075317.82700348 0 -177075317.82700348 285696297.83462715 0 0 0 0 -49039012.21948576 -46791315.06253624 0 -46791315.06253624 321214443.70500183 0 0 0 0 -35261533.012126923 -35590588.80588913 0 -35590588.80588913 236842975.47363281 0 0 0 0 -44071288.244569778 -71336609.66633606 0 -71336609.66633606 250847676.62124634 0 0 0 0 -55829403.887678146 -76484290.608383179 0 -76484290.608383179 331407453.25292969 0 0 0 0 -29444992.443624496 -85771512.095920563 0 -85771512.095920563 234394765.77337646 0 0 0 0 -83763374.688373566 -67444240.579421997 0 -67444240.579421997 342046858.54000092 0 0 0 0 -81673983.31114769 -136321609.58346558 0 -136321609.58346558 453757155.22065735 0 0 0 0 -92773243.309772015 -58367319.087739944 0 -58367319.087739944 491595086.40638733 0 0 0 0 -112156659.09644794 -135741640.53415298 0 -135741640.53415298 501064722.37046051 0 0 0 0 -112378086.91238821 -129809936.84898376 0 -129809936.84898376 509553856.9072113 0 0 0 0 -114806679.2895956 -148680048.40711975 0 -148680048.40711975 491372489.7991333 0 0 0 0 -112890427.09934628 -124628515.68309021 0 -124628515.68309021 474691797.65699768 0 0 0 0 -118098691.62555218 -138592000.16290283 0 -138592000.16290283 512086094.53949738 0 0 0 0 -34036144.633125305 -200842679.51515961 0 -200842679.51515961 452056957.731493 0 0 0 0 -35157660.610223532 -197158706.18816662 0 -197158706.18816662 460342399.43772888 0 0 0 0 -58155006.745796204 -164358407.08748627 0 -164358407.08748627 444848894.44770813 0 0 0 0 -115395365.31406403 -95434830.551521301 0 -95434830.551521301 539721650.69359207 0 0 0 0 -112996352.63234186 -161376158.30673218 0 -161376158.30673218 573930544.83656311 0 0 0 0 -18260755.246826172 -291762675.92793274 0 -291762675.92793274 563487893.78351593 0 0 0 0 7294795.9551897049 -408197745.48635864 0 -408197745.48635864 1090159892.6444888 0 0 0 0 114437751.92332935 -87810596.609325409 0 -87810596.609325409 193400861.35163879 0 0 0 0 405273002.60636234 -424068230.06250763 0 -424068230.06250763 249142484.0970459 0 0 0 0 46711412.884703636 -245424456.69395447 0 -245424456.69395447 422075647.3384552 0 0 0 0 48323139.678730667 23799797.141334057 0 23799797.141334057 77287981.50453186 0 0 0 0 172657800.11135864 -176583867.19445801 0 -176583867.19445801 198243667.4780426 0 0 0 0 37118613.696896672 -76006858.045501709 0 -76006858.045501709 112797395.84515381 0 0 0 0 28842343.940849304 -57061276.421806335 0 -57061276.421806335 166816249.27495193 0 0 0 0 12614617.973982811 55110662.774391174 0 55110662.774391174 -5615095.2159805298 0 0 0 0 162509980.19821739 -108214140.54756927 0 -108214140.54756927 66924100.217574596 0 0 0 0 15146784.91806221 29350910.898979187 0 29350910.898979187 23942434.444717407 0 0 0 0 220960459.25486565 -128579363.43755341 0 -128579363.43755341 -140880943.37858963 0 0 0 0 968542.82253118488 -617282.78965040855 0 -617282.78965040855 408672.33400781546 0 0 0 0 -192929821.9166441 -274523605.86858368 0 -274523605.86858368 1694216691.7049103 0 0 0 0 -94758232.714887172 20578948.601119161 0 20578948.601119161 1123501857.2289734 0 0 0 0 66359760.908945084 -77063277.557891846 0 -77063277.557891846 786941933.38275528 0 0 0 0 88518707.885844231 -430212907.28135681 0 -430212907.28135681 635201236.28646088 0 0 0 0 -8322594.6208934784 20070598.093044281 0 20070598.093044281 545187551.08842468 0 0 0 0 12488240.485641479 162142503.65605164 0 162142503.65605164 1039689851.7317629 0 0 0 0 649388627.26113796 -476346957.05195618 0 -476346957.05195618 860536544.38297272 0 0 0 0 126920.27773974487 -305391.09397405572 0 -305391.09397405572 143055.17339520901 0 0 0 0 31768937.532699585 142085916.61544418 0 142085916.61544418 282571367.3640213 0 0 0 0 -40030184.628218651 40948319.353668213 0 40948319.353668213 557350724.37380981 0 0 0 0 81691955.66724968 56187172.446655273 0 56187172.446655273 77938208.47277832 0 0 0 0 30786697.694782376 124671039.99847054 0 124671039.99847054 -21179801.871276855 0 0 0 0 -441859.05648708344 -41940063.511764526 0 -41940063.511764526 24792282.286182404 0 0 0 0 46790094.753501415 6047249.0082206726 0 6047249.0082206726 33282093.185661316 0 0 0 0 76347433.203874588 -33630589.783424377 0 -33630589.783424377 82918814.867126465 0 0 0 0 -57176504.009508133 9916892.8686676025 0 9916892.8686676025 4437631.1763000488 0 0 0 0 44798614.163618252 29987333.826561213 0 29987333.826561213 207164867.03479004 0 0 0 0 -122783.11187786481 -1035104.4380057417 0 -1035104.4380057417 616926.83634245768 0 0 0 0 -28414108.053923607 -37801527.624881744 0 -37801527.624881744 9302783.0506176949 0 0 0 0 -376077.67811174993 -934279.72837697901 0 -934279.72837697901 2403174.940404661 0 0 0 0 1157807823.8870783 -783350000.24713135 0 -783350000.24713135 754126744.27947998 0 0 0 0 -28506501.224795341 2285299.8190460205 0 2285299.8190460205 28263706.383743286 0 0 0 0 56992308.400645256 -34657155.800296783 0 -34657155.800296783 25317064.775794983 0 0 0 0 48111.801626023604 -490035.11408965103 0 -490035.11408965103 1005498.0427831374 0 0 0 0 80046777.740569115 18530478.825046539 0 18530478.825046539 -25709708.226821899 0 0 0 0 -318880610.18036723 1018280168.4535141 0 1018280168.4535141 -154782382.46351624 0 0 0 0 367078.69318395515 -773019.24462294765 0 -773019.24462294765 1556876.1031571627 0 0 0 0 377059544.13180661 -203661739.0486145 0 -203661739.0486145 -247881072.713974 0 0 0 0 378856953.74884987 -459249367.45573807 0 -459249367.45573807 113970207.08721924 0 0 0 0 342275160.01679897 -386482368.35971069 0 -386482368.35971069 -18766902.863449097 0 0 0 0 48087894.163450241 -483402150.40584564 0 -483402150.40584564 603675436.13561249 0 0 0 0 -188342764.00342274 -96242291.892696381 0 -96242291.892696381 143208813.26935959 0 0 0 0 67985502.356604576 -67660949.519271851 0 -67660949.519271851 -22133068.115501404 0 0 0 0 68285428.799517542 -33954749.901450127 0 -33954749.901450127 -63269790.428634644 0 0 0 0 277471815.51791763 -163373926.97187424 0 -163373926.97187424 21469625.317138672 0 0 0 0 232206779.26199722 14689729.947460175 0 14689729.947460175 -26135343.146903992 0 0 0 0 183591286.91555238 -60221527.322787285 0 -60221527.322787285 -19261179.644088745 0 0 0 0 138026738.59920883 -104391623.05909348 0 -104391623.05909348 -48965180.606185913 0 0 0 0 168526251.34731483 -16294013.445625305 0 -16294013.445625305 -24739416.515045166 0 0 0 0 105807114.08125877 162557.73444366455 0 162557.73444366455 -16812162.430221558 0 0 0 0 135742694.3486557 -44163918.964916229 0 -44163918.964916229 -9823294.2484741211 0 0 0 0 84357226.426512718 -71375325.286445618 0 -71375325.286445618 35773260.576278687 0 0 0 0 48638268.955359459 -106809504.11733627 0 -106809504.11733627 33822815.83001709 0 0 0 0 81085539.815541267 -66120115.83265686 0 -66120115.83265686 71672846.787994385 0 0 0 0 34484335.45883131 -149611263.26437187 0 -149611263.26437187 -95361355.043670654 0 0 0 0 -58242161.322925091 -118952350.12348747 0 -118952350.12348747 263508092.99948883 0 0 0 0 15086094.115740776 -112863768.00517654 0 -112863768.00517654 100575739.39497375 0 0 0 0 82670612.439779282 -680290.66952514648 0 -680290.66952514648 106473932.2614212 0 0 0 0 38720459.902821541 -26232633.300338745 0 -26232633.300338745 242645407.44245148 0 0 0 0 49949521.326238632 42175165.651397705 0 42175165.651397705 304485293.05476379 0 0 0 0 54438042.006238937 -30352173.306816101 0 -30352173.306816101 140237080.11151123 0 0 0 0 -16714732.494440079 17531462.841575623 0 17531462.841575623 312326417.7100811 0 0 0 0 -40142656.274157524 6619470.0309333801 0 6619470.0309333801 472333611.2930069 0 0 0 0 -28399452.339612961 -95032060.85559845 0 -95032060.85559845 291803068.00788498 0 0 0 0 -108996732.09159374 -116729530.4948349 0 -116729530.4948349 508762089.5136261 0 0 0 0 -113983831.98947334 -66625548.222114563 0 -66625548.222114563 855049843.44119263 0 0 0 0 -27372509.421985626 -169611272.92553711 0 -169611272.92553711 383366461.8876152 0 0 0 0 -34284842.568933725 -61901540.969695091 0 -61901540.969695091 289375444.65086365 0 0 0 0 -109252955.54356241 -116339207.6631813 0 -116339207.6631813 510805190.77323914 0 0 0 0 -24803824.456167221 -175166194.56922531 0 -175166194.56922531 387707598.49519348 0 0 0 0 156202193.74495316 -126721174.99765015 0 -126721174.99765015 135701008.22079849 0 0 0 0 186537217.49101162 -246957524.09534073 0 -246957524.09534073 245310898.18388367 0 0 0 0 32050379.474602222 -64775500.817146301 0 -64775500.817146301 159803190.10566044 0 0 0 0 -361275460.29090595 -151131248.90912056 0 -151131248.90912056 -31759316.475646973 0 0 0 0 1082104.3342278411 595155.9236358311 0 595155.9236358311 634649.99120756239 0 0 0 0 62575678.942730904 -66098589.66988945 0 -66098589.66988945 109822255.98270035 0 0 0 0 -83177723.280017614 -39050791.770435333 0 -39050791.770435333 -11317452.070503235 0 0 0 0 75011.301989037544 314076.09667130932 0 314076.09667130932 618141.52707851678 0 0 0 0 769554.28181127773 1660353.7288066922 0 1660353.7288066922 2924533.4196421243 0 0 0 0 1538922.327029705 1587593.4034538269 0 1587593.4034538269 2049303.0740432739 0 0 0 0 621285.04372119904 5773249.3151168823 0 5773249.3151168823 8057157.4376087189 0 0 0 0 -225258.90124811907 532554.2991802264 0 532554.2991802264 699910.75654230267 0 0 0 0 -186020388.38834405 -154282815.80472803 0 -154282815.80472803 -29586680.356903076 0 0 0 0 1554934.4669054672 1632314.6601698995 0 1632314.6601698995 1660367.7744827271 0 0 0 0 2680580.0438350765 2278493.3959502708 0 2278493.3959502708 1936248.8595942566 0 0 0 0 1569050.368948698 1320719.3695411682 0 1320719.3695411682 2125744.5381126404 0 0 0 0 13968665.406779289 -120939741.37517166 0 -120939741.37517166 -106644181.56501198 0 0 0 0 1553829.7349416018 1494888.7807025909 0 1494888.7807025909 2338944.2800750732 0 0 0 0 2879197.9967206386 1518925.9219060056 0 1518925.9219060056 1701415.8808474783 0 0 0 0 72927279.375923634 -17545089.203063965 0 -17545089.203063965 -216546633.02473068 0 0 0 0 3982249.7731580734 -79051452.319980621 0 -79051452.319980621 -271416339.14866638 0 0 0 0 441875281.05422306 -141284068.65395355 0 -141284068.65395355 -263201920.09360695 0 0 0 0 161917968.82182837 93889218.202701569 0 93889218.202701569 -11375426.583374023 0 0 0 0 -14972531.368257523 -378278397.4195118 0 -378278397.4195118 -40115554.530906677 0 0 0 0 685022214.15065861 -343372559.10306168 0 -343372559.10306168 -55381491.137935638 0 0 0 0 899689731.80415154 420894010.53066444 0 420894010.53066444 113637538.39053345 0 0 0 0 156125050.22969246 -765223854.70430374 0 -765223854.70430374 1503741813.6253281 0 0 0 0 908853182.7245698 -451406114.29345894 0 -451406114.29345894 40137357.220420837 0 0 0 0 96580.241722737439 -1144650.9448503754 0 -1144650.9448503754 2052436.5365478881 0 0 0 0 763513011.55603337 -916359271.70213413 0 -916359271.70213413 543358349.23858643 0 0 0 0 304620919.11855316 17281752.401885986 0 17281752.401885986 -229879268.93612671 0 0 0 0 336788200.50815105 -466308043.5239563 0 -466308043.5239563 196290136.88062286 0 0 0 0 524214222.66401672 -422072695.37732697 0 -422072695.37732697 50748275.238243103 0 0 0 0 128755663.97233534 460868934.60422707 0 460868934.60422707 1063540856.5561752 0 0 0 0 272265440.24939728 186138843.56961823 0 186138843.56961823 63174258.206481934 0 0 0 0 246476.8372365043 94959.433968172409 0 94959.433968172409 609416.46226610616 0 0 0 0 -968252612.7128315 151582737.37667084 0 151582737.37667084 1549947681.4303474 0 0 0 0 -178809934.75041008 -8746796.7464294434 0 -8746796.7464294434 1279451824.211731 0 0 0 0 460484698.50393844 -651903292.64010334 0 -651903292.64010334 812425517.69285583 0 0 0 0 -123373494.24388504 -156873929.98197937 0 -156873929.98197937 717254754.39963913 0 0 0 0 79834443.832307816 -348701036.48874283 0 -348701036.48874283 534252401.04512787 0 0 0 0 -76396774.133402824 -22685015.960037231 0 -22685015.960037231 549368813.66079712 0 0 0 0 -79445704.060739517 -13478950.826759338 0 -13478950.826759338 559105322.75102997 0 0 0 0 2142871.865026474 113189386.15461922 0 113189386.15461922 302079847.58387756 0 0 0 0 -63930758.165836334 -13374504.183704376 0 -13374504.183704376 350247212.24798584 0 0 0 0 55872950.405578613 366129626.36704254 0 366129626.36704254 848441880.99636841 0 0 0 0 -62632857.153534412 -74921455.248567581 0 -74921455.248567581 720245460.87861633 0 0 0 0 6560089.8615379333 187746313.00346375 0 187746313.00346375 587321188.70453644 0 0 0 0 11737314.242884159 97849528.653779984 0 97849528.653779984 239403059.97668457 0 0 0 0 92963170.353110313 125436209.62032318 0 125436209.62032318 214688193.48635101 0 0 0 0 12165165.349189758 110833944.84104538 0 110833944.84104538 233725768.46696472 0 0 0 0 66483107.916028976 135454609.38175583 0 135454609.38175583 -23337228.390808105 0 0 0 0 60765792.762428999 90528676.270227432 0 90528676.270227432 130583377.64402771 0 0 0 0 79729426.738180161 34433572.699150085 0 34433572.699150085 6068219.139541626 0 0 0 0 39473278.599475861 19796580.448036194 0 19796580.448036194 32121380.028900146 0 0 0 0 48037196.835330963 18218324.658058167 0 18218324.658058167 13125086.361358643 0 0 0 0 50690047.170463562 -24309579.051040649 0 -24309579.051040649 -32049910.481506348 0 0 0 0 65366103.134563684 -62308589.409306526 0 -62308589.409306526 -128817806.842453 0 0 0 0 -81012387.207000732 -95836092.852767944 0 -95836092.852767944 -30171003.948226929 0 0 0 0 -20518010.383155823 30578951.769218445 0 30578951.769218445 265788853.18722534 0 0 0 0 16849640.332122803 14451813.032501221 0 14451813.032501221 149399746.90115356 0 0 0 0 6188728.5121421814 38428138.972366333 0 38428138.972366333 216218764.55920792 0 0 0 0 -7031692.4379863739 49901827.507377625 0 49901827.507377625 287858574.42049599 0 0 0 0 49368891.419071674 24933159.238601685 0 24933159.238601685 39208906.494903564 0 0 0 0 40590155.19625473 -1083294.2154922485 0 -1083294.2154922485 48300875.888320923 0 0 0 0 5646043.563747406 23828527.824859619 0 23828527.824859619 147310525.8369236 0 0 0 0 14403375.323141575 -8342395.7501583099 0 -8342395.7501583099 51297152.805908203 0 0 0 0 -1988772.0228123344 859837.18681516312 0 859837.18681516312 6050779.1861715792 0 0 0 0 33927100.799705505 -8856501.0895690918 0 -8856501.0895690918 -79883160.542087555 0 0 0 0 -3809593.9983081818 4218420.592010498 0 4218420.592010498 13710434.633560181 0 0 0 0 26934351.168479919 10650444.813781738 0 10650444.813781738 -77634776.019620895 0 0 0 0 25077110.566432953 -19506321.666061401 0 -19506321.666061401 -46017216.84085083 0 0 0 0 1444915.7471942902 -3280784.0512619019 0 -3280784.0512619019 -9614040.7100219727 0 0 0 0 -3958233.0354032516 -18660048.354846954 0 -18660048.354846954 -1090259.177520752 0 0 0 0 9791339.9238777161 12159928.717529297 0 12159928.717529297 41640643.145347595 0 0 0 0 37859705.44626236 -4694227.3248519897 0 -4694227.3248519897 -12561223.37612915 0 0 0 0 37319930.809696198 -1568480.6117248535 0 -1568480.6117248535 -53678480.330764771 0 0 0 0 27280797.669158936 -4866166.3790283203 0 -4866166.3790283203 -12523052.374664307 0 0 0 0 35120209.569320679 -7466458.4423522949 0 -7466458.4423522949 -47058550.448242188 0 0 0 0 39016856.783989906 -10100176.745918274 0 -10100176.745918274 -39120557.36428833 0 0 0 0 30035373.87449646 936259.19195556641 0 936259.19195556641 -41830620.36517334 0 0 0 0 42324701.804786682 984421.30947875977 0 984421.30947875977 -43730060.144775391 0 0 0 0 26329951.358947754 -7063363.6917572021 0 -7063363.6917572021 29138531.045772552 0 0 0 0 39287623.521303177 4960498.0235748291 0 4960498.0235748291 -18818834.786895752 0 0 0 0 35385413.372796297 -17680909.991615295 0 -17680909.991615295 -16204238.84274292 0 0 0 0 28836750.790912628 -1231368.5232391357 0 -1231368.5232391357 -50624743.398254395 0 0 0 0 22090071.207166672 -10527721.967201233 0 -10527721.967201233 -35045735.935546875 0 0 0 0 35391138.90178299 -683523.62197875977 0 -683523.62197875977 -50598809.09387207 0 0 0 0 25427725.016597748 569583.5915222168 0 569583.5915222168 -49999798.024963379 0 0 0 0 35233517.93595314 9296636.3949050903 0 9296636.3949050903 -63781064.075439453 0 0 0 0 42761748.653411865 -3063792.0521240234 0 -3063792.0521240234 -62622476.249450684 0 0 0 0 2079111.9861755371 -30416727.442626953 0 -30416727.442626953 -72178725.158538818 0 0 0 0 -26103369.763435364 -19323592.380996704 0 -19323592.380996704 -6251100.8305664062 0 0 0 0 -41396498.180505037 -21843243.823853493 0 -21843243.823853493 10728044.886520386 0 0 0 0 -5916805.0647141933 -34385599.27096653 0 -34385599.27096653 -14006846.401397705 0 0 0 0 -36910332.235645294 -45354294.279663086 0 -45354294.279663086 -12666790.575088501 0 0 0 0 14092614.24577713 -47493902.302360535 0 -47493902.302360535 -21090461.208145142 0 0 0 0 7323799.4951896667 -26810245.930038452 0 -26810245.930038452 -12684138.552856445 0 0 0 0 22959105.328798294 -3828484.3167419434 0 -3828484.3167419434 -30909616.26524353 0 0 0 0 21038589.061561584 -31770622.269638062 0 -31770622.269638062 -25084955.175598145 0 0 0 0 -8213188.9475800991 -21385135.363872528 0 -21385135.363872528 -25676584.809143066 0 0 0 0 -5398628.0438957214 -18625558.669799805 0 -18625558.669799805 -23864574.259078979 0 0 0 0 -14980931.962356567 17436831.138305664 0 17436831.138305664 -47541441.811523438 0 0 0 0 -17179130.644321442 -12319747.940063477 0 -12319747.940063477 -26999512.197799683 0 0 0 0 3108234.4950637817 60699.857025146484 0 60699.857025146484 -40022351.179412842 0 0 0 0 8828345.258523941 -5842549.7098388672 0 -5842549.7098388672 -36568470.951538086 0 0 0 0 9256985.4581680298 9526598.0625610352 0 9526598.0625610352 -54324237.964599609 0 0 0 0 -14875119.145423889 1800311.6371459961 0 1800311.6371459961 -35937692.800741196 0 0 0 0 -14563170.453899384 -18520515.517189026 0 -18520515.517189026 -26489242.346374512 0 0 0 0 -35888608.7150383 3905998.9617767334 0 3905998.9617767334 -31386269.05166626 0 0 0 0 -34493953.653358459 -12241350.554504395 0 -12241350.554504395 -19567004.607780457 0 0 0 0 -10519229.066224098 -8974061.884803772 0 -8974061.884803772 -26645969.358520508 0 0 0 0 -26224501.396406174 -20995316.669265747 0 -20995316.669265747 -17404940.827178955 0 0 0 0 -21993750.549145699 -24102932.795707703 0 -24102932.795707703 -17102158.629455566 0 0 0 0 -1832003.933081215 512221.62611286296 0 512221.62611286296 4220864.3463178501 0 0 0 0 -697155093.47624588 31160150.702835083 0 31160150.702835083 19719638.641479492 0 0 0 0 -2345485.054298549 -1128864.1222811285 0 -1128864.1222811285 6117314.001376316 0 0 0 0 -442045773.40286255 96359747.212852478 0 96359747.212852478 -78389764.172477722 0 0 0 0 211314412.33788872 -217267462.88344002 0 -217267462.88344002 115641159.90412903 0 0 0 0 -710410204.88814485 238313695.04644895 0 238313695.04644895 13190688.84715271 0 0 0 0 120929685.07522011 -234706139.03863907 0 -234706139.03863907 190456274.18870544 0 0 0 0 -1224728.5217870299 -1241660.6445602393 0 -1241660.6445602393 999539.30989411846 0 0 0 0 142123077.20305252 -239080409.83972931 0 -239080409.83972931 181210469.42634583 0 0 0 0 227483916.21718407 -198754736.76974869 0 -198754736.76974869 -31331858.227081299 0 0 0 0 -333899236.72958565 69102979.588253021 0 69102979.588253021 127764619.86532593 0 0 0 0 32631182.525402069 -202983761.75099182 0 -202983761.75099182 171838351.5945282 0 0 0 0 -477401.93954355409 -2667929.7219342324 0 -2667929.7219342324 5742535.3637247942 0 0 0 0 -395702831.92381859 -137873052.28939819 0 -137873052.28939819 111926954.152771 0 0 0 0 -68678969.268704414 -66668913.339790344 0 -66668913.339790344 -50488375.839645386 0 0 0 0 -58704113.596672058 -145948816.52005005 0 -145948816.52005005 98155053.596413612 0 0 0 0 -149392310.2668972 -19927987.452682495 0 -19927987.452682495 11263638.498958588 0 0 0 0 -546051.30746683828 -707418.02076394949 0 -707418.02076394949 510732.71528566256 0 0 0 0 -4858124.1025613546 -811534.89667892456 0 -811534.89667892456 7502620.7482757568 0 0 0 0 -3068843.1420941353 -1809734.6586685181 0 -1809734.6586685181 5971966.0402832031 0 0 0 0 -3597415.1426706314 -1570997.6842803955 0 -1570997.6842803955 4681798.4922485352 0 0 0 0 -3455981.4715943336 -795853.17208099365 0 -795853.17208099365 8893571.6247406006 0 0 0 0 -2542319.5514659882 -4266972.0269927979 0 -4266972.0269927979 12174060.40222168 0 0 0 0 -3471110.5108311176 -1943011.272480011 0 -1943011.272480011 6839132.7065734863 0 0 0 0 -2422428.9477500916 -573514.83768463135 0 -573514.83768463135 8821384.1327285767 0 0 0 0 -637040051.52785444 69455444.696003437 0 69455444.696003437 -284897148.17318726 0 0 0 0 -3078099.6541977804 -2061947.7045278559 0 -2061947.7045278559 9010671.4689381905 0 0 0 0 -609359765.70808983 178069891.2141633 0 178069891.2141633 54405611.167182922 0 0 0 0 -558763897.40778351 -63496495.313625336 0 -63496495.313625336 10889731.971822739 0 0 0 0 -2345828.6024333071 -2148718.8390350873 0 -2148718.8390350873 1959200.9310682267 0 0 0 0 -618980299.60363066 724057257.51247323 0 724057257.51247323 -329687028.77828979 0 0 0 0 -165211.9889755561 -326341.42430156469 0 -326341.42430156469 931485.15423980355 0 0 0 0 127498726.03316307 -116363475.17904282 0 -116363475.17904282 6569774.9321212769 0 0 0 0 -464807217.55861473 318651602.51388931 0 318651602.51388931 -100381013.35288239 0 0 0 0 -2278051.1557440758 133864.7748374939 0 133864.7748374939 2210846.2341079712 0 0 0 0 -294062.40929460526 493897.23070526123 0 493897.23070526123 262638.50385284424 0 0 0 0 -1388588.3277510435 -1341298.2235084083 0 -1341298.2235084083 6513868.0634763762 0 0 0 0 117870.94920969009 1980330.8510055542 0 1980330.8510055542 3399850.0252380371 0 0 0 0 -5927292.1761040688 -2039775.8144760132 0 -2039775.8144760132 -1973904.2244911194 0 0 0 0 -2588460.9056927678 -2132004.2897092677 0 -2132004.2897092677 7857218.1775540523 0 0 0 0 -2010135.4878045619 -2968152.0945200883 0 -2968152.0945200883 8831212.8981023896 0 0 0 0 -29411559.164094925 -20141793.812408447 0 -20141793.812408447 -7323237.0015869141 0 0 0 0 -3477448.2213804722 -2106134.5139541626 0 -2106134.5139541626 13291637.632316113 0 0 0 0 -4668743.0896533728 -3395632.5099105835 0 -3395632.5099105835 15374078.949859619 0 0 0 0 -3171519.8506252766 -881816.09299468994 0 -881816.09299468994 15922674.385665894 0 0 0 0 -4682214.7463995814 -3320557.2316627502 0 -3320557.2316627502 16844220.543045044 0 0 0 0 -746677.07437157631 -2334375.6198577881 0 -2334375.6198577881 12443009.200710297 0 0 0 0 4968.5871683485457 -446539.0969235329 0 -446539.0969235329 -324869.10441661999 0 0 0 0 140674.28216588497 2403977.2026510239 0 2403977.2026510239 8557508.3682250977 0 0 0 0 -3262038.7409665585 -17820477.776317596 0 -17820477.776317596 2891413.1391296387 0 0 0 0 13070698.830635071 10011040.415802002 0 10011040.415802002 2026353.6185622215 0 0 0 0 8005889.7282123566 -10941583.308120728 0 -10941583.308120728 13062595.058563232 0 0 0 0 -2269091.7464237213 -1578958.1687469482 0 -1578958.1687469482 15184348.756973267 0 0 0 0 1283440.5274400711 -3709076.9711761475 0 -3709076.9711761475 5609195.9635009766 0 0 0 0 194180.5188703537 -1707685.785030365 0 -1707685.785030365 200779.8599319458 0 0 0 0 -2654783.7040843964 -1588403.4514350891 0 -1588403.4514350891 5020832.7320709229 0 0 0 0 -12366462.480759621 270071.15540313721 0 270071.15540313721 5246819.3464813232 0 0 0 0 -1729988.1007668376 -6327166.1524124146 0 -6327166.1524124146 10469783.002853394 0 0 0 0 -1032357.4015044698 -4285303.3001427064 0 -4285303.3001427064 5851710.1356677413 0 0 0 0 -1144119.59608429 -2164624.165379623 0 -2164624.165379623 5945640.382568731 0 0 0 0 61972318.049655139 -45997214.024768829 0 -45997214.024768829 -69281085.738320351 0 0 0 0 -3652986.4910500646 89618887.569580078 0 89618887.569580078 46434566.860603333 0 0 0 0 -21832357.623493612 -34854884.807388306 0 -34854884.807388306 -100806554.70328712 0 0 0 0 -77464779.365471125 133419584.07559586 0 133419584.07559586 23041205.07019043 0 0 0 0 -2104796.5925583839 -2983094.1239242554 0 -2983094.1239242554 5488843.9231643677 0 0 0 0 -934871.83278861851 -1828563.7774894442 0 -1828563.7774894442 4991047.646648014 0 0 0 0 -1149421.2978029251 -4184444.7106781006 0 -4184444.7106781006 6848480.8359527588 0 0 0 0 -751056145.69128847 291656526.55734253 0 291656526.55734253 74313212.606430054 0 0 0 0 -2702074.1780442563 -351379.60801724903 0 -351379.60801724903 9377305.6668646969 0 0 0 0 -2434111.4329919815 -2445402.9822387695 0 -2445402.9822387695 6150455.8889713287 0 0 0 0 499984799.58899957 -488675279.40268135 0 -488675279.40268135 -51116362.884780884 0 0 0 0 -255063014.90525296 319453353.24910164 0 319453353.24910164 701442941.93025208 0 0 0 0 65309229.102669001 -242688491.55401611 0 -242688491.55401611 186901080.35803223 0 0 0 0 -2167134.1313456027 -4244846.6295687789 0 -4244846.6295687789 8039810.9216743484 0 0 0 0 -370938574.63672882 108529712.12307358 0 108529712.12307358 133294373.45996094 0 0 0 0 -258789438.06438661 58227748.623168945 0 58227748.623168945 77491330.76745224 0 0 0 0 -194903.65410017589 -450891.60739949765 0 -450891.60739949765 1067852.2977318056 0 0 0 0 -433824028.19008279 270282516.66044521 0 270282516.66044521 78626966.258529663 0 0 0 0 -246855512.27408659 210955913.57533646 0 210955913.57533646 58602613.292732239 0 0 0 0 -70853827.204744995 45385339.431659698 0 45385339.431659698 30254536.208130836 0 0 0 0 -160580918.61975849 210610537.91682434 0 210610537.91682434 -169007772.5144043 0 0 0 0 66484011.241214395 -6283701.3483047485 0 -6283701.3483047485 82563082.768310547 0 0 0 0 -76476763.979071558 65770214.420978934 0 65770214.420978934 107255872.9118042 0 0 0 0 -79757672.986938775 101502615.68694687 0 101502615.68694687 254244975.63388824 0 0 0 0 -75657204.656350911 -165978460.30665588 0 -165978460.30665588 700667454.56826782 0 0 0 0 9991838.8837964833 -143556900.00479126 0 -143556900.00479126 239599464.33604431 0 0 0 0 -385434782.80059516 -66204400.177753448 0 -66204400.177753448 400751352.42961884 0 0 0 0 -175218995.77020058 -195715245.22179413 0 -195715245.22179413 46287969.734571457 0 0 0 0 -170608407.14798498 -79176111.034807205 0 -79176111.034807205 494285901.84749603 0 0 0 0 99116159.435754523 -485777985.02751541 0 -485777985.02751541 502073368.67686063 0 0 0 0 26345143.690944642 -109100542.09549332 0 -109100542.09549332 134501918.39533997 0 0 0 0 -189572827.94093519 -407264160.1244297 0 -407264160.1244297 1376258854.4186859 0 0 0 0 -126645193.02336377 -215455731.60949326 0 -215455731.60949326 676970410.97432327 0 0 0 0 -433711304.92015535 -475395158.39564323 0 -475395158.39564323 2205276717.4008241 0 0 0 0 -230812622.17842439 -692052041.4961071 0 -692052041.4961071 1322390872.5316048 0 0 0 0 -128225810.2351523 -996484637.07296753 0 -996484637.07296753 2201400637.1314507 0 0 0 0 -322124360.4080261 -47936573.173733711 0 -47936573.173733711 2204819145.6215973 0 0 0 0 -370698479.96464634 -279788354.88448334 0 -279788354.88448334 1509864988.4835281 0 0 0 0 -205851803.90582192 -173639952.43751907 0 -173639952.43751907 1549111861.5715942 0 0 0 0 146933685.36614007 117694783.57759094 0 117694783.57759094 209751720.4260025 0 0 0 0 81824431.31367147 285575896.67393494 0 285575896.67393494 749644385.19394684 0 0 0 0 77178368.914749667 -78881263.704879165 0 -78881263.704879165 292408189.37189484 0 0 0 0 64545981.627437592 102475254.94947815 0 102475254.94947815 338947134.11285782 0 0 0 0 69089988.818954289 86917361.245347977 0 86917361.245347977 72796016.066055298 0 0 0 0 -81224391.170854986 51342838.722655296 0 51342838.722655296 -38916373.784061432 0 0 0 0 -69559222.969069704 -81241521.351536751 0 -81241521.351536751 254061897.37021255 0 0 0 0 698937.70955453068 -3489848.9637261387 0 -3489848.9637261387 2620746.4551986419 0 0 0 0 52126824.711803019 178921844.99623489 0 178921844.99623489 61744778.107055664 0 0 0 0 196968.42394156902 -1101963.1025347901 0 -1101963.1025347901 1403923.9766907394 0 0 0 0 327278425.74114883 -526380725.39393902 0 -526380725.39393902 375832543.97444916 0 0 0 0 117571978.53244388 681639417.96429253 0 681639417.96429253 1761128492.3400154 0 0 0 0 573569646.25485194 -19104038.045166016 0 -19104038.045166016 2204618117.030098 0 0 0 0 97232701.368221477 -391258136.51108932 0 -391258136.51108932 2159783634.1338654 0 0 0 0 -195345282.50554776 11540732.133025646 0 11540732.133025646 2204643433.9979362 0 0 0 0 -51109771.327927694 420855709.34806061 0 420855709.34806061 2138728870.8370285 0 0 0 0 -32952835.667757057 -325997883.66071129 0 -325997883.66071129 955595739.47291946 0 0 0 0 -105118859.78507051 -328016989.9927597 0 -328016989.9927597 2302974687.7154427 0 0 0 0 -427982535.30950999 141812224.36239815 0 141812224.36239815 2137171834.0220184 0 0 0 0 -92168446.048652247 -195440275.27087611 0 -195440275.27087611 612707186.79213715 0 0 0 0 -97211867.576840818 10517867.552188873 0 10517867.552188873 625104761.54870796 0 0 0 0 252653894.08918846 -130422223.06406212 0 -130422223.06406212 -144980062.00873947 0 0 0 0 -4003767.6801057309 -5170967.6990413666 0 -5170967.6990413666 16471226.68901825 0 0 0 0 21698.958663058467 -20271.544750848785 0 -20271.544750848785 -24137.933987902477 0 0 0 0 -12051266.435794391 9161524.3836458921 0 9161524.3836458921 7731425.9121246338 0 0 0 0 -11584043.992099166 -4510863.7535095215 0 -4510863.7535095215 11973871.454727173 0 0 0 0 27466.939168334007 -4045759.763343811 0 -4045759.763343811 9902488.1584014893 0 0 0 0 -4048912.8326958716 -4422172.0102863312 0 -4422172.0102863312 11827850.907714844 0 0 0 0 -238640.07827895012 -3369665.1558844857 0 -3369665.1558844857 4398458.5326218624 0 0 0 0 -1464302.1079942731 -3515788.8968602903 0 -3515788.8968602903 6053342.2341414336 0 0 0 0 195325.3913435936 -4719285.5187835693 0 -4719285.5187835693 11324068.344841003 0 0 0 0 30594.18499815464 -4222872.7339172363 0 -4222872.7339172363 10372761.231803894 0 0 0 0 -485729.28772583604 -2466711.1615180969 0 -2466711.1615180969 15266350.909835815 0 0 0 0 954109.60130828619 -5738973.5404443741 0 -5738973.5404443741 14087976.485443115 0 0 0 0 3894718.5141849518 -3289331.7016525269 0 -3289331.7016525269 14746523.282958984 0 0 0 0 2205109.1728656888 -3146961.495677948 0 -3146961.495677948 15047678.861663818 0 0 0 0 1626555.0632824898 -3764816.5742835999 0 -3764816.5742835999 10503740.799591064 0 0 0 0 1713338.0856003761 -6262354.7531547546 0 -6262354.7531547546 9512674.9077949524 0 0 0 0 2195330.4112913609 -5833250.5825271606 0 -5833250.5825271606 16239758.922271729 0 0 0 0 148529.933781147 -1173275.3430328369 0 -1173275.3430328369 19719054.805763245 0 0 0 0 1414048.5532639325 -3762422.6838626862 0 -3762422.6838626862 20858718.134140015 0 0 0 0 4653733.4575419426 -575597.77521896362 0 -575597.77521896362 21676056.493225098 0 0 0 0 1229775.2659566402 -4149320.4133911133 0 -4149320.4133911133 29588071.497879028 0 0 0 0 889975.26438522339 1375601.9729614258 0 1375601.9729614258 35061312.350967407 0 0 0 0 327666.08719444275 3179920.284576416 0 3179920.284576416 42127463.888687134 0 0 0 0 -2650340.5386467576 -3164683.3107376099 0 -3164683.3107376099 23434906.066162109 0 0 0 0 2069820.4736273289 -4468638.2485237122 0 -4468638.2485237122 25238807.921966553 0 0 0 0 7707879.0592012405 3878505.4795455933 0 3878505.4795455933 27569825.491760254 0 0 0 0 1157124.2945008278 -4937546.4645233154 0 -4937546.4645233154 23749932.233108521 0 0 0 0 -1500190.1984391212 1424946.0590057373 0 1424946.0590057373 19670766.868774414 0 0 0 0 587195.41810202599 -2970171.2008743286 0 -2970171.2008743286 22228658.815002441 0 0 0 0 1164308.5491122007 -3076877.5377578735 0 -3076877.5377578735 20881158.181472778 0 0 0 0 2473252.8181438446 -5566404.3920593262 0 -5566404.3920593262 22195423.017272949 0 0 0 0 841898.78253984451 -3046118.9883422852 0 -3046118.9883422852 29572653.242919922 0 0 0 0 2129804.7991175652 -2580466.5169677734 0 -2580466.5169677734 25699034.541809082 0 0 0 0 232948.08154964447 -5862867.9621124268 0 -5862867.9621124268 34390296.307281494 0 0 0 0 1331876.998134613 -6307743.0343475342 0 -6307743.0343475342 27120047.791503906 0 0 0 0 2072980.9753756523 -5729600.3445587158 0 -5729600.3445587158 25476319.034393311 0 0 0 0 1109391.8097121716 -6540195.8784332275 0 -6540195.8784332275 24885662.011871338 0 0 0 0 548338.93672227859 -7116320.8937988281 0 -7116320.8937988281 30661113.746498108 0 0 0 0 -1716207.028059721 -3055156.7590141296 0 -3055156.7590141296 16135906.325920105 0 0 0 0 -799578.14892721176 -4779138.8410491943 0 -4779138.8410491943 25705496.041366577 0 0 0 0 103276.72871106863 -3818636.678943634 0 -3818636.678943634 21032388.450012207 0 0 0 0 -3186293.9224803448 -2613538.4193267822 0 -2613538.4193267822 21561265.250919342 0 0 0 0 -590841.27477622032 -5740666.6185073853 0 -5740666.6185073853 19304424.574958801 0 0 0 0 -3148096.1871917248 -5092113.3449249268 0 -5092113.3449249268 24908835.621109009 0 0 0 0 -6553840.5495172739 -4008289.2814788818 0 -4008289.2814788818 21826829.954559326 0 0 0 0 -4665519.5493819863 -640238.26522350311 0 -640238.26522350311 11864275.186279297 0 0 0 0 -3264858.7563364506 -2409787.0169372559 0 -2409787.0169372559 22603729.293169022 0 0 0 0 -4116278.8103587925 3453026.3903312683 0 3453026.3903312683 7367193.0515670776 0 0 0 0 -11494392.467346072 -992504.379322052 0 -992504.379322052 16576074.195175171 0 0 0 0 -10794.467950344086 -3057534.8392181396 0 -3057534.8392181396 11659441.206302643 0 0 0 0 30410.004865055176 -34401.763174790889 0 -34401.763174790889 -35409.000873014331 0 0 0 0 -796150.48524597287 -10802703.688117981 0 -10802703.688117981 24268849.725307465 0 0 0 0 -4036772.3431626558 -4006687.0973548889 0 -4006687.0973548889 21300479.409349561 0 0 0 0 -3638832.0191385746 -3065148.2410583496 0 -3065148.2410583496 23261274.522590637 0 0 0 0 18867.986617377857 -19608.648235516623 0 -19608.648235516623 -20188.993657363579 0 0 0 0 -10789422.428960413 5072753.8028755188 0 5072753.8028755188 14270049.254890442 0 0 0 0 -8628023.1709506065 -9559818.8632469177 0 -9559818.8632469177 21657740.073074341 0 0 0 0 117986.9979531765 -12590681.875770569 0 -12590681.875770569 19408306.309837341 0 0 0 0 -3063752.2455975115 -5765326.0074806213 0 -5765326.0074806213 17813963.844112396 0 0 0 0 870105.8582495153 -8042912.6166763306 0 -8042912.6166763306 15956104.629066467 0 0 0 0 -2097855.4943210427 -9577742.2695470303 0 -9577742.2695470303 15185711.008659363 0 0 0 0 -2100795.7120842934 -8494889.0532150269 0 -8494889.0532150269 13848421.797454834 0 0 0 0 2128501.8468378186 -9258168.4080085754 0 -9258168.4080085754 8105585.9370956421 0 0 0 0 -180202.32468560338 -8424080.6680450439 0 -8424080.6680450439 8016150.5015106201 0 0 0 0 76646.323424726725 -6284907.0586090088 0 -6284907.0586090088 2427736.5749816895 0 0 0 0 -199642.21646291018 -4935663.962852478 0 -4935663.962852478 11476667.246837616 0 0 0 0 -1328586.4841253161 -9528205.4990768433 0 -9528205.4990768433 7462041.9652099609 0 0 0 0 2449282.4049237967 -7288314.9644393921 0 -7288314.9644393921 1374202.755027771 0 0 0 0 -3938912.8943759203 -3711708.1641693115 0 -3711708.1641693115 8181306.2556991577 0 0 0 0 -1601883.0938631296 -9652264.413646698 0 -9652264.413646698 12446309.91230011 0 0 0 0 2244775.4132353663 -6936221.8327560425 0 -6936221.8327560425 5352430.8771648407 0 0 0 0 1835361.0688806176 -5673378.0980529785 0 -5673378.0980529785 5693521.7809944153 0 0 0 0 4189336.9411101341 -19992678.22649765 0 -19992678.22649765 24442626.403095245 0 0 0 0 7291375.5761199594 -6705791.1657066345 0 -6705791.1657066345 13394391.595794678 0 0 0 0 4086123.5421821177 -9976885.8897171021 0 -9976885.8897171021 1808937.1044960022 0 0 0 0 192167.82610105426 -3623816.2762123048 0 -3623816.2762123048 3964527.2666389458 0 0 0 0 60101230.316499233 -21660273.766284943 0 -21660273.766284943 -28830759.565980911 0 0 0 0 152751153.17721015 5386101.0765266418 0 5386101.0765266418 -52729924.633277893 0 0 0 0 -114750.39004684908 -3691290.8434116412 0 -3691290.8434116412 4337534.6466041105 0 0 0 0 1072665.7874151468 -1643764.7076263428 0 -1643764.7076263428 -6631976.3014831543 0 0 0 0 -184863739.98670477 5455551.9363498688 0 5455551.9363498688 612242660.57375336 0 0 0 0 -91285002.508642733 166254746.9797287 0 166254746.9797287 608560027.40576673 0 0 0 0 -271516808.59642065 240386152.92697144 0 240386152.92697144 1291055431.1073685 0 0 0 0 -392332576.53753495 232394328.62581253 0 232394328.62581253 1307481117.5417156 0 0 0 0 -146549403.83201745 577426561.43171883 0 577426561.43171883 1069935754.6267509 0 0 0 0 -136924581.30939001 263250708.65159798 0 263250708.65159798 968779570.67082977 0 0 0 0 -429871491.05055434 474360715.18833351 0 474360715.18833351 2205456094.927475 0 0 0 0 1433803935.0972548 712672887.00306892 0 712672887.00306892 94515151.173744202 0 0 0 0 480269.6504552284 -556763.56735982932 0 -556763.56735982932 2733330.0253835656 0 0 0 0 -92108276.137374982 686503121.74051285 0 686503121.74051285 1275256388.4476013 0 0 0 0 398378363.92478245 1537298535.2829704 0 1537298535.2829704 2200888336.7918434 0 0 0 0 133630196.13738823 -42318207.998130798 0 -42318207.998130798 54190579.001731873 0 0 0 0 66004549.1407938 197047927.44834518 0 197047927.44834518 303642747.35881805 0 0 0 0 943099993.03510976 560151897.31695175 0 560151897.31695175 249023912.3405304 0 0 0 0 -568890.34865464887 -3054698.062767908 0 -3054698.062767908 4245686.0913335904 0 0 0 0 56778855.642609417 -9525747.1227340698 0 -9525747.1227340698 30712188.063297272 0 0 0 0 -1736548.449300766 -4695840.7514801025 0 -4695840.7514801025 13737528.057312012 0 0 0 0 167987640.25701469 307586374.10114861 0 307586374.10114861 329939209.86724091 0 0 0 0 4328248.4909707308 -8085013.5354919434 0 -8085013.5354919434 -10368009.723438263 0 0 0 0 -2518197.5932758227 -8682961.0920577049 0 -8682961.0920577049 1001058.8864593506 0 0 0 0 392402.10577806621 9074.590959303081 0 9074.590959303081 -842778.61883180588 0 0 0 0 1989156.6680966616 -9497427.7132263184 0 -9497427.7132263184 -11240567.502796173 0 0 0 0 -67554.694806530897 -116228.0256304238 0 -116228.0256304238 633139.61368115433 0 0 0 0 -2291255.2671149969 -10759201.961387634 0 -10759201.961387634 -2325785.9201965332 0 0 0 0 -1864852.9932972454 -3267659.6376237869 0 -3267659.6376237869 -4525990.43359375 0 0 0 0 -2456816.6400575042 -7394546.1552886963 0 -7394546.1552886963 2468508.7643380165 0 0 0 0 1962209.8503103256 -6913614.2630691528 0 -6913614.2630691528 -3656164.0402832031 0 0 0 0 675769.63288217783 -5696026.1311836243 0 -5696026.1311836243 294429.18545532227 0 0 0 0 2274764.3868304491 -6735964.2797317505 0 -6735964.2797317505 970460.96643829346 0 0 0 0 3778766.0886265039 -4264371.0295639038 0 -4264371.0295639038 -137576.83809661865 0 0 0 0 1554147.0357096195 -4843566.464012146 0 -4843566.464012146 294923.9506072998 0 0 0 0 1669744.0643365979 -4729079.3442268372 0 -4729079.3442268372 -237870.44715881348 0 0 0 0 505899.13451641798 -6857143.8551559448 0 -6857143.8551559448 -163792.72747039795 0 0 0 0 -981701.87893386185 -7470992.4404335022 0 -7470992.4404335022 3797589.0252990723 0 0 0 0 2872172.6250039637 -2877800.7773361206 0 -2877800.7773361206 -1048739.3458557129 0 0 0 0 4577120.7982453555 -3678631.3092498779 0 -3678631.3092498779 -715083.7219543457 0 0 0 0 -181751.63024409203 -1404677.5948822908 0 -1404677.5948822908 2012692.0739696063 0 0 0 0 753742.02930498123 -2983481.2547340393 0 -2983481.2547340393 -723651.92666244507 0 0 0 0 477619.89701224538 -3908123.3960151672 0 -3908123.3960151672 5384465.8851394653 0 0 0 0 567054.41611048626 273610.11235427856 0 273610.11235427856 8198706.3735427856 0 0 0 0 -530553.81447340315 -1190133.3822153676 0 -1190133.3822153676 1649217.9939003699 0 0 0 0 -1112931.126876683 -2332644.760947343 0 -2332644.760947343 4653925.3025159333 0 0 0 0 922085.52119994164 -4276463.7639694214 0 -4276463.7639694214 -2039033.388014853 0 0 0 0 -12432118.754689693 -160219681.13561153 0 -160219681.13561153 -4115457.9037246704 0 0 0 0 720234.36717936397 -4267276.5778770447 0 -4267276.5778770447 -1371543.3296203613 0 0 0 0 549366.38855871558 -3305554.1006317139 0 -3305554.1006317139 -2045776.0117492676 0 0 0 0 -1471623.3084737659 -1615080.2277960777 0 -1615080.2277960777 2882337.384979248 0 0 0 0 499261.04270339012 -3690899.7964477539 0 -3690899.7964477539 208674.49399375916 0 0 0 0 -164456429.6703558 121296318.34041595 0 121296318.34041595 149597898.16485214 0 0 0 0 34912578.963153914 267018700.73811722 0 267018700.73811722 401182968.75396729 0 0 0 0 -59455.776910955494 -104501.07649596967 0 -104501.07649596967 5460029.4442790598 0 0 0 0 -15843956.830110032 15081680.263669968 0 15081680.263669968 -17457302.802047729 0 0 0 0 -768758.01145994663 -591229.63195419312 0 -591229.63195419312 1514994.2124519348 0 0 0 0 -1187621.8756117066 -1066442.8281996734 0 -1066442.8281996734 5330394.6114384066 0 0 0 0 -7883866.905708909 -1120100.5421447754 0 -1120100.5421447754 4381207.655090332 0 0 0 0 -42843773.730432987 -16543669.148162842 0 -16543669.148162842 -499979801.12258911 0 0 0 0 -70080.049030352777 -10219.447054630145 0 -10219.447054630145 76095.361699774861 0 0 0 0 -184164.48125453683 -334733.1269964613 0 -334733.1269964613 1865322.2882234454 0 0 0 0 -16200014.323956817 -235200513.86668396 0 -235200513.86668396 -109918201.22975159 0 0 0 0 338544602.89156002 317839506.69851685 0 317839506.69851685 259981242.4103775 0 0 0 0 156970452.25797874 -127142263.66112518 0 -127142263.66112518 -130798718.75554085 0 0 0 0 -147523632.40254736 -94383499.110202789 0 -94383499.110202789 -6600176.7582092285 0 0 0 0 196838664.70157224 305075031.78087616 0 305075031.78087616 345687149.14051056 0 0 0 0 -239582.85485858301 -894348.88647622149 0 -894348.88647622149 1517468.6528237872 0 0 0 0 -320118557.96998298 200971844.34293747 0 200971844.34293747 2197453154.0835266 0 0 0 0 207307680.47933346 -758848812.96382141 0 -758848812.96382141 1029959432.7693024 0 0 0 0 90983939.143508643 443437278.58387375 0 443437278.58387375 514154645.55525208 0 0 0 0 178469488.18092775 -689663441.91680908 0 -689663441.91680908 2201068057.5789857 0 0 0 0 245057.92247118172 12832710.018087387 0 12832710.018087387 195275825.17427063 0 0 0 0 -23138997.237849321 -449194481.46807098 0 -449194481.46807098 2055808879.2065468 0 0 0 0 -70307578.503834382 -77438188.333015442 0 -77438188.333015442 -57132575.762321472 0 0 0 0 75417.652709322327 -198278.74818898551 0 -198278.74818898551 502380.77659992874 0 0 0 0 354910685.95073581 -600055275.15051651 0 -600055275.15051651 1011413953.8944168 0 0 0 0 -336222222.83443797 334452143.9406662 0 334452143.9406662 2366334657.5336838 0 0 0 0 -32997.394749646424 -402658.66357214749 0 -402658.66357214749 1268079.2404559031 0 0 0 0 -503898.69135963713 -979397.76197290514 0 -979397.76197290514 2301628.0142892338 0 0 0 0 -58706055.536403283 -40637420.210475922 0 -40637420.210475922 46195296.841766357 0 0 0 0 -48156152.927791476 14197478.129768372 0 14197478.129768372 22261547.329547882 0 0 0 0 -48116302.711354434 -49196093.82484436 0 -49196093.82484436 -26894449.277008057 0 0 0 0 -59460557.592770398 25642289.907012939 0 25642289.907012939 70918337.185947418 0 0 0 0 29748775.189868804 -7468926.8802390099 0 -7468926.8802390099 -30032762.36239624 0 0 0 0 26362122.092546429 46812689.33608222 0 46812689.33608222 -25226907.72895813 0 0 0 0 152914.18083307336 -839636.64498181641 0 -839636.64498181641 2149725.8117185645 0 0 0 0 -121012.49404164759 -487566.17454425059 0 -487566.17454425059 328236.66508060321 0 0 0 0 8281548.5471310038 -14533494.542573929 0 -14533494.542573929 -13548251.965744019 0 0 0 0 1670564.4341417137 27904.589424133301 0 27904.589424133301 3296529.3374938965 0 0 0 0 -165416.88195587671 1688939.5430145264 0 1688939.5430145264 12072389.633602142 0 0 0 0 246228.72248867291 -781229.30120438896 0 -781229.30120438896 1882037.6843667701 0 0 0 0 -8167352.1711619012 -17722205.236053467 0 -17722205.236053467 -10165674.494352341 0 0 0 0 -17129.793872765913 -865268.86439623963 0 -865268.86439623963 14847650.358154297 0 0 0 0 -3525434.475241798 4814125.2382125854 0 4814125.2382125854 -1378296.8446331024 0 0 0 0 -2992515.8387601757 -10842369.197780609 0 -10842369.197780609 9945318.5637130737 0 0 0 0 8889864.7589897886 -11162341.249473572 0 -11162341.249473572 -3396996.2562255859 0 0 0 0 1443962.2883705869 586038.1424369812 0 586038.1424369812 -1913554.4251861572 0 0 0 0 7559829.8599106334 13938393.70173645 0 13938393.70173645 29829703.880889893 0 0 0 0 -28690.777094546997 -299048.76229368709 0 -299048.76229368709 360524.05833293498 0 0 0 0 8147994.3144592196 -2022717.3954315186 0 -2022717.3954315186 -5782918.4602279663 0 0 0 0 3060380.1548956931 -4240161.5918731689 0 -4240161.5918731689 653711.34353637695 0 0 0 0 6190120.6667325795 -5099968.6160888672 0 -5099968.6160888672 224937.78122138977 0 0 0 0 4722176.9426911548 -6107269.7220821381 0 -6107269.7220821381 3961478.6363220215 0 0 0 0 2319210.8717167079 -5280762.9312591553 0 -5280762.9312591553 1691369.8375091553 0 0 0 0 3309320.4113801271 -7842862.9213027954 0 -7842862.9213027954 6049948.3416061401 0 0 0 0 1327557.4214495867 -9751694.7916984558 0 -9751694.7916984558 12284859.779556274 0 0 0 0 4138676.3270213604 -8222977.7942123413 0 -8222977.7942123413 5874980.1227264404 0 0 0 0 6518633.9189514816 -12382772.979541779 0 -12382772.979541779 11502638.058898926 0 0 0 0 3523456.3146046698 -10339266.205551147 0 -10339266.205551147 12248596.15079689 0 0 0 0 5722497.0762946904 -6119266.3799705505 0 -6119266.3799705505 8783813.6557159424 0 0 0 0 10685428.179418206 -7586471.4117889404 0 -7586471.4117889404 3163435.9278926849 0 0 0 0 14606366.486323498 -10918255.022857666 0 -10918255.022857666 10513600.501781464 0 0 0 0 6509331.5263920873 -8845595.088092804 0 -8845595.088092804 23367326.869674683 0 0 0 0 13955829.959251732 -14190169.648506165 0 -14190169.648506165 16239109.870223999 0 0 0 0 -1709910.7163274288 -17456446.869678497 0 -17456446.869678497 30070600.397956848 0 0 0 0 2637191.7276471853 -9835650.9012527466 0 -9835650.9012527466 14608277.284191132 0 0 0 0 2428620.2698424608 -25284742.361652374 0 -25284742.361652374 55959178.224078178 0 0 0 0 -16193533.296416964 -3849018.0203142166 0 -3849018.0203142166 32403672.623703003 0 0 0 0 35136140.589771554 -11523612.513109207 0 -11523612.513109207 21752801.212409973 0 0 0 0 14560585.111807808 11913844.977649689 0 11913844.977649689 54085324.17698288 0 0 0 0 -188828.99191025086 3518544.1205787659 0 3518544.1205787659 36193235.015113831 0 0 0 0 14872.936799204736 -6217347.4244356407 0 -6217347.4244356407 18432821.376235962 0 0 0 0 4133483.5978604257 -1167689.8811988831 0 -1167689.8811988831 21533643.712394714 0 0 0 0 3828003.9134009602 -5734946.3526248932 0 -5734946.3526248932 25463178.935775757 0 0 0 0 -27610880.476725042 -96079123.841179907 0 -96079123.841179907 -134128945.6637125 0 0 0 0 4881409.2618770469 -9866277.20146323 0 -9866277.20146323 12957887.649979217 0 0 0 0 -82652040.54458952 -133024536.04634595 0 -133024536.04634595 -91335340.624732018 0 0 0 0 35793795.626929283 347267967.07096672 0 347267967.07096672 264164913.95013642 0 0 0 0 -91376958.547716141 -46876840.579661965 0 -46876840.579661965 -29399234.812158823 0 0 0 0 -592069816.46469402 -44974266.827192783 0 -44974266.827192783 100384617.12185013 0 0 0 0 -131356894.30790138 -154609021.16442969 0 -154609021.16442969 -209200567.95019913 0 0 0 0 -193620449.98776627 -153725635.2226963 0 -153725635.2226963 -43000298.465063095 0 0 0 0 -137526960.23251343 -33129023.977787018 0 -33129023.977787018 19925774.139509201 0 0 0 0 1381960.0500533073 -2305422.5849399781 0 -2305422.5849399781 -1227051.2630340401 0 0 0 0 -226131997.29780769 -105908950.49405861 0 -105908950.49405861 82895227.819766045 0 0 0 0 -141198498.36805344 -25312952.529087067 0 -25312952.529087067 22356231.542819977 0 0 0 0 -150926293.84280777 -8691353.2430534363 0 -8691353.2430534363 173999720.14396667 0 0 0 0 -101365216.78514147 -32411582.656418562 0 -32411582.656418562 269653494.91455078 0 0 0 0 -104618485.47530174 -57787695.674186707 0 -57787695.674186707 79168814.54189682 0 0 0 0 -39208316.796443939 -191082050.02598953 0 -191082050.02598953 -138979115.36368847 0 0 0 0 -68265695.663883209 -80172320.602841854 0 -80172320.602841854 -90802713.440662384 0 0 0 0 -79594253.514157295 -79473511.931484222 0 -79473511.931484222 86898174.99659729 0 0 0 0 -57392034.452979088 -200810236.44554424 0 -200810236.44554424 21947786.646636963 0 0 0 0 -199006213.18271828 -47414253.983938217 0 -47414253.983938217 94405180.899230957 0 0 0 0 -67881093.951639295 -46554861.146711916 0 -46554861.146711916 453091072.30804968 0 0 0 0 5272732.7035038872 -7372200.8046879265 0 -7372200.8046879265 8367443.0706601571 0 0 0 0 -23285475.978397548 214504979.19817057 0 214504979.19817057 371602835.31941795 0 0 0 0 -214924311.95718956 -282122791.81527519 0 -282122791.81527519 -58697896.240112305 0 0 0 0 182549384.81947958 426625730.20650816 0 426625730.20650816 681774935.02586365 0 0 0 0 176600065.71730852 7606587.9558591843 0 7606587.9558591843 403177539.47858882 0 0 0 0 257681859.98429871 352724643.57927871 0 352724643.57927871 591720859.22406769 0 0 0 0 94245445.860453606 595441604.15552902 0 595441604.15552902 773365403.62582111 0 0 0 0 -50643405.307056427 402603450.20439696 0 402603450.20439696 919744953.19150209 0 0 0 0 45489102.931302071 777220721.79874516 0 777220721.79874516 763267414.05280781 0 0 0 0 -1483243.767612288 -136243.75278057088 0 -136243.75278057088 902602.2827711748 0 0 0 0 -34738748.60320282 106622697.683393 0 106622697.683393 499393240.86199927 0 0 0 0 -99476123.373150826 177555970.49065971 0 177555970.49065971 889923180.11464643 0 0 0 0 -199155391.96889114 154774723.5127393 0 154774723.5127393 422379592.1817627 0 0 0 0 -95187099.78460598 305054229.76718664 0 305054229.76718664 724965858.97442818 0 0 0 0 63084787.630365372 195053129.65402365 0 195053129.65402365 400080389.44521999 0 0 0 0 243761127.51594448 209204372.64044762 0 209204372.64044762 355388068.73839855 0 0 0 0 174961161.20308113 290290907.73535758 0 290290907.73535758 1296475341.4321122 0 0 0 0 87349717.577374458 66987545.31738019 0 66987545.31738019 703697476.58262205 0 0 0 0 243094565.47299194 394904439.56478214 0 394904439.56478214 1435493695.8536472 0 0 0 0 189206124.06387043 775489683.51482487 0 775489683.51482487 175600567.62930298 0 0 0 0 91574266.975002289 1070925613.251709 0 1070925613.251709 522679189.53579712 0 0 0 0 -93109988.146873474 756005108.60339737 0 756005108.60339737 437851572.05226517 0 0 0 0 121011305.87960643 807559740.27270031 0 807559740.27270031 109640956.1587677 0 0 0 0 23652855.265356064 531296118.60778427 0 531296118.60778427 -41510442.818593025 0 0 0 0 -443634434.68459797 377681765.94589281 0 377681765.94589281 -126041476.05854225 0 0 0 0 -207048855.87707901 -131164701.05830872 0 -131164701.05830872 1984539992.4613106 0 0 0 0 724351.32400355581 45316.078978127334 0 45316.078978127334 428664.58098511683 0 0 0 0 40511763.888782501 125199324.20331508 0 125199324.20331508 918400117.08577871 0 0 0 0 114358034.55281305 105717860.90953618 0 105717860.90953618 694526186.51831901 0 0 0 0 55367243.76710844 -27849174.236816466 0 -27849174.236816466 619130964.97514057 0 0 0 0 -787428.64623882039 -60155.099008488149 0 -60155.099008488149 493108.98062610545 0 0 0 0 53169922.283972263 419187363.857063 0 419187363.857063 630578630.59671593 0 0 0 0 30325345.779191971 -49243388.086339086 0 -49243388.086339086 852741194.05261052 0 0 0 0 16682018.850334883 -7987872.1001376659 0 -7987872.1001376659 810281742.83462095 0 0 0 0 33918872.232800484 -50240853.50950253 0 -50240853.50950253 746740431.73553872 0 0 0 0 -45119858.563984871 -27390581.449768692 0 -27390581.449768692 1082548263.7309678 0 0 0 0 2026534.66137802 1306961.1225332948 0 1306961.1225332948 1673990.3329490153 0 0 0 0 18434021.56896925 59556969.168689668 0 59556969.168689668 664132275.30947948 0 0 0 0 47315541.621541023 -8176064.434855938 0 -8176064.434855938 712875583.10088325 0 0 0 0 8504849.1893620491 57798456.48090139 0 57798456.48090139 796127481.59380984 0 0 0 0 40941096.719636679 -11947181.946822092 0 -11947181.946822092 721168155.4968214 0 0 0 0 50951528.741286755 -23552517.956225805 0 -23552517.956225805 634621312.99927568 0 0 0 0 70415775.224082947 -4590306.0801891237 0 -4590306.0801891237 396080636.54807717 0 0 0 0 84305576.379532337 80813099.081027418 0 80813099.081027418 428832553.64254117 0 0 0 0 -110941817.82249737 -124604449.50793707 0 -124604449.50793707 372519545.09985608 0 0 0 0 85410989.598350286 327636003.70258898 0 327636003.70258898 279965232.88923442 0 0 0 0 201840047.74178362 214374090.25189874 0 214374090.25189874 379972914.84492719 0 0 0 0 149705202.29285288 17780693.519927323 0 17780693.519927323 440508044.9173103 0 0 0 0 -191968930.7092011 -184341187.85487491 0 -184341187.85487491 466212269.4363308 0 0 0 0 -193827878.66308975 -402671308.63565731 0 -402671308.63565731 189694753.6128149 0 0 0 0 367739198.58872676 165411941.99392653 0 165411941.99392653 -53128881.166775703 0 0 0 0 991079.70805271086 -247328.7055697093 0 -247328.7055697093 353865.7991306191 0 0 0 0 217571916.56631058 38532651.934394121 0 38532651.934394121 -43361461.43994236 0 0 0 0 75062468.974083424 -114941009.83590078 0 -114941009.83590078 -93231975.494644701 0 0 0 0 -99845782.500388145 -97124156.763556719 0 -97124156.763556719 -4592425.6984848976 0 0 0 0 17769873.319301486 136408990.61881828 0 136408990.61881828 135149331.26173198 0 0 0 0 3079051.6070179604 -629451.90413977241 0 -629451.90413977241 951133.09132074309 0 0 0 0 -188559455.0206027 -170481903.47881922 0 -170481903.47881922 84253273.941668943 0 0 0 0 36838064.417599201 -24186598.009843864 0 -24186598.009843864 -77864986.149178177 0 0 0 0 5789968.4309174158 -659971.40380007529 0 -659971.40380007529 1194631.8016817474 0 0 0 0 -49603200.564753532 -256094318.20337898 0 -256094318.20337898 -65315465.032958686 0 0 0 0 49805261.980196103 -23202677.85789673 0 -23202677.85789673 -6928859.3148469925 0 0 0 0 24209926.885659218 -33879123.663341522 0 -33879123.663341522 -166359.02245378494 0 0 0 0 51183270.639021911 -2725413.2236064076 0 -2725413.2236064076 4519806.3015031815 0 0 0 0 -113945085.44006443 -155208160.58639896 0 -155208160.58639896 -187580869.19956183 0 0 0 0 914627.4698624548 -127703.70182779315 0 -127703.70182779315 -524833.19951189822 0 0 0 0 -111507548.57409286 -27736919.423429012 0 -27736919.423429012 25229459.052190781 0 0 0 0 -34615483.142343521 -97521190.468767166 0 -97521190.468767166 -4600141.7329792008 0 0 0 0 49100322.405632019 -22343621.281797886 0 -22343621.281797886 -5440645.8109281063 0 0 0 0 64959560.668608904 -45296527.139529943 0 -45296527.139529943 -29315917.816296577 0 0 0 0 41280318.099166393 -65150896.923172951 0 -65150896.923172951 -39020910.131822586 0 0 0 0 35521805.487803936 -54464139.627136946 0 -54464139.627136946 29231305.258543015 0 0 0 0 59989148.917356491 -114314748.14504623 0 -114314748.14504623 32310336.924782991 0 0 0 0 -3648653.8175201416 -50912022.545755386 0 -50912022.545755386 -18503774.963431835 0 0 0 0 -19194313.990362644 -11798136.11704874 0 -11798136.11704874 -29227063.924882889 0 0 0 0 -50118264.734628677 -18993051.411040783 0 -18993051.411040783 24613102.020898819 0 0 0 0 -89876125.113819122 65767631.765185356 0 65767631.765185356 -52837733.607955456 0 0 0 0 87142887.79470253 -28534671.311729908 0 -28534671.311729908 -278995285.14452934 0 0 0 0 198184290.36458969 -447447677.72550583 0 -447447677.72550583 -42194508.838682175 0 0 0 0 149301829.4730072 267951526.5162096 0 267951526.5162096 -674122846.59663773 0 0 0 0 -218782.89216749091 -611528.44026881643 0 -611528.44026881643 943968.54667989782 0 0 0 0 -67932740.384712458 -23344899.734033942 0 -23344899.734033942 39265309.32983017 0 0 0 0 -4931697.2738594245 741111.34652526677 0 741111.34652526677 7288878.2620564699 0 0 0 0 -83158196.142576218 148186662.44408941 0 148186662.44408941 -128804480.3219223 0 0 0 0 -414809.873711586 -3374213.8288459778 0 -3374213.8288459778 1654052.2671704292 0 0 0 0 -10467582.917495728 -3709951.3124084473 0 -3709951.3124084473 20892515.331504822 0 0 0 0 -1814140.2755237254 -6285342.4726841655 0 -6285342.4726841655 12475087.42799291 0 0 0 0 54728.432100296021 -5646920.3340797424 0 -5646920.3340797424 -7538726.7786970139 0 0 0 0 -1983083.5292535785 -5296089.6139075933 0 -5296089.6139075933 9493895.6184689403 0 0 0 0 -29970141.170488358 6211594.1349964142 0 6211594.1349964142 26524464.131591797 0 0 0 0 -7903517.9461035766 688311.37972262502 0 688311.37972262502 10111773.760147668 0 0 0 0 -44351741.922563553 22407913.094013214 0 22407913.094013214 14698287.332710266 0 0 0 0 -36353710.92845726 13321911.871520996 0 13321911.871520996 19891471.35269165 0 0 0 0 -48078944.419635773 -5004351.9558105469 0 -5004351.9558105469 20879833.849366665 0 0 0 0 -67930241.292240143 11879492.664466858 0 11879492.664466858 19908036.214954376 0 0 0 0 -24415822.945578098 -56767905.291006088 0 -56767905.291006088 -2517023.1886520386 0 0 0 0 -58946799.218120575 -441402.98174285889 0 -441402.98174285889 22616231.604068756 0 0 0 0 -1013335.58723738 -2994885.0396749564 0 -2994885.0396749564 3003917.3004833031 0 0 0 0 1297056.955578356 -11117964.289853837 0 -11117964.289853837 18390320.823756605 0 0 0 0 -107454221.26495802 -46554887.944646627 0 -46554887.944646627 19582847.899585724 0 0 0 0 -57449658.34295845 1596090.9365272522 0 1596090.9365272522 22726795.329910278 0 0 0 0 -55582401.775565147 32791300.631948471 0 32791300.631948471 33175661.483093262 0 0 0 0 -105206011.62084675 17264679.449755669 0 17264679.449755669 42518165.471740723 0 0 0 0 -92297847.073451996 -21446468.548351288 0 -21446468.548351288 9285453.5750083923 0 0 0 0 -140365065.0079546 -30232512.749202728 0 -30232512.749202728 43478893.338134766 0 0 0 0 3915266.5946012461 -12418894.806361606 0 -12418894.806361606 16037532.77355093 0 0 0 0 -52863804.036755562 16636182.050551891 0 16636182.050551891 67771640.9492383 0 0 0 0 -3897156.737345126 1001333.4406422579 0 1001333.4406422579 3895352.9729934288 0 0 0 0 -167960715.27704334 -467639467.20565748 0 -467639467.20565748 -13947799.48118639 0 0 0 0 -96073196.786575317 85561045.452560425 0 85561045.452560425 86028977.213874817 0 0 0 0 -108466130.09384251 105162560.43270779 0 105162560.43270779 340120365.84109497 0 0 0 0 -94970603.937412262 77234009.636825562 0 77234009.636825562 113916590.98018646 0 0 0 0 -99797898.459480286 25617514.713459015 0 25617514.713459015 55123504.905227661 0 0 0 0 -111905936.19479561 51653249.738613129 0 51653249.738613129 79608498.659934998 0 0 0 0 -155269241.81249809 -6485891.7628202438 0 -6485891.7628202438 81595571.434242249 0 0 0 0 -70362742.09967804 66967459.470199585 0 66967459.470199585 37741879.615402222 0 0 0 0 -34352580.136924744 70226473.979640961 0 70226473.979640961 37630994.922124863 0 0 0 0 -58299042.396138668 102795530.23125076 0 102795530.23125076 93263249.428283691 0 0 0 0 14503267.735721588 124804652.67814636 0 124804652.67814636 25855127.13053894 0 0 0 0 3669719.844997406 46780551.856775284 0 46780551.856775284 -12953890.637252808 0 0 0 0 -22472433.206848145 73974356.658908844 0 73974356.658908844 -28066579.998916626 0 0 0 0 -32273060.292015076 35114126.598457336 0 35114126.598457336 -15724214.080833435 0 0 0 0 -23388964.616912842 36597759.660972595 0 36597759.660972595 16316719.656438708 0 0 0 0 -60217203.671239853 41659271.642051697 0 41659271.642051697 16229166.941581726 0 0 0 0 -28841877.308240891 44209561.387882233 0 44209561.387882233 6030153.2887420654 0 0 0 0 -5060783.3235396761 2405632.7270891946 0 2405632.7270891946 7111162.1501347218 0 0 0 0 -35750397.455284119 -6538000.9790077209 0 -6538000.9790077209 32694060.375305176 0 0 0 0 -7872887.1941108704 11533056.922710419 0 11533056.922710419 16967089.410779953 0 0 0 0 -7896863.497433845 33467294.717476867 0 33467294.717476867 -1149379.3589859009 0 0 0 0 -2845495.9572905749 8067.5059554390609 0 8067.5059554390609 3435518.4512403104 0 0 0 0 -3351028.6889149193 2782302.4672648441 0 2782302.4672648441 5739391.1534819761 0 0 0 0 -4587464.5452613831 17770962.796302795 0 17770962.796302795 16762255.315330505 0 0 0 0 5181557.7631988525 21242613.093009949 0 21242613.093009949 -16715200.596969604 0 0 0 0 430279.15323257446 27039687.861351013 0 27039687.861351013 -14190281.436113358 0 0 0 0 12394683.560451984 26485948.414459229 0 26485948.414459229 -40227821.339286804 0 0 0 0 10171197.911923409 6224195.7067260742 0 6224195.7067260742 -21816880.113990784 0 0 0 0 -633768.99131284887 2317658.3368558073 0 2317658.3368558073 -636770.33976691961 0 0 0 0 -131287796.75008869 6422360.7332725525 0 6422360.7332725525 -4549451.4889526367 0 0 0 0 -203895833.10276031 8168312.3132400513 0 8168312.3132400513 21030446.118496895 0 0 0 0 -52705.439343851991 131265.93645340763 0 131265.93645340763 268745.21887844522 0 0 0 0 -42963.253737798426 496629.40241738223 0 496629.40241738223 -413135.4542758055 0 0 0 0 48524654.46284771 -18449493.964868546 0 -18449493.964868546 -402987827.43989563 0 0 0 0 9243151.1448106766 35255916.310297966 0 35255916.310297966 -37448839.210021973 0 0 0 0 56115488.509389877 43626355.200767517 0 43626355.200767517 -58329974.118362427 0 0 0 0 22718286.650508881 28317148.242767334 0 28317148.242767334 -46199036.943080902 0 0 0 0 -370435516.24374199 149576085.9649086 0 149576085.9649086 -73659464.636260986 0 0 0 0 -128645308.7266922 1043252.6444702148 0 1043252.6444702148 -39185164.811401367 0 0 0 0 -117207378.21651459 -70869896.997123718 0 -70869896.997123718 -73638402.73514843 0 0 0 0 28573052.148490906 -70637002.138336182 0 -70637002.138336182 -50554069.614109039 0 0 0 0 3424987.2826757431 -5750697.2961492538 0 -5750697.2961492538 -54018973.092727661 0 0 0 0 184241647.36859894 -92983267.061737061 0 -92983267.061737061 -33381011.18208313 0 0 0 0 139795554.86582661 -12371279.665025711 0 -12371279.665025711 -100109888.28071594 0 0 0 0 274884601.7890873 -140041481.32525635 0 -140041481.32525635 -39429504.14163208 0 0 0 0 232888511.07169533 -78803483.080892563 0 -78803483.080892563 -128717921.90818024 0 0 0 0 351819269.09665966 -207090021.66214752 0 -207090021.66214752 -55727270.810134888 0 0 0 0 281523146.92747641 -134465245.83384705 0 -134465245.83384705 -129043232.87369537 0 0 0 0 29875144.463045716 3963288.3247332573 0 3963288.3247332573 -96262281.966430664 0 0 0 0 314670072.20439339 -37481040.88576889 0 -37481040.88576889 -230528737.01218796 0 0 0 0 399480833.4987545 -192186570.64055252 0 -192186570.64055252 -79034143.925064087 0 0 0 0 406781593.46021748 -98692201.665359497 0 -98692201.665359497 20538850.060020447 0 0 0 0 623655634.6117382 -308464893.04212952 0 -308464893.04212952 95080129.195091248 0 0 0 0 222107499.17586708 -163584214.70121765 0 -163584214.70121765 50818351.257326126 0 0 0 0 219826010.19952488 -166427463.94271469 0 -166427463.94271469 52124543.657405853 0 0 0 0 303139876.43149495 -314951489.2533474 0 -314951489.2533474 331371820.98403931 0 0 0 0 86981329.549432755 -147053046.55069733 0 -147053046.55069733 267645973.30738831 0 0 0 0 69157971.333625793 68807201.437650681 0 68807201.437650681 199676611.22827148 0 0 0 0 79185828.071662903 69457879.370120049 0 69457879.370120049 693743840.4107132 0 0 0 0 90526673.810233116 39262691.383025169 0 39262691.383025169 238957312.86329651 0 0 0 0 -92051913.749228001 -224005607.50511742 0 -224005607.50511742 651912409.10484695 0 0 0 0 467251805.03971672 -351126842.68778229 0 -351126842.68778229 458971336.79467773 0 0 0 0 377454859.21044731 -463036560.75189209 0 -463036560.75189209 445725907.59771729 0 0 0 0 665614454.6038394 95851001.100268364 0 95851001.100268364 243349256.56304932 0 0 0 0 -3449594.3054828644 -112054561.48290634 0 -112054561.48290634 961433834.38032532 0 0 0 0 536291018.50803757 -518347628.13237762 0 -518347628.13237762 612948779.95641708 0 0 0 0 16907184.125875473 -118077795.26117706 0 -118077795.26117706 572581633.09888458 0 0 0 0 7722544.2693557739 3640367.8301200867 0 3640367.8301200867 200722384.66065979 0 0 0 0 49316942.81420517 123775902.82172012 0 123775902.82172012 297518567.02302551 0 0 0 0 -52833011.348731995 235604369.71599579 0 235604369.71599579 61941924.261535645 0 0 0 0 -50909119.323707059 136151582.78231144 0 136151582.78231144 349569807.97214508 0 0 0 0 14426435.513784766 129530627.03226852 0 129530627.03226852 -143511510.29325867 0 0 0 0 -194573197.32204628 450761497.02213287 0 450761497.02213287 -70073980.532485962 0 0 0 0 270304848.47748947 160503086.38410568 0 160503086.38410568 -446816098.37937927 0 0 0 0 -82275137.168437958 -252600621.99947739 0 -252600621.99947739 86476876.013217926 0 0 0 0 -70429408.290230513 210529994.68013382 0 210529994.68013382 -237508537.47359467 0 0 0 0 -10520131.113229752 4090532.4187850952 0 4090532.4187850952 5871336.0480918884 0 0 0 0 616942.63468414312 2918232.8523740387 0 2918232.8523740387 4974730.1986947656 0 0 0 0 379509.26903939247 2172139.5227546692 0 2172139.5227546692 1520626.7933120728 0 0 0 0 -4825329.1197929382 568100.00315093994 0 568100.00315093994 1530467.8058853149 0 0 0 0 -490807.24757741427 2149897.296667017 0 2149897.296667017 2405145.902530862 0 0 0 0 203965.15499505866 1125348.3661735635 0 1125348.3661735635 601398.97063267697 0 0 0 0 -1295505.9611265487 -1409654.5100722471 0 -1409654.5100722471 726796.21169238165 0 0 0 0 1141192.3109967709 -4907912.1290130615 0 -4907912.1290130615 4936155.9967498779 0 0 0 0 -10206512.839596748 -2454380.0486755371 0 -2454380.0486755371 12153829.059490204 0 0 0 0 -21814674.493082762 -20521995.170092583 0 -20521995.170092583 -15328430.227806091 0 0 0 0 35031752.806045055 -59031070.652545929 0 -59031070.652545929 1849245.8230819702 0 0 0 0 90041724.059319973 58200923.06609726 0 58200923.06609726 37920641.145462036 0 0 0 0 -854868.39582252502 -686444.17166137695 0 -686444.17166137695 152896.68444824219 0 0 0 0 -476414.50169415306 -151348.58108661324 0 -151348.58108661324 435810.81209567189 0 0 0 0 308430178.23291206 -74218965.604886055 0 -74218965.604886055 -89312411.153892517 0 0 0 0 108908559.52615833 -38028217.054298401 0 -38028217.054298401 -89735593.65276289 0 0 0 0 167897936.60330963 -100585966.52926445 0 -100585966.52926445 -25018207.861724854 0 0 0 0 254179733.69825745 -143422062.77231979 0 -143422062.77231979 -25035490.216461182 0 0 0 0 53475929.33652401 -115682593.59197998 0 -115682593.59197998 82181605.560447693 0 0 0 0 33782776.80717659 -41573893.448554993 0 -41573893.448554993 60572723.967737198 0 0 0 0 30316467.141798973 25358987.196613312 0 25358987.196613312 152971984.04995728 0 0 0 0 19648488.270075083 67487383.464187622 0 67487383.464187622 2459009.0862579346 0 0 0 0 -51452799.797912598 -88180354.683197021 0 -88180354.683197021 92653194.962287903 0 0 0 0 -442965.80184467183 -483196.58319464792 0 -483196.58319464792 266968.35906102881 0 0 0 0 -5332191.1845774651 -42820915.31848526 0 -42820915.31848526 30379186.434242249 0 0 0 0 -2515918.4877939224 -15131387.412555695 0 -15131387.412555695 -7460624.1231012344 0 0 0 0 -147660245.49357939 10428780.853130341 0 10428780.853130341 84238562.565952301 0 0 0 0 138432.36801534356 2313773.2187832762 0 2313773.2187832762 5099477.0989482142 0 0 0 0 -23426400.329239607 12664391.150508881 0 12664391.150508881 4861277.5816421509 0 0 0 0 -384728507.95281839 517101484.58934021 0 517101484.58934021 62303282.951997757 0 0 0 0 -28709565.791096687 17694313.382316589 0 17694313.382316589 -87638045.135343552 0 0 0 0 180749801.9218123 49146462.5464077 0 49146462.5464077 -296909701.40184021 0 0 0 0 370730023.01864624 -554509515.25564957 0 -554509515.25564957 262508438.39458942 0 0 0 0 65588025.332097054 -578991851.41301155 0 -578991851.41301155 560823048.68670654 0 0 0 0 72525357.321374893 -472832777.56704712 0 -472832777.56704712 525388031.78701782 0 0 0 0 -12445430.155032158 223609617.21595764 0 223609617.21595764 1458089004.049942 0 0 0 0 -15783217.588574141 286309534.3620441 0 286309534.3620441 532877541.62501526 0 0 0 0 -141562157.05725574 -440588876.18063354 0 -440588876.18063354 844521727.337883 0 0 0 0 -196671567.70022482 -197320020.4277544 0 -197320020.4277544 321501768.69937134 0 0 0 0 -405177026.78868055 -198053038.71147537 0 -198053038.71147537 461746062.60597992 0 0 0 0 -114380702.97718096 -414485613.75179291 0 -414485613.75179291 506083936.55673599 0 0 0 0 18065889.369090378 -433879680.05753326 0 -433879680.05753326 381924674.91176605 0 0 0 0 -97981109.322921991 -134756939.94115376 0 -134756939.94115376 114290920.56815338 0 0 0 0 120405481.08228922 -353764924.46586609 0 -353764924.46586609 295845379.07889557 0 0 0 0 90938058.860841215 -323503637.864151 0 -323503637.864151 612958280.55609131 0 0 0 0 -510610106.36723256 106468404.68595362 0 106468404.68595362 298038171.3066864 0 0 0 0 -69093114.615848541 90405104.581897736 0 90405104.581897736 89975716.428833008 0 0 0 0 -69937661.000520229 67583256.356250763 0 67583256.356250763 -15021740.325456619 0 0 0 0 -382962.93336223532 1347733.6311107911 0 1347733.6311107911 4230904.6787826307 0 0 0 0 159861920.05313587 100773026.37176895 0 100773026.37176895 -70245864.37694931 0 0 0 0 -9266172.3085474968 55603498.472553253 0 55603498.472553253 28987809.947631836 0 0 0 0 99933002.230203629 150133994.48770142 0 150133994.48770142 99652578.216545105 0 0 0 0 369288262.74612236 48337331.851337433 0 48337331.851337433 -112909200.67743301 0 0 0 0 -373787.42726932745 332047.58817733824 0 332047.58817733824 1805987.7741333582 0 0 0 0 24989238.501068592 599184200.34480572 0 599184200.34480572 619490914.17427063 0 0 0 0 378533078.63951164 30660593.117553711 0 30660593.117553711 615990696.58808136 0 0 0 0 879743146.87952662 68930634.94797039 0 68930634.94797039 237636668.45083618 0 0 0 0 973798972.37856126 -383342894.88524723 0 -383342894.88524723 -386998534.35181427 0 0 0 0 347548173.27513027 -591509834.74247169 0 -591509834.74247169 -1984406.2447090149 0 0 0 0 483920350.58322716 -361448362.86402512 0 -361448362.86402512 137661375.51789093 0 0 0 0 487851384.53339767 -219275216.23802948 0 -219275216.23802948 35085870.462329865 0 0 0 0 307558155.05416775 -146924302.69740295 0 -146924302.69740295 364164970.11455536 0 0 0 0 154456516.18135428 -280199751.5060482 0 -280199751.5060482 248529892.84206772 0 0 0 0 98366736.219495058 -219292196.58810425 0 -219292196.58810425 393836758.10418129 0 0 0 0 41664670.515484333 -438946286.8367157 0 -438946286.8367157 382975897.32785416 0 0 0 0 127830440.51373029 -244699529.30100822 0 -244699529.30100822 389007850.23452759 0 0 0 0 -13457668.505022526 -354596809.81082726 0 -354596809.81082726 458013015.75549316 0 0 0 0 81688673.498357773 -277521674.11333084 0 -277521674.11333084 366474098.5614624 0 0 0 0 83319921.135064006 -274510200.90251923 0 -274510200.90251923 245182944.1167984 0 0 0 0 79326190.533081055 -277827028.09479523 0 -277827028.09479523 242582181.60778046 0 0 0 0 40645235.669229507 -186592041.45207214 0 -186592041.45207214 175243347.98577499 0 0 0 0 122509760.50365257 -244153930.93841553 0 -244153930.93841553 211986911.1530838 0 0 0 0 129435131.32598877 -259817939.49412537 0 -259817939.49412537 200262872.36098862 0 0 0 0 130714096.55444336 -252531422.08019638 0 -252531422.08019638 179977723.01441193 0 0 0 0 85290610.547876358 -305179344.84206009 0 -305179344.84206009 311587488.72222137 0 0 0 0 139671843.70072937 -396474533.4666214 0 -396474533.4666214 288243945.3084259 0 0 0 0 158607905.833848 -407980052.9572258 0 -407980052.9572258 230605999.41809368 0 0 0 0 312184452.73973036 -342889791.02797508 0 -342889791.02797508 146210691.08293152 0 0 0 0 544017791.07224059 63214465.593158722 0 63214465.593158722 26296078.944847107 0 0 0 0 326254865.63711739 -32854938.190006256 0 -32854938.190006256 24415638.159173787 0 0 0 0 363567576.48590469 -73243417.186081886 0 -73243417.186081886 -70728052.544029236 0 0 0 0 189385335.03985596 -172043960.12998962 0 -172043960.12998962 66060254.227556467 0 0 0 0 107572643.76332951 -54562479.452194214 0 -54562479.452194214 -49195837.770042419 0 0 0 0 157350224.3072319 -50452774.0873909 0 -50452774.0873909 77130287.47165823 0 0 0 0 120322978.83886528 -175181154.65995789 0 -175181154.65995789 131918319.65289307 0 0 0 0 297786124.47612286 -109601931.14867401 0 -109601931.14867401 231741131.04676056 0 0 0 0 983085167.55790949 -228543175.21653652 0 -228543175.21653652 84562891.204814911 0 0 0 0 386035065.56748009 -267601091.30655479 0 -267601091.30655479 243968478.55381775 0 0 0 0 363709.51342657534 -1530260.8312070942 0 -1530260.8312070942 1075257.7313028425 0 0 0 0 -109663997.36566448 22192167.096261978 0 22192167.096261978 24430081.28377533 0 0 0 0 227743.27422954526 -469232.02271122718 0 -469232.02271122718 322371.5419424288 0 0 0 0 189555153.36946869 242991591.76743507 0 242991591.76743507 276464768.83165359 0 0 0 0 196608943.28346443 247069970.19458771 0 247069970.19458771 40062647.770439148 0 0 0 0 207311243.76897001 206947164.504879 0 206947164.504879 -47626430.483413696 0 0 0 0 128579734.8460598 228687889.42821503 0 228687889.42821503 270961677.48494816 0 0 0 0 108141536.38700962 156016232.93327713 0 156016232.93327713 32930426.367248535 0 0 0 0 182818622.45422292 208734463.79367828 0 208734463.79367828 34248041.88168335 0 0 0 0 -4214507.3546283245 61031330.341266632 0 61031330.341266632 -40406959.998077393 0 0 0 0 -353474443.84314251 1638580.1263446808 0 1638580.1263446808 139288370.93525219 0 0 0 0 519513.85685517639 -1117208.5499547906 0 -1117208.5499547906 846103.81627593935 0 0 0 0 -60113343.126202583 -47528839.991481781 0 -47528839.991481781 -30006137.877845764 0 0 0 0 -217208585.53858376 3084040.7114467621 0 3084040.7114467621 41802652.620056152 0 0 0 0 -138722028.29618168 90926249.572881699 0 90926249.572881699 27798516.998153687 0 0 0 0 681419.95236940589 -3302070.3841865924 0 -3302070.3841865924 3477190.32990776 0 0 0 0 113935811.43065739 85913145.914162636 0 85913145.914162636 58834878.708679199 0 0 0 0 441780.0845839394 -870311.64814007003 0 -870311.64814007003 391531.78820532374 0 0 0 0 28986180.31135416 -54867395.161427498 0 -54867395.161427498 -82115019.781288147 0 0 0 0 52545868.194665909 -159255979.75850868 0 -159255979.75850868 -78853068.223474503 0 0 0 0 282704005.63532448 -23466859.903066635 0 -23466859.903066635 -51748737.13923645 0 0 0 0 171439563.08911991 -116578460.85791969 0 -116578460.85791969 -51982521.373948097 0 0 0 0 345835328.86343455 -51649700.330726624 0 -51649700.330726624 -74420242.933761597 0 0 0 0 180492920.9186821 -167699293.18057251 0 -167699293.18057251 -120900533.08160591 0 0 0 0 -13707368.110977173 -31358173.583086967 0 -31358173.583086967 -186755455.15419769 0 0 0 0 220397410.74282837 -164101822.36650181 0 -164101822.36650181 -160889410.85180855 0 0 0 0 3760280.3057532972 -4288459.8005037326 0 -4288459.8005037326 4511650.5822582319 0 0 0 0 142673231.91589856 577987851.89658642 0 577987851.89658642 259524664.89385223 0 0 0 0 170661842.59064865 250601685.10117245 0 250601685.10117245 453792297.91720486 0 0 0 0 557307871.05217743 352165106.85476208 0 352165106.85476208 375476563.94487286 0 0 0 0 237261399.82608902 378818777.07656956 0 378818777.07656956 568022449.7462101 0 0 0 0 1421979.1706762882 -1310906.7357688923 0 -1310906.7357688923 1280737.7953162529 0 0 0 0 561164134.36848402 503083893.61070895 0 503083893.61070895 852456498.69120216 0 0 0 0 746815292.28217316 555150405.46334362 0 555150405.46334362 -614763394.03000116 0 0 0 0 218326113.47569278 -196063458.0631175 0 -196063458.0631175 -142577124.92895126 0 0 0 0 61301050.676037312 -242249266.3576498 0 -242249266.3576498 -142721069.58358765 0 0 0 0 697033.39800035371 -3836183.3823156045 0 -3836183.3823156045 5931976.3717676457 0 0 0 0 -36236226.560362339 -217736368.40394306 0 -217736368.40394306 -67929012.038261414 0 0 0 0 -263693075.40056896 -98772526.344924927 0 -98772526.344924927 184301614.85206223 0 0 0 0 -151561098.55359769 35904833.616420746 0 35904833.616420746 306083620.12748337 0 0 0 0 545075054.53257799 -381774065.8446579 0 -381774065.8446579 -8173012.6204338074 0 0 0 0 -858812062.22858667 -206521388.1021874 0 -206521388.1021874 2018644142.2819214 0 0 0 0 185958813.39842081 -258255098.53494644 0 -258255098.53494644 53045638.083768845 0 0 0 0 920346965.38690281 -594461315.03535271 0 -594461315.03535271 -137856084.19075394 0 0 0 0 558547.90533074492 -2966030.5264986632 0 -2966030.5264986632 6516883.6042155102 0 0 0 0 781188901.60637522 13138113.433889389 0 13138113.433889389 -129630638.16230774 0 0 0 0 786049252.69173121 -500522835.91553676 0 -500522835.91553676 52192925.697525024 0 0 0 0 1702293138.5669107 -475061308.32598209 0 -475061308.32598209 128580140.7438755 0 0 0 0 677156322.20439792 -349418893.50640297 0 -349418893.50640297 271803047.02582169 0 0 0 0 304953.99100062874 -1024771.1046792339 0 -1024771.1046792339 2960000.117673656 0 0 0 0 810095381.69522822 887835143.77029419 0 887835143.77029419 -65485410.328126907 0 0 0 0 617897616.93176126 967706612.2862277 0 967706612.2862277 742881191.91839218 0 0 0 0 628502551.00585639 261218314.52377701 0 261218314.52377701 846780040.71089745 0 0 0 0 561249879.53651524 223249875.37567711 0 223249875.37567711 440562190.79904699 0 0 0 0 657860147.5344348 289392232.14733315 0 289392232.14733315 465489909.80811214 0 0 0 0 436847804.07150537 99759013.29701519 0 99759013.29701519 398941262.24552917 0 0 0 0 313415935.179726 304957174.92384148 0 304957174.92384148 406523847.46316391 0 0 0 0 524760754.05265826 152370840.06574965 0 152370840.06574965 477964477.1317234 0 0 0 0 523444908.48940897 140663578.45975161 0 140663578.45975161 401562273.03143311 0 0 0 0 1009503146.2343645 129070494.10432243 0 129070494.10432243 -593850578.35594749 0 0 0 0 545751565.03665543 -159706256.64141464 0 -159706256.64141464 1030177810.4104066 0 0 0 0 984560822.41700029 93591932.831185341 0 93591932.831185341 351623230.00151825 0 0 0 0 -157229951.96393967 -152780038.19697189 0 -152780038.19697189 50104839.218601227 0 0 0 0 -225031085.38155556 144141.81255912781 0 144141.81255912781 104416613.2128334 0 0 0 0 -29323204.239240646 13704395.001708984 0 13704395.001708984 864397.17088317871 0 0 0 0 26158319.964305878 -184955535.62960815 0 -184955535.62960815 179259603.14573669 0 0 0 0 7137744.4900074005 -198401163.7403717 0 -198401163.7403717 212032415.82899094 0 0 0 0 29643206.401925087 -137939354.06876373 0 -137939354.06876373 80515500.320762634 0 0 0 0 -109399182.95166683 -116681584.98507118 0 -116681584.98507118 142777712.86561584 0 0 0 0 -34566098.135481358 -191243376.06996727 0 -191243376.06996727 144005469.04806519 0 0 0 0 55546342.361604214 -183469582.59690475 0 -183469582.59690475 137161866.42942047 0 0 0 0 80843255.106947362 -297807819.64064598 0 -297807819.64064598 203466616.61435699 0 0 0 0 90191368.688346893 -212742803.93265915 0 -212742803.93265915 150515725.77470779 0 0 0 0 -66754646.759584904 -280942108.13433456 0 -280942108.13433456 157263565.99626923 0 0 0 0 -108443595.08305883 -101462988.81517792 0 -101462988.81517792 103358212.79114151 0 0 0 0 74386548.854384542 -243073099.09437943 0 -243073099.09437943 61653831.698455811 0 0 0 0 265511666.53715563 -381069851.43214226 0 -381069851.43214226 49227746.582164764 0 0 0 0 63581151.664511204 -257279125.08875847 0 -257279125.08875847 131942174.69523525 0 0 0 0 228714582.89230192 -352743330.74762726 0 -352743330.74762726 143195642.2183075 0 0 0 0 239860375.30014062 -224272782.09459305 0 -224272782.09459305 221100586.59273911 0 0 0 0 313847676.54164457 -368534594.68877649 0 -368534594.68877649 217025973.01626968 0 0 0 0 294562648.59635472 -270198248.96635246 0 -270198248.96635246 224570082.42367554 0 0 0 0 567145531.26588583 -239763383.64249802 0 -239763383.64249802 80892691.678489685 0 0 0 0 624331859.71748424 -296001473.94124794 0 -296001473.94124794 -93010663.647678375 0 0 0 0 508217555.10382378 -556465963.18121672 0 -556465963.18121672 141748187.22156906 0 0 0 0 608022684.56317091 -331392952.25422859 0 -331392952.25422859 -96618317.139827967 0 0 0 0 648543501.99606156 -486737694.1946888 0 -486737694.1946888 95116269.32467556 0 0 0 0 71694858.205708131 -418413364.89793521 0 -418413364.89793521 568232903.50482559 0 0 0 0 55302584.745063595 -215252674.43623543 0 -215252674.43623543 19641778.5548172 0 0 0 0 -84079538.161455393 -461126208.30305481 0 -461126208.30305481 251221469.67232132 0 0 0 0 238830784.76365733 -298210954.09965897 0 -298210954.09965897 7663683.4109954834 0 0 0 0 -235405330.86058998 -109606699.95741844 0 -109606699.95741844 4228311.9364051819 0 0 0 0 -256914357.85039997 -244718450.22241592 0 -244718450.22241592 149271409.96081161 0 0 0 0 -510772479.65080845 185664052.26978493 0 185664052.26978493 -250958220.68230057 0 0 0 0 -467376453.99034977 -244421300.74664974 0 -244421300.74664974 63828569.557941437 0 0 0 0 -526645320.75184917 32798254.660909653 0 32798254.660909653 -208538550.09809113 0 0 0 0 -2301263.3850677498 -1749601.5261278781 0 -1749601.5261278781 2130008.8762242869 0 0 0 0 -698178655.47976136 78009313.174987793 0 78009313.174987793 102378842.0193367 0 0 0 0 -595255550.64488053 309856405.52757454 0 309856405.52757454 -107943096.2325592 0 0 0 0 -240043776.93543196 47938158.854750872 0 47938158.854750872 -77010518.86309433 0 0 0 0 154087706.18825111 -10692482.166675568 0 -10692482.166675568 190685166.90688229 0 0 0 0 -395095.39357398206 -1075908.5590374502 0 -1075908.5590374502 2436417.6177862547 0 0 0 0 -431422.5567674152 -964376.09956275765 0 -964376.09956275765 4767092.3039026782 0 0 0 0 441113739.28678548 -238829692.50110388 0 -238829692.50110388 93368712.465805054 0 0 0 0 -747170331.89759088 502595324.49548721 0 502595324.49548721 228235474.51751137 0 0 0 0 -1253175.24836448 -2323283.4815973365 0 -2323283.4815973365 6664978.4152681865 0 0 0 0 -1470557.0914125843 -674745.7430008105 0 -674745.7430008105 1689247.3511542194 0 0 0 0 -1403730704.2005615 369529189.42045021 0 369529189.42045021 316695625.56579781 0 0 0 0 -519014776.15852368 -28704659.288173676 0 -28704659.288173676 -496993990.87674713 0 0 0 0 -914294744.11398923 -300304806.46699619 0 -300304806.46699619 142335243.21218491 0 0 0 0 -977440348.73260069 623227864.44691658 0 623227864.44691658 690990877.06891632 0 0 0 0 103708699.09081885 485119560.42898941 0 485119560.42898941 -559004352.78840256 0 0 0 0 82905386.232336864 716374786.65099144 0 716374786.65099144 943751742.01084518 0 0 0 0 -116551985.4502508 123717091.13403702 0 123717091.13403702 93693505.598670959 0 0 0 0 -528754980.17187411 -273326144.65899903 0 -273326144.65899903 385645714.82009888 0 0 0 0 -93422841.701432973 -5884067.0431046486 0 -5884067.0431046486 788605615.98568344 0 0 0 0 389923690.23285103 -82551584.98381424 0 -82551584.98381424 407962678.18977356 0 0 0 0 460667597.528615 518760476.49393272 0 518760476.49393272 254225273.72737122 0 0 0 0 396039185.86430168 609613995.17457008 0 609613995.17457008 1600919958.2039833 0 0 0 0 235412101.91043085 943416235.63235426 0 943416235.63235426 1559805847.9067421 0 0 0 0 218812378.34075841 1065582646.2613449 0 1065582646.2613449 679655429.25860596 0 0 0 0 202513482.59531364 1171954377.9208775 0 1171954377.9208775 1460778429.9035759 0 0 0 0 51769843.151408881 1004696204.2369237 0 1004696204.2369237 1684759404.4131546 0 0 0 0 37644741.293088436 1622253053.4573021 0 1622253053.4573021 2199638243.3380566 0 0 0 0 -181015632.4680407 1259657860.451088 0 1259657860.451088 1509992723.6525402 0 0 0 0 -114009919.66808826 1327884684.8484249 0 1327884684.8484249 555295722.93225479 0 0 0 0 -312807.98239870474 144982.17006864492 0 144982.17006864492 538041.77030405588 0 0 0 0 -406168448.22370124 -89041532.511198044 0 -89041532.511198044 -840086462.67671204 0 0 0 0 370961573.9801116 -598204262.564744 0 -598204262.564744 2187277278.6979828 0 0 0 0 217092248.28302693 1550399545.6892033 0 1550399545.6892033 1811247966.7300034 0 0 0 0 26631.285984956896 -674264.20807178598 0 -674264.20807178598 2232467.6212781221 0 0 0 0 -404222.26893551607 -1598360.6510438456 0 -1598360.6510438456 1861582.329285657 0 0 0 0 1006835884.9827802 -1262830385.4926548 0 -1262830385.4926548 1055436489.7519608 0 0 0 0 12031848.67591688 254189237.63588715 0 254189237.63588715 194119073.88911438 0 0 0 0 398424499.79763323 -484124136.59466648 0 -484124136.59466648 81551293.243667603 0 0 0 0 788278345.57139683 -234392054.583848 0 -234392054.583848 1611219950.2550611 0 0 0 0 37080918.333888605 -160340383.50733662 0 -160340383.50733662 1567140858.0635929 0 0 0 0 364186382.74354112 227024464.43239313 0 227024464.43239313 1088193636.6523838 0 0 0 0 274841511.48283684 25836564.43753624 0 25836564.43753624 944337961.48475647 0 0 0 0 323752957.78817362 -11895397.739850283 0 -11895397.739850283 1829760766.2141304 0 0 0 0 335978784.19473648 837790837.47872829 0 837790837.47872829 1393770956.1360788 0 0 0 0 1189515089.9343209 -895216549.90245628 0 -895216549.90245628 852981500.10095215 0 0 0 0 466062948.82117879 -431028042.58634377 0 -431028042.58634377 1688211979.9521809 0 0 0 0 1087270424.625361 745061250.81649017 0 745061250.81649017 1120118077.7505493 0 0 0 0 1367991465.9072597 204285720.31313276 0 204285720.31313276 1474297601.0955276 0 0 0 0 523027346.05723447 677162611.64271164 0 677162611.64271164 2205457170.3933296 0 0 0 0 482379824.0439378 443622167.36014366 0 443622167.36014366 1451412662.5879688 0 0 0 0 434548231.57351732 247651697.69795561 0 247651697.69795561 2204254041.0926991 0 0 0 0 255404006.6542443 63796586.315365791 0 63796586.315365791 1793392159.3757477 0 0 0 0 -16096859.232224107 -7030155.9777784348 0 -7030155.9777784348 2204921067.5820007 0 0 0 0 227677708.00530252 -45675015.926360607 0 -45675015.926360607 1805452005.1848125 0 0 0 0 -102386388.80020435 -208322026.54995537 0 -208322026.54995537 1735518144.612504 0 0 0 0 -265327806.42777348 -302884113.0610795 0 -302884113.0610795 2204473570.5255241 0 0 0 0 -29028262.051042736 -374294132.98114252 0 -374294132.98114252 1403367897.3713245 0 0 0 0 112339208.44561867 -109360190.47617817 0 -109360190.47617817 1767964046.6072068 0 0 0 0 -526574133.79601496 -713774877.68324137 0 -713774877.68324137 2205233968.3994112 0 0 0 0 -376436291.08411443 -564817778.58026886 0 -564817778.58026886 1655865809.2461634 0 0 0 0 -394991233.31934065 -321195804.35276413 0 -321195804.35276413 1683726118.2558837 0 0 0 0 -196824384.78007424 -537603521.1480422 0 -537603521.1480422 773937712.29797554 0 0 0 0 -277284.76907561655 52599.067212535301 0 52599.067212535301 1056455.4850193867 0 0 0 0 -646895736.10985243 904276194.4834547 0 904276194.4834547 347018669.60688424 0 0 0 0 -441814708.59667772 309795906.9840169 0 309795906.9840169 1818528751.4229393 0 0 0 0 260118337.28988016 719247611.23176003 0 719247611.23176003 1119033345.2488241 0 0 0 0 372042241.37422848 204251175.3919096 0 204251175.3919096 5635597.1234893799 0 0 0 0 -70370894.199324369 136476348.9086237 0 136476348.9086237 1295431058.8457012 0 0 0 0 370382824.90879965 -846768882.43894672 0 -846768882.43894672 1420986063.2869692 0 0 0 0 6739405.3764878679 83071994.655665398 0 83071994.655665398 1524218736.9273262 0 0 0 0 -398083.2785373783 -135475.38610853069 0 -135475.38610853069 1420016.3659239728 0 0 0 0 -392671868.97402835 -484305510.07318354 0 -484305510.07318354 561655838.22828293 0 0 0 0 -306385113.28623194 -594890436.98807716 0 -594890436.98807716 -265412757.23434067 0 0 0 0 257645273.76048267 -74007195.579984665 0 -74007195.579984665 371846289.64334869 0 0 0 0 -310477825.0308041 -217906362.20348454 0 -217906362.20348454 1280839745.0182838 0 0 0 0 121918571.78608578 55519150.474456787 0 55519150.474456787 486601904.4280014 0 0 0 0 352153785.06859779 243953494.14751434 0 243953494.14751434 247154402.27138519 0 0 0 0 95823801.51685214 261698738.43013096 0 261698738.43013096 380659039.30605316 0 0 0 0 298070893.32315147 260185775.59762859 0 260185775.59762859 298144933.26618004 0 0 0 0 -539212.78395938873 333731457.13576412 0 333731457.13576412 286420608.80714893 0 0 0 0 -5600952.2115576267 178524968.82594395 0 178524968.82594395 12843949.388912201 0 0 0 0 99525539.193844199 215163571.02257317 0 215163571.02257317 126262720.81957245 0 0 0 0 -166229990.42843017 59672269.429117799 0 59672269.429117799 118772483.10335922 0 0 0 0 -185370369.53423524 195847966.43941402 0 195847966.43941402 252947062.48675156 0 0 0 0 122016194.59446682 55900230.665458143 0 55900230.665458143 -103273709.21992493 0 0 0 0 -493765103.11885011 -128552076.75368589 0 -128552076.75368589 112221916.70595169 0 0 0 0 -845653.47391425387 -28592.366729440284 0 -28592.366729440284 2535240.6330058738 0 0 0 0 -471555612.18539262 165153816.02902889 0 165153816.02902889 214882908.2154026 0 0 0 0 11717510.068753455 224571591.18676019 0 224571591.18676019 1200032.6020431519 0 0 0 0 25099991.226231337 -173264932.44346666 0 -173264932.44346666 176452922.90667558 0 0 0 0 -297304918.65099812 -30564823.83108139 0 -30564823.83108139 -49411207.288024902 0 0 0 0 -224497908.29879951 110761292.15158749 0 110761292.15158749 -34603702.430330873 0 0 0 0 -311021650.57261515 125090417.28858376 0 125090417.28858376 198457926.50151443 0 0 0 0 -203462825.46861637 80598908.217295647 0 80598908.217295647 -5654850.8621940613 0 0 0 0 229179875.90079093 421466839.37285042 0 421466839.37285042 -97125545.816617966 0 0 0 0 334500.15835973807 261650.68874427211 0 261650.68874427211 118117.63721683156 0 0 0 0 1642777.9659942687 110493035.13812494 0 110493035.13812494 176159764.31610107 0 0 0 0 -236269.94623421971 -30906.700337963528 0 -30906.700337963528 542337.76526575908 0 0 0 0 473755.22150381759 687198.63192094862 0 687198.63192094862 664289.76396527793 0 0 0 0 -20849924.695559025 -81469440.967338562 0 -81469440.967338562 111646079.43079948 0 0 0 0 3712064.792883873 16777833.644115448 0 16777833.644115448 62284188.311999321 0 0 0 0 -745366532.30318928 6065672.6639757156 0 6065672.6639757156 180616677.72667313 0 0 0 0 -156682842.01832891 -246594344.18048358 0 -246594344.18048358 -238254286.46075439 0 0 0 0 4994910.3020939827 328095245.14723825 0 328095245.14723825 243809282.53938866 0 0 0 0 -638008568.05659008 592210751.93159294 0 592210751.93159294 -10050528.484801292 0 0 0 0 70420694.293309212 487121741.416008 0 487121741.416008 -547749484.67640495 0 0 0 0 98557017.649967551 88492882.373897076 0 88492882.373897076 793787976.30942345 0 0 0 0 55327568.247266293 -72192466.92295599 0 -72192466.92295599 213475706.73546028 0 0 0 0 360885938.73496962 436742737.56647015 0 436742737.56647015 485815269.5295105 0 0 0 0 175849610.14274359 505261705.91645813 0 505261705.91645813 391175929.40999031 0 0 0 0 237916018.74996281 394462870.11856174 0 394462870.11856174 583271477.409832 0 0 0 0 -789804.76021959935 -173234.6843127897 0 -173234.6843127897 528908.33594452031 0 0 0 0 312445232.76873451 169132977.30183852 0 169132977.30183852 450701222.12187767 0 0 0 0 250271646.0484814 364837313.52490377 0 364837313.52490377 -14666580.510163307 0 0 0 0 -20301699.719560623 578456266.32155609 0 578456266.32155609 401183993.07022905 0 0 0 0 108599755.26858485 472975951.81585693 0 472975951.81585693 452291244.62600613 0 0 0 0 252434035.14918381 403479289.57902908 0 403479289.57902908 363790993.7051487 0 0 0 0 128356650.61352247 397297334.84406853 0 397297334.84406853 425630966.44568253 0 0 0 0 112375492.22784245 337226894.24447846 0 337226894.24447846 200180512.99669456 0 0 0 0 121278564.43606186 618763282.4600935 0 618763282.4600935 362604739.93936896 0 0 0 0 73402751.862532675 552687864.80136728 0 552687864.80136728 271784240.61976814 0 0 0 0 -66002705.974835023 87793948.379365563 0 87793948.379365563 -60349817.217884064 0 0 0 0 -57082215.929892361 117777205.6989131 0 117777205.6989131 -138800210.16612625 0 0 0 0 -143587690.22197342 149377301.63602924 0 149377301.63602924 -66753377.800073624 0 0 0 0 -52496367.383040071 89259086.505509377 0 89259086.505509377 -70061169.355028152 0 0 0 0 -52786156.515157104 62046600.364563942 0 62046600.364563942 -22229268.361361504 0 0 0 0 -59244629.298102833 38202784.014657736 0 38202784.014657736 12767424.879375458 0 0 0 0 -56508526.968221948 62997950.602477491 0 62997950.602477491 -21748405.324205399 0 0 0 0 -17433538.212640263 10320416.914821982 0 10320416.914821982 -12445484.408046722 0 0 0 0 -20356712.615030065 35952602.807095528 0 35952602.807095528 -60657006.084189415 0 0 0 0 -5455135.5440304568 2782785.7967663272 0 2782785.7967663272 4307078.2064191746 0 0 0 0 -16972336.976977408 -3528530.5924601555 0 -3528530.5924601555 -989848.40936660767 0 0 0 0 3328368.6903809598 -999454.48897218704 0 -999454.48897218704 -29474590.190191269 0 0 0 0 -51906323.050745964 32940435.739432812 0 32940435.739432812 -36049950.762880325 0 0 0 0 -4276808.1993304221 141058.26840513293 0 141058.26840513293 2584580.5948131103 0 0 0 0 7515022.6218528748 25917946.807113647 0 25917946.807113647 7338535.8091397285 0 0 0 0 -2288050.2832063437 41719128.685640335 0 41719128.685640335 -99150130.081129551 0 0 0 0 -60163040.525888443 -59776076.707659006 0 -59776076.707659006 -25646968.799916267 0 0 0 0 1464554.6429858208 -12703484.561808586 0 -12703484.561808586 -179228536.16428375 0 0 0 0 9668522.7762765884 51570254.470655441 0 51570254.470655441 -448508844.48250771 0 0 0 0 -304395225.43298912 572285799.00800705 0 572285799.00800705 -610344310.72848129 0 0 0 0 -681985001.71892071 175957032.26556301 0 175957032.26556301 -93001548.986115932 0 0 0 0 -44200127.703172684 280553132.15376234 0 280553132.15376234 -822476961.73987961 0 0 0 0 -1496067.8992804864 -43198.203248306178 0 -43198.203248306178 782615.03654133424 0 0 0 0 -585449125.67824924 639911975.52749395 0 639911975.52749395 -289421517.76044083 0 0 0 0 -374797675.33005881 65334799.483103275 0 65334799.483103275 -3304951.1861219406 0 0 0 0 -508558791.27898455 397444534.03660488 0 397444534.03660488 45759003.258525848 0 0 0 0 -293615787.03869438 144234457.6257 0 144234457.6257 48582984.221232198 0 0 0 0 -98732219.901942968 165737879.0632062 0 165737879.0632062 -157663327.79490852 0 0 0 0 -106068644.54063606 155696093.0689373 0 155696093.0689373 -165918975.47955513 0 0 0 0 -182235374.21187353 272491192.89159584 0 272491192.89159584 -274022421.30598545 0 0 0 0 -184548522.02725506 257618553.21682835 0 257618553.21682835 -361195162.01841354 0 0 0 0 -310807228.88444281 181184565.18897104 0 181184565.18897104 -28750795.895261765 0 0 0 0 -179383864.24779081 216346878.52851486 0 216346878.52851486 -144140909.11994791 0 0 0 0 -212199584.68540353 148302713.39097023 0 148302713.39097023 -19088945.682395935 0 0 0 0 -167496414.55811477 182279256.7982707 0 182279256.7982707 -25776177.243922234 0 0 0 0 -217917211.52063966 154749251.91927481 0 154749251.91927481 -21960184.819200516 0 0 0 0 -239233293.19666123 72835514.294180393 0 72835514.294180393 -8208780.8563230038 0 0 0 0 -265578499.45451689 133897280.3018136 0 133897280.3018136 -25226888.720880508 0 0 0 0 -548827.36978199473 -240975.50813857955 0 -240975.50813857955 948896.25578361889 0 0 0 0 71840064.981974363 -240706609.64922428 0 -240706609.64922428 323397901.16795826 0 0 0 0 -214170830.39133763 138442713.26315451 0 138442713.26315451 -60983688.844587326 0 0 0 0 -266435596.11946845 334857037.2029562 0 334857037.2029562 -58090806.54057321 0 0 0 0 -174285.62162628747 6523.6067110896111 0 6523.6067110896111 440333.2871681843 0 0 0 0 -243975158.09048069 241667613.18750095 0 241667613.18750095 259269952.81846142 0 0 0 0 -157708261.72872013 151395305.61839437 0 151395305.61839437 40328244.163136482 0 0 0 0 -187304633.32443106 120822658.22926378 0 120822658.22926378 190441676.03351212 0 0 0 0 -139634423.72782338 176458759.66687489 0 176458759.66687489 37528731.985749245 0 0 0 0 -131236761.71584213 148740147.50306129 0 148740147.50306129 -2465549.3772112131 0 0 0 0 -93857771.159772217 110907732.57888126 0 110907732.57888126 -8482479.4246501923 0 0 0 0 -115887406.42524931 132569143.79980704 0 132569143.79980704 -29132042.87335968 0 0 0 0 -114829675.51494741 152885371.27911568 0 152885371.27911568 -71307890.184499264 0 0 0 0 -99977634.489098072 99951037.715614319 0 99951037.715614319 10576855.234855652 0 0 0 0 -120506916.69307429 121421522.32987213 0 121421522.32987213 62335378.458241463 0 0 0 0 -100987920.12002829 93021937.419594765 0 93021937.419594765 21200549.678819656 0 0 0 0 -165952278.18669045 103646397.68861389 0 103646397.68861389 77886055.647631168 0 0 0 0 -182987240.53650618 102273996.84310794 0 102273996.84310794 84911303.724264145 0 0 0 0 -250212440.08691263 42654038.910817623 0 42654038.910817623 143980240.22478914 0 0 0 0 -202522801.68769109 3769166.5555753708 0 3769166.5555753708 96991667.783973217 0 0 0 0 -220480185.36568618 98675594.44429183 0 98675594.44429183 186543804.89528275 0 0 0 0 -186804477.59523749 -3152974.4792635441 0 -3152974.4792635441 468783799.20977211 0 0 0 0 -191223059.53051266 -47606129.103849411 0 -47606129.103849411 326057270.94622898 0 0 0 0 -131960705.77607274 -124645976.00989056 0 -124645976.00989056 186895104.28343105 0 0 0 0 -134844722.10411835 -179716944.65520144 0 -179716944.65520144 285823163.18471432 0 0 0 0 -119123355.31315729 -144405268.14008999 0 -144405268.14008999 86142130.997164726 0 0 0 0 -321505713.07278699 -201064732.03207418 0 -201064732.03207418 50255852.681523323 0 0 0 0 -305126414.45385277 -29423740.008284032 0 -29423740.008284032 48413941.164150238 0 0 0 0 -224454141.21344614 -86004970.396907806 0 -86004970.396907806 -61009251.212272644 0 0 0 0 -267425880.99083662 -56287464.368427277 0 -56287464.368427277 172628029.53588867 0 0 0 0 -129281273.41583806 14373264.94458282 0 14373264.94458282 767751892.17500591 0 0 0 0 -73600424.086625814 -214106593.9055562 0 -214106593.9055562 806988151.5652324 0 0 0 0 -121502201.98290753 -56396571.18103838 0 -56396571.18103838 338077932.7240963 0 0 0 0 -137572633.98124489 -163481125.50770122 0 -163481125.50770122 480404726.1045084 0 0 0 0 -96267077.024698377 -368325779.66525745 0 -368325779.66525745 360778576.26371598 0 0 0 0 195356609.22102734 -225402813.86844462 0 -225402813.86844462 507474284.8965416 0 0 0 0 -497009127.13798058 -290231468.60352302 0 -290231468.60352302 1188819860.9992676 0 0 0 0 60168069.942259789 -343598199.5551939 0 -343598199.5551939 542523700.04746103 0 0 0 0 -914133.91797110636 -127693.31624615332 0 -127693.31624615332 2489973.8747783653 0 0 0 0 26598353.519448668 -242231500.58098376 0 -242231500.58098376 391610056.99905872 0 0 0 0 -1356706.8683120266 -594407.42455715849 0 -594407.42455715849 2666384.011541991 0 0 0 0 483315590.13075048 -1381609770.2960267 0 -1381609770.2960267 2202550743.7373772 0 0 0 0 -414099129.60665065 118980302.09470272 0 118980302.09470272 157520474.18520832 0 0 0 0 13577629.112429425 -702118965.85211039 0 -702118965.85211039 1226426677.2508254 0 0 0 0 -391129614.58800995 -167493243.05226898 0 -167493243.05226898 58066087.640774727 0 0 0 0 -330887240.01036549 154915786.68586445 0 154915786.68586445 -251963479.10549405 0 0 0 0 -457219033.43727684 16143495.691373825 0 16143495.691373825 -43457681.713903666 0 0 0 0 495753488.26997387 -390746858.91016293 0 -390746858.91016293 -274294741.81147748 0 0 0 0 -447568846.16320157 -329283507.70637608 0 -329283507.70637608 -345271444.49359655 0 0 0 0 -100263.96435597539 -89179.857944101328 0 -89179.857944101328 163180.88794928719 0 0 0 0 90514970.944070458 -213708515.7288785 0 -213708515.7288785 1168399.2338829041 0 0 0 0 40636274.901866794 -329228287.75564289 0 -329228287.75564289 82033081.10387516 0 0 0 0 -28001386.833976448 -426120796.23496032 0 -426120796.23496032 390211035.8131361 0 0 0 0 32639826.102189794 -322536965.83356261 0 -322536965.83356261 79953825.397478104 0 0 0 0 505130880.52432579 -796306503.72828054 0 -796306503.72828054 106797892.93992719 0 0 0 0 -191354857.89197963 -1279077253.4635463 0 -1279077253.4635463 2194053702.7199364 0 0 0 0 -517837251.41570657 -203283896.16680712 0 -203283896.16680712 631961945.46852016 0 0 0 0 -357661188.10766906 -545684800.47174132 0 -545684800.47174132 1361410286.5317688 0 0 0 0 747749094.66160548 -709260331.40253198 0 -709260331.40253198 391914649.80586147 0 0 0 0 -942115.1677920575 1343570.6680932492 0 1343570.6680932492 2858872.4576903926 0 0 0 0 50281121.039135218 597922806.54537654 0 597922806.54537654 2200693748.902401 0 0 0 0 -41195221.819447353 74738243.524955392 0 74738243.524955392 1232314972.1169388 0 0 0 0 -1860219.9772306199 763450.38329065009 0 763450.38329065009 3508672.2281322777 0 0 0 0 -6334561.1323633194 -4480177.1466054916 0 -4480177.1466054916 13504148.926040649 0 0 0 0 -5337272.2946324348 -1034377.2461767197 0 -1034377.2461767197 9768771.1053032875 0 0 0 0 -5457884.5829564929 -542497.65772235394 0 -542497.65772235394 20689896.629140854 0 0 0 0 -110129029.57531795 -228061297.93758249 0 -228061297.93758249 2205453127.233222 0 0 0 0 -615951.13410902023 4650722.5207214355 0 4650722.5207214355 15142313.648147106 0 0 0 0 -1230966.1400959222 965064.11303422949 0 965064.11303422949 2397452.349140713 0 0 0 0 -14031895.540655904 -307269825.83781576 0 -307269825.83781576 2016902803.1935883 0 0 0 0 106479861.33560465 -492183127.4765625 0 -492183127.4765625 2205615787.0226612 0 0 0 0 -5924719.6592845917 -12378790.784911156 0 -12378790.784911156 45029421.866138458 0 0 0 0 -6858466.8076553345 -10733996.413972378 0 -10733996.413972378 36091527.239495277 0 0 0 0 127717.12656006881 386036.33640002366 0 386036.33640002366 -144557.77049809892 0 0 0 0 6927946.586247921 -19351109.377575874 0 -19351109.377575874 39868524.569992542 0 0 0 0 16480093.765447617 -11857286.789315224 0 -11857286.789315224 22830020.718185425 0 0 0 0 5141231.3527674675 -13760601.610831261 0 -13760601.610831261 14879038.447998762 0 0 0 0 5811521.1708381176 -1341416.8164606094 0 -1341416.8164606094 527259.90515947342 0 0 0 0 652551.56453945255 -3228363.4869301664 0 -3228363.4869301664 -5290.1867685075849 0 0 0 0 -90313.208521425724 -15677461.597323298 0 -15677461.597323298 19328667.007100105 0 0 0 0 4008506.2982120514 -12570736.296737194 0 -12570736.296737194 13777219.11635685 0 0 0 0 171939.23827075958 -6062328.6308603287 0 -6062328.6308603287 3825773.0734424591 0 0 0 0 857010.00198512455 -2652669.7941101305 0 -2652669.7941101305 -1144911.5451294938 0 0 0 0 -502561.1896572113 -7455901.7440462112 0 -7455901.7440462112 4351834.4224052429 0 0 0 0 105571.43887731014 -3457538.4903771593 0 -3457538.4903771593 5516056.9151795413 0 0 0 0 -213908317.16851228 33874371.893568039 0 33874371.893568039 21917098.871317863 0 0 0 0 -248368314.04731327 -6558925.6476519108 0 -6558925.6476519108 49834335.949865341 0 0 0 0 -24039.20448402164 -3388347.684130223 0 -3388347.684130223 5921522.0042762123 0 0 0 0 -170928940.61228168 23938696.366968155 0 23938696.366968155 339506765.0297873 0 0 0 0 -234790550.35607642 78342869.800569534 0 78342869.800569534 613546493.10752487 0 0 0 0 -170491815.28177315 143040247.56924725 0 143040247.56924725 633195344.33538818 0 0 0 0 -531467632.83148283 261060178.01952434 0 261060178.01952434 2206150254.8046379 0 0 0 0 -380112191.55004096 -196931541.61605167 0 -196931541.61605167 1649761643.9969597 0 0 0 0 -498347926.74630606 257055823.25259614 0 257055823.25259614 1233741532.633997 0 0 0 0 -181235788.37015879 345879274.75602531 0 345879274.75602531 1243167333.0765955 0 0 0 0 -278049423.99062526 941715925.67803288 0 941715925.67803288 2200294712.5689373 0 0 0 0 -11629526.747360647 -13090914.16767931 0 -13090914.16767931 886738.60515975952 0 0 0 0 495312788.91748285 436785902.78160477 0 436785902.78160477 205279974.75909615 0 0 0 0 133708267.41336662 192051203.87462616 0 192051203.87462616 165068794.44350624 0 0 0 0 17667738.375410736 -70626726.372770309 0 -70626726.372770309 87103000.092119694 0 0 0 0 -31277952.919912219 -90922062.086688519 0 -90922062.086688519 113041377.96509171 0 0 0 0 1665245.0839874744 -11016164.652832031 0 -11016164.652832031 16402232.972593307 0 0 0 0 -511566.82045508781 -732225.58079167642 0 -732225.58079167642 698356.07714425866 0 0 0 0 -116184082.59439331 416924483.05449295 0 416924483.05449295 2203282748.1143322 0 0 0 0 773913517.94121408 595019903.67976379 0 595019903.67976379 289828324.60471153 0 0 0 0 648771.96641954407 -321846.83889163588 0 -321846.83889163588 2479582.6179778511 0 0 0 0 -146095593.37926954 -323384961.22906971 0 -323384961.22906971 1982598606.0778139 0 0 0 0 -460787.37388488575 443025.30068222061 0 443025.30068222061 950165.39117511106 0 0 0 0 145653800.95399821 -9467872.5562973022 0 -9467872.5562973022 18236664.01017952 0 0 0 0 40289545.053716607 -35451409.154807091 0 -35451409.154807091 50402967.255269051 0 0 0 0 61408995.927856468 -321170181.79764748 0 -321170181.79764748 2396898946.1036625 0 0 0 0 770351.98686363338 686466.42363871308 0 686466.42363871308 4667780.98627037 0 0 0 0 -10007362.988531232 282706.19950580597 0 282706.19950580597 11466305.418100357 0 0 0 0 11004072.252108954 -4145732.4090663195 0 -4145732.4090663195 20589396.363206863 0 0 0 0 1124073.077175803 -3842416.1716624908 0 -3842416.1716624908 776323.58715891652 0 0 0 0 -374189.86164903641 -4941034.5215955973 0 -4941034.5215955973 13149298.616439819 0 0 0 0 2590035.0836598873 -8203925.8545484543 0 -8203925.8545484543 13974417.564281464 0 0 0 0 -36494624.141801596 30737076.698515892 0 30737076.698515892 19188969.840860367 0 0 0 0 -45413026.314360023 13475908.444643974 0 13475908.444643974 8840367.5179510117 0 0 0 0 -3108432.6056830925 574870.795423456 0 574870.795423456 10360327.645105982 0 0 0 0 -41023621.371530533 53499440.43707943 0 53499440.43707943 -63516695.202361584 0 0 0 0 -1153917.3715180042 -980631.0498469132 0 -980631.0498469132 2705121.6633023825 0 0 0 0 -84340627.495902896 51337694.118564129 0 51337694.118564129 46610311.188089371 0 0 0 0 -26598077.071438551 -35192135.71308136 0 -35192135.71308136 95552488.60517025 0 0 0 0 278899422.93048382 -297599145.4506321 0 -297599145.4506321 215618246.68658447 0 0 0 0 12699218.248843193 -74687985.502207756 0 -74687985.502207756 308442819.02454758 0 0 0 0 132052088.94460058 -251468899.23613167 0 -251468899.23613167 316873579.75250244 0 0 0 0 -228180000.92224383 189813353.31465149 0 189813353.31465149 -350168704.06581116 0 0 0 0 -357134.21240252227 -272990.03917038534 0 -272990.03917038534 849834.16951721511 0 0 0 0 -188638987.17017084 254509702.32268572 0 254509702.32268572 -246515630.74007797 0 0 0 0 -221670.79483985418 -54632.453802413773 0 -54632.453802413773 551673.23069608398 0 0 0 0 -42241363.399807215 -58700761.266168594 0 -58700761.266168594 -74246830.811216354 0 0 0 0 -235669002.88683516 253136240.31042671 0 253136240.31042671 -342894189.29299927 0 0 0 0 -345161251.56948042 72792082.185445786 0 72792082.185445786 337104156.6741339 0 0 0 0 40967276.681262374 -6548690.5099115372 0 -6548690.5099115372 47136731.304258347 0 0 0 0 16735449.174916446 -70369220.304309011 0 -70369220.304309011 42223910.801002502 0 0 0 0 387805.04938121955 -1597716.0084514697 0 -1597716.0084514697 1266919.7769931362 0 0 0 0 7918548.9852871895 -20186784.512412071 0 -20186784.512412071 -35876265.223939896 0 0 0 0 5212787.0073535442 -25478328.79931736 0 -25478328.79931736 14701938.555016518 0 0 0 0 -7631741.4107174277 -16840704.174716473 0 -16840704.174716473 9393453.1701812744 0 0 0 0 -26132771.77554822 -14416416.689239502 0 -14416416.689239502 34069599.97427845 0 0 0 0 -2986103.2619249411 1373705.0507695852 0 1373705.0507695852 10239191.939028053 0 0 0 0 -23481257.112533092 1913551.439312458 0 1913551.439312458 17680975.47505796 0 0 0 0 -37827976.233662844 9586076.3950777054 0 9586076.3950777054 13294607.314214706 0 0 0 0 -534124.88430154324 -8040442.9936971664 0 -8040442.9936971664 11959049.221038818 0 0 0 0 -69390244.438720226 -155983697.78901482 0 -155983697.78901482 529906997.58075285 0 0 0 0 -62828711.102308273 -123290406.84685731 0 -123290406.84685731 670235112.6035862 0 0 0 0 -81043709.203141689 -29826008.230536222 0 -29826008.230536222 460016085.80339813 0 0 0 0 -322612.4668721715 -1560603.0937804836 0 -1560603.0937804836 1864087.5798229792 0 0 0 0 101043274.36393863 -149015391.73967838 0 -149015391.73967838 413813356.5807085 0 0 0 0 -135511148.72523454 -111505030.8730166 0 -111505030.8730166 753003747.46473694 0 0 0 0 35505351.394251168 -97448108.58714962 0 -97448108.58714962 700354343.87246418 0 0 0 0 -18427850.947831899 -274718378.45506144 0 -274718378.45506144 1090401470.3602819 0 0 0 0 330898204.01251411 -437109496.83388233 0 -437109496.83388233 1128418360.7113571 0 0 0 0 -178187189.42319727 133087490.74551392 0 133087490.74551392 1108473231.4272003 0 0 0 0 -102623689.66109823 -332786984.44677722 0 -332786984.44677722 377833481.67206764 0 0 0 0 80168335.668134511 351741805.8618269 0 351741805.8618269 79832863.825333118 0 0 0 0 123966496.30733299 192038.61044788361 0 192038.61044788361 41908165.531572342 0 0 0 0 16639979.840385437 -75807161.845749855 0 -75807161.845749855 169285965.72358322 0 0 0 0 -60177718.29913044 23669842.044584274 0 23669842.044584274 197227327.61142445 0 0 0 0 12668520.734133005 -11697245.565093994 0 -11697245.565093994 154348032.30596828 0 0 0 0 22559972.032719135 -7905063.4734344482 0 -7905063.4734344482 11234378.25617218 0 0 0 0 24166038.573135376 8397467.0167064667 0 8397467.0167064667 43179975.195117474 0 0 0 0 36612484.213108063 -22125913.890597343 0 -22125913.890597343 20221366.549119949 0 0 0 0 -31984865.178920269 -6818352.0151786804 0 -6818352.0151786804 57326177.726438522 0 0 0 0 -29584433.278252602 -21710433.939876556 0 -21710433.939876556 77026079.55178833 0 0 0 0 -53237177.28358984 28061912.574609756 0 28061912.574609756 24032687.725978851 0 0 0 0 -54503748.327839732 13479172.685908318 0 13479172.685908318 39424417.406833649 0 0 0 0 -111280793.51439101 66843931.338353634 0 66843931.338353634 52020137.759464264 0 0 0 0 -93757673.550401449 45839241.74484539 0 45839241.74484539 77118582.236095428 0 0 0 0 -23746591.085778236 -10699366.425502777 0 -10699366.425502777 71382227.142588615 0 0 0 0 -102548232.67172623 34440951.565811157 0 34440951.565811157 79419329.864247322 0 0 0 0 -65069943.599100351 -12070964.6742239 0 -12070964.6742239 129090432.62061691 0 0 0 0 -78940956.958477497 72909138.815759659 0 72909138.815759659 3433005.2946987152 0 0 0 0 -122694761.88728666 10396720.254374027 0 10396720.254374027 -6628941.5480995178 0 0 0 0 -67449892.049156189 53779914.030284882 0 53779914.030284882 94212728.16938591 0 0 0 0 -188390960.74358928 43462830.738128662 0 43462830.738128662 56285644.95356369 0 0 0 0 -115831185.91145658 12157154.94792366 0 12157154.94792366 59836470.223852158 0 0 0 0 -126525633.27212262 73928082.085662842 0 73928082.085662842 70386860.781162262 0 0 0 0 25850227.542844534 -18410468.508740425 0 -18410468.508740425 15158409.531274796 0 0 0 0 72409622.481281877 -59315243.879664421 0 -59315243.879664421 25648020.694952011 0 0 0 0 47028394.171294212 56563102.959190369 0 56563102.959190369 91674654.688810349 0 0 0 0 694896.53876413929 -691977.86755026935 0 -691977.86755026935 -539551.01483359654 0 0 0 0 -29149.31931240909 -125288.48797063716 0 -125288.48797063716 276136.70422305446 0 0 0 0 8790104.373967886 -33003961.567211866 0 -33003961.567211866 43370856.964948654 0 0 0 0 14625524.821775198 -10998891.789642334 0 -10998891.789642334 31698651.482362747 0 0 0 0 -13419255.229645014 -17365135.687850475 0 -17365135.687850475 27932146.781730652 0 0 0 0 -34758032.598389626 27089490.21862793 0 27089490.21862793 19845745.589820862 0 0 0 0 -16132102.002567291 17847009.213838577 0 17847009.213838577 5481712.0535697937 0 0 0 0 -11848877.997900486 4789226.175696373 0 4789226.175696373 67953029.45610714 0 0 0 0 -7395985.614325285 3868681.435397625 0 3868681.435397625 18143176.846323013 0 0 0 0 18488693.295530558 34805825.042173386 0 34805825.042173386 16701577.795420647 0 0 0 0 -33298338.891231537 16239926.244157791 0 16239926.244157791 27522993.337934017 0 0 0 0 147336.73652148247 10495519.548979282 0 10495519.548979282 -12369615.635313034 0 0 0 0 -3924281.0310077183 2829113.334795333 0 2829113.334795333 6461425.9214614257 0 0 0 0 321440.17607688904 31800597.728704453 0 31800597.728704453 -26785264.345606327 0 0 0 0 69482828.119789124 -174270827.43794441 0 -174270827.43794441 394223275.33172607 0 0 0 0 -3434582.2509407802 2145479.9029044178 0 2145479.9029044178 10212815.296176566 0 0 0 0 -1258921.0971679664 -1648620.9220027695 0 -1648620.9220027695 2971340.6601102408 0 0 0 0 -10759111.100289106 -890544.89779043198 0 -890544.89779043198 17051714.438873291 0 0 0 0 -65461.9664980995 139.96381138340803 0 139.96381138340803 -5063.1181163992733 0 0 0 0 -25899438.999365807 -252797588.10575247 0 -252797588.10575247 707976894.86859798 0 0 0 0 107015877.0404253 -291394682.48690176 0 -291394682.48690176 408044269.85192013 0 0 0 0 76157981.815921783 -151721869.17977142 0 -151721869.17977142 352031543.92242813 0 0 0 0 -2280483.5447573662 44143.913053274155 0 44143.913053274155 113954896.20741844 0 0 0 0 285220905.74819565 -145969665.65432167 0 -145969665.65432167 109308418.16687775 0 0 0 0 -34418804.490974426 -95277158.899280548 0 -95277158.899280548 294082222.55556297 0 0 0 0 356563039.72689056 -528659465.69570303 0 -528659465.69570303 568995181.43303776 0 0 0 0 -4764448.3344387049 3033497.5522328108 0 3033497.5522328108 5188281.0690132957 0 0 0 0 145186355.54496098 -114651100.67098475 0 -114651100.67098475 -49620855.584452868 0 0 0 0 -64178681.720293045 6616692.7531394958 0 6616692.7531394958 49410708.966589928 0 0 0 0 -55818271.569227219 7226190.3814911842 0 7226190.3814911842 43870643.995404243 0 0 0 0 9038075.0850837231 5065517.6609506607 0 5065517.6609506607 -31972170.56114006 0 0 0 0 -4781696.2075778693 -6656276.738797009 0 -6656276.738797009 -14115146.497650146 0 0 0 0 24606124.268560648 9613625.5910978317 0 9613625.5910978317 -7568672.1099853516 0 0 0 0 -4983619.1087152958 -6728385.9516916275 0 -6728385.9516916275 14530486.062274933 0 0 0 0 -17333181.134210825 13600364.633796692 0 13600364.633796692 -16557107.958540916 0 0 0 0 -3601526.7944822311 -10244271.892817497 0 -10244271.892817497 7178301.4062929153 0 0 0 0 -18728176.485492468 5901808.371260643 0 5901808.371260643 -9406386.5140800476 0 0 0 0 -3328727.8775709867 -1960698.7341709137 0 -1960698.7341709137 -11590544.981327057 0 0 0 0 -9271905.3652527332 8707196.7410449982 0 8707196.7410449982 -17875889.83729744 0 0 0 0 2357325.6717798142 -1336401.7701270778 0 -1336401.7701270778 1806578.0344269725 0 0 0 0 17558191.414588928 -20246544.990641594 0 -20246544.990641594 2614346.9032318592 0 0 0 0 52103389.970192909 -41975066.967024684 0 -41975066.967024684 804397672.01934958 0 0 0 0 8861225.2776088715 -29008769.551383018 0 -29008769.551383018 849647255.82726109 0 0 0 0 28187700.736482143 -31671842.56545575 0 -31671842.56545575 801387504.1696372 0 0 0 0 836034.810299973 -155802.56348289328 0 -155802.56348289328 577008.73410718143 0 0 0 0 53065258.544294357 22436716.446318984 0 22436716.446318984 1019314536.8417444 0 0 0 0 -38682182.01748848 -176665086.98585653 0 -176665086.98585653 1478986822.3672645 0 0 0 0 144465438.06797695 -65440653.3488262 0 -65440653.3488262 490509930.69186449 0 0 0 0 148164705.59494287 -239458807.49314073 0 -239458807.49314073 773667058.03222215 0 0 0 0 135029417.19998235 -78389357.747867033 0 -78389357.747867033 768181532.18793631 0 0 0 0 89812480.542674541 5206343.29345873 0 5206343.29345873 494887005.50690687 0 0 0 0 124023056.43094826 -108045292.99815959 0 -108045292.99815959 746754508.36657298 0 0 0 0 162304189.66042423 -66990042.019713312 0 -66990042.019713312 417347773.20579284 0 0 0 0 70357798.222027108 134516724.16766995 0 134516724.16766995 232842276.89008138 0 0 0 0 142973479.06141806 -59953165.62997061 0 -59953165.62997061 493217274.36154735 0 0 0 0 227355087.79130864 3386951.9774650484 0 3386951.9774650484 146463770.87301445 0 0 0 0 -291817360.74944651 -30079001.224433899 0 -30079001.224433899 282669755.90960836 0 0 0 0 385240.18254745542 1644842.9047060844 0 1644842.9047060844 2384450.4654004835 0 0 0 0 -35103974.164154097 252304924.06736901 0 252304924.06736901 -108733000.88546491 0 0 0 0 -40937069.300336361 -62713715.434479654 0 -62713715.434479654 136904738.77652255 0 0 0 0 95480806.829149246 67332175.078926563 0 67332175.078926563 225927919.62793756 0 0 0 0 -66832501.587203979 -109797953.854963 0 -109797953.854963 89991935.353429079 0 0 0 0 15324085.173774719 -51131594.741951942 0 -51131594.741951942 499105820.1261487 0 0 0 0 -132958380.65914011 -95863935.04909873 0 -95863935.04909873 485834152.78569055 0 0 0 0 -46922659.702747345 -103464209.55762696 0 -103464209.55762696 751640129.17530918 0 0 0 0 -27440301.693555832 -104042978.52716672 0 -104042978.52716672 468204145.93204331 0 0 0 0 294300513.55234146 -145290278.89915895 0 -145290278.89915895 451704595.92085826 0 0 0 0 296297983.85352898 -436730725.16274452 0 -436730725.16274452 973988460.34915566 0 0 0 0 370944742.59758532 -83787741.214978129 0 -83787741.214978129 711258945.98120546 0 0 0 0 -64194153.510670066 -198092689.53232497 0 -198092689.53232497 675385194.250916 0 0 0 0 -92815062.686682701 -174015734.01209092 0 -174015734.01209092 1025177703.0664907 0 0 0 0 -133461901.10714054 -161888480.46686363 0 -161888480.46686363 726883605.63923836 0 0 0 0 -114630929.07494211 -98208545.231371164 0 -98208545.231371164 522310949.0466578 0 0 0 0 -69229846.614934444 -193396706.52464437 0 -193396706.52464437 634575979.89662647 0 0 0 0 -10198136.416966736 -159535948.24353611 0 -159535948.24353611 513024101.76136971 0 0 0 0 426937.66445752082 1138833.0677567373 0 1138833.0677567373 1766371.5111847455 0 0 0 0 -37515558.242186859 -164616419.08196807 0 -164616419.08196807 513801759.34224129 0 0 0 0 -7054951.6047992706 3817765.7130324841 0 3817765.7130324841 168808578.99518162 0 0 0 0 -32852932.521027744 -192700051.73055491 0 -192700051.73055491 434285664.50084782 0 0 0 0 350217987.37394392 -616204720.36824989 0 -616204720.36824989 -66578804.830698013 0 0 0 0 122707808.40773845 -541552251.3472476 0 -541552251.3472476 1066559470.3849994 0 0 0 0 -35432.811531755724 287000.48248878354 0 287000.48248878354 696240.87118455581 0 0 0 0 187315077.59198698 -374584542.05644703 0 -374584542.05644703 745205927.37373114 0 0 0 0 261005418.88665986 -134622402.3733592 0 -134622402.3733592 -222424262.49391556 0 0 0 0 288786295.12112176 -10449010.520567417 0 -10449010.520567417 -125552299.0690403 0 0 0 0 -95494.078427622255 381560.41468485753 0 381560.41468485753 2820927.8310763552 0 0 0 0 -399603533.96826744 39568415.306238174 0 39568415.306238174 119744464.06806946 0 0 0 0 -92699487.846033573 164343768.54142761 0 164343768.54142761 29633727.983192921 0 0 0 0 -80696471.270772934 -123535386.50420094 0 -123535386.50420094 -56252780.890710831 0 0 0 0 -26362643.274349213 -32835255.97618103 0 -32835255.97618103 -86519831.525938988 0 0 0 0 -24583073.65986447 -70393660.678288639 0 -70393660.678288639 600486985.48841286 0 0 0 0 -382867909.20947134 13665361.101622105 0 13665361.101622105 205978827.39465332 0 0 0 0 -65546.742372739929 441243.87776165805 0 441243.87776165805 2162877.5232747658 0 0 0 0 469773031.80135655 771332475.31882048 0 771332475.31882048 -91042462.632761002 0 0 0 0 761049.59370167612 1888918.945100433 0 1888918.945100433 2550766.2380715185 0 0 0 0 -157025877.18070793 140743602.36319947 0 140743602.36319947 196025013.70012313 0 0 0 0 187735716.02383494 -413251792.95228243 0 -413251792.95228243 -22946207.233836412 0 0 0 0 373297942.44241571 397821478.55160332 0 397821478.55160332 329211199.51732826 0 0 0 0 173680.08051046624 493211.20547753642 0 493211.20547753642 1477081.3510400071 0 0 0 0 670008636.00054288 203115272.33158016 0 203115272.33158016 35717438.933172226 0 0 0 0 -377651957.82689011 -297215358.32907128 0 -297215358.32907128 518136464.06311989 0 0 0 0 71232741.301595598 -310185047.44992691 0 -310185047.44992691 266696342.70552826 0 0 0 0 -202574778.54107589 -25952858.077797651 0 -25952858.077797651 41031887.627933383 0 0 0 0 287330429.40473336 283376125.24380755 0 283376125.24380755 60722326.689249039 0 0 0 0 327537999.42346668 47295084.682531357 0 47295084.682531357 -7921076.4194765091 0 0 0 0 92840353.145568371 21935669.090482712 0 21935669.090482712 15862964.315610886 0 0 0 0 64844179.522126198 49289630.67930603 0 49289630.67930603 68854849.515895844 0 0 0 0 -304651793.66698825 43055381.522888929 0 43055381.522888929 175155034.50162864 0 0 0 0 602715.44606699562 1786695.0748666534 0 1786695.0748666534 4002621.3913129903 0 0 0 0 79749595.023632765 20997427.756872654 0 20997427.756872654 10639932.605617523 0 0 0 0 57514536.82274437 13724532.2741642 0 13724532.2741642 3680662.5224533081 0 0 0 0 -323947.6886570775 -43445.447048096918 0 -43445.447048096918 437476.35607075039 0 0 0 0 -179260673.92211813 73035287.398706555 0 73035287.398706555 -119085512.18434227 0 0 0 0 72224690.610242844 124214204.46365356 0 124214204.46365356 -56400581.178316116 0 0 0 0 82787871.334560871 283768175.54799271 0 283768175.54799271 46766360.599555492 0 0 0 0 76707112.791250944 222131987.86783409 0 222131987.86783409 225635231.5088644 0 0 0 0 -1346804.2515184879 29419229.212506294 0 29419229.212506294 499838632.96537876 0 0 0 0 93109214.229612827 109439416.78527927 0 109439416.78527927 192801502.11282825 0 0 0 0 101594453.26191425 233083436.82899952 0 233083436.82899952 93044757.913498878 0 0 0 0 4331.6473888877199 284864.81622406683 0 284864.81622406683 838651.56862665061 0 0 0 0 -4119540.0011687279 304636599.67574215 0 304636599.67574215 243896207.77926064 0 0 0 0 104945487.70390821 -160579849.44192958 0 -160579849.44192958 232694086.42601013 0 0 0 0 -70823944.31986028 302089597.47320652 0 302089597.47320652 584964252.33687973 0 0 0 0 299834630.80407429 -152788879.42403555 0 -152788879.42403555 18249103.003120422 0 0 0 0 15373261.755497932 111704289.72763062 0 111704289.72763062 -108464785.27608395 0 0 0 0 1614153.7851539254 16643263.915580273 0 16643263.915580273 102622349.12517738 0 0 0 0 58456133.579814434 -22456231.104748726 0 -22456231.104748726 121304847.20643616 0 0 0 0 -89528530.348362744 43248499.256694794 0 43248499.256694794 -23053569.696951866 0 0 0 0 79514759.912801981 -66411773.385017395 0 -66411773.385017395 34089842.117118835 0 0 0 0 -3557342.5623469353 5875424.9915924072 0 5875424.9915924072 -2091567.835319519 0 0 0 0 73993782.589846611 -10685270.59270668 0 -10685270.59270668 -40981842.800451279 0 0 0 0 128280615.66625017 -14728341.010276318 0 -14728341.010276318 -64718409.966201782 0 0 0 0 33616912.131843671 54449185.943995476 0 54449185.943995476 83923631.584753513 0 0 0 0 465871.40044912387 657347.56817771727 0 657347.56817771727 -867279.2467707824 0 0 0 0 -150944638.92897969 131544535.30064106 0 131544535.30064106 -15685601.196904182 0 0 0 0 2093007.5934391022 6402260.7200965881 0 6402260.7200965881 -4869661.8574619293 0 0 0 0 1529997.4735477497 2556279.8057437185 0 2556279.8057437185 -404296.73399558477 0 0 0 0 41233365.806990147 -29203311.6415205 0 -29203311.6415205 26263769.037389755 0 0 0 0 43531698.213419914 -28025787.313536644 0 -28025787.313536644 15812363.910373688 0 0 0 0 46248228.04890883 -17770228.578703403 0 -17770228.578703403 53744191.45746994 0 0 0 0 47404725.199057579 -33789668.770884514 0 -33789668.770884514 31728526.748630524 0 0 0 0 57479142.944408774 20112510.543649483 0 20112510.543649483 48274514.530673981 0 0 0 0 71649085.628917098 -46085928.883495569 0 -46085928.883495569 25692180.777555466 0 0 0 0 465331.22989376402 389742.12702310993 0 389742.12702310993 -438825.28754364047 0 0 0 0 53410254.009140849 -54694588.99481082 0 -54694588.99481082 22920513.495025635 0 0 0 0 30164038.225666046 -8570715.2218093872 0 -8570715.2218093872 30746924.176725864 0 0 0 0 47594952.094665408 -34140292.768266678 0 -34140292.768266678 10468077.019126892 0 0 0 0 -874076.57877063751 1413188.2989654541 0 1413188.2989654541 -307933.97546577454 0 0 0 0 190139.82412344217 16068642.388881803 0 16068642.388881803 -10179091.040302277 0 0 0 0 -194993308.66703677 304342870.40498972 0 304342870.40498972 -100708817.72625044 0 0 0 0 1599148.4475196768 2717762.9804568617 0 2717762.9804568617 4868303.0647897944 0 0 0 0 -247255765.10896695 149532384.73257279 0 149532384.73257279 -9851231.6354022026 0 0 0 0 -20886086.691184998 143107428.19974566 0 143107428.19974566 -61162171.232385695 0 0 0 0 68579350.321980476 96199680.357156515 0 96199680.357156515 -260606641.66891217 0 0 0 0 311823963.97199154 122393439.98053655 0 122393439.98053655 -107421281.64726809 0 0 0 0 29632413.217112541 124296455.38881347 0 124296455.38881347 -105594186.32422328 0 0 0 0 -42685801.338353157 198216590.69841859 0 198216590.69841859 235378855.56825447 0 0 0 0 -12676449.467952728 84668040.890828133 0 84668040.890828133 -185729951.45470929 0 0 0 0 3762410.9777008463 4092076.891499992 0 4092076.891499992 4720763.2799867485 0 0 0 0 1241217.8903131485 228921954.93391848 0 228921954.93391848 -257705363.57777074 0 0 0 0 60117390.27963829 28330099.554893494 0 28330099.554893494 -143041293.29309273 0 0 0 0 53943444.687886238 -32032411.955993414 0 -32032411.955993414 -206530817.82642031 0 0 0 0 207189685.10749054 80658100.103030264 0 80658100.103030264 -202264660.35848892 0 0 0 0 27398236.727807045 12584782.388067961 0 12584782.388067961 -151964597.79774183 0 0 0 0 -39628842.25894165 -210652345.3265245 0 -210652345.3265245 -215315680.6237967 0 0 0 0 -77779943.378370285 -166577226.43360519 0 -166577226.43360519 11852248.535649613 0 0 0 0 32957387.043370247 -28704878.898465753 0 -28704878.898465753 -201526423.41150194 0 0 0 0 176969751.35639572 -13429610.811801612 0 -13429610.811801612 -243126917.6437059 0 0 0 0 28630474.566038936 -164431852.64596051 0 -164431852.64596051 -306876194.09217095 0 0 0 0 -35236570.826023102 -46906105.598386765 0 -46906105.598386765 -168301687.44870785 0 0 0 0 1819066.4502091408 -109665748.31681114 0 -109665748.31681114 -62314776.624658912 0 0 0 0 228895185.66216946 -181262041.3480083 0 -181262041.3480083 -44545559.561742589 0 0 0 0 158152582.58118486 27630235.571744263 0 27630235.571744263 90206646.147885442 0 0 0 0 114224538.28960323 -7064705.885687083 0 -7064705.885687083 -115476969.66931248 0 0 0 0 273856067.20506668 68442186.287993476 0 68442186.287993476 -110049027.38786085 0 0 0 0 675212284.55979395 164576486.29137158 0 164576486.29137158 93731543.156275094 0 0 0 0 100755620.82594442 -145296198.04496139 0 -145296198.04496139 440139803.55159581 0 0 0 0 5417009.682009697 487293.24430486932 0 487293.24430486932 246841608.06795421 0 0 0 0 244976443.41128635 230673329.52434161 0 230673329.52434161 264245013.91444594 0 0 0 0 272096148.21979284 179698981.60893238 0 179698981.60893238 -161883737.25813738 0 0 0 0 84105826.814319611 -355970677.9791826 0 -355970677.9791826 768984677.3859576 0 0 0 0 15937.931632024469 609328.63771915506 0 609328.63771915506 1008633.3865532983 0 0 0 0 15569214.528828282 -59858181.872786433 0 -59858181.872786433 283225294.43493462 0 0 0 0 -200462201.17902803 -102979826.20532882 0 -102979826.20532882 378400435.42481065 0 0 0 0 -76940735.830678463 153554339.71082842 0 153554339.71082842 207724726.58531046 0 0 0 0 -190253061.11933422 120785505.94347405 0 120785505.94347405 212507439.38263464 0 0 0 0 35908011.92027688 -3978013.3109870777 0 -3978013.3109870777 227296940.89191091 0 0 0 0 45690906.331785202 248078933.90130019 0 248078933.90130019 748170047.09206045 0 0 0 0 -27963745.715078354 -18652360.433621407 0 -18652360.433621407 68722997.598408699 0 0 0 0 1789564.8436946869 17951358.644078255 0 17951358.644078255 -6447410.6906776428 0 0 0 0 18261545.868478775 -58379936.582988977 0 -58379936.582988977 10054675.193630219 0 0 0 0 -4474672.8244541585 -3108839.135436058 0 -3108839.135436058 21327098.439217567 0 0 0 0 -2628886.3725638087 -2213012.5238342108 0 -2213012.5238342108 2547071.0045223818 0 0 0 0 -4569943.1989129782 -1594286.1737098694 0 -1594286.1737098694 17156033.526173115 0 0 0 0 -2335886.3905055225 -2341206.0291485786 0 -2341206.0291485786 17381217.875640869 0 0 0 0 26174894.353075027 -75595496.232707977 0 -75595496.232707977 54854937.249835968 0 0 0 0 -26077087.219756126 -1110549.5517897606 0 -1110549.5517897606 54821867.829551697 0 0 0 0 -4479862.1245344244 -2671239.0801894129 0 -2671239.0801894129 5853148.9769455027 0 0 0 0 -90691.501814700197 777499.90205948963 0 777499.90205948963 7270873.9992907755 0 0 0 0 -58411071.857264519 -59929685.067323685 0 -59929685.067323685 65952143.751446724 0 0 0 0 51827956.506073952 -26610566.450011492 0 -26610566.450011492 -10533929.32359314 0 0 0 0 -7424772.9608120918 32674406.528036118 0 32674406.528036118 -9203815.2090654373 0 0 0 0 69604607.698179245 -83683115.11915946 0 -83683115.11915946 63959306.303880692 0 0 0 0 1630909.8617675037 1095347.0044972589 0 1095347.0044972589 3588149.9019106505 0 0 0 0 14180592.288486362 -18625830.795099735 0 -18625830.795099735 68213830.234519958 0 0 0 0 44144961.880446434 -28648679.467417717 0 -28648679.467417717 67274336.181034088 0 0 0 0 -64119915.815499306 26784662.636011124 0 26784662.636011124 41689335.721025467 0 0 0 0 13513248.647541523 -20158191.89338398 0 -20158191.89338398 66162123.969074249 0 0 0 0 -34346923.02182579 15451011.073049545 0 15451011.073049545 68019600.648456573 0 0 0 0 -20363765.892777443 404066.35821914673 0 404066.35821914673 93972938.332321167 0 0 0 0 -6837549.4650268555 -22570352.238674164 0 -22570352.238674164 107308672.03949738 0 0 0 0 74435150.297824621 -104508386.33107543 0 -104508386.33107543 130116125.41274071 0 0 0 0 -2833232.0280508995 -50025293.140817642 0 -50025293.140817642 120925809.34308815 0 0 0 0 1893368.5802692731 1016843.0421356142 0 1016843.0421356142 1747142.3781700265 0 0 0 0 -84295048.226556778 41912449.727746964 0 41912449.727746964 -3317245.5463309288 0 0 0 0 -60674156.025204659 -11141688.408391953 0 -11141688.408391953 47220700.687717438 0 0 0 0 -68257733.402364731 101700448.82333469 0 101700448.82333469 -29802607.352664948 0 0 0 0 -56051308.546402454 49728117.975579262 0 49728117.975579262 42452835.747556686 0 0 0 0 73300806.831412792 133545691.06323338 0 133545691.06323338 96633715.166845322 0 0 0 0 74981365.552903235 144234126.96427071 0 144234126.96427071 44383842.186817169 0 0 0 0 -246838949.85620642 -158298147.2457552 0 -158298147.2457552 91424143.839486122 0 0 0 0 -173067622.25652313 207556472.20083809 0 207556472.20083809 706291852.62133598 0 0 0 0 -101541308.57865238 -14699274.588470459 0 -14699274.588470459 202537621.94618607 0 0 0 0 -102352951.00579643 -51003992.215702057 0 -51003992.215702057 11558146.295450211 0 0 0 0 -59084885.593809962 53598173.599861145 0 53598173.599861145 6484614.37225914 0 0 0 0 1829635.0502001042 1372455.8323171418 0 1372455.8323171418 76904.23240801692 0 0 0 0 290448984.77155995 119326390.31293011 0 119326390.31293011 -39867084.384237289 0 0 0 0 122788129.6542902 -35890409.420074463 0 -35890409.420074463 -50114588.955801487 0 0 0 0 424951477.59971058 366252179.04537392 0 366252179.04537392 182607867.33561325 0 0 0 0 -185311.91132478247 -446332.00118688634 0 -446332.00118688634 270947.17928567994 0 0 0 0 -196175384.89742017 -388965295.78268623 0 -388965295.78268623 310320056.99748993 0 0 0 0 751148358.18940544 313271211.35352325 0 313271211.35352325 614762015.79540634 0 0 0 0 411496133.55890256 50087994.320459366 0 50087994.320459366 -35061985.770808697 0 0 0 0 799993.2222627952 437411.04013608908 0 437411.04013608908 -139450.46474836022 0 0 0 0 -48749590.763008416 224865048.42179394 0 224865048.42179394 84582716.352779388 0 0 0 0 103312833.88899499 147408419.03472996 0 147408419.03472996 -32327680.402590752 0 0 0 0 -53246068.957359388 178117757.16875887 0 178117757.16875887 240135807.7612648 0 0 0 0 -23516996.967877984 -68718148.631248474 0 -68718148.631248474 186958280.94567943 0 0 0 0 -48653407.245492697 742906.68993806839 0 742906.68993806839 45362446.422739029 0 0 0 0 -24084496.884065449 113693217.75221729 0 113693217.75221729 -36487329.118320465 0 0 0 0 -22661261.82620813 -51367459.73604393 0 -51367459.73604393 52042884.350254059 0 0 0 0 -44220737.336142272 -29303823.966285706 0 -29303823.966285706 30004515.145475388 0 0 0 0 10455956.950252846 -52122671.738729477 0 -52122671.738729477 13153650.798616409 0 0 0 0 52105243.605769575 -61397060.567619324 0 -61397060.567619324 48916410.504919052 0 0 0 0 -5668281.0361691266 -15938081.36699295 0 -15938081.36699295 16882812.419317245 0 0 0 0 -39112533.718490362 -97532432.807002544 0 -97532432.807002544 2090116.5425643921 0 0 0 0 -1112554.3065147493 -1363182.7060750402 0 -1363182.7060750402 1011665.6002660708 0 0 0 0 -8703968.5472117662 3603540.2496395111 0 3603540.2496395111 10085634.285355568 0 0 0 0 -33856086.04409194 -20526978.090011597 0 -20526978.090011597 7204753.4789066315 0 0 0 0 -43323706.293863043 -21871930.383407593 0 -21871930.383407593 37939057.940315247 0 0 0 0 -33954664.646544367 372730.70837593079 0 372730.70837593079 11673470.912548065 0 0 0 0 -10269367.338449895 -32900416.803396225 0 -32900416.803396225 38024217.825517654 0 0 0 0 -41178.256663445623 5788.5196206648834 0 5788.5196206648834 34287.262573956046 0 0 0 0 15288608.859902591 -6424546.2428321838 0 -6424546.2428321838 11754132.665960312 0 0 0 0 5687355.6960961521 -11787024.672211409 0 -11787024.672211409 9042454.3314828873 0 0 0 0 -78768.071659898371 19744.813716621138 0 19744.813716621138 77439.87980647618 0 0 0 0 -11585175.598091662 -26441855.514245033 0 -26441855.514245033 9509832.1713275909 0 0 0 0 8055.6644857823849 -7446407.4206371307 0 -7446407.4206371307 13383623.106098413 0 0 0 0 8092048.8960141838 -18819565.894202709 0 -18819565.894202709 711404.08027935028 0 0 0 0 20192618.951348945 616044.00066518784 0 616044.00066518784 16343323.786621094 0 0 0 0 -41570883.576276556 -30366993.392650485 0 -30366993.392650485 15264549.928012848 0 0 0 0 -2061400.5993770957 -36559239.231469154 0 -36559239.231469154 -2274826.9231548309 0 0 0 0 -3709261.8634086251 -36803270.072910309 0 -36803270.072910309 22395362.050550461 0 0 0 0 -2283166.3385594636 -22812579.260765076 0 -22812579.260765076 10697691.969120979 0 0 0 0 -1386388.639431417 -25309386.941337585 0 -25309386.941337585 1693083.3688857555 0 0 0 0 -7257881.1296858415 -38780504.136476517 0 -38780504.136476517 -26042379.416859627 0 0 0 0 -272330417.73189759 -211260317.38003981 0 -211260317.38003981 -106902040.51846695 0 0 0 0 -33141459.588449016 -3325701.581161499 0 -3325701.581161499 -4852359.2595691681 0 0 0 0 14777691.861750789 -27248214.346135616 0 -27248214.346135616 -2800146.0765419006 0 0 0 0 56465625.561680712 189198731.99267578 0 189198731.99267578 245778403.28996086 0 0 0 0 764270.00108132698 -39491.772784044966 0 -39491.772784044966 449522.82429243479 0 0 0 0 46048165.773254156 -82367951.30820179 0 -82367951.30820179 -16727749.094863415 0 0 0 0 -97938759.12320751 251060570.08420932 0 251060570.08420932 735823624.66557503 0 0 0 0 -12778204.458648063 571144655.43819427 0 571144655.43819427 501494157.83700371 0 0 0 0 560773801.35362291 74877062.167295456 0 74877062.167295456 -792745581.48184204 0 0 0 0 5033360.07035622 -260766.88832998276 0 -260766.88832998276 35271253.463741302 0 0 0 0 3224481.3958853483 -3721783.6271810532 0 -3721783.6271810532 34066238.218135834 0 0 0 0 37981570.62998198 11639783.312012672 0 11639783.312012672 17603390.869195461 0 0 0 0 1405560.844392064 341609.09813188575 0 341609.09813188575 1547356.8241193802 0 0 0 0 3585528.2492057979 6355545.6391830444 0 6355545.6391830444 63027677.856369019 0 0 0 0 402814231.30653286 -240803521.32344723 0 -240803521.32344723 -225707128.62178826 0 0 0 0 -44048637.684123039 17117921.838068008 0 17117921.838068008 113115694.35282516 0 0 0 0 523678.08754433738 721826.64729290828 0 721826.64729290828 3167367.3664868637 0 0 0 0 -945904.39982354641 -1550325.2689256668 0 -1550325.2689256668 45912089.728376508 0 0 0 0 1867587.6416307837 -3498109.1771194935 0 -3498109.1771194935 37881061.770549774 0 0 0 0 750794.27039021254 -8667633.3251285553 0 -8667633.3251285553 37790477.963134095 0 0 0 0 5711735.6942731738 -4808209.8888070583 0 -4808209.8888070583 21987697.470731735 0 0 0 0 3225669.5971941948 -2907505.4787082672 0 -2907505.4787082672 21499834.174470425 0 0 0 0 -69356.910509676207 29992.167866852134 0 29992.167866852134 85452.726225181948 0 0 0 0 -3904220.3683342263 580374.41418862343 0 580374.41418862343 10262309.194000244 0 0 0 0 -1581855.4550742209 -3428802.5978336334 0 -3428802.5978336334 11605528.099302292 0 0 0 0 9524906.4328539371 -7143997.7774934769 0 -7143997.7774934769 8306008.7107906342 0 0 0 0 1781306.7347689271 -9268419.4196548462 0 -9268419.4196548462 21381734.4063925 0 0 0 0 -2005415.9410292506 -288077.80223464966 0 -288077.80223464966 13423336.877110481 0 0 0 0 -5121939.9169340432 -3862354.1574277878 0 -3862354.1574277878 17715291.217475891 0 0 0 0 -2504002.3686580062 -2037170.5718917847 0 -2037170.5718917847 13203969.258466721 0 0 0 0 -4612872.5873558372 -2784599.313147068 0 -2784599.313147068 12946164.744762421 0 0 0 0 -4629705.8784955144 7750085.2456388474 0 7750085.2456388474 -565151.34369182587 0 0 0 0 -32768.292244077456 16452.063384124544 0 16452.063384124544 43275.048236009665 0 0 0 0 -5618977.2081431746 4512621.7752513885 0 4512621.7752513885 20618590.422689438 0 0 0 0 -5154545.442948103 20469.036093711853 0 20469.036093711853 29207471.898273468 0 0 0 0 -1018319.6740705967 -1247767.419470787 0 -1247767.419470787 28689468.580821991 0 0 0 0 -1513330.8323660493 509477.47275447845 0 509477.47275447845 34751808.417127609 0 0 0 0 -617351.74130761623 -2042034.4872436523 0 -2042034.4872436523 42016264.143652916 0 0 0 0 485897.09297551215 -9842602.1813977361 0 -9842602.1813977361 48559622.637834549 0 0 0 0 2143551.0767021775 -4187286.216221571 0 -4187286.216221571 38680116.302404404 0 0 0 0 133468138.62752914 -17270317.902267456 0 -17270317.902267456 120144298.47696972 0 0 0 0 -1118423.5805116624 684810.46431683423 0 684810.46431683423 5723795.982491333 0 0 0 0 -284769.01942646503 -4823094.6167507172 0 -4823094.6167507172 40378221.86225605 0 0 0 0 -1488621.56400612 -4070752.4887653589 0 -4070752.4887653589 30766861.735343933 0 0 0 0 -930366.02339100838 -6809922.8906869888 0 -6809922.8906869888 37064565.612204075 0 0 0 0 -7494454.7566547394 -2950389.144068718 0 -2950389.144068718 47373994.14900589 0 0 0 0 159690067.94416237 -169212298.78100395 0 -169212298.78100395 93255518.672691345 0 0 0 0 -782129.84334056405 -1549250.9474678608 0 -1549250.9474678608 3266500.0782405883 0 0 0 0 1820795.12550354 -16699348.012306213 0 -16699348.012306213 56486726.204776764 0 0 0 0 19828817.077074051 -33902656.102993011 0 -33902656.102993011 48561776.321983337 0 0 0 0 84240931.25668937 -230535300.08536696 0 -230535300.08536696 192543110.3571434 0 0 0 0 91108002.716274679 -192767891.02566242 0 -192767891.02566242 147289785.74785995 0 0 0 0 156513210.66721296 -158461317.24975586 0 -158461317.24975586 139292767.77203417 0 0 0 0 38353143.835904539 -101930068.75538969 0 -101930068.75538969 127596628.71518326 0 0 0 0 78178741.011002451 -40013686.581001759 0 -40013686.581001759 218866638.02744675 0 0 0 0 -450364.5468108427 -551497.42327793688 0 -551497.42327793688 1242121.080537661 0 0 0 0 77039844.029307842 -85652854.073431969 0 -85652854.073431969 128367434.34373653 0 0 0 0 -49639440.047279358 46363387.511665344 0 46363387.511665344 172538619.81939793 0 0 0 0 -91868443.497855902 -40577893.738119125 0 -40577893.738119125 283914738.14736938 0 0 0 0 -149864122.09784138 -14269918.939188957 0 -14269918.939188957 511942785.6736393 0 0 0 0 -54313649.724513531 -50922843.343730927 0 -50922843.343730927 279906186.7972126 0 0 0 0 -26997144.437543869 -93603864.417032242 0 -93603864.417032242 281914541.91425323 0 0 0 0 -151637686.42246175 102072712.14196777 0 102072712.14196777 239633003.81741524 0 0 0 0 -183718833.78440261 -460000257.62432766 0 -460000257.62432766 847660039.14840317 0 0 0 0 -125782526.56504992 -314307415.39270401 0 -314307415.39270401 430644764.24829865 0 0 0 0 -175533251.89863276 -388733753.88966703 0 -388733753.88966703 448075859.5985527 0 0 0 0 -122850092.20444894 -263785032.20820236 0 -263785032.20820236 501207156.87477577 0 0 0 0 -26276695.033816695 -246352494.49279404 0 -246352494.49279404 363145822.53696442 0 0 0 0 -3188842.9147820473 -189185337.62939453 0 -189185337.62939453 222837665.64963722 0 0 0 0 -40101696.397971272 -307134490.01795864 0 -307134490.01795864 276086548.81225967 0 0 0 0 73677045.822512984 -352766298.27660084 0 -352766298.27660084 106313722.63986588 0 0 0 0 55261007.921823621 -371452351.12473297 0 -371452351.12473297 275354836.34263146 0 0 0 0 196966238.37581205 -340307441.61432266 0 -340307441.61432266 104058611.12062454 0 0 0 0 -24804942.156153679 -577899750.50425339 0 -577899750.50425339 161952101.58115005 0 0 0 0 -18833164.584733486 -472781616.70181847 0 -472781616.70181847 141621811.92118073 0 0 0 0 -36563797.208642006 -481365185.47517967 0 -481365185.47517967 456730023.70500374 0 0 0 0 50320110.261603832 -481401520.5072155 0 -481401520.5072155 134974719.29872894 0 0 0 0 51169298.082828283 -485237528.67535019 0 -485237528.67535019 34149626.843338013 0 0 0 0 -45479456.71201086 -563770103.28492165 0 -563770103.28492165 64776633.660518646 0 0 0 0 -34752803.153672695 -512070120.70150185 0 -512070120.70150185 164538186.01318359 0 0 0 0 74546724.390382528 -469857491.02156067 0 -469857491.02156067 -46863859.630228043 0 0 0 0 43872915.352960587 -530030404.47792816 0 -530030404.47792816 -66928011.811393738 0 0 0 0 -128939153.66009092 -371906694.69716263 0 -371906694.69716263 -22087481.60653162 0 0 0 0 154255315.84383333 -366428686.34904861 0 -366428686.34904861 24551217.705237389 0 0 0 0 186149451.91702318 -364332345.74144173 0 -364332345.74144173 74605407.563671112 0 0 0 0 227180319.62705398 -364668305.58828735 0 -364668305.58828735 14641781.581245422 0 0 0 0 155439363.58207005 -443292992.45512962 0 -443292992.45512962 -8257620.955329895 0 0 0 0 316236494.09306955 -328005318.53424454 0 -328005318.53424454 13583435.440150619 0 0 0 0 239282772.09882498 -339504095.95149612 0 -339504095.95149612 49322403.800796509 0 0 0 0 297431904.3953619 -235429363.33851814 0 -235429363.33851814 9810518.770067215 0 0 0 0 255297114.94598103 -242492306.65430069 0 -242492306.65430069 42093275.003324509 0 0 0 0 418245480.22890759 -223293578.25179482 0 -223293578.25179482 5266419.3135452271 0 0 0 0 263593515.70309162 -105877513.39795113 0 -105877513.39795113 268251.48171234131 0 0 0 0 341712570.26021481 -148069303.02211952 0 -148069303.02211952 11082005.019165039 0 0 0 0 210602761.37301826 -140610992.76039314 0 -140610992.76039314 40168940.952831268 0 0 0 0 217571514.31805611 -172936383.21902084 0 -172936383.21902084 88439726.590612411 0 0 0 0 138809094.15072775 -240240774.16571426 0 -240240774.16571426 128608139.53537178 0 0 0 0 140718150.0689106 -281213659.94997406 0 -281213659.94997406 178526877.87538815 0 0 0 0 203336710.99412161 -227534121.33995461 0 -227534121.33995461 64904419.763664246 0 0 0 0 811670786.63997746 6561240.3410701752 0 6561240.3410701752 493625219.15408707 0 0 0 0 -11026613.862237096 -622034047.56644726 0 -622034047.56644726 1352093323.5028744 0 0 0 0 -281780806.12627411 178307793.79970908 0 178307793.79970908 1483631532.6904221 0 0 0 0 293513888.01635802 -461619523.02622366 0 -461619523.02622366 1283078697.2389793 0 0 0 0 -278315400.1072768 285010211.10273862 0 285010211.10273862 780171125.6598053 0 0 0 0 -21442.827069451363 220936.67453194183 0 220936.67453194183 1497468.3642476695 0 0 0 0 -290142450.01812243 -109564439.1140089 0 -109564439.1140089 692081464.42478561 0 0 0 0 -208357405.38791418 -446826701.25672722 0 -446826701.25672722 608298699.60157967 0 0 0 0 -351078612.06580973 -56922761.641047955 0 -56922761.641047955 1168559681.4611702 0 0 0 0 -162064407.09884548 -38016515.288081646 0 -38016515.288081646 625200148.48592901 0 0 0 0 -195962637.47507894 -283455357.31717062 0 -283455357.31717062 759955466.82460594 0 0 0 0 -435191210.79031277 -85347939.542326927 0 -85347939.542326927 1200493584.0712395 0 0 0 0 90510187.948093891 607716955.00848675 0 607716955.00848675 920668897.76101732 0 0 0 0 -243360.98426963334 -499709.06720240857 0 -499709.06720240857 1650750.5656113727 0 0 0 0 -443665939.57986498 -100680934.76435614 0 -100680934.76435614 1552054784.7585106 0 0 0 0 1089643619.9606514 -704540644.04122543 0 -704540644.04122543 290109010.90359116 0 0 0 0 -224678396.26121306 -502203691.49775362 0 -502203691.49775362 1232038109.7517834 0 0 0 0 888828756.3007493 422949776.48190928 0 422949776.48190928 445991115.76877403 0 0 0 0 -312937014.90328217 -118921523.72801113 0 -118921523.72801113 1760717929.9976158 0 0 0 0 -179468227.11401796 -155518637.95700264 0 -155518637.95700264 641634438.34511566 0 0 0 0 -248186330.33023787 230346423.29403305 0 230346423.29403305 982096657.03322792 0 0 0 0 129089803.92681694 -927757838.31831932 0 -927757838.31831932 1308564252.9101143 0 0 0 0 -72824301.394932747 -518880687.22283554 0 -518880687.22283554 482649958.48673248 0 0 0 0 -91374527.558668137 -563627299.48982811 0 -563627299.48982811 481564227.33535218 0 0 0 0 148568650.21772027 -547983982.83361387 0 -547983982.83361387 136378162.74695969 0 0 0 0 -71244663.421933651 -143495649.09227133 0 -143495649.09227133 100199891.74967575 0 0 0 0 -522538357.47759128 63442183.857065201 0 63442183.857065201 73774980.918380737 0 0 0 0 -333406987.80934143 -569127723.97665787 0 -569127723.97665787 -37499649.780487061 0 0 0 0 -280422573.7349124 -469824875.47264862 0 -469824875.47264862 132934177.68061829 0 0 0 0 -51257909.180574417 -433438968.37589455 0 -433438968.37589455 -174224236.3441925 0 0 0 0 -758281237.51834035 -313532243.46715927 0 -313532243.46715927 40972869.34913826 0 0 0 0 -245772599.03001833 -399632881.59451294 0 -399632881.59451294 -5358129.1517562866 0 0 0 0 -127621085.56221151 -326825543.26029968 0 -326825543.26029968 -255711867.52890396 0 0 0 0 -256736850.30987084 -260277939.11761355 0 -260277939.11761355 -515930447.40263367 0 0 0 0 -728198313.74749327 -313343800.53639984 0 -313343800.53639984 -127453791.76200867 0 0 0 0 -78648352.008832753 15877545.093432426 0 15877545.093432426 18517452.509539604 0 0 0 0 -67384.773049612995 -3145275.8987111272 0 -3145275.8987111272 2082753.8824874721 0 0 0 0 -111736.2406242711 -301042.32757883053 0 -301042.32757883053 165590.55793524068 0 0 0 0 751040.53990110755 8231317.9660461545 0 8231317.9660461545 38785435.760331154 0 0 0 0 -47915719.441765785 -142748276.51989174 0 -142748276.51989174 83059030.184268951 0 0 0 0 -830708.12484691304 -1437603.1499382439 0 -1437603.1499382439 4477458.9090750199 0 0 0 0 -1159144.7891184075 -2306670.0724409134 0 -2306670.0724409134 1616550.5069722056 0 0 0 0 -12933126.034701467 -147921165.9160471 0 -147921165.9160471 170502323.4866004 0 0 0 0 -28385419.507738411 50282477.528233051 0 50282477.528233051 23460681.798719406 0 0 0 0 -8248663.704832837 48004598.581222534 0 48004598.581222534 -56885761.804170609 0 0 0 0 36326597.164891839 -41621831.532292366 0 -41621831.532292366 13818034.789615631 0 0 0 0 97430388.148282826 6337641.2547750473 0 6337641.2547750473 48186505.879493713 0 0 0 0 34332372.642947093 55166637.843332827 0 55166637.843332827 -88390316.832077026 0 0 0 0 310864382.53136623 81421805.820373535 0 81421805.820373535 -276553135.00799608 0 0 0 0 230959.41012120212 -1944759.7840547869 0 -1944759.7840547869 1107518.7436447958 0 0 0 0 176755542.90422249 -122214203.39128494 0 -122214203.39128494 176039104.87004471 0 0 0 0 119798326.2397902 -137854865.61317444 0 -137854865.61317444 197843201.98400116 0 0 0 0 132786964.05689868 -104352097.25656819 0 -104352097.25656819 100925485.50080109 0 0 0 0 274819285.03643632 -136027647.05075836 0 -136027647.05075836 144662695.22258377 0 0 0 0 191957625.16768432 -179285871.8878727 0 -179285871.8878727 153864666.27352905 0 0 0 0 132730184.53630875 -96824805.557949707 0 -96824805.557949707 160294447.87701035 0 0 0 0 83957534.974043727 -109924180.87183189 0 -109924180.87183189 183194446.50969315 0 0 0 0 69757723.983978212 -18544674.723880291 0 -18544674.723880291 64352558.286949158 0 0 0 0 -32138389.84433803 46697747.206997395 0 46697747.206997395 27466735.004987717 0 0 0 0 48258036.750707351 -45734467.785810918 0 -45734467.785810918 5738242.8445835114 0 0 0 0 21250441.415133476 -36930963.155076981 0 -36930963.155076981 67908414.664142609 0 0 0 0 46798625.382184118 -99696548.705375671 0 -99696548.705375671 150167950.48317528 0 0 0 0 -15083896.556518793 -102743528.79444695 0 -102743528.79444695 117811126.80897903 0 0 0 0 -1326711546.0416508 -407221699.61377811 0 -407221699.61377811 284813965.67647552 0 0 0 0 -349877.18650665053 -1992703.1766733192 0 -1992703.1766733192 2632399.7820254881 0 0 0 0 -558520915.08231354 -409098538.61522865 0 -409098538.61522865 11672841.143783569 0 0 0 0 -274361478.08595681 -382474335.48287773 0 -382474335.48287773 -74996754.71500206 0 0 0 0 -674915607.31662595 -30739472.565497398 0 -30739472.565497398 112388653.45254517 0 0 0 0 -526086538.58938402 -12288533.703850627 0 -12288533.703850627 -123136088.20962524 0 0 0 0 -547637754.11899281 198036035.34477013 0 198036035.34477013 1010697642.8296661 0 0 0 0 -1067395810.0836556 356538728.03664398 0 356538728.03664398 2200745131.6350441 0 0 0 0 463520265.3652131 -930601903.23397803 0 -930601903.23397803 2151652306.7494659 0 0 0 0 -791510699.84800649 843114285.5883379 0 843114285.5883379 1068991616.3915691 0 0 0 0 -444419.50225380145 -1067499.2616120349 0 -1067499.2616120349 1275165.9612217229 0 0 0 0 95986872.272764027 -72606326.289154053 0 -72606326.289154053 94106353.826446533 0 0 0 0 161251010.47135824 -174161529.89813423 0 -174161529.89813423 131700780.12176991 0 0 0 0 -842048.56206408865 -481509.79053390585 0 -481509.79053390585 1806651.5479514059 0 0 0 0 78961121.428023085 -835171100.36905193 0 -835171100.36905193 2200930115.1584206 0 0 0 0 151456102.12967229 -117729433.97973108 0 -117729433.97973108 116188029.20798492 0 0 0 0 -105246639.81974784 -294361681.27537823 0 -294361681.27537823 614152183.9937706 0 0 0 0 -549646.61233377899 -176182.89655813435 0 -176182.89655813435 1469065.4808614133 0 0 0 0 156222786.04068041 -182808521.36450195 0 -182808521.36450195 162670718.63272119 0 0 0 0 -211690024.20682436 312565617.24501967 0 312565617.24501967 641609230.70607948 0 0 0 0 -256270671.46246961 146085655.94536495 0 146085655.94536495 467780436.70472145 0 0 0 0 338877901.51353812 -358641672.70815086 0 -358641672.70815086 258559542.23614502 0 0 0 0 771190766.9875648 -517151123.25921249 0 -517151123.25921249 272624275.43500829 0 0 0 0 537253677.81526971 -268255457.46326542 0 -268255457.46326542 215700706.39070892 0 0 0 0 561619156.36317325 -188312255.47853661 0 -188312255.47853661 45395077.487411499 0 0 0 0 468639144.49535799 -120053033.42851257 0 -120053033.42851257 -15777593.372070312 0 0 0 0 397968970.8385818 -229207330.10214996 0 -229207330.10214996 35809277.885986328 0 0 0 0 525382475.03678489 -378542347.02128959 0 -378542347.02128959 106878811.25933075 0 0 0 0 384934234.48485446 -286989638.42148972 0 -286989638.42148972 47212350.552928925 0 0 0 0 335722915.91837138 -342389354.98418999 0 -342389354.98418999 15672442.921215057 0 0 0 0 329536055.7811656 -295508685.76760674 0 -295508685.76760674 118040266.72676277 0 0 0 0 205552778.31649843 -418846682.20234299 0 -418846682.20234299 29688598.078964233 0 0 0 0 347405820.70943683 -399922652.57929897 0 -399922652.57929897 8517772.1478385925 0 0 0 0 -229159323.05503368 -277530610.50087166 0 -277530610.50087166 85208697.444608688 0 0 0 0 -192026356.89529306 -382726004.04160118 0 -382726004.04160118 308669729.10601234 0 0 0 0 179526109.26765332 -510791488.53564835 0 -510791488.53564835 188068675.6469841 0 0 0 0 -89593199.104182363 -190185573.92064667 0 -190185573.92064667 418145380.48883629 0 0 0 0 117717944.38118014 -574047948.79550457 0 -574047948.79550457 1071260978.8893948 0 0 0 0 -727960141.20559287 139086597.49183655 0 139086597.49183655 1062890378.1809616 0 0 0 0 -575678502.947047 -278719289.8775053 0 -278719289.8775053 2205943445.2753277 0 0 0 0 72458903.758348703 -520194562.16254902 0 -520194562.16254902 1075705856.1385784 0 0 0 0 264462773.61055857 -1009078696.9235735 0 -1009078696.9235735 2200254873.6407948 0 0 0 0 601227712.58463407 -208091347.74966955 0 -208091347.74966955 263697905.95958138 0 0 0 0 2208520709.4636092 -1075100350.0482836 0 -1075100350.0482836 535268856.27967644 0 0 0 0 284406321.7017678 1255801617.8620949 0 1255801617.8620949 2200493840.8262405 0 0 0 0 1003137750.6508212 1239869175.0267143 0 1239869175.0267143 1180954741.0161209 0 0 0 0 1745031.8209300707 -680962.26781298802 0 -680962.26781298802 2596097.0847175308 0 0 0 0 455513711.88837612 898033067.73142242 0 898033067.73142242 1256500979.317337 0 0 0 0 -76801725.430193096 682131866.97528458 0 682131866.97528458 1684584458.6339264 0 0 0 0 -77575871.940074027 665165170.67480791 0 665165170.67480791 1608385464.0071259 0 0 0 0 -92616902.219872892 283853017.48228073 0 283853017.48228073 1227233991.4611702 0 0 0 0 211964818.84106511 618506637.10016251 0 618506637.10016251 1074225739.418457 0 0 0 0 146500757.62735704 394618194.65665054 0 394618194.65665054 508087422.04328156 0 0 0 0 204647003.49699014 292827967.12433243 0 292827967.12433243 585816971.98031616 0 0 0 0 42662815.706000611 543191186.18496799 0 543191186.18496799 907525635.76361847 0 0 0 0 216244.75499847316 -198283.63229683519 0 -198283.63229683519 -228709.32867596671 0 0 0 0 825723693.90359092 -158367624.63665199 0 -158367624.63665199 -234750813.6192627 0 0 0 0 789656053.35430443 752132202.06142807 0 752132202.06142807 741357294.21957397 0 0 0 0 659498549.64463449 485562617.04750824 0 485562617.04750824 197584401.74163818 0 0 0 0 369035064.62232405 -21869364.311069489 0 -21869364.311069489 -298764143.18228149 0 0 0 0 -134198648.5360167 -142113007.70524025 0 -142113007.70524025 73233403.601707458 0 0 0 0 703927652.87634468 -121197793.50429821 0 -121197793.50429821 16068920.06855011 0 0 0 0 1620581.6084316054 -1880217.8908770923 0 -1880217.8908770923 7329685.6306866165 0 0 0 0 887476.41179840942 -2359432.3806917616 0 -2359432.3806917616 -1502521.8161660358 0 0 0 0 123255526.36882913 96809821.42697525 0 96809821.42697525 180247330.03894043 0 0 0 0 -110261357.98278284 102166881.77201462 0 102166881.77201462 609849902.88243103 0 0 0 0 107832406.78487349 -6472051.0775852203 0 -6472051.0775852203 8133391.463924408 0 0 0 0 60414829.81151545 32698716.774234772 0 32698716.774234772 -23288492.748374939 0 0 0 0 -645373.66724304517 -1308316.9784093825 0 -1308316.9784093825 1668433.8875315189 0 0 0 0 -15354233.90359056 6290618.0137557983 0 6290618.0137557983 12950140.8748703 0 0 0 0 2285571.4549815655 -3122814.9910888672 0 -3122814.9910888672 -39202190.805585861 0 0 0 0 1200824.3380220835 -3636456.2842194526 0 -3636456.2842194526 3999561.9910983443 0 0 0 0 304181672.71072292 -7225422.158657074 0 -7225422.158657074 6005850.7808325291 0 0 0 0 170784828.89788997 -63357851.224688292 0 -63357851.224688292 55164215.507385254 0 0 0 0 1592810.6431940962 -2550324.7980246376 0 -2550324.7980246376 3505770.766389491 0 0 0 0 22420122.731211424 10827204.993873596 0 10827204.993873596 7381400.1639671326 0 0 0 0 31375761.033172831 -15049521.31596756 0 -15049521.31596756 8813160.0257606506 0 0 0 0 -15228251.978194535 -2635986.6480560303 0 -2635986.6480560303 22721873.18572998 0 0 0 0 -1763323.899060607 -16933649.373315811 0 -16933649.373315811 36746577.616760254 0 0 0 0 -24205526.066115379 320886159.87971115 0 320886159.87971115 702492408.66418457 0 0 0 0 70597054.56360054 -79085300.750385284 0 -79085300.750385284 65528504.193105698 0 0 0 0 70010.758623469446 -131334.7713793274 0 -131334.7713793274 279488.22903925739 0 0 0 0 44888244.078413188 -1581803.1345191002 0 -1581803.1345191002 -8193572.4371528625 0 0 0 0 22971239.290605389 176113114.71278286 0 176113114.71278286 1254789883.555584 0 0 0 0 -23286337.520393252 69552964.727426529 0 69552964.727426529 1010180745.6610031 0 0 0 0 -120090104.47729692 403208056.44850922 0 403208056.44850922 1313513462.3685303 0 0 0 0 -311126056.64264792 107062960.67181587 0 107062960.67181587 1476415108.109787 0 0 0 0 -363137295.87840581 414158683.16506577 0 414158683.16506577 2206752780.5024924 0 0 0 0 -265485475.61959976 -211597993.13772774 0 -211597993.13772774 2199476092.1545525 0 0 0 0 -163212724.53080267 -516136136.31669426 0 -516136136.31669426 851277199.20877075 0 0 0 0 -314066.31260458671 -468629.76628488116 0 -468629.76628488116 1665517.3441034295 0 0 0 0 71646025.066234767 -389727091.82437706 0 -389727091.82437706 -16195326.031806946 0 0 0 0 192134507.72456867 723990060.63806152 0 723990060.63806152 2204527042.0471783 0 0 0 0 -118995359.43194965 146797554.22891235 0 146797554.22891235 392852022.67867661 0 0 0 0 -167274716.87425411 -81968319.555667877 0 -81968319.555667877 707960067.40428162 0 0 0 0 -195970664.49795237 67889777.860025406 0 67889777.860025406 846001522.88674927 0 0 0 0 -181533723.97103789 100131843.0571785 0 100131843.0571785 1039045759.5555 0 0 0 0 63874588.069909185 232857695.51380157 0 232857695.51380157 887768518.59931183 0 0 0 0 -425953975.2232542 -363130458.91944885 0 -363130458.91944885 174752237.43986511 0 0 0 0 -137906286.40681985 160281001.74233055 0 160281001.74233055 1242277406.2931252 0 0 0 0 -163215498.4934375 107373612.85837889 0 107373612.85837889 885499674.95074081 0 0 0 0 -674397444.10103071 -349508.84002304077 0 -349508.84002304077 2204308132.1002998 0 0 0 0 33653.793243925582 -647964.30741656199 0 -647964.30741656199 1464463.3105404694 0 0 0 0 -123080424.50652117 -38372398.279109001 0 -38372398.279109001 860872303.50358582 0 0 0 0 15525055.78696084 -51236657.391178131 0 -51236657.391178131 784219926.77082825 0 0 0 0 136460.14493976528 -279207.56017092988 0 -279207.56017092988 569283.48238398414 0 0 0 0 -273465153.35803896 -15495773.963558197 0 -15495773.963558197 2466967998.9618454 0 0 0 0 -67736923.968040287 -1214723478.5102425 0 -1214723478.5102425 -148759481.75803185 0 0 0 0 75247250.209695816 271643158.50859642 0 271643158.50859642 1343943191.1998138 0 0 0 0 16700149.248578072 59884347.458209991 0 59884347.458209991 239676729.71206284 0 0 0 0 77134309.035728216 -612699050.03689837 0 -612699050.03689837 706437516.62930298 0 0 0 0 -94135516.787448525 81126459.908195496 0 81126459.908195496 696883605.52378845 0 0 0 0 -1198400.7485823631 -639219.04012680054 0 -639219.04012680054 2198753.9127445221 0 0 0 0 578826.81937348889 -604200.59755944833 0 -604200.59755944833 972669.09913269617 0 0 0 0 107169911.98067644 -172848224.24461889 0 -172848224.24461889 324653048.14305878 0 0 0 0 -76617007.973762661 82131461.280239105 0 82131461.280239105 51221017.679634094 0 0 0 0 139501326.68142754 -35242467.96692276 0 -35242467.96692276 -48396178.214324951 0 0 0 0 235802.1730366213 -149062.03924819827 0 -149062.03924819827 181811.12568089925 0 0 0 0 205603757.65563419 79886414.486236572 0 79886414.486236572 -1711611.3708763123 0 0 0 0 -274381.43089760368 -294984.38089127559 0 -294984.38089127559 869958.23758773878 0 0 0 0 -93692334.72070241 72332983.458065033 0 72332983.458065033 867733328.11618805 0 0 0 0 301207.87169245485 -423117.16153339297 0 -423117.16153339297 713424.60496971011 0 0 0 0 -66564571.675352156 45413895.954803467 0 45413895.954803467 834479121.53145599 0 0 0 0 -1659856.1220423877 -476899.44194984436 0 -476899.44194984436 3102112.7525177002 0 0 0 0 -1425080.9345067739 61191.280994415283 0 61191.280994415283 4278716.1411781311 0 0 0 0 -1617084.2771441638 -6874037.6953086853 0 -6874037.6953086853 -1769130.6766014099 0 0 0 0 -4841639.3260455392 -5030686.6454124451 0 -5030686.6454124451 7987899.8202362061 0 0 0 0 1801904.5505027696 5894936.7668914795 0 5894936.7668914795 12171933.760572433 0 0 0 0 194253.48468926549 4589312.1140098572 0 4589312.1140098572 17138108.619262695 0 0 0 0 7963996.7135494947 1063112.1048316956 0 1063112.1048316956 5633341.2937545776 0 0 0 0 3158972.1965236813 1328807.9258880615 0 1328807.9258880615 3672843.6871032715 0 0 0 0 5595114.5135044754 3817679.726896286 0 3817679.726896286 5475486.6054840088 0 0 0 0 2843115.6012684852 3497313.0507011414 0 3497313.0507011414 2538961.5578460693 0 0 0 0 -1350012.6460510045 -9072.4774532318115 0 -9072.4774532318115 4344088.0852813721 0 0 0 0 -708725.42578917742 1814225.440788269 0 1814225.440788269 913216.44473266602 0 0 0 0 -1081851.2891231775 637663.88394165039 0 637663.88394165039 3763588.8115100861 0 0 0 0 -269840.30794131756 3493410.7781181335 0 3493410.7781181335 6751018.1554908752 0 0 0 0 -11856667.798954964 19862660.627536774 0 19862660.627536774 8628433.2610015869 0 0 0 0 -625945.79854333401 4747455.9349359274 0 4747455.9349359274 2589659.3305435181 0 0 0 0 939634.91012200713 1023597.8734761989 0 1023597.8734761989 550032.30157007091 0 0 0 0 -702416.50593449548 3470164.9472980499 0 3470164.9472980499 -2592223.390045166 0 0 0 0 -7820.2305358064841 20178.53863122873 0 20178.53863122873 151314.78832962643 0 0 0 0 -3716914.7670657635 5553621.0474853516 0 5553621.0474853516 3009152.8140182495 0 0 0 0 284882.45419123769 887302.54838562012 0 887302.54838562012 1541329.8940963745 0 0 0 0 3126991.6587331295 2162110.3018417358 0 2162110.3018417358 -1053932.7042694092 0 0 0 0 5779042.5432937443 1532918.7615203857 0 1532918.7615203857 618603.72738647461 0 0 0 0 3163788.7159559429 1862467.8251495361 0 1862467.8251495361 1313697.3227996826 0 0 0 0 2948210.4726628363 3256831.0818634033 0 3256831.0818634033 2829658.6566162109 0 0 0 0 -1444337.6805621013 3757842.5090751648 0 3757842.5090751648 3489984.1800537109 0 0 0 0 33193004.870148659 6263488.8057937622 0 6263488.8057937622 -49229720.897232056 0 0 0 0 -186592313.52298832 39001407.562883377 0 39001407.562883377 34362017.420257568 0 0 0 0 -82149237.717490971 -66102761.967939377 0 -66102761.967939377 -88158854.160461426 0 0 0 0 321259.73155385454 576096.00476185698 0 576096.00476185698 973091.10498657078 0 0 0 0 -1230524.8028113842 41399.868865966797 0 41399.868865966797 2607996.6770877838 0 0 0 0 19221460.191958323 -48443067.866430283 0 -48443067.866430283 -44971399.880699158 0 0 0 0 2451857.4793812037 58901539.222103119 0 58901539.222103119 -11161242.745508194 0 0 0 0 -8097600.1682801098 41313683.868556976 0 41313683.868556976 54657343.78137207 0 0 0 0 -23393081.667865515 -9921080.7119369507 0 -9921080.7119369507 53507605.432296395 0 0 0 0 1391481.7470291853 43153287.925895691 0 43153287.925895691 -139195188.14213943 0 0 0 0 10797709.766024202 -49331604.33115387 0 -49331604.33115387 105434121.8282547 0 0 0 0 17238.870100153814 -117075.98091565352 0 -117075.98091565352 491416.27089117467 0 0 0 0 1238311.3139352202 5622893.3901901245 0 5622893.3901901245 2899528.9612236023 0 0 0 0 -417243.10283017159 41536058.688980103 0 41536058.688980103 61937527.446344376 0 0 0 0 8851161.5189003423 14794370.414953232 0 14794370.414953232 -26613067.07334137 0 0 0 0 6447.3825025945116 -17188.462585173547 0 -17188.462585173547 -237702.41672870703 0 0 0 0 -674667.68641018867 -551958.84076690674 0 -551958.84076690674 4574559.6697616577 0 0 0 0 -505714.24099551479 4313938.1268541552 0 4313938.1268541552 2797576.8371554655 0 0 0 0 -210815.72492710315 325623.08399974369 0 325623.08399974369 3243512.4613756128 0 0 0 0 50044611.849071592 -23524002.28367424 0 -23524002.28367424 -40828289.198646545 0 0 0 0 3912684.3505429626 14288659.482639313 0 14288659.482639313 -833773.87293243408 0 0 0 0 -716203.99514131434 5021501.8524199054 0 5021501.8524199054 1461853.0703171212 0 0 0 0 9043392.7483326495 12099525.741268158 0 12099525.741268158 -10267173.545288086 0 0 0 0 -3420432.7635407746 17005690.274570465 0 17005690.274570465 27868734.02306366 0 0 0 0 1110187.0983237773 2283984.7890930176 0 2283984.7890930176 2620395.6385965347 0 0 0 0 -42108.05284267664 -123740.1658449173 0 -123740.1658449173 3446140.1170768738 0 0 0 0 813176.0708905973 566912.39840661362 0 566912.39840661362 2769327.8590303548 0 0 0 0 1807898.8322106153 2266698.6497535706 0 2266698.6497535706 2448358.0861740112 0 0 0 0 3295042.0603658259 2518588.4482917786 0 2518588.4482917786 700445.86246490479 0 0 0 0 629963.79945611954 -703953.94591903687 0 -703953.94591903687 2488569.4541130066 0 0 0 0 -232708.16277484695 465160.52304449677 0 465160.52304449677 2960131.0814350322 0 0 0 0 -18546334.140008092 -25737102.361358643 0 -25737102.361358643 -16978001.879974365 0 0 0 0 -7307792.8886369169 10034531.677463531 0 10034531.677463531 27621847.773384094 0 0 0 0 -2757865.4423747063 11865470.890777588 0 11865470.890777588 11957408.438983917 0 0 0 0 -1078817.8411496144 4110701.8634157106 0 4110701.8634157106 6313544.5699144164 0 0 0 0 -1113015.6462359428 2210594.5334129333 0 2210594.5334129333 4919027.3499450684 0 0 0 0 631047.77036000311 -192122.29244515114 0 -192122.29244515114 8004832.9438633956 0 0 0 0 -1215875.6045304304 4321174.2719441447 0 4321174.2719441447 8420988.2231693119 0 0 0 0 1833743.874468863 -174273.64281463623 0 -174273.64281463623 3987127.8908653259 0 0 0 0 4553908.2032034993 -354429.54423904419 0 -354429.54423904419 2587289.1826324463 0 0 0 0 1606818.5840341616 806142.99487400055 0 806142.99487400055 2945630.4328613281 0 0 0 0 3463478.2377324849 621978.79262924194 0 621978.79262924194 1746337.459312439 0 0 0 0 2834534.1253958941 -2499651.0731544495 0 -2499651.0731544495 4456773.889919281 0 0 0 0 2506593.8255800307 -1575842.6240329742 0 -1575842.6240329742 2540131.5375976562 0 0 0 0 216757.93313048276 -821284.79972422868 0 -821284.79972422868 8023042.7403524257 0 0 0 0 1886046.884010585 -1031395.3126055002 0 -1031395.3126055002 5127819.6405334473 0 0 0 0 -4762373.0628986359 399786.12835693359 0 399786.12835693359 10653482.841316223 0 0 0 0 466011.42667520046 513146.72640991211 0 513146.72640991211 4500592.64427948 0 0 0 0 -1719640.8389555663 -1450254.6306324005 0 -1450254.6306324005 8229111.350402832 0 0 0 0 1870819.2891969681 -1427561.073059082 0 -1427561.073059082 11104628.962379456 0 0 0 0 -3760314.6546144485 11787.696029663086 0 11787.696029663086 4880917.1426677704 0 0 0 0 -1595976.7331199646 3664507.5693130493 0 3664507.5693130493 3404611.7773971558 0 0 0 0 -53221089.882469177 3326608.8034496307 0 3326608.8034496307 34072996.097480774 0 0 0 0 -1889809.6948685104 1114782.5473296214 0 1114782.5473296214 11010138.148200858 0 0 0 0 21391.073397607222 -160859.64359800145 0 -160859.64359800145 234273.51144277048 0 0 0 0 -595671.98264720815 5219507.3623739704 0 5219507.3623739704 4365848.1665833071 0 0 0 0 -11378599.078906536 7924725.4763884544 0 7924725.4763884544 12629198.049690247 0 0 0 0 -269723.87583342427 -4372086.2008368494 0 -4372086.2008368494 11587407.651854414 0 0 0 0 -6103660.825138092 6681211.3498191833 0 6681211.3498191833 12677433.276173592 0 0 0 0 -5557892.3637619019 10215648.483100891 0 10215648.483100891 13527528.165588379 0 0 0 0 -3472750.3435049579 1478810.6331797577 0 1478810.6331797577 7897729.3084371993 0 0 0 0 -437606.91944663273 139672.79139736283 0 139672.79139736283 551861.99006297812 0 0 0 0 -20734643.126983643 -3557939.4443855286 0 -3557939.4443855286 20413629.229515076 0 0 0 0 -3001888.4945487976 1948890.5988922119 0 1948890.5988922119 38579173.744614601 0 0 0 0 -2903664.8164877649 258734.21868200088 0 258734.21868200088 10064555.851106575 0 0 0 0 3767745.8388614655 -1822106.6792488098 0 -1822106.6792488098 35199423.0605793 0 0 0 0 -14267827.273368835 7761441.4421157837 0 7761441.4421157837 34335660.438011169 0 0 0 0 -6942626.1635284424 10252072.250579834 0 10252072.250579834 31939411.004867554 0 0 0 0 1833245.6824512482 1807063.0823364258 0 1807063.0823364258 29004773.131103516 0 0 0 0 -10635081.934425354 11659962.217483521 0 11659962.217483521 23019574.566082001 0 0 0 0 17760058.005653381 -1589332.659034729 0 -1589332.659034729 20312671.015029907 0 0 0 0 9494279.7642669678 4229883.1357116699 0 4229883.1357116699 16566138.918941498 0 0 0 0 2729072.8549489975 -4740683.7568721771 0 -4740683.7568721771 27906564.474235535 0 0 0 0 4872658.7847709656 -8633755.7846755981 0 -8633755.7846755981 34882566.933659554 0 0 0 0 -57657.893746376038 993004.53123760223 0 993004.53123760223 33157578.679634094 0 0 0 0 -14494582.445875168 -11131856.199048996 0 -11131856.199048996 38408443.323543549 0 0 0 0 735609.18145362765 -1771973.4615943604 0 -1771973.4615943604 -296875.60669883154 0 0 0 0 1252274.818087697 -7809131.0889145136 0 -7809131.0889145136 36907069.586624146 0 0 0 0 2997117.5371208191 -15521586.13899231 0 -15521586.13899231 46883355.596893787 0 0 0 0 3432109.9507427216 -16493357.84515667 0 -16493357.84515667 26698909.60533905 0 0 0 0 9280142.1054153442 -9428559.0271720886 0 -9428559.0271720886 30628816.653091431 0 0 0 0 25287895.909091949 -40161341.272346497 0 -40161341.272346497 51904192.384979248 0 0 0 0 -7614334.9624032974 -20901051.060128212 0 -20901051.060128212 52263866.855705261 0 0 0 0 1363392.386932373 -13781325.678619385 0 -13781325.678619385 35495496.291158676 0 0 0 0 -1553671.2533140182 -13383242.26515007 0 -13383242.26515007 35624964.444625854 0 0 0 0 -689337.7686920166 -17239094.091617584 0 -17239094.091617584 46657462.451613903 0 0 0 0 15553516.71084547 -17240165.265396118 0 -17240165.265396118 26157442.9688797 0 0 0 0 -29280164.147439241 -2251911.0436885357 0 -2251911.0436885357 1310633.7091369629 0 0 0 0 -29805411.749074936 -8377409.5176582336 0 -8377409.5176582336 1738241.7504882812 0 0 0 0 -5435950.4841499329 -76196243.894067764 0 -76196243.894067764 13250935.416341782 0 0 0 0 -212687.93904438338 -636746.01446444262 0 -636746.01446444262 3565596.9175622296 0 0 0 0 -274850.02803360298 -148740.00503388606 0 -148740.00503388606 7260788.5779353194 0 0 0 0 995737.67366278172 -1902091.0005817413 0 -1902091.0005817413 4277263.2005310059 0 0 0 0 -19484030.09327507 44635661.040725708 0 44635661.040725708 11088069.077407837 0 0 0 0 113239733.85844421 49771781.41428566 0 49771781.41428566 -36495403.356124878 0 0 0 0 -22814040.530786991 -6905596.9884376526 0 -6905596.9884376526 1413246.1697921753 0 0 0 0 -984260.20682207262 328804.44031189382 0 328804.44031189382 5426188.1617131494 0 0 0 0 -1828122.1962070763 -2568672.7285308838 0 -2568672.7285308838 4942500.8746490479 0 0 0 0 -4809184.0085767508 -4390477.5714015961 0 -4390477.5714015961 7476013.3614845276 0 0 0 0 4725805.3668727875 -11760031.172382355 0 -11760031.172382355 15250003.527427673 0 0 0 0 -939367.18667510105 -2742716.5098025296 0 -2742716.5098025296 5513943.2489066608 0 0 0 0 8073184.3879013062 -5151722.869310379 0 -5151722.869310379 8615155.4433135986 0 0 0 0 8407577.9257793427 -14041813.201969147 0 -14041813.201969147 10279659.908186913 0 0 0 0 -7354054.2958374023 1191859.1799259186 0 1191859.1799259186 13008905.871391296 0 0 0 0 4564486.1658840179 -13244745.753883362 0 -13244745.753883362 18351692.533294678 0 0 0 0 10956637.121225357 -14478621.940868378 0 -14478621.940868378 -15082362.335128784 0 0 0 0 2419358.6880420391 -4492551.0094083538 0 -4492551.0094083538 3618261.9438992906 0 0 0 0 -463107.20849939925 535132.05778637889 0 535132.05778637889 391755.56676408276 0 0 0 0 198296751.42665303 -58243177.652311325 0 -58243177.652311325 23097662.715438843 0 0 0 0 -3704696.7775387764 -2886674.1680393219 0 -2886674.1680393219 -324027.71786499023 0 0 0 0 -22766934.297127247 -3713155.9917430878 0 -3713155.9917430878 655828.24075317383 0 0 0 0 -1022950.2850331906 -6154862.324611403 0 -6154862.324611403 8115925.6256579887 0 0 0 0 278460741.12546158 -80007111.891399384 0 -80007111.891399384 15680697.70273304 0 0 0 0 -2360110.0188778639 -4042481.0045547485 0 -4042481.0045547485 6183115.6360282898 0 0 0 0 -2699559.5011632442 -5019644.6971373558 0 -5019644.6971373558 7469788.595664978 0 0 0 0 10024959.172724843 -14654973.806686401 0 -14654973.806686401 14205519.559965134 0 0 0 0 10068956.594240936 -4476895.0896341428 0 -4476895.0896341428 3890412.1874389648 0 0 0 0 12210217.740403771 437564.59656524658 0 437564.59656524658 1437529.2448196411 0 0 0 0 9695726.2331866324 -4724837.289768219 0 -4724837.289768219 3740663.8462753296 0 0 0 0 5194903.8719605505 461147.11497879028 0 461147.11497879028 1727832.5975570679 0 0 0 0 6687033.5857950244 208451.07052612305 0 208451.07052612305 1038113.4727935791 0 0 0 0 6175670.6368848234 -2782794.0789923668 0 -2782794.0789923668 2843959.1245117188 0 0 0 0 4644577.3189038634 -6587924.8936767578 0 -6587924.8936767578 6188220.7003879547 0 0 0 0 6973919.273415029 -2900477.7692604065 0 -2900477.7692604065 2617935.4366455078 0 0 0 0 13100989.925210014 192760934.84724617 0 192760934.84724617 1053219801.7284584 0 0 0 0 728106.47652558808 85591305.180493996 0 85591305.180493996 404865077.42760468 0 0 0 0 145039052.32606646 33477160.574112892 0 33477160.574112892 68519750.646743774 0 0 0 0 -94201.513590145172 -16737.336121832952 0 -16737.336121832952 402553.74966553226 0 0 0 0 -231344143.07336324 719263780.73770332 0 719263780.73770332 2198353371.3697166 0 0 0 0 161066390.63582146 454154081.49837112 0 454154081.49837112 954833331.36358261 0 0 0 0 512371749.29062504 1158072448.2476158 0 1158072448.2476158 708646022.81171417 0 0 0 0 940353.91147912247 167551.84765237756 0 167551.84765237756 2009083.208430022 0 0 0 0 640359177.5759232 796715161.06321907 0 796715161.06321907 -52880213.716064453 0 0 0 0 85243271.511490494 -49796244.154695034 0 -49796244.154695034 -117854098.42107391 0 0 0 0 100883487.27408442 -138651434.09292793 0 -138651434.09292793 45805901.282318115 0 0 0 0 -79923.200401029957 -27543.36999787949 0 -27543.36999787949 232163.27758532763 0 0 0 0 51300682.087570012 -104688128.27722168 0 -104688128.27722168 414096946.97533417 0 0 0 0 18740804.375812829 -1494971.4242477417 0 -1494971.4242477417 64486212.98654747 0 0 0 0 158258644.55795431 83815670.742378235 0 83815670.742378235 89603902.557891846 0 0 0 0 -202205560.20091867 -22641265.844512939 0 -22641265.844512939 110090327.24678564 0 0 0 0 -35445038.02089417 -26280739.031284332 0 -26280739.031284332 109340660.86761999 0 0 0 0 -132889616.09737933 -38141159.591135025 0 -38141159.591135025 -34607518.688751221 0 0 0 0 -594494.60234501422 -23396.044857109897 0 -23396.044857109897 6765701.13265118 0 0 0 0 -250958753.12181509 80747838.346712112 0 80747838.346712112 77006023.41153717 0 0 0 0 13477998.400551423 -7312908.3116607666 0 -7312908.3116607666 -16315667.197879791 0 0 0 0 -24423128.056576177 13923390.090526581 0 13923390.090526581 16175550.691757202 0 0 0 0 -402249821.13915515 -9992049.719959259 0 -9992049.719959259 210593948.00271988 0 0 0 0 -446905585.33582449 281739858.63440704 0 281739858.63440704 -24023832.586505413 0 0 0 0 942601.00200925954 803032.87447938323 0 803032.87447938323 4230228.8063640669 0 0 0 0 -65729503.307799526 -580751207.67387581 0 -580751207.67387581 2201686746.7178116 0 0 0 0 -242234253.99444786 259655345.08443069 0 259655345.08443069 2201955707.3574905 0 0 0 0 -137233501.68858773 -149755362.11912155 0 -149755362.11912155 591348974.83512878 0 0 0 0 136991321.71501911 280232629.16445923 0 280232629.16445923 323371617.18530655 0 0 0 0 101746079.15488988 -164241135.37659359 0 -164241135.37659359 -40526633.057220459 0 0 0 0 160223547.69143081 -99774535.73122406 0 -99774535.73122406 -128128316.18457794 0 0 0 0 1574229625.5319624 -1172739602.5260434 0 -1172739602.5260434 465493824.84559631 0 0 0 0 351665819.84595084 613711215.63512802 0 613711215.63512802 725900951.88747406 0 0 0 0 250336.17958909125 -1224457.2333131083 0 -1224457.2333131083 1932345.8967710286 0 0 0 0 112989013.10711104 -1402511706.8259926 0 -1402511706.8259926 2201357169.2309051 0 0 0 0 -414279953.42798895 -505363393.62796402 0 -505363393.62796402 1190377243.6291046 0 0 0 0 -337229882.86306453 -1269803597.3754578 0 -1269803597.3754578 558342993.54605103 0 0 0 0 399668084.93130875 -1553456891.3488235 0 -1553456891.3488235 666254924.23389053 0 0 0 0 906737858.65449762 -648922843.26993561 0 -648922843.26993561 91727319.929733276 0 0 0 0 340360307.72796524 -547567030.22769547 0 -547567030.22769547 907570652.44540405 0 0 0 0 476679985.33380604 -433140923.26545334 0 -433140923.26545334 677387282.35760498 0 0 0 0 758366623.70101213 -798024669.31492615 0 -798024669.31492615 848478601.24357605 0 0 0 0 131478154.41982624 -98510162.32311368 0 -98510162.32311368 1151365376.6711731 0 0 0 0 -145748.24811464382 -69124.428343440406 0 -69124.428343440406 459173.3373732511 0 0 0 0 1197268.5418453813 20201408.046920776 0 20201408.046920776 11441604.071072578 0 0 0 0 239648429.48908991 -156140865.43981171 0 -156140865.43981171 23317057.706481934 0 0 0 0 86212123.010193586 236213936.30769348 0 236213936.30769348 433469718.77392578 0 0 0 0 -68962866.069469512 -71977887.39598465 0 -71977887.39598465 -62570564.704673767 0 0 0 0 -74814.008691189039 -1204337.0559292384 0 -1204337.0559292384 4873052.5695313103 0 0 0 0 -381195686.21103096 2783394.0988388062 0 2783394.0988388062 515156195.21424484 0 0 0 0 -572426.9611604308 -262301.80490402132 0 -262301.80490402132 837540.30196490884 0 0 0 0 -22025390.079360485 -39186471.539942741 0 -39186471.539942741 -82709409.685844421 0 0 0 0 -5150070.7275715023 -4466848.2995452881 0 -4466848.2995452881 6957608.3877792358 0 0 0 0 -647376.27332610008 2060215.6661851211 0 2060215.6661851211 5865980.5475141667 0 0 0 0 -8173249.6753858626 -9932187.9347343445 0 -9932187.9347343445 7645413.2151184082 0 0 0 0 -1312996.2528327594 -1205593.1469803452 0 -1205593.1469803452 3377268.0623412635 0 0 0 0 -179169780.0582253 -106791144.42721319 0 -106791144.42721319 7439425.9459381104 0 0 0 0 -143603730.72690004 242647199.89808655 0 242647199.89808655 -192129229.52159691 0 0 0 0 65295217.471860886 -224869505.61265564 0 -224869505.61265564 -314800339.27259827 0 0 0 0 -21613495.869540781 17830346.982913971 0 17830346.982913971 22490618.003376007 0 0 0 0 5352921.6956816018 -25303424.418746948 0 -25303424.418746948 35417573.941703796 0 0 0 0 220903878.52753252 383242313.01678467 0 383242313.01678467 -156188260.78594971 0 0 0 0 -270055.18639977206 -463525.58926421497 0 -463525.58926421497 1709016.6449615695 0 0 0 0 5791116.8722934108 2455418.5218364298 0 2455418.5218364298 900185.31462860107 0 0 0 0 -1193676.8192974362 -1115643.1411503246 0 -1115643.1411503246 2146764.2237155773 0 0 0 0 -1240131.8027008059 798663.1993044978 0 798663.1993044978 10360777.771746319 0 0 0 0 -9395146.9372733124 -15882861.521435499 0 -15882861.521435499 22887400.507408142 0 0 0 0 -25251112.280475572 -5640946.6076202393 0 -5640946.6076202393 44665102.08143425 0 0 0 0 9132941.0702395588 -12300047.680456042 0 -12300047.680456042 24409805.590675354 0 0 0 0 5645177.643834006 32307096.395990849 0 32307096.395990849 10834727.045478821 0 0 0 0 -11572213.00162752 5549013.0464820862 0 5549013.0464820862 10832612.526660919 0 0 0 0 -12288665.97956799 9993854.1672935486 0 9993854.1672935486 44201771.519107819 0 0 0 0 -2106405.830396086 8703693.6745948792 0 8703693.6745948792 63405.130973815918 0 0 0 0 -3939225.0241897795 4193709.463411808 0 4193709.463411808 7946893.6522445679 0 0 0 0 -511214.26936565462 4367553.0393670145 0 4367553.0393670145 254592.93463824689 0 0 0 0 15370354.68060112 17252128.672218323 0 17252128.672218323 -42422090.460651398 0 0 0 0 -8995.9376583734993 153109.71396821924 0 153109.71396821924 350562.71225861274 0 0 0 0 -21340914.233472228 80554176.224428177 0 80554176.224428177 -210797563.03955078 0 0 0 0 50878.418474292368 480157.24384002661 0 480157.24384002661 47165.008871044964 0 0 0 0 -13834094.837430544 7410890.3076229095 0 7410890.3076229095 12976742.610315323 0 0 0 0 -2094515.5256634713 44863.569293027278 0 44863.569293027278 10347402.098004308 0 0 0 0 -108890372.94712746 -9355137.0590324402 0 -9355137.0590324402 10365874.628692627 0 0 0 0 -167935825.42036495 21940066.780807018 0 21940066.780807018 28172855.012527466 0 0 0 0 -64713264.395829678 18224147.427825928 0 18224147.427825928 41760137.070144653 0 0 0 0 -64391494.589995384 14623960.836151123 0 14623960.836151123 -99137206.992156982 0 0 0 0 -288835482.46651649 -11349557.509552002 0 -11349557.509552002 25490003.867126465 0 0 0 0 23643266.28977704 -38914873.894237518 0 -38914873.894237518 9551411.7417526245 0 0 0 0 -82127932.25613302 23323186.381919861 0 23323186.381919861 26607308.932807922 0 0 0 0 -69574602.113748074 -30127061.134552002 0 -30127061.134552002 -25041641.395690918 0 0 0 0 -127640844.91073881 2013035.7659361362 0 2013035.7659361362 -2396501.7244567871 0 0 0 0 -119148127.8382833 11813150.959709167 0 11813150.959709167 8699405.3096504211 0 0 0 0 -132671317.64214873 1092870.6287879944 0 1092870.6287879944 901045.62558364868 0 0 0 0 -96298.496714069159 -112450.66703588516 0 -112450.66703588516 208964.88045174256 0 0 0 0 -146533528.85320514 -53463072.433955669 0 -53463072.433955669 -29719960.107765198 0 0 0 0 -12270794.904780433 34623727.867542267 0 34623727.867542267 25472403.761764526 0 0 0 0 -28801734.649785697 -78253845.350273132 0 -78253845.350273132 -20993243.958036423 0 0 0 0 -88445.515910114744 -229033.70637552813 0 -229033.70637552813 363147.98250092193 0 0 0 0 -23368313.443449259 -41314739.818778992 0 -41314739.818778992 -28643346.630332947 0 0 0 0 -36840090.499916077 -3264609.2113265991 0 -3264609.2113265991 -13400123.220870972 0 0 0 0 -8759004.8828902245 -23062267.369792938 0 -23062267.369792938 -9469568.0088319778 0 0 0 0 -28325416.684093356 -22961900.085748672 0 -22961900.085748672 68407384.147628784 0 0 0 0 -18124325.595928192 -54194441.391189575 0 -54194441.391189575 109809249.55075073 0 0 0 0 48229145.561589003 -81191587.400520325 0 -81191587.400520325 68424547.333677277 0 0 0 0 3729342.0300860405 -91402563.855388641 0 -91402563.855388641 136454848.60072327 0 0 0 0 -2973409.067732811 -5762489.5220756531 0 -5762489.5220756531 -5865543.0125045776 0 0 0 0 -29060.34411300483 -125335.48803517222 0 -125335.48803517222 191659.01616710424 0 0 0 0 -25476533.476765513 -52622873.299608231 0 -52622873.299608231 159716026.47740173 0 0 0 0 50012276.617396414 -124653402.46195984 0 -124653402.46195984 127882284.7769928 0 0 0 0 90454468.000880867 -103337372.31187248 0 -103337372.31187248 -14201884.741207123 0 0 0 0 -145067.2304644667 -124083476.86814705 0 -124083476.86814705 156394109.59629822 0 0 0 0 348291.46162412473 -124063823.13589096 0 -124063823.13589096 156373434.66020966 0 0 0 0 58036049.841075554 92851795.349765778 0 92851795.349765778 116933289.57071686 0 0 0 0 50192200.355781749 -122135247.88619614 0 -122135247.88619614 25591960.566997528 0 0 0 0 -47793361.351299264 18469095.981341362 0 18469095.981341362 92951546.113090515 0 0 0 0 65623746.799512804 122419531.76327991 0 122419531.76327991 112654508.24249268 0 0 0 0 -91754.149359668256 55094.73592626676 0 55094.73592626676 371880.32290610299 0 0 0 0 -1898724.9981284114 -4469307.429561615 0 -4469307.429561615 18889675.052764893 0 0 0 0 -2130700.784977037 -4586274.6981735229 0 -4586274.6981735229 23543521.017662048 0 0 0 0 -2467.7881404225818 -2674629.5378761292 0 -2674629.5378761292 16062963.175113678 0 0 0 0 5744.255071777482 -2277638.2725897948 0 -2277638.2725897948 10143031.184303284 0 0 0 0 -4199.803781672751 -262392.62435402162 0 -262392.62435402162 297395.16495238617 0 0 0 0 728528.22852104995 -5202192.7456893921 0 -5202192.7456893921 13668496.171886444 0 0 0 0 740226.75352854235 -4058331.7570570111 0 -4058331.7570570111 10453071.545631409 0 0 0 0 -294106.22089918575 -314043.33581196517 0 -314043.33581196517 425270.50810580701 0 0 0 0 51079289.172454834 -143505739.42604065 0 -143505739.42604065 164167341.48095322 0 0 0 0 67689647.166976199 -53871944.441637516 0 -53871944.441637516 106287517.13334656 0 0 0 0 1065078.5767187977 -5373418.6255674362 0 -5373418.6255674362 -798183.8099822998 0 0 0 0 1131714.1604813319 -7195549.2001914978 0 -7195549.2001914978 14733838.178962708 0 0 0 0 -2130201.6083425405 -7677130.6580162048 0 -7677130.6580162048 14674488.165008545 0 0 0 0 -4622351.570936216 -10169171.74587822 0 -10169171.74587822 26042132.320220947 0 0 0 0 -5804399.3420542367 -6408927.0401306152 0 -6408927.0401306152 25402698.435898781 0 0 0 0 -11801223.060844421 -12257020.951602936 0 -12257020.951602936 33799549.34593153 0 0 0 0 19251558.926132485 -19037757.950784683 0 -19037757.950784683 -52960879.79599762 0 0 0 0 -601457.38975021662 -117816.82690019347 0 -117816.82690019347 1263411.7028623857 0 0 0 0 -2785958.3942862526 -17827670.142402649 0 -17827670.142402649 9673749.3580818176 0 0 0 0 -4962898.9743691683 -20743740.724460602 0 -20743740.724460602 32430597.999275684 0 0 0 0 4693833.3272006512 -152643254.61759186 0 -152643254.61759186 269336026.68139648 0 0 0 0 -541695.19685288472 -269209.42548605613 0 -269209.42548605613 736079.89389578812 0 0 0 0 -99444384.332323313 -93203333.314254761 0 -93203333.314254761 108011481.9303093 0 0 0 0 -30028489.098796368 -72909189.104629517 0 -72909189.104629517 2157654.4421768188 0 0 0 0 -215781662.38541713 -85243547.699911594 0 -85243547.699911594 9601897.0174102783 0 0 0 0 -252421008.90254307 177170473.24101257 0 177170473.24101257 -127755831.11699677 0 0 0 0 -120213572.50625968 74789198.822319031 0 74789198.822319031 34248711.015869141 0 0 0 0 -95180702.380270004 -394879.92056655884 0 -394879.92056655884 235486121.96900177 0 0 0 0 65901080.288713694 -58890294.918149948 0 -58890294.918149948 110012261.20226288 0 0 0 0 -9328612.5892016888 -116888135.18289185 0 -116888135.18289185 293873180.22953415 0 0 0 0 29287665.412887096 -19281804.960643768 0 -19281804.960643768 140190117.41254616 0 0 0 0 -33165494.741105556 31416921.272081375 0 31416921.272081375 129290171.90434265 0 0 0 0 -122349944.84874916 66177187.21661377 0 66177187.21661377 56022630.005554199 0 0 0 0 654702.10513353348 -23258013.188262939 0 -23258013.188262939 108559635.7052536 0 0 0 0 -112168211.26546478 34412818.770172119 0 34412818.770172119 51750379.465164185 0 0 0 0 21283459.02830103 -7988571.723347187 0 -7988571.723347187 -112613371.41183472 0 0 0 0 -112086335.85435152 36856123.078063965 0 36856123.078063965 10736590.939422607 0 0 0 0 -6691362.4918161333 7910876.7647781372 0 7910876.7647781372 24791151.827026367 0 0 0 0 2839949.16468063 38935775.161998749 0 38935775.161998749 22726557.273460388 0 0 0 0 -9621239.0938353539 19520316.890773773 0 19520316.890773773 133790637.98011017 0 0 0 0 163101.53318655491 -955922.7710647583 0 -955922.7710647583 106997982.21311951 0 0 0 0 -504347.25341535668 30036.100965784863 0 30036.100965784863 2072524.0199947674 0 0 0 0 2668167.3139207065 -51290653.936565399 0 -51290653.936565399 183856838.82618713 0 0 0 0 20321099.593250133 -59754955.919750214 0 -59754955.919750214 54720908.962593079 0 0 0 0 81444551.844523877 39409485.607897758 0 39409485.607897758 -73179297.141563416 0 0 0 0 -48789407.709782362 8362892.3451156616 0 8362892.3451156616 167112188.59198761 0 0 0 0 33700536.412406325 -118070863.57555771 0 -118070863.57555771 165752264.94908905 0 0 0 0 -19876725.821538776 -23111250.881649017 0 -23111250.881649017 125035025.5486412 0 0 0 0 12866680.144641373 59341803.890592575 0 59341803.890592575 89503121.146781921 0 0 0 0 24558775.139078949 33456280.042252541 0 33456280.042252541 35750359.512680054 0 0 0 0 9411644.9988117442 -1969839.0024871826 0 -1969839.0024871826 4052705.9194307327 0 0 0 0 52000785.408660501 32423584.922683716 0 32423584.922683716 8611698.7025299072 0 0 0 0 -179541.32097462181 -86133.390334289521 0 -86133.390334289521 598492.46308054402 0 0 0 0 -9636710.859267842 626542.57762336731 0 626542.57762336731 11837130.73727417 0 0 0 0 4932322.3523752391 -407643.49738311768 0 -407643.49738311768 6741967.3364334106 0 0 0 0 -6052128.6053752154 -251350.89459228516 0 -251350.89459228516 9547476.8722229004 0 0 0 0 1971346.1178872548 -1797619.2297286987 0 -1797619.2297286987 4531098.7864074707 0 0 0 0 -7629019.1811476201 1422236.9193916321 0 1422236.9193916321 4914559.259552002 0 0 0 0 6122963.7736827265 8008221.737746954 0 8008221.737746954 10661102.201782227 0 0 0 0 -3832792.5987139195 930495.91533660889 0 930495.91533660889 7021721.5701980591 0 0 0 0 6899441.310428218 1328959.9282684326 0 1328959.9282684326 3615870.485748291 0 0 0 0 687403.34105390636 3453799.267496109 0 3453799.267496109 9433500.2409973145 0 0 0 0 11036243.30407528 14473064.55561161 0 14473064.55561161 17821560.289611816 0 0 0 0 13983003.491234839 2560557.8622665405 0 2560557.8622665405 7158157.3548126221 0 0 0 0 30390297.460256163 9675300.2827682495 0 9675300.2827682495 4278935.5727996826 0 0 0 0 4666298.3531227903 4721633.2968220711 0 4721633.2968220711 12017141.024551392 0 0 0 0 8938505.5690743439 14826622.252449036 0 14826622.252449036 17829923.950370789 0 0 0 0 4788856.0221143356 11938345.317462921 0 11938345.317462921 22649837.265304565 0 0 0 0 8961786.3135810457 20050591.12877655 0 20050591.12877655 26078792.151412964 0 0 0 0 8342854.5275392327 7788689.3870315552 0 7788689.3870315552 10304270.93019104 0 0 0 0 5454852.5319842603 3311256.7231750488 0 3311256.7231750488 7457348.3752365112 0 0 0 0 2925160.5734900553 6252612.7987976074 0 6252612.7987976074 17257141.305031776 0 0 0 0 3491340.6769252513 9138198.8272743225 0 9138198.8272743225 16941612.528797626 0 0 0 0 958933.96655645641 10632103.554929733 0 10632103.554929733 26221824.614677429 0 0 0 0 -2940231.0851632096 11813579.803886414 0 11813579.803886414 35896194.563987732 0 0 0 0 -7906587.7630878985 4095467.1270332336 0 4095467.1270332336 46362300.882785797 0 0 0 0 -1408118.0819453206 18081605.735744476 0 18081605.735744476 54161843.880550385 0 0 0 0 -3489147.658556534 12267212.223335266 0 12267212.223335266 39203155.603164673 0 0 0 0 -10948073.605238507 -8843006.9467658997 0 -8843006.9467658997 41496981.649383545 0 0 0 0 -5294230.9570383951 -2745219.2686061859 0 -2745219.2686061859 31955520.706550598 0 0 0 0 -8768366.6817573495 250994.07331085205 0 250994.07331085205 29376907.778640747 0 0 0 0 -3597380.1022899328 6475659.8698196411 0 6475659.8698196411 29174326.652832031 0 0 0 0 -3537198.2242546165 6108678.1541862488 0 6108678.1541862488 30944706.780015945 0 0 0 0 -181124.04232163541 6288075.3808555603 0 6288075.3808555603 19814733.443466187 0 0 0 0 -316275.26607389655 6617604.6671447754 0 6617604.6671447754 22904206.014698029 0 0 0 0 -3300810.2807205291 4085897.7724227905 0 4085897.7724227905 25820568.031951904 0 0 0 0 -3174607.9138699607 2475969.4019939899 0 2475969.4019939899 24164727.250228882 0 0 0 0 -1254757.6947202787 2606628.3314399719 0 2606628.3314399719 22588572.702827454 0 0 0 0 299096.71270997543 3964485.7490997314 0 3964485.7490997314 21454303.327892303 0 0 0 0 90.140239085636949 1971498.4534339905 0 1971498.4534339905 20796013.68737793 0 0 0 0 -1172874.8749353434 2375863.5145549774 0 2375863.5145549774 22810646.917388916 0 0 0 0 -4182.5402827324924 1256086.3845481873 0 1256086.3845481873 23226509.821919441 0 0 0 0 -2058970.7967513928 1114769.5206928253 0 1114769.5206928253 25811678.421955109 0 0 0 0 -3548550.2330496805 -1911550.5153770447 0 -1911550.5153770447 24729055.362588882 0 0 0 0 -4866138.5950095812 -3430451.2193717957 0 -3430451.2193717957 23056777.174667358 0 0 0 0 -1249.5721311811344 -1501349.5099638887 0 -1501349.5099638887 21907599.233451843 0 0 0 0 -9929182.0660400391 34486098.457500458 0 34486098.457500458 95894308.311857581 0 0 0 0 -64374059.892848492 13103068.241415024 0 13103068.241415024 140935148.88059235 0 0 0 0 -893337.58991261432 -1207059.1392374847 0 -1207059.1392374847 11854856.926261518 0 0 0 0 -768296.88530755881 462031.23339764401 0 462031.23339764401 2121501.7219178323 0 0 0 0 146583462.76783758 215415193.28578186 0 215415193.28578186 -50893301.131378174 0 0 0 0 -117169442.70839477 77384966.41493988 0 77384966.41493988 -20440271.71862793 0 0 0 0 -16283898.362378478 4567711.8816175461 0 4567711.8816175461 27957912.332260132 0 0 0 0 248044678.25440139 -106656272.85256195 0 -106656272.85256195 -45606149.579135895 0 0 0 0 -368770390.25484753 15592986.465148926 0 15592986.465148926 95402765.463466644 0 0 0 0 48730254.655592561 -35966557.333282471 0 -35966557.333282471 77153795.408588409 0 0 0 0 -12938237.730338901 190014274.39513731 0 190014274.39513731 376253706.94980621 0 0 0 0 206959297.60636854 270038200.76219416 0 270038200.76219416 189204420.92125702 0 0 0 0 -117290931.89552903 17300804.297635958 0 17300804.297635958 100230789.99467468 0 0 0 0 -5344401.5069642067 -64621896.862922668 0 -64621896.862922668 20304562.293983459 0 0 0 0 -90388375.267047882 9254804.1713790894 0 9254804.1713790894 79547042.105552673 0 0 0 0 -11226913.315776825 -4203515.6671915054 0 -4203515.6671915054 28964660.884075165 0 0 0 0 -98119618.250318289 -1471932.8152236938 0 -1471932.8152236938 65494800.594558716 0 0 0 0 -3795295.1470487062 2545842.7101013097 0 2545842.7101013097 21109444.392640021 0 0 0 0 -3939990.8167211455 -2847323.6775970161 0 -2847323.6775970161 10381382.828558188 0 0 0 0 -10826920.470345974 -1874556.4149713516 0 -1874556.4149713516 36128512.745445251 0 0 0 0 -8283611.8435335159 2802440.4254665375 0 2802440.4254665375 29959692.096582413 0 0 0 0 -2804914.8649663925 -9618167.6808214188 0 -9618167.6808214188 50232092.942432404 0 0 0 0 -2164517.7273173626 -2876760.2836562889 0 -2876760.2836562889 8642253.5161833577 0 0 0 0 -12460349.184412003 -14321599.221616745 0 -14321599.221616745 68853988.723390579 0 0 0 0 -5269461.1424050331 1570113.0837669373 0 1570113.0837669373 11726044.320241928 0 0 0 0 -3406668.7034060648 350096.05056738527 0 350096.05056738527 11559147.019715793 0 0 0 0 -2883304.9570515156 899650.57968616486 0 899650.57968616486 20026308.233252048 0 0 0 0 -2503219.1429072917 545313.88576173782 0 545313.88576173782 20069937.749065399 0 0 0 0 -3130122.342420578 -2889662.1041984558 0 -2889662.1041984558 8407130.1601047516 0 0 0 0 -4077880.269072907 -343435.20367375296 0 -343435.20367375296 16020930.426951757 0 0 0 0 -4091219.2587414645 862104.4773979187 0 862104.4773979187 6642686.4938259125 0 0 0 0 -4428068.977816999 952390.69709777832 0 952390.69709777832 26122256.207389832 0 0 0 0 -2852593.9970587492 540420.72780799866 0 540420.72780799866 26097893.339479446 0 0 0 0 -3822745.7063105172 848661.49171232921 0 848661.49171232921 13553862.699617459 0 0 0 0 -4746032.7936901301 -64662.953223705292 0 -64662.953223705292 26927180.09387207 0 0 0 0 -3121257.2114617825 -956366.67630195618 0 -956366.67630195618 26958067.086289406 0 0 0 0 -3583477.0903732777 -4022766.0177783966 0 -4022766.0177783966 31637616.037710667 0 0 0 0 -4548192.9525936842 -2456953.5676288605 0 -2456953.5676288605 32582781.965652466 0 0 0 0 -4460839.3128541149 -743352.494012326 0 -743352.494012326 28793538.980827332 0 0 0 0 -2709621.5487508774 -4920531.6439857483 0 -4920531.6439857483 29676894.09969902 0 0 0 0 -11847395.866008639 546357.79088592529 0 546357.79088592529 1836104.341217041 0 0 0 0 -12387886.543249607 -573029.88740539551 0 -573029.88740539551 1146363.3902282715 0 0 0 0 -3915346.2846970577 5608310.4930072324 0 5608310.4930072324 10686034.425772944 0 0 0 0 -3416296.7395595312 -58735.393824577332 0 -58735.393824577332 25486374.16116333 0 0 0 0 -2138276.1334434748 -3775842.7848882675 0 -3775842.7848882675 25345416.311470032 0 0 0 0 -217.70471861746046 1967522.7965722149 0 1967522.7965722149 2348220.9017606433 0 0 0 0 -4794264.4575080872 1637186.0705413818 0 1637186.0705413818 3563278.4192962646 0 0 0 0 -2749732.4868820892 -672473.93816772383 0 -672473.93816772383 13706064.899396461 0 0 0 0 -654803.26410642837 2720582.1022204207 0 2720582.1022204207 2889456.4092485849 0 0 0 0 -5622488.5159924924 3012609.0954322815 0 3012609.0954322815 4925267.7915039062 0 0 0 0 -4828150.5325388908 547673.02453613281 0 547673.02453613281 23530007.241494417 0 0 0 0 -3496331.3775557205 2590929.9674015045 0 2590929.9674015045 4938766.536895752 0 0 0 0 -4602367.5848768055 871157.11489868164 0 871157.11489868164 6792498.4847335815 0 0 0 0 -951180.13970923424 2059614.6980705261 0 2059614.6980705261 3267192.7199859619 0 0 0 0 -3542681.9326125123 3050103.8739446402 0 3050103.8739446402 3580136.3945541382 0 0 0 0 -2611240.946027244 3203977.788883809 0 3203977.788883809 12116899.704995405 0 0 0 0 -3578412.1034446433 2187220.0669212341 0 2187220.0669212341 4159748.4361877441 0 0 0 0 -1734510.1519566553 5901924.8668977236 0 5901924.8668977236 8691459.1089356691 0 0 0 0 -2619253.6206567688 3365970.8990149167 0 3365970.8990149167 3511318.3870384693 0 0 0 0 -1403266.2530966701 3483806.5027844259 0 3483806.5027844259 2570105.6900900342 0 0 0 0 -19812140.777420044 -2960144.1118011475 0 -2960144.1118011475 -19438970.53515625 0 0 0 0 -11874531.586181641 629809.7777557373 0 629809.7777557373 2064574.5899658203 0 0 0 0 -2737909.0886209151 1935648.4450784363 0 1935648.4450784363 10556119.278908789 0 0 0 0 -8244159.4337638617 1157795.5097541809 0 1157795.5097541809 4793957.2636413574 0 0 0 0 2316706.0815596581 3028339.9743499756 0 3028339.9743499756 18335742.266906738 0 0 0 0 -717575.39651273657 -1467580.0426028371 0 -1467580.0426028371 14393318.670300826 0 0 0 0 -3607510.5384545615 -3111979.7544303974 0 -3111979.7544303974 19959468.412773274 0 0 0 0 -3940026.3573687077 5333968.0249290466 0 5333968.0249290466 24591409.50453186 0 0 0 0 -10651456.99114418 -1103578.6636657715 0 -1103578.6636657715 23601234.035224915 0 0 0 0 -14355208.202211857 -2076177.4223327637 0 -2076177.4223327637 25522880.516769409 0 0 0 0 -8604772.67464149 6064633.6874418259 0 6064633.6874418259 26953118.857315063 0 0 0 0 -5557351.319195509 9115635.8818359375 0 9115635.8818359375 19221346.11265564 0 0 0 0 -7356101.2036145926 3985064.4875545502 0 3985064.4875545502 24524227.026000977 0 0 0 0 -5141384.34046942 7127805.2712278366 0 7127805.2712278366 23518876.498001099 0 0 0 0 -5547926.80554533 7244423.7603607178 0 7244423.7603607178 23683877.820892334 0 0 0 0 -6899899.5890660286 3986723.9521942139 0 3986723.9521942139 39699416.774116516 0 0 0 0 -3831661.5486465096 8912602.5255432129 0 8912602.5255432129 27048567.360305786 0 0 0 0 -12227138.156170607 -9717250.8983001709 0 -9717250.8983001709 67420964.405944824 0 0 0 0 -469322.14778375626 -8111061.3550415039 0 -8111061.3550415039 38365172.534006119 0 0 0 0 -3205643.7857327461 -2481858.1807327271 0 -2481858.1807327271 26873866.647674561 0 0 0 0 -2787792.0804160237 288077.97683048248 0 288077.97683048248 32366685.676269531 0 0 0 0 1889452.1584009528 8439503.6079864502 0 8439503.6079864502 31082411.669261932 0 0 0 0 -8116572.5256354213 11005223.331848145 0 11005223.331848145 56193576.406349182 0 0 0 0 -16010467.163807213 -2667782.5267524719 0 -2667782.5267524719 54288073.459487915 0 0 0 0 -17225417.164869964 4493189.0400657654 0 4493189.0400657654 102932852.8565979 0 0 0 0 841988.87554991245 24213433.617778778 0 24213433.617778778 55741061.737457275 0 0 0 0 6685303.7449047267 -11581701.887237549 0 -11581701.887237549 91059051.337003708 0 0 0 0 15355440.372769833 53009130.763931274 0 53009130.763931274 -86837303.192054749 0 0 0 0 -450032.55561427586 18183.45887250267 0 18183.45887250267 3360441.6537942048 0 0 0 0 -40610550.365477666 -18783000.405959129 0 -18783000.405959129 116839470.15407562 0 0 0 0 -48961467.660030507 60316457.997735858 0 60316457.997735858 36525798.197097778 0 0 0 0 24554481.752787232 -24227124.485969543 0 -24227124.485969543 37334579.409835815 0 0 0 0 6169193.686398983 3840964.0886802673 0 3840964.0886802673 8186079.5677642822 0 0 0 0 -8356386.8527977467 -41965073.074577332 0 -41965073.074577332 76016339.20631218 0 0 0 0 -6289242.4473421574 -42564518.25359726 0 -42564518.25359726 30069427.040245056 0 0 0 0 4049150.3601900339 -83704557.917118073 0 -83704557.917118073 61742214.320335388 0 0 0 0 -56057186.875704944 -59798086.556646347 0 -59798086.556646347 74329390.145385742 0 0 0 0 56437430.603722572 -63624477.584201813 0 -63624477.584201813 37125821.237770081 0 0 0 0 -372127.71878927026 512167.14573202655 0 512167.14573202655 2749962.4392570108 0 0 0 0 -287209567.81199026 -89448626.314971924 0 -89448626.314971924 523706778.24123383 0 0 0 0 51792335.368694067 -20269565.038825989 0 -20269565.038825989 16123981.726909637 0 0 0 0 -349083844.66461384 -432123915.48823547 0 -432123915.48823547 369135332.98223877 0 0 0 0 -51933790.30854696 -292866748.75338745 0 -292866748.75338745 -73258986.88130188 0 0 0 0 -31898019.801936388 40006005.093917847 0 40006005.093917847 63357053.545394897 0 0 0 0 -1573296.863969624 -48917013.352600336 0 -48917013.352600336 78063335.230407715 0 0 0 0 197280856.37231731 352927063.52932739 0 352927063.52932739 146649727.18143082 0 0 0 0 -1018410.4618257497 136451.40211960673 0 136451.40211960673 2293971.4731109403 0 0 0 0 -699417.23375485768 -175974.7260324508 0 -175974.7260324508 5622705.7044046894 0 0 0 0 32220905.145913124 126630262.39253998 0 126630262.39253998 -87263133.61233139 0 0 0 0 -28391474.241645336 294164162.18403625 0 294164162.18403625 176962699.00241089 0 0 0 0 38824561.031002045 -66133857.1171875 0 -66133857.1171875 66336045.433486938 0 0 0 0 43753924.369399667 -95781057.392198563 0 -95781057.392198563 225248289.75961304 0 0 0 0 -490748.02986907959 -48299850.056304932 0 -48299850.056304932 59835616.144004822 0 0 0 0 -9249277.7833909988 -22535335.279953003 0 -22535335.279953003 17704850.073516846 0 0 0 0 -36610982.184282303 -12648868.512512207 0 -12648868.512512207 26529169.837524414 0 0 0 0 -59569798.315254211 -19395603.160339355 0 -19395603.160339355 24559522.339141846 0 0 0 0 -29027395.495586395 -33803522.878097534 0 -33803522.878097534 11994758.693756104 0 0 0 0 -37221736.098461151 -35649918.344284058 0 -35649918.344284058 11595079.425979614 0 0 0 0 -37096524.223339081 -12652637.231628418 0 -12652637.231628418 26581945.757965088 0 0 0 0 -19275464.432099104 -69978817.205024719 0 -69978817.205024719 109326055.91452026 0 0 0 0 -23976673.360061407 -59614307.947227478 0 -59614307.947227478 119774537.22618103 0 0 0 0 79406968.849001408 -80920703.636154175 0 -80920703.636154175 -188747951.84622192 0 0 0 0 -123063469.14438438 -76072004.457733154 0 -76072004.457733154 502281731.2279892 0 0 0 0 -19286132.750977755 -71880307.988235474 0 -71880307.988235474 124689870.49772263 0 0 0 0 -53299438.706308842 -94307093.63053894 0 -94307093.63053894 127996838.65079308 0 0 0 0 -31146673.132930517 32738951.921958923 0 32738951.921958923 -54461910.534812927 0 0 0 0 -53294609.296803474 -566131751.5509491 0 -566131751.5509491 130993591.90957642 0 0 0 0 -91435157.233593941 454283859.23043823 0 454283859.23043823 896113317.27331543 0 0 0 0 53609128.54627347 132436256.95218658 0 132436256.95218658 273619165.86372375 0 0 0 0 103762963.74336112 -54522063.361860275 0 -54522063.361860275 28685492.435188293 0 0 0 0 74344857.999994278 -16450507.6248703 0 -16450507.6248703 -1984185.4774551392 0 0 0 0 653607.97162921855 -705396.83934864961 0 -705396.83934864961 -21673.77042388916 0 0 0 0 57897548.385319233 23292240.95425415 0 23292240.95425415 35247723.218048096 0 0 0 0 -166514.80040675926 -130908.9924568776 0 -130908.9924568776 254136.92759473249 0 0 0 0 -4917655.2256173491 -39248298.520492554 0 -39248298.520492554 102412668.15246582 0 0 0 0 -872536.042517066 -7635498.1415481567 0 -7635498.1415481567 45976972.535793304 0 0 0 0 -39263765.960392073 24910459.915299416 0 24910459.915299416 164397945.32421875 0 0 0 0 -37111666.86624366 -59752061.301751137 0 -59752061.301751137 128926574.70175171 0 0 0 0 -38737082.407726526 -55039704.363265991 0 -55039704.363265991 217590506.63949585 0 0 0 0 -38104428.449729204 35796792.698959351 0 35796792.698959351 222058068.22495842 0 0 0 0 -7669418.5776984692 -2496533.0632171631 0 -2496533.0632171631 46725862.355461121 0 0 0 0 -708705.19042418839 -336103.12483780831 0 -336103.12483780831 1941054.8719830103 0 0 0 0 -10987125.834242662 6103982.7146339417 0 6103982.7146339417 6098799.3025665283 0 0 0 0 -2138454.2717320323 -255952.31147575378 0 -255952.31147575378 3410085.1134338379 0 0 0 0 -5935027.1033418477 -852263.27526378632 0 -852263.27526378632 1758745.4072418213 0 0 0 0 -426136.45056552155 -68776.892755180597 0 -68776.892755180597 3360733.5237522125 0 0 0 0 -750118.53153962293 -2046276.3909185389 0 -2046276.3909185389 2666807.2274595052 0 0 0 0 -1592481.9431544244 -2970540.4584312439 0 -2970540.4584312439 3618056.0593109131 0 0 0 0 15058185.096662045 -8584874.9582176208 0 -8584874.9582176208 -285325.42959356308 0 0 0 0 -581808.61825736368 -630521.99106279388 0 -630521.99106279388 1041669.4353247397 0 0 0 0 -9590336.5881620049 1443727.8610496521 0 1443727.8610496521 8955082.4468231201 0 0 0 0 -971340.97772085667 -1878555.1636886597 0 -1878555.1636886597 -4092089.7755126953 0 0 0 0 -9957254.8344244286 -4575875.8246688843 0 -4575875.8246688843 5356450.3797874451 0 0 0 0 -1216772.6272073388 -4973450.992030859 0 -4973450.992030859 -10518653.149963379 0 0 0 0 -548839.37221755204 -269234.9307514783 0 -269234.9307514783 3371774.4876554161 0 0 0 0 -19497308.410216093 -26917687.863990784 0 -26917687.863990784 28005778.626190186 0 0 0 0 -13598921.810023308 -10256052.58008194 0 -10256052.58008194 23446639.236877441 0 0 0 0 19892086.475702286 -19240105.281589508 0 -19240105.281589508 11628094.970016479 0 0 0 0 -366627.99821509485 -1175114.9224799573 0 -1175114.9224799573 5109049.7154630609 0 0 0 0 3910573.8473711014 -16288131.260669708 0 -16288131.260669708 11152348.179229736 0 0 0 0 4171273.4847349375 -3159507.6845054626 0 -3159507.6845054626 -1661700.8575973511 0 0 0 0 -812724.85126495361 -4875794.1447296143 0 -4875794.1447296143 9125656.5419082642 0 0 0 0 -482878.13175705844 -3314547.0325372508 0 -3314547.0325372508 16408089.486732254 0 0 0 0 -23952248.778865814 -9275831.4691848755 0 -9275831.4691848755 26338145.866651535 0 0 0 0 -15476974.208942413 -11933571.002334595 0 -11933571.002334595 19062566.859848976 0 0 0 0 -12655125.594700336 -4152625.0869932175 0 -4152625.0869932175 19147334.97479248 0 0 0 0 -13362916.66105175 -5839847.5992450714 0 -5839847.5992450714 28885800.589664459 0 0 0 0 -8277419.0694243908 -11161234.540564775 0 -11161234.540564775 16145034.142471313 0 0 0 0 -12782229.091490746 -12947385.497485161 0 -12947385.497485161 20407204.937950134 0 0 0 0 -9302375.2927415371 -13430938.916229248 0 -13430938.916229248 19962273.082157135 0 0 0 0 -17255929.076732635 -5514484.9706420898 0 -5514484.9706420898 17538189.00851059 0 0 0 0 -7884518.1915855408 736950.89570236206 0 736950.89570236206 19525074.397781372 0 0 0 0 -1049705.123068776 -5407051.7201184835 0 -5407051.7201184835 18125428.686704874 0 0 0 0 -2782403.8305125413 -321551.86990302242 0 -321551.86990302242 7218368.8378766719 0 0 0 0 -18263369.311300755 3454041.0010929108 0 3454041.0010929108 21009856.506896973 0 0 0 0 -33893726.027153015 1461435.5094013214 0 1461435.5094013214 21703554.347465515 0 0 0 0 -598878.33346176147 -14311505.442901611 0 -14311505.442901611 56484017.0650177 0 0 0 0 -8174565.2739748955 -8774862.3193869591 0 -8774862.3193869591 22108140.088630676 0 0 0 0 -4895266.583565712 -16606625.612053871 0 -16606625.612053871 24661843.146995544 0 0 0 0 -888868.78022839269 6205968.5898013823 0 6205968.5898013823 9764021.4815292656 0 0 0 0 -3589533.2809524536 7327062.0011615753 0 7327062.0011615753 24660183.807386398 0 0 0 0 -1428702.9360694885 1765335.420715332 0 1765335.420715332 3209911.1242752075 0 0 0 0 -1942968.4063844506 -4586675.2415695572 0 -4586675.2415695572 3600688.0804674327 0 0 0 0 732376.72426234931 289537.61033720104 0 289537.61033720104 9671996.6214368641 0 0 0 0 -3854474.9712026692 2640191.3240351463 0 2640191.3240351463 21918550.613149174 0 0 0 0 -8110598.6264095306 7467977.2562103271 0 7467977.2562103271 26657144.003856659 0 0 0 0 -71154697.879606739 -29416447.394210815 0 -29416447.394210815 6291631.9947967529 0 0 0 0 -7273494.6720805168 5548465.6731729507 0 5548465.6731729507 21124881.627071381 0 0 0 0 35714469.35726279 -36055799.617111206 0 -36055799.617111206 -177961138.15800476 0 0 0 0 -10410723.587551504 14402134.979382038 0 14402134.979382038 62473262.498184204 0 0 0 0 -2666032.9759440389 -37798.408736554906 0 -37798.408736554906 10286089.594667304 0 0 0 0 13137565.321155369 34987233.664047241 0 34987233.664047241 125733929.20834351 0 0 0 0 -15365076.210910797 -9982877.0948600769 0 -9982877.0948600769 55438162.110825539 0 0 0 0 -991359.52526831627 -3537243.9193987846 0 -3537243.9193987846 54302386.463924408 0 0 0 0 -26250774.921722412 14395684.784016609 0 14395684.784016609 39612699.668651581 0 0 0 0 -7654503.0489420891 4800455.8315696716 0 4800455.8315696716 34221157.53767395 0 0 0 0 -3638635.2622222304 12042259.060649902 0 12042259.060649902 23118076.858207703 0 0 0 0 -8077043.8342781067 13139186.806118011 0 13139186.806118011 27679037.03852272 0 0 0 0 -9356430.6822729111 16141619.159013748 0 16141619.159013748 22709541.966522217 0 0 0 0 -6597792.5676193237 12927239.989780426 0 12927239.989780426 23045495.722441673 0 0 0 0 -1003818.6492632362 778013.05452825595 0 778013.05452825595 7618739.6224719612 0 0 0 0 -6416313.3062286377 13828077.570568085 0 13828077.570568085 22354590.251502991 0 0 0 0 -377431.19236458885 228683.55843002815 0 228683.55843002815 3054406.0267247022 0 0 0 0 -24589933.718852997 37355789.314440727 0 37355789.314440727 -7357484.0166816711 0 0 0 0 -73949409.933979034 23028132.277069092 0 23028132.277069092 42389937.67178154 0 0 0 0 -36488289.69835186 -51072840.34148407 0 -51072840.34148407 -4900352.5493345261 0 0 0 0 -84655141.685937881 -29641182.856542587 0 -29641182.856542587 55336649.745429993 0 0 0 0 -59892470.330691338 -13151426.079410553 0 -13151426.079410553 66004280.531915665 0 0 0 0 -15134640.782844543 -14705562.789009094 0 -14705562.789009094 28505477.425056458 0 0 0 0 -6127202.0380039215 -21293582.463609695 0 -21293582.463609695 20990242.028018951 0 0 0 0 -5950902.4046735764 -13411132.817876816 0 -13411132.817876816 19370650.548072815 0 0 0 0 -31519937.921676636 -29233460.463855743 0 -29233460.463855743 19697195.587377071 0 0 0 0 -13223843.857663155 -5226671.5463638306 0 -5226671.5463638306 30958864.849279404 0 0 0 0 -36581721.812205791 2607066.1179122925 0 2607066.1179122925 48516771.904006958 0 0 0 0 -46538426.36499548 10055401.154408455 0 10055401.154408455 80409052.15546608 0 0 0 0 -37335904.456629753 3775392.9400367737 0 3775392.9400367737 57527657.910368919 0 0 0 0 -37890891.544791222 31645681.261079788 0 31645681.261079788 71306495.356380463 0 0 0 0 -27409862.913702011 27434187.324090004 0 27434187.324090004 46973882.034210205 0 0 0 0 -24587639.523043633 17826281.101219177 0 17826281.101219177 57469528.142829895 0 0 0 0 -13356212.758047104 16500980.690319061 0 16500980.690319061 53878935.796569824 0 0 0 0 -16396018.453812122 5673268.3942418098 0 5673268.3942418098 50960540.660850525 0 0 0 0 -11739006.392758369 7152825.3571567535 0 7152825.3571567535 45202258.451610565 0 0 0 0 -12969640.324386597 10373355.538657665 0 10373355.538657665 38877855.542572021 0 0 0 0 -5380145.2629871368 6360518.2483215332 0 6360518.2483215332 40086489.674752235 0 0 0 0 -22488986.69641304 33755615.275455475 0 33755615.275455475 39649273.668338776 0 0 0 0 -7250282.8857774734 14129340.448123932 0 14129340.448123932 23075483.226787567 0 0 0 0 -6671533.7600326538 1967023.9556026459 0 1967023.9556026459 110475638.28662872 0 0 0 0 -120556.77465915354 -162363.27011614107 0 -162363.27011614107 1500652.5980748949 0 0 0 0 -1523480.3715515137 33327383.012331009 0 33327383.012331009 -3930243.8043193817 0 0 0 0 -14588190.025262833 29476359.465324402 0 29476359.465324402 154499708.28063965 0 0 0 0 75910451.488815308 36061420.807418823 0 36061420.807418823 154763513.3302269 0 0 0 0 25737422.040584564 7805742.7048072815 0 7805742.7048072815 49372851.813220978 0 0 0 0 -84043.587197750807 2469527.4529734207 0 2469527.4529734207 3538187.3111252291 0 0 0 0 -372615.26634486765 -210874.74605859537 0 -210874.74605859537 4823605.6191440541 0 0 0 0 -2711743.3762321472 -1393909.1706085205 0 -1393909.1706085205 70110549.442659378 0 0 0 0 -374517.69461250305 10132158.773468018 0 10132158.773468018 59669134.247615814 0 0 0 0 -3444520.4667062759 19522629.868677139 0 19522629.868677139 42379410.831939697 0 0 0 0 -417720.41342532774 2134252.6136830598 0 2134252.6136830598 5773733.8890454657 0 0 0 0 -615256.16717147827 1703402.5897369385 0 1703402.5897369385 7386278.4951782227 0 0 0 0 3993699.8789196014 5346961.8831119537 0 5346961.8831119537 36381114.897348404 0 0 0 0 -620483.99766921997 26574.795932769775 0 26574.795932769775 8298035.9178314209 0 0 0 0 -276817.05038452148 842944.94756698608 0 842944.94756698608 7841359.4501647949 0 0 0 0 -1235769.5179347992 108920.97123146057 0 108920.97123146057 8471075.6785507202 0 0 0 0 -1436834.9336566925 343021.81586074829 0 343021.81586074829 8243866.9565200806 0 0 0 0 -11113197.191253662 10727796.07888031 0 10727796.07888031 5458113.2892608643 0 0 0 0 -4904139.654335022 3836706.2110900879 0 3836706.2110900879 5184084.2161865234 0 0 0 0 -12020818.487911224 9468925.5363540649 0 9468925.5363540649 6920218.9006500244 0 0 0 0 -12025159.748889327 9323140.8682255745 0 9323140.8682255745 2791699.1014251709 0 0 0 0 -9434946.5919494629 15772856.774974823 0 15772856.774974823 -2984868.7259674072 0 0 0 0 -12194148.63619709 9788018.2285270691 0 9788018.2285270691 4806065.1268920898 0 0 0 0 -16014314.131343842 15277472.18321991 0 15277472.18321991 -2168969.8297271729 0 0 0 0 -17791792.669128418 6641507.0733337402 0 6641507.0733337402 6035038.8573608398 0 0 0 0 -16479038.865467072 7235692.2578277588 0 7235692.2578277588 2231683.4583129883 0 0 0 0 -20418085.899701118 6071201.4335174561 0 6071201.4335174561 6428289.587677002 0 0 0 0 -660543.28497562883 3701599.811440587 0 3701599.811440587 10363792.874941342 0 0 0 0 -9621713.0543251038 -4049105.3930435181 0 -4049105.3930435181 9609449.7454376221 0 0 0 0 -14087228.683496952 -3404184.4335784912 0 -3404184.4335784912 12934225.142745972 0 0 0 0 -21729369.241836548 1190799.5285186768 0 1190799.5285186768 17624174.491134644 0 0 0 0 1341383.6684959866 849159.46547848871 0 849159.46547848871 -2022119.9844073933 0 0 0 0 -3927687.4516336322 15257455.342081547 0 15257455.342081547 46754207.224716187 0 0 0 0 -22824752.295650482 9742390.3230361938 0 9742390.3230361938 -19192982.29699707 0 0 0 0 -4045815.0231924076 5368530.0754446583 0 5368530.0754446583 9027415.0212834496 0 0 0 0 -4081753.9334392548 10868059.427440643 0 10868059.427440643 42780764.554412842 0 0 0 0 13434043.606407166 24640357.021213531 0 24640357.021213531 38927246.401126862 0 0 0 0 2028727.6355583668 20675095.762180328 0 20675095.762180328 47591744.242271423 0 0 0 0 973238.86986541748 14285729.803848267 0 14285729.803848267 37668111.743225098 0 0 0 0 -7618900.3176612854 36754578.287361145 0 36754578.287361145 26480436.378486633 0 0 0 0 18839114.416801453 19010763.266483307 0 19010763.266483307 -12893100.778587341 0 0 0 0 -6938334.6223526001 -10906604.73740387 0 -10906604.73740387 17436783.747802734 0 0 0 0 8040710.2428073883 -1002216.7012672424 0 -1002216.7012672424 23958424.787631989 0 0 0 0 -16243646.911296844 -6820338.7303886414 0 -6820338.7303886414 28384103.164283752 0 0 0 0 9103124.3538455963 -5237444.4388999939 0 -5237444.4388999939 40830467.859485626 0 0 0 0 7654778.376701355 16399000.576148987 0 16399000.576148987 28550984.376266479 0 0 0 0 7194870.6359319687 13964299.835781097 0 13964299.835781097 37581433.148796082 0 0 0 0 -4581893.62940979 1237557.9661140442 0 1237557.9661140442 33840124.549880981 0 0 0 0 -638038.951534261 252701.7438351782 0 252701.7438351782 9179180.2106908523 0 0 0 0 -12097001.715703964 311199.78148651123 0 311199.78148651123 35587576.004478455 0 0 0 0 -16094851.945201039 -1700225.6403346956 0 -1700225.6403346956 34581010.77482605 0 0 0 0 -2877745.8207376855 2460899.0930768428 0 2460899.0930768428 11961774.190295236 0 0 0 0 -11086774.079662323 7984816.284828186 0 7984816.284828186 4242149.7427062988 0 0 0 0 -11945928.581619263 7808904.9841308594 0 7808904.9841308594 5137576.4017944336 0 0 0 0 -12528006.20851326 4992590.401386261 0 4992590.401386261 -1363874.9188842773 0 0 0 0 -4247555.0911469003 2845284.9334400352 0 2845284.9334400352 13202574.738722581 0 0 0 0 -3137917.0252151489 1156728.9005126953 0 1156728.9005126953 2469526.339099884 0 0 0 0 -412784.53906999063 -770350.86207753792 0 -770350.86207753792 14867582.54775033 0 0 0 0 2638528.9764728546 3964684.6820030212 0 3964684.6820030212 36418637.095211029 0 0 0 0 -1349291.8720381325 186434.18060954474 0 186434.18060954474 7773019.5181695744 0 0 0 0 -13144619.451196671 6501799.3313932419 0 6501799.3313932419 33110256.566137314 0 0 0 0 159502.78610410588 1250418.9666164797 0 1250418.9666164797 1866760.5968582593 0 0 0 0 -1795885.4619769687 1869719.9151635394 0 1869719.9151635394 12047357.470510986 0 0 0 0 -363549.55411787331 121393.29940967634 0 121393.29940967634 2392344.2959063184 0 0 0 0 5779872.2644023895 6712331.147228241 0 6712331.147228241 35101714.096012115 0 0 0 0 -9560843.0012944937 -804544.75294542313 0 -804544.75294542313 32649122.083179474 0 0 0 0 -1099166.0973186493 1583680.5000076294 0 1583680.5000076294 41128206.776735067 0 0 0 0 -11251687.841384888 27474881.945396423 0 27474881.945396423 65189231.277200699 0 0 0 0 -8317193.3871289492 -6664822.9546530247 0 -6664822.9546530247 19232144.815589905 0 0 0 0 6887437.1222376823 17221095.15601635 0 17221095.15601635 28305738.916625977 0 0 0 0 -4017448.5905151367 7962093.9163551331 0 7962093.9163551331 33759324.930862427 0 0 0 0 -6852706.6387809515 -9855925.8497371674 0 -9855925.8497371674 11184467.547866821 0 0 0 0 -29491.416791281081 -146478.87080745026 0 -146478.87080745026 171850.98717427626 0 0 0 0 -14351736.523541093 6817019.7378311157 0 6817019.7378311157 11488386.521881104 0 0 0 0 3652983.7611650527 4338597.4109573364 0 4338597.4109573364 -1658931.2929840088 0 0 0 0 10310815.253517866 -3320951.4266662598 0 -3320951.4266662598 5598044.3173522949 0 0 0 0 -14619441.998961687 1149958.1516189575 0 1149958.1516189575 31137864.146469116 0 0 0 0 13296989.735517263 17023257.73878479 0 17023257.73878479 36545315.532798767 0 0 0 0 -6971203.559587419 4340354.0955047607 0 4340354.0955047607 39073883.591461182 0 0 0 0 -16729068.452061862 19859793.676718712 0 19859793.676718712 28500641.641372681 0 0 0 0 3154940.9624435902 2771057.9366836548 0 2771057.9366836548 19231879.344726562 0 0 0 0 -1765966.2312811883 -1331460.7813622393 0 -1331460.7813622393 10104389.519707024 0 0 0 0 -6959976.8324445486 7504974.1482696533 0 7504974.1482696533 32139297.287078857 0 0 0 0 -1210556.1655228734 1100939.9549713135 0 1100939.9549713135 18597992.455123901 0 0 0 0 -1647837.9935082397 -252052.37705686502 0 -252052.37705686502 9329729.868447721 0 0 0 0 -7697440.1298923492 5686636.1126747131 0 5686636.1126747131 -2693398.8106002808 0 0 0 0 -1509707.3780527115 -3511925.0809326172 0 -3511925.0809326172 9331955.0021438599 0 0 0 0 -997813.5495762825 6308854.1105384827 0 6308854.1105384827 2621528.685256958 0 0 0 0 1369971.5499882698 2500959.9714813232 0 2500959.9714813232 3332061.3386077881 0 0 0 0 1150330.0795454979 -2837551.4462203979 0 -2837551.4462203979 -3659720.4307746887 0 0 0 0 8900339.3526079655 6244541.7706222534 0 6244541.7706222534 1161621.7291946411 0 0 0 0 26288997.425366879 -6070755.1618652344 0 -6070755.1618652344 28395144.080039978 0 0 0 0 3601960.6396071911 -238737.51354217529 0 -238737.51354217529 27223591.720169067 0 0 0 0 3031313.270368576 4461852.2433319092 0 4461852.2433319092 28828069.369369507 0 0 0 0 -117455.38060617447 -5088338.1573638916 0 -5088338.1573638916 24301269.753005981 0 0 0 0 10203686.49727881 -1010999.8810005188 0 -1010999.8810005188 12222310.066680908 0 0 0 0 1213892.7769606113 -3195590.1780509949 0 -3195590.1780509949 11693647.336410522 0 0 0 0 2501098.0519907475 -5239240.0384559631 0 -5239240.0384559631 13945453.484130859 0 0 0 0 -4061713.2454304695 281083.45691680908 0 281083.45691680908 20547223.185058594 0 0 0 0 -3217671.6965428591 -8539909.0442152023 0 -8539909.0442152023 13601235.655731201 0 0 0 0 -7118473.3827161491 -8210492.4076504707 0 -8210492.4076504707 15366162.533935547 0 0 0 0 -6683412.3282952309 -1416811.2124786377 0 -1416811.2124786377 12369225.595649719 0 0 0 0 954651.50495243073 4880405.7154045105 0 4880405.7154045105 29262407.228317261 0 0 0 0 -988457.91303634644 -2428361.7251663208 0 -2428361.7251663208 22928235.239776611 0 0 0 0 789708.59978854656 9863465.2874031067 0 9863465.2874031067 39155642.477890015 0 0 0 0 6641918.2756652832 7981409.9444656372 0 7981409.9444656372 23981684.172850609 0 0 0 0 -407969.22162656585 1253887.9576985538 0 1253887.9576985538 4357209.6310640313 0 0 0 0 10561433.439673573 14419356.081958771 0 14419356.081958771 29449302.275924683 0 0 0 0 8945457.1808414459 16229859.187263489 0 16229859.187263489 34082227.885688782 0 0 0 0 1715871.1574292183 3615126.1624221802 0 3615126.1624221802 30223175.267944336 0 0 0 0 19846854.711039305 28889140.220344543 0 28889140.220344543 35096379.809432983 0 0 0 0 1621337.4499608576 3549132.2493710518 0 3549132.2493710518 61262725.285903931 0 0 0 0 -314947.75447940826 11574142.7501297 0 11574142.7501297 578178.63916015625 0 0 0 0 3774183.8502523899 9707473.3338775635 0 9707473.3338775635 -12831284.497756958 0 0 0 0 4596251.6381089687 5163312.9427986145 0 5163312.9427986145 -2009262.1946563721 0 0 0 0 16124315.198428869 21689183.98979187 0 21689183.98979187 25612894.633488655 0 0 0 0 5790392.0782161951 2610808.007019043 0 2610808.007019043 -19707097.382118225 0 0 0 0 -281276.33147277613 680764.98616397567 0 680764.98616397567 2355330.7955322154 0 0 0 0 5556604.0498771667 23056754.600543976 0 23056754.600543976 48218040.343933105 0 0 0 0 -1889705.1108852595 1220203.6940924153 0 1220203.6940924153 11326169.728222799 0 0 0 0 -836922.24959373474 4418362.1178131104 0 4418362.1178131104 3132023.4117164612 0 0 0 0 -1798588.306000948 7569240.5264587402 0 7569240.5264587402 35314548.094842911 0 0 0 0 -70349.423045175849 6945741.8112534899 0 6945741.8112534899 2996398.204942517 0 0 0 0 -863973.9296207428 4311792.0223464966 0 4311792.0223464966 6306496.6829638481 0 0 0 0 -600197.21981681045 2581524.0711331107 0 2581524.0711331107 6464777.0240999553 0 0 0 0 40809.18927192688 1433107.7414016724 0 1433107.7414016724 2432684.0192260742 0 0 0 0 -59638.777706167995 667802.35006675497 0 667802.35006675497 1013151.8448317291 0 0 0 0 -7749209.454449296 6769250.1048355103 0 6769250.1048355103 40161313.749738693 0 0 0 0 -4602223.8502004147 -4298417.3320236206 0 -4298417.3320236206 71619619.732673645 0 0 0 0 -934891.89835726842 -111074.22609129921 0 -111074.22609129921 1223651.4171200618 0 0 0 0 595220.3572010994 12157526.061477661 0 12157526.061477661 -3606078.7512054443 0 0 0 0 887848.12317830976 4267079.8998111868 0 4267079.8998111868 2639018.1188706048 0 0 0 0 -394142.19462160766 3826066.2597107887 0 3826066.2597107887 4070798.1312942505 0 0 0 0 -496244.44812202454 4058589.7897453308 0 4058589.7897453308 2963429.5610866547 0 0 0 0 906815.98195919581 6814322.4152270695 0 6814322.4152270695 1504028.9998833276 0 0 0 0 -2857062.5659408569 10955532.040679932 0 10955532.040679932 291651.91436767578 0 0 0 0 -27425639.958480597 26841287.90512085 0 26841287.90512085 -7572906.3588027954 0 0 0 0 8374256.1580530405 9095073.8311004639 0 9095073.8311004639 -43114298.397796631 0 0 0 0 -67597.58990290048 1777147.0600603055 0 1777147.0600603055 734334.44699788466 0 0 0 0 -18472147.084451675 15341531.086196899 0 15341531.086196899 4841179.3207697868 0 0 0 0 -7157327.4168183804 34205476.956104279 0 34205476.956104279 -35612299.008041382 0 0 0 0 7962865.8713855743 13974425.085613251 0 13974425.085613251 -13293330.986682415 0 0 0 0 5641505.8394367695 20123190.877374649 0 20123190.877374649 -22862851.482894897 0 0 0 0 15493015.535103351 12975102.600627899 0 12975102.600627899 -30088667.767417908 0 0 0 0 12856000.674311876 3013172.4449920654 0 3013172.4449920654 -50688616.073616028 0 0 0 0 -20994270.998220921 39676370.004858017 0 39676370.004858017 -32354126.013870239 0 0 0 0 4411879.4415457249 30126229.097236633 0 30126229.097236633 -58454676.271671295 0 0 0 0 8011136.6286001205 9111647.0339660645 0 9111647.0339660645 -18005349.952026367 0 0 0 0 3226004.5076925755 6086974.974861145 0 6086974.974861145 -19742424.596359253 0 0 0 0 -646285.71386384964 -257259.28817749023 0 -257259.28817749023 -22005967.501541138 0 0 0 0 8628998.1721401215 10472090.334312439 0 10472090.334312439 -25036909.7628479 0 0 0 0 14307143.869562149 6582253.2150726318 0 6582253.2150726318 -27569777.815681458 0 0 0 0 19848864.628674984 -1455782.8959770203 0 -1455782.8959770203 -19393162.976570129 0 0 0 0 12434808.615544677 2584680.5633306503 0 2584680.5633306503 -18777185.835754395 0 0 0 0 6502896.4387173653 4287465.2758712769 0 4287465.2758712769 -14914316.425418854 0 0 0 0 6247169.4336908162 624809.88812756538 0 624809.88812756538 -7179278.8604736328 0 0 0 0 1758895.565073967 -3463279.7547149658 0 -3463279.7547149658 5706252.7614860535 0 0 0 0 12640926.303129911 -4887489.3147697449 0 -4887489.3147697449 -8075523.0496177673 0 0 0 0 945495.85737729073 -2127735.4199924469 0 -2127735.4199924469 3633540.5841674805 0 0 0 0 3156474.3582023904 -4345221.881126523 0 -4345221.881126523 1866877.5351104736 0 0 0 0 3120788.1693530679 -5362561.282499671 0 -5362561.282499671 4748059.8706359863 0 0 0 0 19859787.958006382 -12269814.261615753 0 -12269814.261615753 -1467038.2836914062 0 0 0 0 12214939.588298082 -1276716.0394706726 0 -1276716.0394706726 -15400244.990081787 0 0 0 0 860887.29940700531 -272896.46732330322 0 -272896.46732330322 11095204.124694824 0 0 0 0 22759564.530449152 -12305457.045574188 0 -12305457.045574188 -1468328.907119751 0 0 0 0 2816046.7564892769 -9909508.4911460876 0 -9909508.4911460876 18933042.902839661 0 0 0 0 8255287.7126822472 -14984466.309944153 0 -14984466.309944153 36305543.713188171 0 0 0 0 -500854.64098119736 -3304579.8998832703 0 -3304579.8998832703 6015542.5157470703 0 0 0 0 370655.77105045319 -2491135.4850769043 0 -2491135.4850769043 6741655.9650650024 0 0 0 0 5267276.491383791 23783987.520561218 0 23783987.520561218 -25498416.937149048 0 0 0 0 9803162.095356226 21720838.688323975 0 21720838.688323975 -13407256.740829468 0 0 0 0 23448088.546315193 30191897.036941528 0 30191897.036941528 -23848005.372276306 0 0 0 0 38759218.681505203 80652.074569702148 0 80652.074569702148 -28398865.629484177 0 0 0 0 7607492.4310643673 13495879.756093979 0 13495879.756093979 -7967164.1444168091 0 0 0 0 39244938.360354424 -993496.99325561523 0 -993496.99325561523 -4455432.3180217743 0 0 0 0 56590053.863556549 21870957.303194523 0 21870957.303194523 21063260.624725342 0 0 0 0 49225799.234945059 -33842575.42665863 0 -33842575.42665863 16056589.094238281 0 0 0 0 77022651.862692833 -36500874.469100952 0 -36500874.469100952 37029401.137319565 0 0 0 0 31049468.065797865 30709117.741806984 0 30709117.741806984 -10099260.127975464 0 0 0 0 42092801.068000078 1217171.0388412476 0 1217171.0388412476 -2528119.3583908081 0 0 0 0 14246998.812757254 13548429.969230652 0 13548429.969230652 14312310.114585876 0 0 0 0 3139543.899720192 14432733.318481445 0 14432733.318481445 -4477003.4162826538 0 0 0 0 1730513.5645625591 31361995.378456116 0 31361995.378456116 -32346643.062698364 0 0 0 0 16174808.322112232 25461205.753783703 0 25461205.753783703 -20765366.676391602 0 0 0 0 -4771133.6354422569 33041593.990242004 0 33041593.990242004 -10727033.617492676 0 0 0 0 12325636.426229984 32483142.151824951 0 32483142.151824951 -25346096.410675049 0 0 0 0 -17347706.519072533 43535921.719661713 0 43535921.719661713 -20596674.898757935 0 0 0 0 -3511442.2655485868 32123784.972383499 0 32123784.972383499 -31620673.392272949 0 0 0 0 -2713807.414396286 39297747.815120697 0 39297747.815120697 -31228442.439079285 0 0 0 0 -2605124.3216366768 41870154.647529602 0 41870154.647529602 -22631493.824363708 0 0 0 0 -22564928.68562746 34355097.725059509 0 34355097.725059509 -32853962.060941696 0 0 0 0 -49732784.316058159 35483528.636360168 0 35483528.636360168 -22067999.503883362 0 0 0 0 -17939406.088712931 43275056.304771423 0 43275056.304771423 -29091495.208007812 0 0 0 0 -18634361.216825008 26427470.688301086 0 26427470.688301086 -21787991.802001953 0 0 0 0 -37371801.22909832 49134818.967628479 0 49134818.967628479 -34855334.031936646 0 0 0 0 -57798971.956407875 52205294.778189659 0 52205294.778189659 -26663929.863456726 0 0 0 0 24068999.786530018 8146919.8335762024 0 8146919.8335762024 -21762503.317443848 0 0 0 0 -46738446.686630487 34193491.134986877 0 34193491.134986877 -41989161.082809448 0 0 0 0 -23433382.516783714 19600088.794519424 0 19600088.794519424 4600814.9130249023 0 0 0 0 -48977700.189893723 -41869594.607284546 0 -41869594.607284546 -14529145.656471252 0 0 0 0 1769672.3994071344 1182631.2236451898 0 1182631.2236451898 -6329.203444506973 0 0 0 0 -26929950.44538784 22592738.967971802 0 22592738.967971802 30440589.248970032 0 0 0 0 -21401701.886935234 5311473.8266716003 0 5311473.8266716003 -71673633.381378174 0 0 0 0 983051.69559411379 4331520.7797623901 0 4331520.7797623901 6750395.3303664215 0 0 0 0 -47951927.667297363 74370992.018989563 0 74370992.018989563 -45204182.329650879 0 0 0 0 -9494278.9866991043 8472134.8808860779 0 8472134.8808860779 5953270.6179351807 0 0 0 0 -965372.1957244873 67540125.759590149 0 67540125.759590149 -74444165.260126591 0 0 0 0 -11541936.33006382 59245691.684333801 0 59245691.684333801 -51318082.372940063 0 0 0 0 10012127.709690094 8668427.3402404785 0 8668427.3402404785 -36116355.747657776 0 0 0 0 -51684931.313211441 23541159.987365723 0 23541159.987365723 -35317187.430785656 0 0 0 0 1823212.9150678955 1100231.6961759701 0 1100231.6961759701 -1830105.6959078386 0 0 0 0 2751730.2783847507 2075401.0500341114 0 2075401.0500341114 244287.782948412 0 0 0 0 -27867004.599114418 30949815.472358704 0 30949815.472358704 -25568888.383544922 0 0 0 0 -4118041.2217817307 19839003.547615051 0 19839003.547615051 -43406707.427368164 0 0 0 0 -75909502.111024857 -9643387.5098342896 0 -9643387.5098342896 -40252429.708755493 0 0 0 0 -89047698.353410721 12683814.951278687 0 12683814.951278687 -20896321.891876221 0 0 0 0 46715668.660932541 2618102.5877075195 0 2618102.5877075195 -85595627.070297241 0 0 0 0 15314327.182369709 84111922.039381027 0 84111922.039381027 14424661.347549438 0 0 0 0 -25170307.553474426 51072005.053329468 0 51072005.053329468 41664655.813110352 0 0 0 0 -2660307.133146286 5148688.3094863892 0 5148688.3094863892 2720826.3994445801 0 0 0 0 -356755.15291690826 2338533.0013008118 0 2338533.0013008118 4911047.4735832214 0 0 0 0 -6421545.3105897903 4376736.8204803467 0 4376736.8204803467 7085090.933883667 0 0 0 0 -2011959.5888996124 188954.94944000244 0 188954.94944000244 8450916.5991649628 0 0 0 0 -4608361.6471471786 1351626.0828170776 0 1351626.0828170776 8569582.330947876 0 0 0 0 -2590061.6038036346 1760156.6377563477 0 1760156.6377563477 7019222.7722223997 0 0 0 0 -2974800.8737413883 2563517.9901380539 0 2563517.9901380539 7000790.2539901733 0 0 0 0 -987091.16669082642 1739444.812915802 0 1739444.812915802 7075696.6046628952 0 0 0 0 -2112768.680434972 1554829.8448445797 0 1554829.8448445797 7584373.1099624634 0 0 0 0 -2176220.4407301545 323506.55154275894 0 323506.55154275894 8344368.3403930664 0 0 0 0 -990013.08825492859 1758254.0759544373 0 1758254.0759544373 7428072.5019836426 0 0 0 0 1195113.9324802037 3812712.6630063225 0 3812712.6630063225 4546285.9853999205 0 0 0 0 -258092.04935836792 1455195.3184623718 0 1455195.3184623718 6667361.8359603882 0 0 0 0 -12665827.270565033 21465195.245391846 0 21465195.245391846 7112500.3843688965 0 0 0 0 -874946.73420715332 63294303.927520752 0 63294303.927520752 3174401.6712646484 0 0 0 0 1976656.3412498138 1332296.7547993204 0 1332296.7547993204 -2937609.3538227044 0 0 0 0 -21335443.503570557 39603949.881958008 0 39603949.881958008 36216234.884269714 0 0 0 0 -11851703.434625626 16918549.285182953 0 16918549.285182953 -28532582.796539307 0 0 0 0 -38183483.110752106 23079632.427352905 0 23079632.427352905 -25792864.0234375 0 0 0 0 -9308544.9989814758 13182459.801010132 0 13182459.801010132 -51876244.689971924 0 0 0 0 -24621887.768993378 49603287.893447876 0 49603287.893447876 261398.40295410156 0 0 0 0 -17588433.356681824 26735799.639602661 0 26735799.639602661 -5939414.8424682617 0 0 0 0 -20615991.795555115 41142203.788452148 0 41142203.788452148 -2001997.0680389404 0 0 0 0 -20352545.535245895 35916151.473762512 0 35916151.473762512 10912659.608459473 0 0 0 0 -17766175.634391785 37661070.086502075 0 37661070.086502075 -17079346.414733887 0 0 0 0 -14515615.470405579 31672141.100418091 0 31672141.100418091 -20871984.51739502 0 0 0 0 -17619011.756855726 27695195.850513935 0 27695195.850513935 -25636992.401428223 0 0 0 0 -7191616.4647521973 38669059.029663086 0 38669059.029663086 -22474190.275535583 0 0 0 0 -24375575.692100525 8830888.1237945557 0 8830888.1237945557 17389047.571278572 0 0 0 0 5267645.3739280701 13852299.413253784 0 13852299.413253784 -69536854.929901123 0 0 0 0 9599998.0759010315 25805518.04574585 0 25805518.04574585 -70586151.642303467 0 0 0 0 18469556.366714478 46400583.923248291 0 46400583.923248291 -58004341.009536743 0 0 0 0 -580825.25150898285 -260954.5133982785 0 -260954.5133982785 1323486.472054651 0 0 0 0 -2504009.471572876 26230892.729064941 0 26230892.729064941 -34981249.906509399 0 0 0 0 -11221975.645103455 31976551.919799805 0 31976551.919799805 -33522307.609954834 0 0 0 0 -15758720.293912888 11450024.690498352 0 11450024.690498352 -6006443.778755188 0 0 0 0 -30762361.490913391 18753883.909454346 0 18753883.909454346 5746017.3141479492 0 0 0 0 -15752368.908519745 10128128.526893616 0 10128128.526893616 -5578338.0022125244 0 0 0 0 5370490.8237839341 6006751.6025943756 0 6006751.6025943756 -31446499.455963135 0 0 0 0 -15838881.340583801 20308120.786148071 0 20308120.786148071 -32677376.896774292 0 0 0 0 4014743.460449215 4499483.4876547158 0 4499483.4876547158 147615.13188820332 0 0 0 0 -57547516.662784576 264554.81195068359 0 264554.81195068359 39032952.885253906 0 0 0 0 -28684700.946258545 -15243715.551544189 0 -15243715.551544189 -27438398.183946609 0 0 0 0 -13304019.654987335 15706518.775253296 0 15706518.775253296 -2844776.7625694275 0 0 0 0 -15402245.972782135 14550639.527778625 0 14550639.527778625 8038766.5267791748 0 0 0 0 -20278194.002803802 38383219.885124207 0 38383219.885124207 33961254.244992256 0 0 0 0 3034422.6517336369 26259574.57635498 0 26259574.57635498 -26449826.494987488 0 0 0 0 -17285435.12320435 36963991.18905735 0 36963991.18905735 -30464036.608444214 0 0 0 0 35045654.776279449 3776039.7123680115 0 3776039.7123680115 -12923185.603561401 0 0 0 0 3169107.8860897236 3213740.7864243779 0 3213740.7864243779 27721.977473847568 0 0 0 0 -16198501.196277618 42511720.933914185 0 42511720.933914185 -30510475.048231125 0 0 0 0 1738831.3036332561 891648.03168316185 0 891648.03168316185 -1193354.0885462388 0 0 0 0 -24724257.51300621 50719053.765533447 0 50719053.765533447 2715591.6825256348 0 0 0 0 -25537196.957958221 53911487.089614868 0 53911487.089614868 27316686.117950439 0 0 0 0 2532.3788351703342 1567918.4238548279 0 1567918.4238548279 3300028.3026809692 0 0 0 0 563229.47960894287 1632841.8180930316 0 1632841.8180930316 2421913.7458190918 0 0 0 0 -466685.01839566883 2558005.7399902344 0 2558005.7399902344 2337502.8427963257 0 0 0 0 567837.04139257642 2197145.9890441895 0 2197145.9890441895 2148594.746673584 0 0 0 0 -497272.36767151719 4939323.0847320557 0 4939323.0847320557 -61432.631446838379 0 0 0 0 -439058.38388300425 3640656.142582655 0 3640656.142582655 2410852.6985778809 0 0 0 0 -467203.79510596162 4421986.2014465332 0 4421986.2014465332 7035078.3083572388 0 0 0 0 -1231.6562319284117 2152678.5499038696 0 2152678.5499038696 16033196.552459717 0 0 0 0 1444632.0683014872 3399297.9961547852 0 3399297.9961547852 7582110.1113891602 0 0 0 0 -311319.88030276465 4201797.1414079666 0 4201797.1414079666 17669167.370376587 0 0 0 0 -12800.557001439505 3077087.1072063446 0 3077087.1072063446 19694930.91027832 0 0 0 0 545384.6004128349 4623879.4992389679 0 4623879.4992389679 21789164.14805603 0 0 0 0 6489686.954072345 2083805.6959838867 0 2083805.6959838867 -3685880.2302017212 0 0 0 0 1455321.8391516907 4724158.1758499146 0 4724158.1758499146 18796036.333965302 0 0 0 0 429.81509237569298 13491.381777243689 0 13491.381777243689 21076.620247481856 0 0 0 0 -4227232.9338594638 596089.38106536865 0 596089.38106536865 3465057.5415115356 0 0 0 0 101330.80120180314 4509888.2531204224 0 4509888.2531204224 19951901.246185303 0 0 0 0 339977.73432246596 3896420.3577661514 0 3896420.3577661514 19640528.804656982 0 0 0 0 234658.54042744962 4682272.870595932 0 4682272.870595932 19141932.065963745 0 0 0 0 260254.63205969147 3670953.6363220215 0 3670953.6363220215 20162269.630996704 0 0 0 0 -549621.71003886871 3661169.7525062561 0 3661169.7525062561 17186529.369750977 0 0 0 0 1687201.5839370675 7089713.3079833984 0 7089713.3079833984 18266596.427520752 0 0 0 0 -1072.8814025521988 44613.524196453393 0 44613.524196453393 65054.590782913379 0 0 0 0 -214153.02873655409 108112.3475189209 0 108112.3475189209 1290374.1567230225 0 0 0 0 928599.48991326243 -260873.40038299561 0 -260873.40038299561 1089933.4303741455 0 0 0 0 929764.27812720649 4130351.4793891907 0 4130351.4793891907 16233604.283355713 0 0 0 0 302025.46045843326 10083.83819103241 0 10083.83819103241 1134725.0445098877 0 0 0 0 -39108.357181181353 5188.901473660022 0 5188.901473660022 160090.16411286592 0 0 0 0 -333617.41478951648 -1835178.9141845703 0 -1835178.9141845703 3661554.9062042236 0 0 0 0 -369748.55980111292 4239792.6099433899 0 4239792.6099433899 -1070325.0563430786 0 0 0 0 -197726.79094396718 1481001.4415206909 0 1481001.4415206909 -904763.82362365723 0 0 0 0 -1637510.8268113136 1297047.5344696045 0 1297047.5344696045 1450076.8575592041 0 0 0 0 -1822435.6619424159 878388.18719482422 0 878388.18719482422 1368995.1711273193 0 0 0 0 -1454945.0814289898 470378.97738647461 0 470378.97738647461 716064.4507598877 0 0 0 0 -448261.78477370739 -633479.80162811279 0 -633479.80162811279 1543607.7220535278 0 0 0 0 -219996.82718456828 79409.835994696245 0 79409.835994696245 625139.23122385144 0 0 0 0 -1065941.9172209017 1350389.8854904175 0 1350389.8854904175 615955.84828948975 0 0 0 0 -428983.99186008982 -771608.58840274811 0 -771608.58840274811 1079208.4184112549 0 0 0 0 -630831.18916383712 466518.48789264914 0 466518.48789264914 2433745.6687599793 0 0 0 0 -189322.75054887467 -618637.90935872914 0 -618637.90935872914 -134050.68547979742 0 0 0 0 -1374875.6448965818 -868075.46831130981 0 -868075.46831130981 -642171.58018112183 0 0 0 0 -1747372.9108449216 -2859543.9805426598 0 -2859543.9805426598 -1733654.0490112305 0 0 0 0 -1109806.7815672697 -301576.44062630646 0 -301576.44062630646 2168296.0587475821 0 0 0 0 -1688538.130456517 512703.1417350769 0 512703.1417350769 -855154.67380523682 0 0 0 0 -250888.2955391109 -402397.37889099121 0 -402397.37889099121 655747.58562469482 0 0 0 0 -196960.56999818981 128834.47267150879 0 128834.47267150879 762094.86938095093 0 0 0 0 -223660.44059075415 -167608.02258300781 0 -167608.02258300781 1526569.5340909958 0 0 0 0 -98715.339451257139 179987.47640228271 0 179987.47640228271 579416.1803894043 0 0 0 0 3268176.8957689693 2362282.3920135498 0 2362282.3920135498 9421888.236289978 0 0 0 0 -4533.3017825227871 97352.276030171663 0 97352.276030171663 118274.26826334512 0 0 0 0 -93520.540241099894 97221.477077484131 0 97221.477077484131 465320.3461151123 0 0 0 0 837152.4980914616 1313102.5035171509 0 1313102.5035171509 11916084.901229858 0 0 0 0 2048978.6339808106 4094843.7949295044 0 4094843.7949295044 15011039.742149353 0 0 0 0 1860608.7021828357 4414703.9163863659 0 4414703.9163863659 14833246.524505615 0 0 0 0 6865589.5223494694 5657159.2925796509 0 5657159.2925796509 10761439.328063965 0 0 0 0 4054832.9561096984 1620779.2164382935 0 1620779.2164382935 11406016.99829483 0 0 0 0 -1782718.6316715591 4141779.5500030518 0 4141779.5500030518 12284633.786227226 0 0 0 0 3421146.1742794281 1933799.0212402344 0 1933799.0212402344 12441145.2056427 0 0 0 0 4564368.3369155265 559486.89735794067 0 559486.89735794067 6856113.148727417 0 0 0 0 -179280.3057161434 -308477.97803383041 0 -308477.97803383041 -41277.224179346114 0 0 0 0 3265615.6606317018 -5622673.0655555725 0 -5622673.0655555725 8471121.3644256592 0 0 0 0 1152963.9627767485 962905.5329284668 0 962905.5329284668 1233907.8851318359 0 0 0 0 -494.5946595084024 -23860.26841776073 0 -23860.26841776073 -9129.0145145785064 0 0 0 0 1233614.4969514017 -356251.34044265747 0 -356251.34044265747 -2033742.5533447266 0 0 0 0 -190811.13452999294 66014.123260498047 0 66014.123260498047 619942.95375823975 0 0 0 0 -4999.0340249111186 -15750.309669823386 0 -15750.309669823386 -3307.5536182373762 0 0 0 0 -7935015.4153161012 -9107995.0238189697 0 -9107995.0238189697 33032.993804931641 0 0 0 0 4194322.9061195832 -9953611.1859779358 0 -9953611.1859779358 -1890100.1529846191 0 0 0 0 -660231.6318717571 157190.52389285155 0 157190.52389285155 2757668.7543447465 0 0 0 0 4240577.4463329818 -2477828.6683883667 0 -2477828.6683883667 3743530.7255706787 0 0 0 0 4266037.9105635909 -3010199.1514053345 0 -3010199.1514053345 11372242.533348083 0 0 0 0 -5771386.7315326473 3472003.3416824341 0 3472003.3416824341 2093043.3495025635 0 0 0 0 4419821.2777477838 2226210.5375061035 0 2226210.5375061035 8705766.9822006226 0 0 0 0 4266731.4569032583 3395981.4721221924 0 3395981.4721221924 2751722.8633575439 0 0 0 0 -621340.93106345832 -89320.624741885811 0 -89320.624741885811 3070849.3681639731 0 0 0 0 -13010869.489050593 -8520188.0256118774 0 -8520188.0256118774 4503869.4222640991 0 0 0 0 -1116848.9718956947 -23428117.418510437 0 -23428117.418510437 54268586.16998291 0 0 0 0 -1048108.2992168181 -3097758.3581352234 0 -3097758.3581352234 -1930074.6927032471 0 0 0 0 -13242211.991375446 1118049.7134094238 0 1118049.7134094238 13678165.940063477 0 0 0 0 -17927953.527174473 -6363663.5490188599 0 -6363663.5490188599 18806587.3956604 0 0 0 0 -19652857.426372439 -19936526.273034573 0 -19936526.273034573 12924368.620010376 0 0 0 0 8379066.2937693596 25396513.908279419 0 25396513.908279419 -21603386.23563385 0 0 0 0 -11818047.961921692 -5181223.6663818359 0 -5181223.6663818359 16200836.401000977 0 0 0 0 -43422.463587319478 353114.75788825098 0 353114.75788825098 383558.85209799558 0 0 0 0 -14677385.362728596 -8948840.0014801025 0 -8948840.0014801025 17335566.627494812 0 0 0 0 -6418209.403588295 -5196900.2412567139 0 -5196900.2412567139 18577429.054832458 0 0 0 0 7364189.5597863197 1488043.3784484863 0 1488043.3784484863 7301137.1559448242 0 0 0 0 -1126843.3307313919 5474736.3587799072 0 5474736.3587799072 22935727.479492188 0 0 0 0 5728982.7031564713 7784722.505065918 0 7784722.505065918 -11747103.838172913 0 0 0 0 -3750385.4414941072 -17922587.793065548 0 -17922587.793065548 -4853965.6848602295 0 0 0 0 20967579.942022324 -3518282.8818588257 0 -3518282.8818588257 7402714.6994628906 0 0 0 0 46414.504985205946 1037715.2836456401 0 1037715.2836456401 1057284.3008571938 0 0 0 0 -21879213.762376308 10818692.877094269 0 10818692.877094269 20774959.699645996 0 0 0 0 6313360.0158200264 5651198.1355361938 0 5651198.1355361938 3119453.5174560547 0 0 0 0 -4123645.2304143906 2529703.4962158203 0 2529703.4962158203 23648808.299082756 0 0 0 0 -12092018.89792347 157353.73635864258 0 157353.73635864258 6888919.0648193359 0 0 0 0 -1601041.2495846748 8650389.0755462646 0 8650389.0755462646 5489914.77734375 0 0 0 0 3142536.6397247314 34797713.206512451 0 34797713.206512451 20779216.414916992 0 0 0 0 8817630.3766765594 23391698.225372314 0 23391698.225372314 8657623.9206619263 0 0 0 0 13388303.62476635 35725872.764770508 0 35725872.764770508 16136153.803909302 0 0 0 0 -5019325.542514801 36528522.057647705 0 36528522.057647705 62287451.209638596 0 0 0 0 15217055.178633958 7639683.7615406513 0 7639683.7615406513 19591256.454421997 0 0 0 0 -7768795.6886053085 11726602.921188354 0 11726602.921188354 53664787.279220581 0 0 0 0 2064876.3966493607 -3384085.9343948364 0 -3384085.9343948364 -37316138.359130859 0 0 0 0 -126998.64766123693 195056.96980774403 0 195056.96980774403 768366.62678606808 0 0 0 0 12228370.139433384 10811791.719116211 0 10811791.719116211 -82597922.272537231 0 0 0 0 2054311.983853817 -10759351.975540161 0 -10759351.975540161 6166814.8904790878 0 0 0 0 -4436186.7928385735 10269239.702461243 0 10269239.702461243 -16010051.366279602 0 0 0 0 -47130736.518859863 81474297.039840698 0 81474297.039840698 25779541.680633545 0 0 0 0 10469937.541276217 6308173.3229942322 0 6308173.3229942322 5550467.3467063904 0 0 0 0 13095393.310579658 39369568.256290436 0 39369568.256290436 -25837840.269927979 0 0 0 0 62588863.239629745 -83895143.64956665 0 -83895143.64956665 -10521540.040622711 0 0 0 0 -130448.4438380003 118761.36780466512 0 118761.36780466512 226410.91893396899 0 0 0 0 55419.946409404569 318639.87602390163 0 318639.87602390163 84854.518512263894 0 0 0 0 -1253303.6053161621 -2625751.2042694092 0 -2625751.2042694092 -5640538.6212768555 0 0 0 0 1253517.8792444232 1372109.175371008 0 1372109.175371008 677774.83303603157 0 0 0 0 15535654.09939003 2960173.0826187134 0 2960173.0826187134 -4311391.6621246338 0 0 0 0 -193669.28353603795 767125.80727377441 0 767125.80727377441 1891896.662682496 0 0 0 0 5229354.9809122086 -2116645.5906486511 0 -2116645.5906486511 1749523.4400253296 0 0 0 0 -3337337.4940233231 2507383.886680603 0 2507383.886680603 -1511000.1152648926 0 0 0 0 620933.3180937767 8705950.7066345215 0 8705950.7066345215 -16785330.426460266 0 0 0 0 1168299.2125267982 1322481.3866004944 0 1322481.3866004944 -3956457.6990814209 0 0 0 0 3064515.7047834396 -2393313.2307510376 0 -2393313.2307510376 -2925911.7498626709 0 0 0 0 4060846.7596228123 -248745.11378479004 0 -248745.11378479004 1590291.617980957 0 0 0 0 1914210.4993481636 -2560115.7586574554 0 -2560115.7586574554 2577108.8471221924 0 0 0 0 934636.95315384865 -1572224.2749557495 0 -1572224.2749557495 5719930.2678527832 0 0 0 0 502039.63146352768 -1875805.5936584473 0 -1875805.5936584473 5617162.0047531128 0 0 0 0 613436.30565166473 -1162790.469060421 0 -1162790.469060421 5870531.23046875 0 0 0 0 3479120.4086633921 2145426.703625679 0 2145426.703625679 2747267.1977539062 0 0 0 0 -645377.13561439514 86424.650123596191 0 86424.650123596191 1859133.5514526367 0 0 0 0 4475601.3136119843 -1342358.3491439819 0 -1342358.3491439819 3056189.7365436554 0 0 0 0 5480659.0251226425 501349.98863220215 0 501349.98863220215 5154640.1838340759 0 0 0 0 5906634.811367929 -1363591.1650028229 0 -1363591.1650028229 4018331.9883270264 0 0 0 0 61326.923965960974 209403.97742353193 0 209403.97742353193 125403.18550679926 0 0 0 0 7358668.7549188137 -935610.33792495728 0 -935610.33792495728 1797840.7763442993 0 0 0 0 -166863.66914601115 894810.3408694379 0 894810.3408694379 1772907.0539246686 0 0 0 0 -7852736.4249253944 -193627.301612854 0 -193627.301612854 1862337.3895568848 0 0 0 0 -10865261.883245267 -2214452.6415710449 0 -2214452.6415710449 13351107.348739624 0 0 0 0 -7210400.9372992888 8806591.5948181152 0 8806591.5948181152 15553245.760871887 0 0 0 0 17779857.855775341 -17012715.639526367 0 -17012715.639526367 -30590329.094238281 0 0 0 0 11481423.087323053 17138175.715240479 0 17138175.715240479 764891.65991210938 0 0 0 0 6698756.4531815909 20639376.25553894 0 20639376.25553894 25382743.401824951 0 0 0 0 -7280957.1223111311 -6718463.863319397 0 -6718463.863319397 -15712268.580856323 0 0 0 0 -18337830.365335289 -6488014.9532432556 0 -6488014.9532432556 32040797.69758606 0 0 0 0 -430526.10903002229 406428.47865362652 0 406428.47865362652 937882.73890336975 0 0 0 0 -1676109.7040302753 2333603.0495529175 0 2333603.0495529175 -1803428.7595596313 0 0 0 0 -235444.84337490681 600827.49701888859 0 600827.49701888859 865317.20513823256 0 0 0 0 -248456.43175840378 455235.68430328369 0 455235.68430328369 349747.30603408813 0 0 0 0 6718.0027575941785 453324.12680496462 0 453324.12680496462 1016025.2668985315 0 0 0 0 17197480.921248905 19935010.23935318 0 19935010.23935318 13002591.835113525 0 0 0 0 -26202.374468828606 308186.01639356464 0 308186.01639356464 592491.44915767014 0 0 0 0 4638993.6251231432 -37289.88111114502 0 -37289.88111114502 40373.214019775391 0 0 0 0 -262168.63424958079 83758.333960894495 0 83758.333960894495 332777.77283854783 0 0 0 0 1577571.2685505487 1902822.7498092651 0 1902822.7498092651 2221512.9152069092 0 0 0 0 42356525.267336294 15568574.067337036 0 15568574.067337036 -7968650.2592315674 0 0 0 0 31977.400958227372 133314.07436301 0 133314.07436301 75548.220847509801 0 0 0 0 812114.06128957868 -6442360.4863014221 0 -6442360.4863014221 4631859.0754547119 0 0 0 0 6368063.7403806709 -3406197.515914917 0 -3406197.515914917 1461577.2462615967 0 0 0 0 -1213494.0117910523 -1082653.3658924103 0 -1082653.3658924103 2561636.7847442627 0 0 0 0 -742929.2027633884 947475.35639953613 0 947475.35639953613 1887439.6364135742 0 0 0 0 -1063184.9465153031 -1167071.7438583374 0 -1167071.7438583374 1313200.0967254639 0 0 0 0 89653.400577764754 434406.33257765695 0 434406.33257765695 258186.64404759184 0 0 0 0 -1581179.6744241975 400752.73727226257 0 400752.73727226257 3245306.9356079102 0 0 0 0 -1379827.2304399889 -317996.62551879883 0 -317996.62551879883 3334533.5712280273 0 0 0 0 -1429933.4667637721 509913.91660308838 0 509913.91660308838 2235433.8732147217 0 0 0 0 -776730.10349366814 245056.69687652588 0 245056.69687652588 2241480.7808380127 0 0 0 0 -1274464.9626818802 -357028.23143005371 0 -357028.23143005371 1542786.0068969727 0 0 0 0 6899001.5357495993 8351711.2730636597 0 8351711.2730636597 -4771232.2118225098 0 0 0 0 -1544773.8427111264 2304207.8443460464 0 2304207.8443460464 3488040.0721893311 0 0 0 0 -16291468.297251828 3728000.336517334 0 3728000.336517334 21364352.943092346 0 0 0 0 16916.605945996769 174842.32038492523 0 174842.32038492523 138283.32168263197 0 0 0 0 9191361.0858484767 3944812.5430908203 0 3944812.5430908203 -1531757.6052703857 0 0 0 0 2936607.1428678334 9648195.1346588135 0 9648195.1346588135 -4318130.1149520874 0 0 0 0 4704742.0545644909 5438064.1812438965 0 5438064.1812438965 -5089087.8484268188 0 0 0 0 6943928.8606705815 6156594.0534973145 0 6156594.0534973145 -4900915.6636734009 0 0 0 0 -1207313.3684030473 3779524.9881362915 0 3779524.9881362915 2519074.1721496582 0 0 0 0 50052.344216827689 543479.75534535199 0 543479.75534535199 432551.25139227882 0 0 0 0 2571276.1341803297 1910020.2872390747 0 1910020.2872390747 -113806.88121414185 0 0 0 0 -1589689.6003116071 1357267.8000564575 0 1357267.8000564575 2467093.3852233887 0 0 0 0 745700.80232605629 1616043.0127385575 0 1616043.0127385575 1987956.8921157233 0 0 0 0 1403239.0216158926 1150013.5220184326 0 1150013.5220184326 1611406.9630279541 0 0 0 0 432100.16417265823 677866.18747264333 0 677866.18747264333 192080.33878960088 0 0 0 0 -496055.96928492747 153772.84730204241 0 153772.84730204241 871403.63617005944 0 0 0 0 1614666.356276989 3809901.4046859741 0 3809901.4046859741 1843401.9411010742 0 0 0 0 -693068.71325945854 216804.21451568604 0 216804.21451568604 492875.51731109619 0 0 0 0 -552419.17874554917 697991.9228553772 0 697991.9228553772 1188122.0651702881 0 0 0 0 -1159671.7840198288 861790.12234687805 0 861790.12234687805 1360390.8999023438 0 0 0 0 -1175601.4153448306 803017.48723983765 0 803017.48723983765 1903135.4822998047 0 0 0 0 -1580740.436327979 365003.27755737305 0 365003.27755737305 2141897.4583129883 0 0 0 0 -1310792.5979007334 566205.2823638916 0 566205.2823638916 1678732.2964782715 0 0 0 0 -1917389.917954959 -82849.572204589844 0 -82849.572204589844 1575182.9844970703 0 0 0 0 -16716.806846173575 43897.633522137068 0 43897.633522137068 60198.239026233554 0 0 0 0 -1665215.4850616902 410299.51021575928 0 410299.51021575928 3277514.8624649048 0 0 0 0 -1552355.7718436532 996670.02687072754 0 996670.02687072754 2489069.3958206177 0 0 0 0 -1399986.1327429079 694278.17587280273 0 694278.17587280273 2340959.6360168457 0 0 0 0 -1448055.3917081654 1166087.3537826538 0 1166087.3537826538 1524655.1528625488 0 0 0 0 -1727355.1575950179 1164100.2995376587 0 1164100.2995376587 2871210.5248641968 0 0 0 0 -1379298.26886281 1384810.9387550354 0 1384810.9387550354 1375783.7549514771 0 0 0 0 -1618131.6280245753 524843.55155849457 0 524843.55155849457 2674766.5151138306 0 0 0 0 -1591564.7641300084 2011604.1616535187 0 2011604.1616535187 5496453.841217041 0 0 0 0 -2357681.7713392042 811046.73751831055 0 811046.73751831055 3750126.5791168213 0 0 0 0 -2267226.8681286145 -521234.68160247803 0 -521234.68160247803 6380233.4140777588 0 0 0 0 -9521939.369712919 -1746006.3475112915 0 -1746006.3475112915 6241873.7806606293 0 0 0 0 -2765037.607727211 2731882.8698272705 0 2731882.8698272705 8658693.5984268188 0 0 0 0 197759.75488583837 3415545.6528778076 0 3415545.6528778076 7972911.9053192139 0 0 0 0 6576.3145739074753 142193.14322109893 0 142193.14322109893 414364.16102564987 0 0 0 0 -1020378.5066436906 2545277.0089969635 0 2545277.0089969635 7874997.6173400879 0 0 0 0 -296924.49607580667 2415230.7274169922 0 2415230.7274169922 7387926.9181594849 0 0 0 0 -1233273.5188542791 1110522.5903701782 0 1110522.5903701782 5667422.613817215 0 0 0 0 269362.19040374365 968635.56255722046 0 968635.56255722046 5957156.2566900253 0 0 0 0 -56218.270146895666 980788.76483917236 0 980788.76483917236 7717526.3744888306 0 0 0 0 -2665.571659263871 2253687.0242452361 0 2253687.0242452361 9243173.4652328491 0 0 0 0 5393.5876793014759 2224067.6996116638 0 2224067.6996116638 6046730.8400878906 0 0 0 0 917.97747818362654 1199.3779390063137 0 1199.3779390063137 1199.3505552448332 0 0 0 0 432614.98495177832 1963878.1250267029 0 1963878.1250267029 5515987.8138999939 0 0 0 0 -330370.44070128258 813901.10988807678 0 813901.10988807678 2734870.9029464722 0 0 0 0 375059.34911069833 2208925.4863128662 0 2208925.4863128662 5445693.3046169281 0 0 0 0 477.21661975847451 588.5240152105689 0 588.5240152105689 387.67107843607664 0 0 0 0 1225883.4720908441 2424513.9745635986 0 2424513.9745635986 2344668.2435665131 0 0 0 0 1259.7801071213819 988845.02761459351 0 988845.02761459351 2184347.0983734131 0 0 0 0 815514.43039570958 1481839.7670631409 0 1481839.7670631409 2481099.1460342407 0 0 0 0 -6963699.6667104512 7090170.521446228 0 7090170.521446228 43217050.717906952 0 0 0 0 3389516.593336232 20024864.114143372 0 20024864.114143372 -1974003.1286773682 0 0 0 0 -6855520.3771978021 8846120.6042175293 0 8846120.6042175293 78503634.790405273 0 0 0 0 -1502325.532964915 6865295.4227523804 0 6865295.4227523804 43070865.957931519 0 0 0 0 18724297.247047186 2200821.0135879517 0 2200821.0135879517 -30340552.850662231 0 0 0 0 11999976.872439802 38935825.382965088 0 38935825.382965088 127316793.21224976 0 0 0 0 11418067.277522415 10540369.54158783 0 10540369.54158783 41831614.551544189 0 0 0 0 45897316.062766135 -3081500.5335540771 0 -3081500.5335540771 75746876.708251953 0 0 0 0 8690469.2697796226 3181204.134262085 0 3181204.134262085 75272517.620155334 0 0 0 0 62050486.080088496 31750125.897354126 0 31750125.897354126 60284211.584396362 0 0 0 0 31505035.015557498 36358641.004882812 0 36358641.004882812 60221786.522117615 0 0 0 0 6341402.7796079293 6264317.0273323059 0 6264317.0273323059 38798397.272369385 0 0 0 0 3722197.9672859907 33867530.746582031 0 33867530.746582031 22799587.965179443 0 0 0 0 850201.32579186559 478748.62166595459 0 478748.62166595459 38774590.75428009 0 0 0 0 -148165.05344504435 40185.853319751099 0 40185.853319751099 275067.75524183363 0 0 0 0 20189085.683739789 -41952886.347175598 0 -41952886.347175598 56277075.69383049 0 0 0 0 -21659428.692579485 12452430.738361359 0 12452430.738361359 -4262818.3117103577 0 0 0 0 -10012796.107964832 55711273.990684509 0 55711273.990684509 -41514278.874969482 0 0 0 0 1231182.6392677724 595098.8048248291 0 595098.8048248291 -29163020.632026672 0 0 0 0 -1121.6889601724872 19834590.583654456 0 19834590.583654456 82448.518905639648 0 0 0 0 21053813.625171117 -60544106.247749329 0 -60544106.247749329 102820753.42388314 0 0 0 0 -15146.328625748589 20544671.905570559 0 20544671.905570559 -41767256.732551575 0 0 0 0 -103355.67358883034 11146.000938586891 0 11146.000938586891 199477.78679906204 0 0 0 0 124981.15960832777 -3632053.8281232002 0 -3632053.8281232002 102001885.7088623 0 0 0 0 21597936.586187333 -28024295.432048798 0 -28024295.432048798 72304238.96654129 0 0 0 0 17887.348538083839 78678.418899437413 0 78678.418899437413 340045.84349490143 0 0 0 0 -15788079.206953168 -5617721.93516922 0 -5617721.93516922 68729807.862182617 0 0 0 0 9433592.826961793 -29142360.209571838 0 -29142360.209571838 58700368.749715805 0 0 0 0 34161422.437290028 -34245653.328560829 0 -34245653.328560829 55067548.318382263 0 0 0 0 7323426.1534049995 -13856954.29532814 0 -13856954.29532814 41670431.836120605 0 0 0 0 9861373.9127037227 -3855768.3930397034 0 -3855768.3930397034 11568351.588439941 0 0 0 0 248174.70645371079 3162054.8587417603 0 3162054.8587417603 11000182.521530151 0 0 0 0 -3270026.4215364456 -4590125.773601532 0 -4590125.773601532 33174290.803878784 0 0 0 0 8869852.9088338017 -17820160.145545959 0 -17820160.145545959 31434103.897984505 0 0 0 0 3421436.5090622306 -11537083.413017273 0 -11537083.413017273 26658564.846862793 0 0 0 0 949009.69597655535 -14038187.511310577 0 -14038187.511310577 39112959.064804077 0 0 0 0 10285782.540464908 -21856605.206420898 0 -21856605.206420898 34472805.49356842 0 0 0 0 10997158.374232478 -19823867.180704117 0 -19823867.180704117 40107111.478187561 0 0 0 0 3959325.4086483717 -18499562.528999329 0 -18499562.528999329 37388431.167724609 0 0 0 0 25255374.509715192 -28836975.337142944 0 -28836975.337142944 40650223.185931683 0 0 0 0 -47743851.418564081 -23473802.173187256 0 -23473802.173187256 4199388.704252243 0 0 0 0 55518.653378923409 15299.743209756911 0 15299.743209756911 6007.8083198666573 0 0 0 0 -7552619.1137043834 63495463.473449707 0 63495463.473449707 114146333.38589001 0 0 0 0 -27002033.272367269 31298408.18903923 0 31298408.18903923 15355920.025787354 0 0 0 0 -58005728.815578043 -8612826.4635276794 0 -8612826.4635276794 70881116.515892029 0 0 0 0 -30530210.729942024 43873771.384981155 0 43873771.384981155 113184810.52067566 0 0 0 0 -243835.62868321355 18054.433007970452 0 18054.433007970452 323078.43700031564 0 0 0 0 12181182.118880302 -27598257.554130554 0 -27598257.554130554 41098172.324790955 0 0 0 0 14141701.630312704 -22888420.96241951 0 -22888420.96241951 32856886.258422852 0 0 0 0 3635641.0067397654 -17857384.594326019 0 -17857384.594326019 35983570.749641418 0 0 0 0 7262186.4056064487 -16339218.25743866 0 -16339218.25743866 27917472.247185625 0 0 0 0 311077.72708022594 -14555224.740180969 0 -14555224.740180969 42701547.43082428 0 0 0 0 935338.4297734499 -14525902.903507233 0 -14525902.903507233 31919158.181793213 0 0 0 0 4330050.0527824163 -22021321.78326416 0 -22021321.78326416 38436712.219726562 0 0 0 0 3095700.8000588715 -17710099.701847076 0 -17710099.701847076 28737059.434295654 0 0 0 0 4572946.9152607918 -14634566.179519653 0 -14634566.179519653 26287391.541702271 0 0 0 0 1715398.2067379951 -14720527.817718506 0 -14720527.817718506 29720897.84910965 0 0 0 0 1739825.3058047295 -12379001.944791794 0 -12379001.944791794 26542406.276763916 0 0 0 0 1745523.8477912098 -18296084.868124008 0 -18296084.868124008 35892690.926956177 0 0 0 0 4631448.237482667 -18603301.031761169 0 -18603301.031761169 31934616.96894455 0 0 0 0 183929.02463686466 -13599169.971702576 0 -13599169.971702576 34530663.44108963 0 0 0 0 233661.42662966251 -9869290.2621078491 0 -9869290.2621078491 27454378.388336182 0 0 0 0 2326378.2651987076 -15011287.192512512 0 -15011287.192512512 26443610.16583252 0 0 0 0 870264.57257151604 -5970521.3361740112 0 -5970521.3361740112 18943049.612533569 0 0 0 0 2601268.1666043401 -11574577.645439148 0 -11574577.645439148 16994121.73147583 0 0 0 0 2306945.9048845172 -13037108.326652527 0 -13037108.326652527 24972043.099945068 0 0 0 0 2990952.3092390895 -3050994.4054031372 0 -3050994.4054031372 9469490.6835021973 0 0 0 0 -588493.90204656124 -165182.70910644531 0 -165182.70910644531 6791357.0688476562 0 0 0 0 -876018.60295641422 -3105159.1214981079 0 -3105159.1214981079 26122975.143823624 0 0 0 0 3266671.2286220789 -4195508.4077682495 0 -4195508.4077682495 8311792.1203765869 0 0 0 0 902839.63417494297 -864690.75543212891 0 -864690.75543212891 7260788.9684753418 0 0 0 0 -5491271.0637245178 1171853.1579055786 0 1171853.1579055786 5440842.2187042236 0 0 0 0 -109845.18569311485 256050.28709281795 0 256050.28709281795 551580.40544022247 0 0 0 0 -1736910.1317816079 3175724.5726451874 0 3175724.5726451874 4271210.7654724121 0 0 0 0 -3181889.6205317378 2773815.5479850769 0 2773815.5479850769 3128278.475112915 0 0 0 0 1572234.2871124744 -1553308.9157562256 0 -1553308.9157562256 3361354.8736724854 0 0 0 0 3428006.3551566601 -7653125.9186096191 0 -7653125.9186096191 8955518.5430297852 0 0 0 0 6763373.6761777401 -3695730.4311065674 0 -3695730.4311065674 -3044280.9188079834 0 0 0 0 7687708.9686557055 -11699068.161582947 0 -11699068.161582947 7185881.8952026367 0 0 0 0 31951.759614498755 106468.88564017089 0 106468.88564017089 33796.884832054377 0 0 0 0 -8628826.8916944265 3183596.191450119 0 3183596.191450119 6613298.6907806396 0 0 0 0 2471217.2774213552 -5343410.32006073 0 -5343410.32006073 8906565.3294372559 0 0 0 0 3513994.1497665644 -13946449.999092102 0 -13946449.999092102 16423209.244865417 0 0 0 0 2945002.8358222842 -11150217.358283997 0 -11150217.358283997 20239176.588500977 0 0 0 0 1586666.5194814801 -13087320.432914734 0 -13087320.432914734 25773735.837417603 0 0 0 0 5743484.7440915406 -10745304.130901337 0 -10745304.130901337 15491596.461776733 0 0 0 0 5550615.8145843744 -7093716.3619327545 0 -7093716.3619327545 -2222555.4560928345 0 0 0 0 -1056035.3427355289 -9682436.9279022217 0 -9682436.9279022217 16681737.432548523 0 0 0 0 6811745.4320755005 -2548450.0436897278 0 -2548450.0436897278 -7268230.6041259766 0 0 0 0 539794.72561509861 649049.0381002184 0 649049.0381002184 411590.82638624683 0 0 0 0 321836.79846850515 293174.98103277758 0 293174.98103277758 45990.810624775942 0 0 0 0 -46263.348628267646 102292.04443979263 0 102292.04443979263 12672.69172668457 0 0 0 0 2750478.8679389954 2085656.3926239014 0 2085656.3926239014 1340424.1138095856 0 0 0 0 1256971.0182697773 -144136.89081096649 0 -144136.89081096649 1806210.6262817383 0 0 0 0 720783.45799305523 644359.79244782776 0 644359.79244782776 285670.93839868903 0 0 0 0 569618.5652179718 698629.71421813965 0 698629.71421813965 3170457.2888405323 0 0 0 0 188720.30807017873 -59782.889380864799 0 -59782.889380864799 -291524.26587744802 0 0 0 0 6245148.3239425123 7048644.7731761932 0 7048644.7731761932 -6737948.7446594238 0 0 0 0 -361964.05125886202 -6233086.5227088928 0 -6233086.5227088928 9022313.2717056274 0 0 0 0 15420207.789581537 -18044756.013824463 0 -18044756.013824463 19061779.224510193 0 0 0 0 10399331.067951411 -4988369.478386879 0 -4988369.478386879 15564504.209579468 0 0 0 0 8403854.308650136 -5750698.0484542847 0 -5750698.0484542847 8090452.8805007935 0 0 0 0 11071747.484359205 -16929287.24785614 0 -16929287.24785614 24000492.071880341 0 0 0 0 4795204.6418001652 -16396579.608924866 0 -16396579.608924866 24661526.554100037 0 0 0 0 22962947.895209312 -35152216.752120972 0 -35152216.752120972 41261569.836532593 0 0 0 0 6125631.7811997533 -15175789.350631714 0 -15175789.350631714 34402146.41545105 0 0 0 0 17058298.71654582 -19118115.745925903 0 -19118115.745925903 35639279.173477173 0 0 0 0 20883338.922436118 -22023122.798854828 0 -22023122.798854828 21830991.530685425 0 0 0 0 23793736.607917726 -45853519.199367523 0 -45853519.199367523 63237455.80040741 0 0 0 0 18704899.57296598 -34190628.292877197 0 -34190628.292877197 37934284.442684174 0 0 0 0 14542857.613031745 -28526556.283866882 0 -28526556.283866882 -37724211.71055603 0 0 0 0 -2308581.9764356017 -13386722.668498993 0 -13386722.668498993 92896027.860832214 0 0 0 0 18870.76266225311 9509.8751652967185 0 9509.8751652967185 20785.435712199658 0 0 0 0 -16526321.332842708 -868429.97602081299 0 -868429.97602081299 26631237.479888916 0 0 0 0 12414798.236994207 -46619913.241943359 0 -46619913.241943359 28438942.93586731 0 0 0 0 -8025889.7399701588 -2570508.8241758347 0 -2570508.8241758347 56837936.456069946 0 0 0 0 -7728689.0619855849 -15660998.752033472 0 -15660998.752033472 38466382.487075806 0 0 0 0 9290328.5180928111 -16510836.422985077 0 -16510836.422985077 67769754.924690247 0 0 0 0 12888954.337488964 979765.96690893173 0 979765.96690893173 90169659.451522827 0 0 0 0 -21845655.05542028 26907902.917726517 0 26907902.917726517 197378556.70648956 0 0 0 0 18674564.079602957 66723735.934633255 0 66723735.934633255 172443825.0041275 0 0 0 0 -13056984.340002589 22757389.533901215 0 22757389.533901215 63637649.347625732 0 0 0 0 -10280781.850456238 36345008.807277679 0 36345008.807277679 129466706.46334457 0 0 0 0 -6804162.3665289283 12503219.593288422 0 12503219.593288422 40136669.528518677 0 0 0 0 -9409737.6889531612 51273548.283224106 0 51273548.283224106 213312443.00377655 0 0 0 0 -5647.3134904636827 60407.969352729619 0 60407.969352729619 39037.893788502552 0 0 0 0 -645.20778233608871 97720.723540406674 0 97720.723540406674 59433.522982271854 0 0 0 0 577414.35142730176 -1277075.7259502411 0 -1277075.7259502411 58622266.454612732 0 0 0 0 -5070260.1160426736 3236061.5880393982 0 3236061.5880393982 74349775.028831482 0 0 0 0 -6708808.5367680788 6268111.3549346924 0 6268111.3549346924 57598247.579659462 0 0 0 0 2509253.8661826998 349497.24050712585 0 349497.24050712585 37014245.546142578 0 0 0 0 -1620233.905594945 5209215.7577209473 0 5209215.7577209473 33080830.553985596 0 0 0 0 -21932227.628829718 -5597359.2251358032 0 -5597359.2251358032 71778514.016357422 0 0 0 0 -12643222.026564002 -2841972.2710342407 0 -2841972.2710342407 47379080.603065491 0 0 0 0 -11600230.416729867 -494764.47610473633 0 -494764.47610473633 37839650.780700684 0 0 0 0 17752.971840200713 2102.6628784965724 0 2102.6628784965724 77636.941598199308 0 0 0 0 -1268736.1118980646 -2059804.5031433105 0 -2059804.5031433105 -2563268.9201812744 0 0 0 0 2660526.8535071611 -10625070.461807251 0 -10625070.461807251 33850407.446548462 0 0 0 0 -9264.9289340046234 -2778.3806882984936 0 -2778.3806882984936 23433.125712357461 0 0 0 0 -15815394.329617262 -17807701.29221344 0 -17807701.29221344 25179838.836875916 0 0 0 0 -2137121.6387102306 -9638797.9138364792 0 -9638797.9138364792 36942080.386398315 0 0 0 0 269095.99798885302 -66588.959553696215 0 -66588.959553696215 -49391.306438953616 0 0 0 0 -285130.30513432098 -64488.561048822477 0 -64488.561048822477 264289.29192668945 0 0 0 0 4059293.2745334506 -10692149.786911011 0 -10692149.786911011 27911819.009664588 0 0 0 0 3249443.3413122892 -11313646.780136108 0 -11313646.780136108 34522667.847572327 0 0 0 0 -5330385.1136448383 -3030535.2390823364 0 -3030535.2390823364 -997165.4879989624 0 0 0 0 1993492.4919041991 -9547967.3115119934 0 -9547967.3115119934 -22025138.511554718 0 0 0 0 -27977711.204827547 -33005115.632804871 0 -33005115.632804871 -31910623.377403259 0 0 0 0 -35052328.996763662 -40171022.398664474 0 -40171022.398664474 -32895438.451339722 0 0 0 0 -39647445.218962699 -25790281.653747559 0 -25790281.653747559 -29852294.213195801 0 0 0 0 99797.526472584839 8078.5136274211109 0 8078.5136274211109 -27740.747161141597 0 0 0 0 -39990683.679937109 -33207793.104904175 0 -33207793.104904175 -31294230.937244415 0 0 0 0 1209245.3962928131 1791736.0518360138 0 1791736.0518360138 67258411.416671753 0 0 0 0 6601401.4555629641 4337503.9073848724 0 4337503.9073848724 38398158.932807922 0 0 0 0 -2888289.1485025585 7547762.4407234192 0 7547762.4407234192 59792234.364143372 0 0 0 0 15725164.17015411 376038.0862121582 0 376038.0862121582 58361799.917694092 0 0 0 0 -560236.92412647605 52160850.686222076 0 52160850.686222076 83874634.353820801 0 0 0 0 14092247.915194094 54021019.141868591 0 54021019.141868591 -50683964.141813278 0 0 0 0 26568690.317081034 39758270.794643402 0 39758270.794643402 -43228007.914245605 0 0 0 0 -11099897.942009702 19662019.421382904 0 19662019.421382904 50865917.756982803 0 0 0 0 4250.9425841205084 41347.59493054077 0 41347.59493054077 25024.659849639051 0 0 0 0 3954402.7370219603 -9105308.3044395447 0 -9105308.3044395447 73379599.568374634 0 0 0 0 -47568082.194805473 11339343.54927063 0 11339343.54927063 109417045.53740692 0 0 0 0 -80013130.365179926 -23628820.723266602 0 -23628820.723266602 38306699.373405457 0 0 0 0 -28814.183647429018 -53436.131681676023 0 -53436.131681676023 397360.75936583802 0 0 0 0 -71672331.886947185 43737378.821338654 0 43737378.821338654 67278669.113067627 0 0 0 0 -68258360.843559831 13384735.036201477 0 13384735.036201477 -32713238.319473267 0 0 0 0 -4965974.603956759 38983581.779712677 0 38983581.779712677 -22712740.895843506 0 0 0 0 -11085078.633143276 26807129.00730896 0 26807129.00730896 20898832.960775375 0 0 0 0 -36256315.036043823 15788521.570240021 0 15788521.570240021 18819035.373222351 0 0 0 0 -34172.539732366626 12237.538948582485 0 12237.538948582485 347363.60349651054 0 0 0 0 3520.4737286605464 3137087.5523529053 0 3137087.5523529053 -2482707.384765625 0 0 0 0 -3496.1632933746992 1626851.1203536987 0 1626851.1203536987 -1404868.4045639038 0 0 0 0 -3947751.1320237005 1737749.1327171326 0 1737749.1327171326 -328317.93495178223 0 0 0 0 -2903737.6161047486 3130540.5928649902 0 3130540.5928649902 -2122046.4100952148 0 0 0 0 -1940369.1516823263 146069.86169815063 0 146069.86169815063 523375.65293121338 0 0 0 0 -26194595.409587264 951630.11396789551 0 951630.11396789551 70417561.703918457 0 0 0 0 8485300.9151500911 22272630.525177002 0 22272630.525177002 -103594818.49475098 0 0 0 0 -48916559.732456982 -31804779.547698975 0 -31804779.547698975 -25176515.733215332 0 0 0 0 -55930024.827575088 -49279044.114181519 0 -49279044.114181519 -7280069.7196655273 0 0 0 0 -15475300.605618298 -97248699.646392822 0 -97248699.646392822 36931159.61706543 0 0 0 0 -47060951.68146956 -24080910.779953003 0 -24080910.779953003 -29982039.481376648 0 0 0 0 -60449122.582764111 -42247614.015098572 0 -42247614.015098572 -11773675.46496582 0 0 0 0 -3500.9436388970539 -127700.1982429442 0 -127700.1982429442 272424.94067951664 0 0 0 0 -48335399.276052892 -29301537.599807739 0 -29301537.599807739 -26316096.939910889 0 0 0 0 -57625226.579018489 -27052235.787132263 0 -27052235.787132263 -24928466.698501587 0 0 0 0 -45162824.71649611 -33189022.909915924 0 -33189022.909915924 -22047908.372314453 0 0 0 0 1134.4377890380902 -2020.5867751087062 0 -2020.5867751087062 10377.885840345174 0 0 0 0 12295113.671974272 21439014.659835815 0 21439014.659835815 69915287.992492676 0 0 0 0 24644205.237673938 62667708.514373779 0 62667708.514373779 153142137.57775879 0 0 0 0 10802.514559731211 24154599.656951904 0 24154599.656951904 63701245.440563202 0 0 0 0 39927.651761597866 64266.591886855662 0 64266.591886855662 123800.20504734479 0 0 0 0 -247315.51242376573 223660.57747936249 0 223660.57747936249 -29912.288276672363 0 0 0 0 -3207681.6085856957 23318581.854423523 0 23318581.854423523 72715299.179229736 0 0 0 0 41706505.220076442 8422312.6136894226 0 8422312.6136894226 27723607.473922729 0 0 0 0 5818108.1378304958 12648481.31211853 0 12648481.31211853 172501.26152515411 0 0 0 0 55806808.739132047 12419875.369628906 0 12419875.369628906 -57951.564971923828 0 0 0 0 63600890.482933164 -10481465.616230011 0 -10481465.616230011 -2786358.6417160034 0 0 0 0 44484760.448540688 -7299832.3035354614 0 -7299832.3035354614 -3245525.4978752136 0 0 0 0 66072498.608221889 -5340244.3775291443 0 -5340244.3775291443 34133852.575157166 0 0 0 0 58530832.26028192 36337566.71812439 0 36337566.71812439 62630943.066886902 0 0 0 0 51943767.50182879 30269523.596401215 0 30269523.596401215 14136785.200912476 0 0 0 0 39308033.673793793 8142442.5714416504 0 8142442.5714416504 33244051.877906799 0 0 0 0 27303723.08823061 47565742.231391907 0 47565742.231391907 46435137.702411652 0 0 0 0 11823892.450978279 31441042.911827087 0 31441042.911827087 41107105.427520752 0 0 0 0 31793855.553183556 25380346.178504944 0 25380346.178504944 63379529.933509827 0 0 0 0 13427255.598794222 45877937.665664673 0 45877937.665664673 85140918.01600647 0 0 0 0 31898922.830189705 38140317.922332764 0 38140317.922332764 -7629676.3761138916 0 0 0 0 5504890.7108664513 38048284.232940674 0 38048284.232940674 41027966.323928833 0 0 0 0 23852722.084859848 53343604.181755066 0 53343604.181755066 -6077627.3983430862 0 0 0 0 12022015.171747923 74921424.374504089 0 74921424.374504089 -33881202.053421021 0 0 0 0 18968597.594548464 21684710.030578613 0 21684710.030578613 29692608.094356537 0 0 0 0 27049250.797831535 46799815.718688965 0 46799815.718688965 6386066.2581520081 0 0 0 0 21021774.687693119 40086054.256687164 0 40086054.256687164 442361.00284576416 0 0 0 0 20258155.705941439 18826183.682336807 0 18826183.682336807 -24300731.366043091 0 0 0 0 -10783189.13280189 58707446.340738297 0 58707446.340738297 -9826867.7983398438 0 0 0 0 -12673436.636649609 55751491.36466217 0 55751491.36466217 -72362387.633583069 0 0 0 0 -33408243.860616207 36690717.095830917 0 36690717.095830917 -23738984.065322876 0 0 0 0 31552312.542401485 97054858.951430559 0 97054858.951430559 -18258537.846817017 0 0 0 0 -32268911.555406332 36509449.582691193 0 36509449.582691193 -29886130.565849304 0 0 0 0 -40598119.989560127 88539035.92993927 0 88539035.92993927 4743312.1609573364 0 0 0 0 -12529014.529416084 116255653.8625412 0 116255653.8625412 29829397.261901855 0 0 0 0 35054490.35261035 -6920595.916967392 0 -6920595.916967392 -34218136.557556152 0 0 0 0 -20915011.660443306 11360244.148735046 0 11360244.148735046 -12958996.93560791 0 0 0 0 461629.21992868907 266824.91257335432 0 266824.91257335432 -475129.59900136665 0 0 0 0 -113487354.86916494 93644857.054954529 0 93644857.054954529 -33738101.110992432 0 0 0 0 -76436415.402592659 90545300.9793396 0 90545300.9793396 -61607728.313270569 0 0 0 0 -29736201.887357235 45451394.115322113 0 45451394.115322113 -47326834.562255859 0 0 0 0 -105486368.12939623 49314114.53950882 0 49314114.53950882 -27373477.7940979 0 0 0 0 -7112686.1120545864 24084156.969161987 0 24084156.969161987 -39638714.724813461 0 0 0 0 -11031797.56742239 18909023.120319366 0 18909023.120319366 -18336176.501541138 0 0 0 0 19363659.236539602 12633134.779304504 0 12633134.779304504 -31120676.36932373 0 0 0 0 -37304784.578634858 39449716.116477966 0 39449716.116477966 -34103982.949691772 0 0 0 0 3095614.2418847084 19288140.107826233 0 19288140.107826233 -39868427.893253326 0 0 0 0 37435618.48381114 7286909.8654327393 0 7286909.8654327393 -22084178.663032532 0 0 0 0 -4768636.8882516026 11922012.918781281 0 11922012.918781281 -15420295.524505615 0 0 0 0 30544659.68055439 -14302744.576301575 0 -14302744.576301575 -5912180.0391464233 0 0 0 0 37387318.605683088 -4052420.4015350342 0 -4052420.4015350342 -17395037.662071228 0 0 0 0 14965928.629593611 -1035664.8609695435 0 -1035664.8609695435 -5514170.4023361206 0 0 0 0 27331668.76499036 7027621.6116018295 0 7027621.6116018295 -21048166.471557617 0 0 0 0 24628988.684916645 -2337484.2774505615 0 -2337484.2774505615 11303992.357833862 0 0 0 0 48866159.20820713 -15383980.259719849 0 -15383980.259719849 -7725570.8422012329 0 0 0 0 50824446.343135118 -10952690.054584503 0 -10952690.054584503 -862308.37063598633 0 0 0 0 65412887.322145939 -25263022.374313354 0 -25263022.374313354 11201911.920822144 0 0 0 0 82588246.335534573 -18750692.615707397 0 -18750692.615707397 4631990.8969116211 0 0 0 0 39955707.299073815 -2037385.869260788 0 -2037385.869260788 25381422.794555664 0 0 0 0 129025910.28975463 -18049520.398929596 0 -18049520.398929596 121057.5841217041 0 0 0 0 116889638.6223526 -16596605.585266113 0 -16596605.585266113 8316104.373046875 0 0 0 0 89224346.312273741 387989.21529388428 0 387989.21529388428 14383543.751068115 0 0 0 0 36441.46316106015 240366.24702685722 0 240366.24702685722 78149.493544220924 0 0 0 0 -1769426.1875533313 9629379.0607423782 0 9629379.0607423782 15920189.982833862 0 0 0 0 5474.0683181051863 12692.445730477571 0 12692.445730477571 20420.630449115764 0 0 0 0 64085305.509973526 -8506600.2662811279 0 -8506600.2662811279 17041452.494003296 0 0 0 0 111816755.10142803 11265288.053253174 0 11265288.053253174 -7618438.4051494598 0 0 0 0 -185586.79360288609 7134.3641124297865 0 7134.3641124297865 1405081.0280767716 0 0 0 0 58256117.313003898 -8748703.6123580933 0 -8748703.6123580933 -3385300.2490310669 0 0 0 0 62375369.284257054 -11799049.695207596 0 -11799049.695207596 -6457683.7421798706 0 0 0 0 -4080915.4343352318 3371052.2924575806 0 3371052.2924575806 -482429.86737060547 0 0 0 0 46597160.753134802 -20866734.216901779 0 -20866734.216901779 -4714725.2870483398 0 0 0 0 37306244.454303309 -16568548.111028463 0 -16568548.111028463 -2069333.3429718018 0 0 0 0 49338020.965197086 -14869776.033180237 0 -14869776.033180237 -8632675.9730567932 0 0 0 0 53684798.924056292 -21255399.422046661 0 -21255399.422046661 -3148088.1526489258 0 0 0 0 -2076335.0855908394 2352454.7740249634 0 2352454.7740249634 5950057.943646431 0 0 0 0 8218736.8859715462 -436071.6466293335 0 -436071.6466293335 380032.78455162048 0 0 0 0 293847.90691674652 482125.82477721386 0 482125.82477721386 308875.17469552485 0 0 0 0 -1351740.2985653877 2049346.76512146 0 2049346.76512146 -691773.17932701111 0 0 0 0 -1982603.2174162455 -1889496.6688169241 0 -1889496.6688169241 10341569.951202393 0 0 0 0 2693113.9385454655 -1083031.3427963257 0 -1083031.3427963257 -2321555.8230342865 0 0 0 0 1739536.4805591106 2706383.91198349 0 2706383.91198349 -2238228.8248519897 0 0 0 0 12574714.791985869 -8554898.2905197144 0 -8554898.2905197144 3461351.8605537415 0 0 0 0 2675791.0274223685 6236309.6583061218 0 6236309.6583061218 306012.86078643799 0 0 0 0 255649.06794714928 3517652.2986602783 0 3517652.2986602783 -2649084.8191604614 0 0 0 0 -17920212.753212214 4267508.5725517273 0 4267508.5725517273 7006788.1218147278 0 0 0 0 -198415.54002177715 4613993.4219064713 0 4613993.4219064713 -1043733.568359375 0 0 0 0 8415902.8373303413 9911805.5571098328 0 9911805.5571098328 -5365017.2143630981 0 0 0 0 16427243.206573367 -11884921.312950134 0 -11884921.312950134 11342610.370378494 0 0 0 0 14451624.312164485 -9346325.6995134354 0 -9346325.6995134354 22655467.197883606 0 0 0 0 47335112.18482399 -17142566.133319855 0 -17142566.133319855 849832.83655548096 0 0 0 0 13011631.473546132 -19369894.637023211 0 -19369894.637023211 10238520.539772034 0 0 0 0 -102236.99567958282 -41549.092414078303 0 -41549.092414078303 1197722.9297113381 0 0 0 0 47375571.950137377 -10903487.206230164 0 -10903487.206230164 -5822482.7651405334 0 0 0 0 55551795.480837941 -10542146.893859863 0 -10542146.893859863 -14352888.92358017 0 0 0 0 57501077.9551512 12617954.449104309 0 12617954.449104309 32394816.9572258 0 0 0 0 52547341.249592543 -21753438.934913635 0 -21753438.934913635 4664085.6198501587 0 0 0 0 -47871.056002029982 -39585.366821622942 0 -39585.366821622942 925731.31777358055 0 0 0 0 -18476573.14624548 -6362229.7335891724 0 -6362229.7335891724 49340726.65272522 0 0 0 0 109662789.95785153 42113719.96040535 0 42113719.96040535 -25531368.166122437 0 0 0 0 146770158.89325821 168134651.1390686 0 168134651.1390686 173834381.05586243 0 0 0 0 -7739.3459024462936 -13143.162208965048 0 -13143.162208965048 380586.34739649668 0 0 0 0 56392731.345664382 74900413.683908463 0 74900413.683908463 186423519.97285461 0 0 0 0 64785305.471891522 70206610.408779144 0 70206610.408779144 100715446.14411163 0 0 0 0 36423184.931859136 -31661667.654178619 0 -31661667.654178619 16954682.417849541 0 0 0 0 -28340814.425599374 -1981641.1745462418 0 -1981641.1745462418 21831413.792732239 0 0 0 0 58751444.460405231 -102508154.58454895 0 -102508154.58454895 127937614.53449249 0 0 0 0 63876570.994603872 -9134123.8458442688 0 -9134123.8458442688 -29632813.194915771 0 0 0 0 36184011.03844431 -56687944.136942863 0 -56687944.136942863 100010881.5880127 0 0 0 0 15834487.361766696 -22498961.925582886 0 -22498961.925582886 135257407.85170746 0 0 0 0 22938438.828122377 -208312.85886001587 0 -208312.85886001587 133049726.96200943 0 0 0 0 -13614084.257775307 -47886914.95582962 0 -47886914.95582962 339457912.08483887 0 0 0 0 82118886.529378533 130660028.61651039 0 130660028.61651039 265147026.11689758 0 0 0 0 166173318.72966409 74085588.000865936 0 74085588.000865936 173837982.61616063 0 0 0 0 23226064.677829504 55483087.17375946 0 55483087.17375946 197699399.13960457 0 0 0 0 20373095.196113825 92444366.413936615 0 92444366.413936615 269041216.05500793 0 0 0 0 34665515.250720739 98119280.927032471 0 98119280.927032471 181922805.45175457 0 0 0 0 -11386326.843084335 63632737.243152618 0 63632737.243152618 300218033.71917343 0 0 0 0 36306547.989466488 136488056.29735947 0 136488056.29735947 363122344.79399109 0 0 0 0 79163082.584922969 3110120.8082199097 0 3110120.8082199097 340891381.3493576 0 0 0 0 51010986.671877027 59145584.179491043 0 59145584.179491043 257002656.83637238 0 0 0 0 4667765.8102258611 61010324.354979753 0 61010324.354979753 253611435.01786804 0 0 0 0 -11031577.596088886 83455509.881717682 0 83455509.881717682 293538715.36604309 0 0 0 0 4660157.2844016552 56463140.828857422 0 56463140.828857422 332271330.62527466 0 0 0 0 18413165.014281631 135151169.40586472 0 135151169.40586472 273893408.13223267 0 0 0 0 7168152.7890193462 66890191.416797638 0 66890191.416797638 358195185.09048462 0 0 0 0 26833914.154352367 35426856.114559174 0 35426856.114559174 256866490.4990921 0 0 0 0 65035438.047775865 -34208785.523159027 0 -34208785.523159027 383583711.21694946 0 0 0 0 -3314728.467449069 47971746.215274811 0 47971746.215274811 324645396.14177322 0 0 0 0 43288050.488470912 33053103.294551849 0 33053103.294551849 199120083.75592041 0 0 0 0 44701390.251332283 47217685.907291412 0 47217685.907291412 171414167.2204895 0 0 0 0 61355879.33500731 -4208658.6731567383 0 -4208658.6731567383 257978954.65709257 0 0 0 0 82275342.356019199 39381086.578453064 0 39381086.578453064 181190297.210495 0 0 0 0 84164533.766404629 9398840.6469573975 0 9398840.6469573975 152793067.18669891 0 0 0 0 71200731.344127506 39057693.760895908 0 39057693.760895908 114734080.77052307 0 0 0 0 71917496.022795245 -4166759.6302366853 0 -4166759.6302366853 127238960.19721985 0 0 0 0 63684899.421126008 29581690.538368225 0 29581690.538368225 82984676.980812073 0 0 0 0 61969255.401716471 -5154056.9360427856 0 -5154056.9360427856 60182272.538597107 0 0 0 0 13940551.040059805 62288112.78836441 0 62288112.78836441 165693815.26960754 0 0 0 0 39231699.968773603 43061650.916870117 0 43061650.916870117 125455621.46873808 0 0 0 0 9969270.6095461845 49552025.927406311 0 49552025.927406311 133363147.66947937 0 0 0 0 -5849223.5884051323 47427976.745552063 0 47427976.745552063 133139878.72993469 0 0 0 0 22537637.476041317 47188492.31672287 0 47188492.31672287 125263614.20541382 0 0 0 0 22679236.426097155 37415654.424484253 0 37415654.424484253 86775269.911102295 0 0 0 0 51256510.718210697 44935952.856254578 0 44935952.856254578 76252392.83253479 0 0 0 0 74452054.594594955 12024791.127822876 0 12024791.127822876 75889826.94814682 0 0 0 0 40807566.955661535 38516581.867137909 0 38516581.867137909 112896539.84002686 0 0 0 0 40339188.331673384 55895738.887355804 0 55895738.887355804 167348209.51509094 0 0 0 0 76439894.158359289 32540893.325401306 0 32540893.325401306 113854564.36883163 0 0 0 0 66933800.289535522 49585740.296035767 0 49585740.296035767 167415954.81617737 0 0 0 0 76177995.738651991 48331095.589385986 0 48331095.589385986 152410504.24203491 0 0 0 0 108844041.07041335 21532629.252662659 0 21532629.252662659 174306720.81072235 0 0 0 0 80142733.122109413 15726684.099311829 0 15726684.099311829 244068462.81892395 0 0 0 0 85098297.272075653 81255802.510307312 0 81255802.510307312 222473597.1245575 0 0 0 0 51859944.870988369 93403668.743751526 0 93403668.743751526 219174207.21005249 0 0 0 0 1509249.9081759453 90200896.543563843 0 90200896.543563843 263295364.96369934 0 0 0 0 25808975.670314074 56163589.516746521 0 56163589.516746521 167048218.61233521 0 0 0 0 -16264186.739016235 59688155.479457855 0 59688155.479457855 198273988.88124084 0 0 0 0 -13543775.73596859 71707104.594638824 0 71707104.594638824 241479875.82531738 0 0 0 0 53910864.4284392 159178779.1492424 0 159178779.1492424 384199244.87080383 0 0 0 0 11504730.405300617 74919462.770271301 0 74919462.770271301 260399080.36500931 0 0 0 0 -49567040.625819921 52746938.210670471 0 52746938.210670471 367843434.27388 0 0 0 0 170298506.01358891 11595058.692138672 0 11595058.692138672 244217543.94166374 0 0 0 0 181003162.96656537 69407582.718086243 0 69407582.718086243 223131957.55103683 0 0 0 0 389343337.56321383 -8236789.5002670288 0 -8236789.5002670288 285423437.1143322 0 0 0 0 136974854.16520399 31722430.550037384 0 31722430.550037384 280588652.74848938 0 0 0 0 101906786.59780359 -266699159.01568985 0 -266699159.01568985 222933416.13127136 0 0 0 0 85614065.69921273 -77392008.245262146 0 -77392008.245262146 606113718.42868042 0 0 0 0 78031936.467410207 222585917.6546936 0 222585917.6546936 712365541.5814209 0 0 0 0 33764160.080589771 202461003.82561111 0 202461003.82561111 388367646.2141037 0 0 0 0 -38450898.328485012 -16829416.647148132 0 -16829416.647148132 291315451.90583801 0 0 0 0 -57718992.35867238 16066131.266269684 0 16066131.266269684 425399390.47517967 0 0 0 0 -46322415.988273501 -13776257.639472961 0 -13776257.639472961 292403975.24108124 0 0 0 0 -1822655.8342804909 -95093920.135665894 0 -95093920.135665894 288352195.00372314 0 0 0 0 -19134528.508301258 -48648902.492706299 0 -48648902.492706299 188323901.27400208 0 0 0 0 -44970608.92302084 -3933903.4025268555 0 -3933903.4025268555 233857153.5291214 0 0 0 0 -20901666.997398734 -51383866.899932861 0 -51383866.899932861 194699840.73602295 0 0 0 0 -37682138.382136166 -16993530.988879204 0 -16993530.988879204 247798408.62237549 0 0 0 0 -66392281.111362934 35438071.965568542 0 35438071.965568542 219310616.32743359 0 0 0 0 -43970675.701621175 -659495.62449455261 0 -659495.62449455261 175741978.59869385 0 0 0 0 -33351418.135037422 46789179.331031799 0 46789179.331031799 180065594.22666931 0 0 0 0 -41582884.791958332 28391360.771232605 0 28391360.771232605 142636207.99693298 0 0 0 0 -61078661.365851402 62555906.204454422 0 62555906.204454422 180967544.86984253 0 0 0 0 -52315341.696338654 9098123.4300193787 0 9098123.4300193787 215780211.3986969 0 0 0 0 -63738671.070766926 47813753.172084808 0 47813753.172084808 246331753.04574585 0 0 0 0 -94049340.659168243 49033689.968070984 0 49033689.968070984 252218622.73047638 0 0 0 0 -83902845.530728102 49804655.584991455 0 49804655.584991455 246140291.48506165 0 0 0 0 -73487584.475925446 41759159.608287811 0 41759159.608287811 247352043.77757263 0 0 0 0 -69719358.451666832 49344707.851989746 0 49344707.851989746 262577045.41530991 0 0 0 0 -60713675.398139954 37051334.053703308 0 37051334.053703308 266862104.58790588 0 0 0 0 -49007057.208930179 42203455.754086971 0 42203455.754086971 263071183.10229492 0 0 0 0 -64695408.487713337 29972161.142700195 0 29972161.142700195 292097758.04569244 0 0 0 0 -65372854.738496065 23065231.709686279 0 23065231.709686279 253285067.84249878 0 0 0 0 71038622.413522482 94813699.416145563 0 94813699.416145563 70856314.567642212 0 0 0 0 76598377.399770737 160047764.73388672 0 160047764.73388672 68124308.537660122 0 0 0 0 -69154738.227410078 90990144.546348572 0 90990144.546348572 242060528.00275421 0 0 0 0 -74415585.371741891 123323128.82463074 0 123323128.82463074 278463828.51490784 0 0 0 0 -93321567.484574795 53947391.486854553 0 53947391.486854553 283681959.99245834 0 0 0 0 -49442057.21767807 197232639.53782654 0 197232639.53782654 430093324.40959167 0 0 0 0 116402163.77506638 254890185.49245071 0 254890185.49245071 220341586.39276123 0 0 0 0 120334659.220891 157414784.88997245 0 157414784.88997245 -43360553.938476562 0 0 0 0 -94282015.761395574 154279342.45707703 0 154279342.45707703 798305821.47756195 0 0 0 0 -133553927.17449141 20174866.230911255 0 20174866.230911255 366987024.79681015 0 0 0 0 -62820073.050609589 -18608496.119384766 0 -18608496.119384766 262309493.11146259 0 0 0 0 -82680337.070692778 36306220.511108398 0 36306220.511108398 267666949.69589233 0 0 0 0 -88876526.927594185 26102007.40448761 0 26102007.40448761 253152144.4364624 0 0 0 0 -66363495.428728819 9122310.9601097107 0 9122310.9601097107 148961460.20713806 0 0 0 0 -69821084.674417973 36494834.111938477 0 36494834.111938477 136736957.44699097 0 0 0 0 -22706874.654171944 15044027.441795349 0 15044027.441795349 79800367.746520996 0 0 0 0 -36531053.106517792 36814128.903999329 0 36814128.903999329 94517174.789788246 0 0 0 0 13163851.0331636 30468035.603232682 0 30468035.603232682 44489499.762496948 0 0 0 0 16180372.764468193 -44844661.486110687 0 -44844661.486110687 104009541.3661499 0 0 0 0 -61063032.765752316 47551707.096450806 0 47551707.096450806 209409288.83567047 0 0 0 0 -59794754.016636372 47206692.344520569 0 47206692.344520569 190204769.69499207 0 0 0 0 -48717401.711839199 70330669.150730133 0 70330669.150730133 258507557.60237122 0 0 0 0 -57902709.767074108 49189146.073875427 0 49189146.073875427 209987112.33220291 0 0 0 0 -79555776.929341793 54128854.691829681 0 54128854.691829681 255639545.39241028 0 0 0 0 -82397144.943306208 47235812.323043823 0 47235812.323043823 239489733.13609314 0 0 0 0 -78547752.859871626 42332370.630020142 0 42332370.630020142 227878925.99616241 0 0 0 0 -89832262.547502518 34407100.392120361 0 34407100.392120361 231799359.99920654 0 0 0 0 -68964018.841442987 24369392.698677778 0 24369392.698677778 164069535.05044556 0 0 0 0 -67834977.485661268 42300613.550102234 0 42300613.550102234 155984388.95983124 0 0 0 0 -83315371.53544426 10886254.375984192 0 10886254.375984192 213251118.30519485 0 0 0 0 -78812201.08453083 45738266.696914673 0 45738266.696914673 108374978.9859848 0 0 0 0 -61638689.419743955 17672425.405187607 0 17672425.405187607 124091696.86845398 0 0 0 0 -49204777.205287457 44106176.810623169 0 44106176.810623169 127460318.4348526 0 0 0 0 -41323050.271672606 26399095.194078445 0 26399095.194078445 106347923.52044678 0 0 0 0 -28959523.29168129 55641918.648956299 0 55641918.648956299 196987636.84660339 0 0 0 0 -32586524.711918592 42189198.445419312 0 42189198.445419312 152901667.97415161 0 0 0 0 -8177386.6604213715 34748999.991119385 0 34748999.991119385 94547717.463592529 0 0 0 0 -35745313.060863495 45719619.72303009 0 45719619.72303009 153170038.56326485 0 0 0 0 -17474254.227162361 36479708.878929138 0 36479708.878929138 94652333.293427467 0 0 0 0 -18186286.959968567 26645033.542942047 0 26645033.542942047 51693756.176071167 0 0 0 0 -47383110.025662422 33329690.829521179 0 33329690.829521179 104755394.68828011 0 0 0 0 -44335268.689731121 33410824.315986633 0 33410824.315986633 69815274.505249023 0 0 0 0 -32928929.425221801 20800208.512096405 0 20800208.512096405 7413520.376159668 0 0 0 0 3651635.9754118919 26495965.087882996 0 26495965.087882996 -12884909.856765747 0 0 0 0 -35851766.506844997 24558147.38457489 0 24558147.38457489 51605859.996004581 0 0 0 0 24865836.404325753 55764065.261929512 0 55764065.261929512 -69699456.111358643 0 0 0 0 369516.96765422821 27650035.994926453 0 27650035.994926453 -12140152.952285767 0 0 0 0 -3944360.9250956774 12325479.264636993 0 12325479.264636993 -64192175.985717773 0 0 0 0 -79572455.123887062 10900218.450119019 0 10900218.450119019 5887957.7151641846 0 0 0 0 45372679.730646133 32205986.003974915 0 32205986.003974915 -131095141.24758911 0 0 0 0 -30946174.837717533 212555.37564086914 0 212555.37564086914 -69335857.443161011 0 0 0 0 -44296024.048090219 -42638301.802747726 0 -42638301.802747726 -129305871.29907227 0 0 0 0 10913582.245185852 -14431335.222167969 0 -14431335.222167969 -130220509.92766714 0 0 0 0 10466890.24458313 -8596642.4980926514 0 -8596642.4980926514 -168914105.54928589 0 0 0 0 47653231.381976128 66109881.671340942 0 66109881.671340942 -65248277.811599731 0 0 0 0 -133505173.93862271 46177146.032388687 0 46177146.032388687 -72904863.945068359 0 0 0 0 -148817074.95600152 91204031.555307388 0 91204031.555307388 -60665741.056732178 0 0 0 0 -57661315.268571854 92405579.873306274 0 92405579.873306274 -135536085.11239624 0 0 0 0 -92844630.213193893 86531421.64175415 0 86531421.64175415 -136401725.82725525 0 0 0 0 -351574786.38054371 104409656.9124527 0 104409656.9124527 -87777877.559123993 0 0 0 0 -122527411.43668079 65488111.258270264 0 65488111.258270264 -56007472.03855896 0 0 0 0 -70950025.222513199 6947312.9420166016 0 6947312.9420166016 -25722460.971656799 0 0 0 0 -183939497.33948278 -3358482.0217285156 0 -3358482.0217285156 -26219617.253616333 0 0 0 0 -127772796.58987403 37692957.701393127 0 37692957.701393127 19048080.735595703 0 0 0 0 -87400855.417372704 65251951.0519104 0 65251951.0519104 -19155328.477912903 0 0 0 0 -131664421.02788591 51808020.80960083 0 51808020.80960083 -23009867.03553772 0 0 0 0 -78706458.754517555 75337528.099395752 0 75337528.099395752 -58741647.124481201 0 0 0 0 -80712227.192186832 41815963.845878601 0 41815963.845878601 10742694.559448242 0 0 0 0 -68135464.724650979 48701353.290390015 0 48701353.290390015 39197042.067459106 0 0 0 0 -88295889.872869849 60701619.525294304 0 60701619.525294304 35378614.277618408 0 0 0 0 -73809482.061880112 13039210.458831787 0 13039210.458831787 59157471.507492065 0 0 0 0 -70887891.892663002 41984604.836616516 0 41984604.836616516 43262303.206573486 0 0 0 0 -81122048.281983435 24082608.874297142 0 24082608.874297142 22374733.569213867 0 0 0 0 -66814935.851872921 21325815.55116272 0 21325815.55116272 110270826.43112183 0 0 0 0 -58565263.769338012 36901412.071998596 0 36901412.071998596 88538363.229125977 0 0 0 0 -75765191.45451355 22188014.488052368 0 22188014.488052368 82917628.015090942 0 0 0 0 -56501650.572854519 23564522.338111877 0 23564522.338111877 81654937.972320557 0 0 0 0 -56242601.573246479 60043456.784973145 0 60043456.784973145 47388954.943847656 0 0 0 0 -31785836.224646091 39063427.986343384 0 39063427.986343384 23430410.585624695 0 0 0 0 -12677614.253619194 56560773.565742493 0 56560773.565742493 -24006220.708007812 0 0 0 0 -1351958.9993634224 27542095.418395996 0 27542095.418395996 15916159.882583618 0 0 0 0 -21126098.397102356 46518898.020324707 0 46518898.020324707 20691348.162115097 0 0 0 0 -4168304.2498944104 19912680.272604227 0 19912680.272604227 -4995148.9343414307 0 0 0 0 -5053266.8056578636 29156390.793769836 0 29156390.793769836 -55381873.503570557 0 0 0 0 -3624083.4647276402 27173124.833227158 0 27173124.833227158 -53888436.85332489 0 0 0 0 -57148295.426373005 71408061.024757385 0 71408061.024757385 -26590431.301391602 0 0 0 0 -18559018.233857632 53862377.193138123 0 53862377.193138123 -49192046.042266846 0 0 0 0 -59819941.099225283 72167469.114715576 0 72167469.114715576 -6535421.0167541504 0 0 0 0 -82698390.861610413 75703035.700576782 0 75703035.700576782 -26876843.583518982 0 0 0 0 -17418686.464447498 59756177.296325684 0 59756177.296325684 -24968574.406101227 0 0 0 0 -36712760.341243744 76707817.379440308 0 76707817.379440308 -77837419.525085449 0 0 0 0 -57795984.504835129 80569004.294723511 0 80569004.294723511 -78544446.560073853 0 0 0 0 1120417.6832065582 35069351.379669189 0 35069351.379669189 -110767945.98434448 0 0 0 0 25800419.15878582 24769769.755844116 0 24769769.755844116 -142195753.28613281 0 0 0 0 -44638083.788894653 104685960.04390717 0 104685960.04390717 -206702940.91757202 0 0 0 0 -7404520.6365718842 44330906.936706543 0 44330906.936706543 -117255263.52893066 0 0 0 0 23371207.953616619 51706625.172203064 0 51706625.172203064 -207468030.06842041 0 0 0 0 30248519.114163399 41940072.672088623 0 41940072.672088623 -212184174.79711914 0 0 0 0 1012006.0030714355 5015817.1793409223 0 5015817.1793409223 3574242.9957542764 0 0 0 0 7917351.6877145767 12443815.720197678 0 12443815.720197678 -26194793.68687439 0 0 0 0 -17404395.368253708 22572263.883968353 0 22572263.883968353 -1549155.1058044434 0 0 0 0 -10997334.768070221 11266720.4193573 0 11266720.4193573 -13976983.860832214 0 0 0 0 25387725.947815418 -5700005.885061264 0 -5700005.885061264 -48540596.704544067 0 0 0 0 17723888.168616295 20665378.864955902 0 20665378.864955902 -19853997.282524109 0 0 0 0 21418420.585336685 45548456.703641891 0 45548456.703641891 1123094.04637146 0 0 0 0 6079839.9194898605 18750841.878665924 0 18750841.878665924 -14025369.518001556 0 0 0 0 18107749.641393661 51805598.474349022 0 51805598.474349022 62683449.693000793 0 0 0 0 -7253948.8548083305 31210545.944540024 0 31210545.944540024 5798696.19896698 0 0 0 0 7162673.2074775696 21124806.632953644 0 21124806.632953644 -9374737.72108078 0 0 0 0 -8974495.2306756973 16100535.000396729 0 16100535.000396729 14483004.959413528 0 0 0 0 -8015834.5314970016 18227087.403133392 0 18227087.403133392 -10938989.398170471 0 0 0 0 -14228682.770326853 29634027.245427132 0 29634027.245427132 -257868.98135375977 0 0 0 0 930146.20899915695 -157596712.44972229 0 -157596712.44972229 -106793690.18764496 0 0 0 0 73916855.371123433 120703944.43989944 0 120703944.43989944 -74863812.27545929 0 0 0 0 -15650749.191236973 40271813.220993042 0 40271813.220993042 145802428.61102295 0 0 0 0 648164.33820525091 376674.86407971382 0 376674.86407971382 -73338.559906736016 0 0 0 0 -9532671.1222097874 118118246.64113998 0 118118246.64113998 11591532.14503479 0 0 0 0 20777838.913391113 209094698.41130066 0 209094698.41130066 194088723.36387253 0 0 0 0 87929082.876265049 182236816.25535583 0 182236816.25535583 -10470860.315299988 0 0 0 0 31772921.684371077 102042348.85855293 0 102042348.85855293 -91249073.73399353 0 0 0 0 218564150.30388498 308168370.98775482 0 308168370.98775482 -11197778.384765625 0 0 0 0 113967667.29121733 121844521.13357162 0 121844521.13357162 -250747239.43493652 0 0 0 0 319817462.66360903 64818445.323190689 0 64818445.323190689 -510909274.89398193 0 0 0 0 -281098217.9000113 -209923533.39825439 0 -209923533.39825439 -231996374.86157227 0 0 0 0 693183.00997682358 5750556.217581193 0 5750556.217581193 9061191.4895266574 0 0 0 0 -121760115.45478654 212566349.972229 0 212566349.972229 196845246.71551514 0 0 0 0 -301715094.43344831 -191266897.32427979 0 -191266897.32427979 -122929209.36268616 0 0 0 0 -164872813.90591717 161175956.15270996 0 161175956.15270996 -209604008.86468506 0 0 0 0 -73102638.927729607 126830637.79675293 0 126830637.79675293 -261888779.59087753 0 0 0 0 -500008.37033392891 599562.28559694625 0 599562.28559694625 1280292.7663999563 0 0 0 0 1011753.8413696289 39442537.241283417 0 39442537.241283417 4712319.3110923767 0 0 0 0 -194043025.73859024 94522612.693214417 0 94522612.693214417 -6227231.3096847534 0 0 0 0 5095265.1501049995 -267481652.72173309 0 -267481652.72173309 -227895867.38177109 0 0 0 0 183464535.18839264 157588469.14247131 0 157588469.14247131 -298072508.51271343 0 0 0 0 185386819.68566322 177674095.43916321 0 177674095.43916321 -159840663.05447459 0 0 0 0 163792104.55289841 39401136.006076813 0 39401136.006076813 -53223911.406150818 0 0 0 0 153652855.08096313 -6721457.225353241 0 -6721457.225353241 -152965409.51459527 0 0 0 0 152810394.23585701 -17545517.027824402 0 -17545517.027824402 -268581323.12261581 0 0 0 0 18527340.351474762 39573940.086637497 0 39573940.086637497 -60579343.143791199 0 0 0 0 188309037.4350729 53656770.231933594 0 53656770.231933594 -19853567.274288177 0 0 0 0 155179922.05165482 -47882381.443981171 0 -47882381.443981171 54084124.313392639 0 0 0 0 167619886.12323952 -32215110.20712471 0 -32215110.20712471 -25122333.064247131 0 0 0 0 166331205.48208809 11885988.058097839 0 11885988.058097839 111360364.76793671 0 0 0 0 459348509.02739525 224231443.07618332 0 224231443.07618332 -84176904.611633301 0 0 0 0 113630805.67642969 182845870.16216803 0 182845870.16216803 -100713224.5118866 0 0 0 0 113009152.27476501 5750621.6750640869 0 5750621.6750640869 -49755910.603973389 0 0 0 0 -380434278.78623873 373866990.1387291 0 373866990.1387291 52108506.502548218 0 0 0 0 -7587386.7414693832 181372404.67711639 0 181372404.67711639 -52947585.436889648 0 0 0 0 104113869.07948875 489601125.54975128 0 489601125.54975128 -87061804.072052002 0 0 0 0 197743004.24923468 403078530.70038605 0 403078530.70038605 -54584986.216583252 0 0 0 0 157739976.57156873 381359733.121315 0 381359733.121315 -20047402.81829834 0 0 0 0 666012336.84408283 427529746.889534 0 427529746.889534 -27306491.139648438 0 0 0 0 943801.75099192327 434326.0607228335 0 434326.0607228335 -560839.27009318024 0 0 0 0 -34194233.721054792 252451765.93765259 0 252451765.93765259 -15751193.992576599 0 0 0 0 250962372.04981804 -368930704.63883972 0 -368930704.63883972 -603377116.06237793 0 0 0 0 -136312180.58187675 700425947.8842926 0 700425947.8842926 -320465116.54098511 0 0 0 0 -245603387.47624838 667142194.26541901 0 667142194.26541901 -30221794.43321228 0 0 0 0 98779693.199491978 539135117.25801849 0 539135117.25801849 -370465107.85317993 0 0 0 0 94977761.552413076 622913780.11735725 0 622913780.11735725 8557021.973236084 0 0 0 0 -13260863.445734024 99839040.462738037 0 99839040.462738037 -800660835.22039032 0 0 0 0 100036919.41437626 87040407.337219238 0 87040407.337219238 -92858011.146850586 0 0 0 0 75857843.948012352 13365498.268310547 0 13365498.268310547 -257383567.65517044 0 0 0 0 109038350.72315013 969658691.14960837 0 969658691.14960837 161783913.72355652 0 0 0 0 8614464.8450679779 -54074442.832901001 0 -54074442.832901001 -160630408.66565704 0 0 0 0 15873749.022759438 -2300851.3090133667 0 -2300851.3090133667 -44187858.245960236 0 0 0 0 -20792840.989669323 -8901067.9652824402 0 -8901067.9652824402 -11642453.174755096 0 0 0 0 266148.36012174905 3216054.956350998 0 3216054.956350998 -764406.26703644916 0 0 0 0 545115.98825564678 4497903.4698348716 0 4497903.4698348716 3578627.2888615844 0 0 0 0 -45343658.821702957 -46171583.744682312 0 -46171583.744682312 -57247350.280845642 0 0 0 0 138632972.25002122 387473696.81801987 0 387473696.81801987 -277445541.5942688 0 0 0 0 -157908501.05990005 -101815126.13472557 0 -101815126.13472557 285050206.35196686 0 0 0 0 36203119.217101336 36384088.721878052 0 36384088.721878052 54555597.937004089 0 0 0 0 22625496.401027679 51368276.895404816 0 51368276.895404816 95865288.680915833 0 0 0 0 261927.98347116262 -766814.61085632816 0 -766814.61085632816 1839824.22085405 0 0 0 0 -24618080.711452961 26405819.454669952 0 26405819.454669952 -6013868.1443634033 0 0 0 0 -2238015.2133571403 4040395.3816205915 0 4040395.3816205915 9181512.2282152139 0 0 0 0 -110484199.64915514 16010197.487636566 0 16010197.487636566 40149746.752685547 0 0 0 0 -24784274.95933342 38595594.785711288 0 38595594.785711288 4689272.7370452881 0 0 0 0 134862584.19561386 117054444.12532043 0 117054444.12532043 41888498.426750183 0 0 0 0 342067170.43396521 201646606.09994125 0 201646606.09994125 44248841.338489532 0 0 0 0 51406808.361670971 182888174.99049377 0 182888174.99049377 129932444.9957428 0 0 0 0 81439213.156049728 147612816.21309662 0 147612816.21309662 135810859.6158371 0 0 0 0 -13887830.601175308 151018907.44702148 0 151018907.44702148 146078064.62715149 0 0 0 0 102844732.56143188 179870846.54182053 0 179870846.54182053 184111973.21624756 0 0 0 0 35624981.178122997 166072120.55944443 0 166072120.55944443 179559486.32356262 0 0 0 0 242006251.64212036 -6893110.6645889282 0 -6893110.6645889282 -652115576.67769623 0 0 0 0 -12176822.408167839 52838879.943786621 0 52838879.943786621 283725750.80965805 0 0 0 0 373583.48690177267 -862887.79307381995 0 -862887.79307381995 450946.84507385083 0 0 0 0 74427444.810811043 160119332.97422028 0 160119332.97422028 173861020.22603607 0 0 0 0 17867459.481692314 156458123.23816299 0 156458123.23816299 473814593.48040771 0 0 0 0 81119316.8461833 136358375.35093498 0 136358375.35093498 237593100.76937866 0 0 0 0 180588499.27885818 103849432.51675797 0 103849432.51675797 188730188.19000244 0 0 0 0 159764692.85552406 262669546.69034576 0 262669546.69034576 356466496.09576416 0 0 0 0 361987970.83449173 222050403.68466949 0 222050403.68466949 95219889.239608765 0 0 0 0 -145879735.76455307 -65847062.77781105 0 -65847062.77781105 -23584207.171081543 0 0 0 0 -9588701.8860290386 -5413428.1440583933 0 -5413428.1440583933 37709350.75021486 0 0 0 0 132779362.50340366 123825422.30548477 0 123825422.30548477 125897283.10434723 0 0 0 0 -142525032.36161041 -71798965.357695222 0 -71798965.357695222 -21653877.157150269 0 0 0 0 172950842.20563126 95246143.831600189 0 95246143.831600189 146010747.05838013 0 0 0 0 -153690919.93714523 -67072303.351425171 0 -67072303.351425171 -23546141.033885956 0 0 0 0 -297476409.78167725 -262040908.95155525 0 -262040908.95155525 -182675891.07395363 0 0 0 0 -12735144.856986046 52946106.392665863 0 52946106.392665863 -122266843.06575775 0 0 0 0 -154915083.70725012 -60265267.248614311 0 -60265267.248614311 -26467313.830749512 0 0 0 0 118369730.49794292 76916110.265798569 0 76916110.265798569 9975290.6446228027 0 0 0 0 48352422.140776515 189102169.94739914 0 189102169.94739914 88160392.287513733 0 0 0 0 -136190379.21688676 140439556.67076874 0 140439556.67076874 179945718.12167358 0 0 0 0 -212483568.70781285 143952298.14375782 0 143952298.14375782 212688584.40888977 0 0 0 0 -149611997.48747492 -76943461.896110535 0 -76943461.896110535 21455946.871443748 0 0 0 0 -419324594.60155439 -17849703.584327698 0 -17849703.584327698 192152575.32221985 0 0 0 0 -249674926.7046051 -341852145.56950378 0 -341852145.56950378 -59404107.600036621 0 0 0 0 -148899199.95090485 -183206131.27676392 0 -183206131.27676392 108463415.67681885 0 0 0 0 -773038.30558689684 -123194.51353091979 0 -123194.51353091979 946119.7745452933 0 0 0 0 -8755019.0143294185 -7006760.524631788 0 -7006760.524631788 38708880.086380295 0 0 0 0 -537899575.35712957 235752228.38871765 0 235752228.38871765 173802685.22937012 0 0 0 0 -479621946.22678638 166431901.06263733 0 166431901.06263733 252101397.1557312 0 0 0 0 -438404839.21523714 413535727.76624298 0 413535727.76624298 -108473169.19119263 0 0 0 0 -86227570.824645996 -94288868.403747559 0 -94288868.403747559 54086459.004577637 0 0 0 0 -80909630.284111023 57212977.587753296 0 57212977.587753296 -340031150.95368195 0 0 0 0 -127908381.68089676 -108875716.81892014 0 -108875716.81892014 52160134.323516846 0 0 0 0 -131133812.33978653 -121415913.75269318 0 -121415913.75269318 90870551.598693848 0 0 0 0 -158541300.80377197 -190469140.63683319 0 -190469140.63683319 170077992.4206543 0 0 0 0 -129088685.96300507 -113469536.63682556 0 -113469536.63682556 115177680.79525375 0 0 0 0 -126242471.8087883 -161823168.87854004 0 -161823168.87854004 305001891.35185623 0 0 0 0 26259638.07485199 -218701504.72343445 0 -218701504.72343445 163806477.31040955 0 0 0 0 -195883655.68382072 -61386945.776622772 0 -61386945.776622772 52422241.352958679 0 0 0 0 -1174633.8713122308 2399915.8983255103 0 2399915.8983255103 5582895.2052171715 0 0 0 0 -54873909.191581488 56032868.38819313 0 56032868.38819313 61243931.534797668 0 0 0 0 145837779.83985913 259392538.61666489 0 259392538.61666489 128618072.24169922 0 0 0 0 376611102.24893117 148452287.01177979 0 148452287.01177979 136707012.03011084 0 0 0 0 61073760.575710177 164498972.28684998 0 164498972.28684998 134296439.80477905 0 0 0 0 -238034209.36143237 280539656.72018623 0 280539656.72018623 306028966.28829956 0 0 0 0 -26535106.28466177 436833428.3533783 0 436833428.3533783 204526673.53764343 0 0 0 0 -210166829.52346528 227730207.56764984 0 227730207.56764984 41913567.274230957 0 0 0 0 -108870278.68761778 -369319223.65583801 0 -369319223.65583801 -484271950.10296249 0 0 0 0 71908382.090694427 71880714.096710205 0 71880714.096710205 79552217.791778564 0 0 0 0 -169610328.79758096 143744415.21125793 0 143744415.21125793 -560545097.06829834 0 0 0 0 -182355862.18422425 148867666.47183228 0 148867666.47183228 103011282.6300354 0 0 0 0 -179749762.88832021 -457829841.65370178 0 -457829841.65370178 -81873175.626182556 0 0 0 0 81762511.391956329 561444794.34448624 0 561444794.34448624 1071022422.4732056 0 0 0 0 315860708.72472858 319250204.68908691 0 319250204.68908691 243932945.06407166 0 0 0 0 1226703049.4562254 605340005.24536514 0 605340005.24536514 109699504.68802643 0 0 0 0 -31074104.472293377 -226225146.59770203 0 -226225146.59770203 315425067.48628616 0 0 0 0 -353879.39203034551 914978.81881485041 0 914978.81881485041 1896113.9823491238 0 0 0 0 459279833.64176607 579814059.90335846 0 579814059.90335846 436091944.09672546 0 0 0 0 63152029.572591782 -517912618.0136795 0 -517912618.0136795 1361585874.9985924 0 0 0 0 83356113.983445644 291002278.1125946 0 291002278.1125946 -271982330.18281555 0 0 0 0 810451631.24680614 -111620420.36876678 0 -111620420.36876678 -76317143.849243164 0 0 0 0 -270643004.13220596 -18039119.287586212 0 -18039119.287586212 67174246.328826904 0 0 0 0 -524393192.73231411 -696348691.63524628 0 -696348691.63524628 135628694.10910034 0 0 0 0 -657195647.75771046 -404124011.09742737 0 -404124011.09742737 141251693.09091187 0 0 0 0 -6785613.5546130817 -9600974.8138404265 0 -9600974.8138404265 36449453.417543694 0 0 0 0 -686949159.21323586 -362482504.20410156 0 -362482504.20410156 377917417.6873703 0 0 0 0 -502244119.15337372 -150804123.77377319 0 -150804123.77377319 496740895.74172974 0 0 0 0 -7368611.125442028 -218473617.99617767 0 -218473617.99617767 352247384.51443481 0 0 0 0 -551581160.86774993 -592231578.59946537 0 -592231578.59946537 475917223.78390503 0 0 0 0 -210125560.7601769 -290720831.83300781 0 -290720831.83300781 760092346.2540741 0 0 0 0 -166265799.37367105 -558837182.96867752 0 -558837182.96867752 390275008.18637085 0 0 0 0 -235285971.24758911 -23042176.919799805 0 -23042176.919799805 39632230.158630371 0 0 0 0 -209510835.44979095 13560451.211868286 0 13560451.211868286 -4555133.3708686829 0 0 0 0 -631045169.7894485 -238841361.5661068 0 -238841361.5661068 -1392554431.4998169 0 0 0 0 -602044372.61397982 -213066057.4337883 0 -213066057.4337883 65135665.418190002 0 0 0 0 -2052689.24768438 -787797.74302975647 0 -787797.74302975647 2653642.593926955 0 0 0 0 -6623823.5595432799 -1774117.2588501461 0 -1774117.2588501461 41296931.798808217 0 0 0 0 -163099186.94027281 -225006108.00946045 0 -225006108.00946045 -97502138.24407959 0 0 0 0 -4617518.2294316292 -299579267.11198425 0 -299579267.11198425 -569642244.43811035 0 0 0 0 53449220.091228247 -50840345.646832943 0 -50840345.646832943 -141294983.38050079 0 0 0 0 216219919.65184593 114840833.83737946 0 114840833.83737946 -24494664.068592072 0 0 0 0 -149814599.83985138 -3638374.0510444641 0 -3638374.0510444641 135613485.44150162 0 0 0 0 -41782627.272727013 21623317.069087982 0 21623317.069087982 182300335.97468567 0 0 0 0 -103843925.66711044 -44678496.23607254 0 -44678496.23607254 113748371.07678604 0 0 0 0 -156946905.27032471 -30170584.121704102 0 -30170584.121704102 122047402.98722458 0 0 0 0 -111938099.88517284 -11113638.435268402 0 -11113638.435268402 69067860.908798218 0 0 0 0 -169877186.65118027 12027692.432035446 0 12027692.432035446 -6126863.2931671143 0 0 0 0 -286157562.26153183 61031757.754379272 0 61031757.754379272 33625946.430664062 0 0 0 0 -225248094.18677139 -9556581.7611427307 0 -9556581.7611427307 92430138.843215942 0 0 0 0 -183498582.06057739 1779340.8316116333 0 1779340.8316116333 60898630.469482422 0 0 0 0 -232133440.21549988 20079889.203796387 0 20079889.203796387 81271755.506378174 0 0 0 0 -173952692.79392624 28099846.312141418 0 28099846.312141418 106453386.40309906 0 0 0 0 -185083940.87323666 71637399.543365479 0 71637399.543365479 36140807.956100464 0 0 0 0 -189335346.53876877 61370332.352931976 0 61370332.352931976 16343355.452934265 0 0 0 0 -175476645.68740177 37017131.43140173 0 37017131.43140173 84602407.44486618 0 0 0 0 -207105237.84763336 33665074.940067291 0 33665074.940067291 91957764.127883911 0 0 0 0 -102093634.37970161 55480381.95621109 0 55480381.95621109 69807753.486042023 0 0 0 0 -80467734.078921795 -40356166.496455669 0 -40356166.496455669 175115410.59239578 0 0 0 0 -18485203.654327393 -27932479.094812393 0 -27932479.094812393 140645057.48382568 0 0 0 0 31196971.494682789 -97401465.472828865 0 -97401465.472828865 170424815.11362839 0 0 0 0 108545861.41947079 1184488.6572685242 0 1184488.6572685242 226589518.00160789 0 0 0 0 199065449.469841 82995588.615215302 0 82995588.615215302 170784157.59708786 0 0 0 0 -46686701.378621101 -7922057.6851396561 0 -7922057.6851396561 288921408.94057083 0 0 0 0 442180738.04677725 432751405.58425713 0 432751405.58425713 438431930.28105927 0 0 0 0 122684202.54086113 153331753.32971287 0 153331753.32971287 200066317.10534668 0 0 0 0 817710786.17451382 233246379.41630173 0 233246379.41630173 1229990.1597275734 0 0 0 0 161619253.38491392 47366888.234460831 0 47366888.234460831 25929893.045303345 0 0 0 0 682334.36860142765 656525.42985811038 0 656525.42985811038 281453.17449112795 0 0 0 0 -7000211.2055449486 -152270737.49191856 0 -152270737.49191856 642262940.62982941 0 0 0 0 17814573.002801418 378456890.56736565 0 378456890.56736565 811657120.65592003 0 0 0 0 821307115.47794771 106056637.16996193 0 106056637.16996193 172346232.52254486 0 0 0 0 -55445549.390286446 40859818.08870697 0 40859818.08870697 698430909.25966835 0 0 0 0 315654099.42218065 -150424652.82919216 0 -150424652.82919216 -248069839.70819092 0 0 0 0 15754.239399005659 -1404779.7254011985 0 -1404779.7254011985 880937.13816563785 0 0 0 0 -76277433.516839743 93618303.51502037 0 93618303.51502037 196935321.6065979 0 0 0 0 -4969860.8499612808 19994512.067047119 0 19994512.067047119 48236702.360721588 0 0 0 0 -2927725.1596927643 15078875.881694794 0 15078875.881694794 50737784.139453888 0 0 0 0 -5312539.9681301117 -60325508.417310715 0 -60325508.417310715 -34153294.760280609 0 0 0 0 28916599.456393242 -4382737.5681037903 0 -4382737.5681037903 -59254218.57182312 0 0 0 0 -57392418.318325043 -148356124.06204987 0 -148356124.06204987 -171102323.33020878 0 0 0 0 -97403750.423570633 -43163219.524749756 0 -43163219.524749756 -21260192.367603302 0 0 0 0 94894151.839657307 -32849458.033477783 0 -32849458.033477783 -55334165.989204407 0 0 0 0 -18600212.433399677 50812638.412359238 0 50812638.412359238 98996454.262958527 0 0 0 0 -22474711.367652893 -148115595.97501564 0 -148115595.97501564 126639243.80822372 0 0 0 0 -126872.82364548557 -794677.18978373799 0 -794677.18978373799 515615.32073952444 0 0 0 0 -184361380.98345757 -15930276.827697754 0 -15930276.827697754 263458710.41519928 0 0 0 0 56959147.523212314 18527635.007801056 0 18527635.007801056 96137458.617282867 0 0 0 0 48765290.190251857 -11655282.850315094 0 -11655282.850315094 1257626.5846195221 0 0 0 0 27948513.500084639 14043061.007545471 0 14043061.007545471 56969492.485116959 0 0 0 0 -206128.69453524705 -82280.312570510432 0 -82280.312570510432 613107.27953432035 0 0 0 0 28576001.384107947 30759001.923033714 0 30759001.923033714 22818050.656669617 0 0 0 0 65515061.567837477 102218749.1131134 0 102218749.1131134 159259384.50513077 0 0 0 0 96974154.750826836 164049608.23428345 0 164049608.23428345 192811061.8215456 0 0 0 0 -20380761.906002522 75318047.458089828 0 75318047.458089828 218283771.19015646 0 0 0 0 4073464.0201771259 65645816.060113907 0 65645816.060113907 98719618.565795898 0 0 0 0 -19902759.232526541 50464974.514827728 0 50464974.514827728 39318951.008407593 0 0 0 0 33256317.868739128 -65168586.863803864 0 -65168586.863803864 75313087.203276634 0 0 0 0 -4024915.0146355629 251694363.65363693 0 251694363.65363693 335181388.41825294 0 0 0 0 -34710704.342721462 14140761.800729752 0 14140761.800729752 468132157.37141418 0 0 0 0 83607272.163022518 243507643.95435715 0 243507643.95435715 255117349.27947235 0 0 0 0 68522.078368565766 -1190770.9450207399 0 -1190770.9450207399 773419.48907097988 0 0 0 0 247870955.84315181 140085525.23378944 0 140085525.23378944 -80448556.593429565 0 0 0 0 -41012.50066265068 -533001.36760535091 0 -533001.36760535091 376806.66943687759 0 0 0 0 116492029.9956454 300645196.09089184 0 300645196.09089184 343189273.95534515 0 0 0 0 26013217.179769993 224649063.19849396 0 224649063.19849396 269511210.18681717 0 0 0 0 47681932.764283672 106677408.3177166 0 106677408.3177166 174503122.9745369 0 0 0 0 242517506.17811632 193316479.6685791 0 193316479.6685791 169569075.68051445 0 0 0 0 115965062.94373387 118071276.69509506 0 118071276.69509506 128739917.56416893 0 0 0 0 119378902.12743521 94448793.370867729 0 94448793.370867729 227719190.99527359 0 0 0 0 162367396.77930653 178026011.70068169 0 178026011.70068169 169756092.49215698 0 0 0 0 112294199.58657491 159771061.2486763 0 159771061.2486763 172981313.80753517 0 0 0 0 174921513.92355222 157330862.39906597 0 157330862.39906597 169513769.76374817 0 0 0 0 125432142.75664085 185610108.12028885 0 185610108.12028885 219149451.74456787 0 0 0 0 130785516.30366778 37996641.587972641 0 37996641.587972641 40636005.36322403 0 0 0 0 -656967.9618576169 78671586.818525791 0 78671586.818525791 133202346.21058655 0 0 0 0 26551683.757697582 -495371.78616142273 0 -495371.78616142273 44166981.194957733 0 0 0 0 8399821.0589535236 27396564.527858734 0 27396564.527858734 51488836.548023224 0 0 0 0 -47071220.606506824 -2826055.8367023468 0 -2826055.8367023468 79742840.824745178 0 0 0 0 -19318430.260555744 3204618.9713172913 0 3204618.9713172913 75280830.979866028 0 0 0 0 -101491431.39200962 -4300761.2033495903 0 -4300761.2033495903 102842226.31095123 0 0 0 0 -148511321.07214546 -138947962.00408173 0 -138947962.00408173 -40717114.190437317 0 0 0 0 -168367228.67816734 -14300751.84797287 0 -14300751.84797287 52835486.997158051 0 0 0 0 -47572696.990157127 -73434404.1704216 0 -73434404.1704216 -71613379.820114136 0 0 0 0 -25946261.687606812 -18691874.058502197 0 -18691874.058502197 25861720.897079468 0 0 0 0 -42408058.020643234 -14874905.695171356 0 -14874905.695171356 39706887.084915161 0 0 0 0 -62526418.55898869 -8747687.1522941589 0 -8747687.1522941589 122160395.07276154 0 0 0 0 21595413.461750388 79056565.805177689 0 79056565.805177689 168623702.14530182 0 0 0 0 107911911.58149809 92488987.342905045 0 92488987.342905045 88031872.728076935 0 0 0 0 -13265635.111782551 -74909928.198337555 0 -74909928.198337555 119049419.54224873 0 0 0 0 105277259.66978639 -99453822.472418785 0 -99453822.472418785 356346510.54292297 0 0 0 0 119969295.72544384 155447769.37103653 0 155447769.37103653 218520797.38104248 0 0 0 0 216124543.15006134 189707387.01452017 0 189707387.01452017 208090078.32376099 0 0 0 0 -52178585.237098694 38828720.394153595 0 38828720.394153595 75167631.789539337 0 0 0 0 -32502497.207734108 -102244167.71540833 0 -102244167.71540833 -78172901.230251312 0 0 0 0 -723689.14920890005 -63628.011713717133 0 -63628.011713717133 827509.28752627783 0 0 0 0 -163607978.7709465 -92787240.572288513 0 -92787240.572288513 42685367.567550659 0 0 0 0 -116699563.90564728 -49845846.397018433 0 -49845846.397018433 -20342985.349853516 0 0 0 0 -61673207.743530273 -49044469.588897705 0 -49044469.588897705 -23307598.003089905 0 0 0 0 -26777370.844823837 -65503790.14320755 0 -65503790.14320755 -44108611.972457886 0 0 0 0 -140174716.9296999 -81039997.41301918 0 -81039997.41301918 -30441241.426696777 0 0 0 0 -1290202.2142748768 -190596.16957886051 0 -190596.16957886051 1576578.7066821158 0 0 0 0 -110019724.88122559 -84211201.928367615 0 -84211201.928367615 -33500078.81867981 0 0 0 0 -61523162.609920502 -84349671.077957153 0 -84349671.077957153 -34982779.393798828 0 0 0 0 -142340903.49645734 -65738752.772819757 0 -65738752.772819757 -12548747.730865479 0 0 0 0 -35242143.961442947 3400361.9036560059 0 3400361.9036560059 -42021735.151725769 0 0 0 0 12049845.109353065 6095525.8612174988 0 6095525.8612174988 1760004.2211380005 0 0 0 0 -29370312.114549637 -49759636.730400085 0 -49759636.730400085 14642851.547825813 0 0 0 0 -24299715.568404198 -30946829.83541584 0 -30946829.83541584 59873981.534820557 0 0 0 0 -21800759.104782581 -64342461.115125656 0 -64342461.115125656 42609849.939941406 0 0 0 0 -8154572.5635871887 -49424634.237213135 0 -49424634.237213135 48399833.719028473 0 0 0 0 -44942379.650212288 -78545406.132961273 0 -78545406.132961273 36249327.535385132 0 0 0 0 -40995226.336889267 -50464062.9635849 0 -50464062.9635849 33492740.959839344 0 0 0 0 -70362782.682782173 -46915779.140514374 0 -46915779.140514374 64441597.434331894 0 0 0 0 -82047483.242675543 -64307859.21385622 0 -64307859.21385622 40865441.469223022 0 0 0 0 -31851685.947432995 -90513269.463205338 0 -90513269.463205338 -162186531.35302734 0 0 0 0 -92709320.503023148 -60047771.431331635 0 -60047771.431331635 39454102.207090378 0 0 0 0 -64049748.712534904 -93968410.839975357 0 -93968410.839975357 -39059028.23273468 0 0 0 0 -16022896.15171051 -34865374.977493286 0 -34865374.977493286 -58272317.976242065 0 0 0 0 -13467703.436581612 -42296047.807510376 0 -42296047.807510376 -26551429.155311584 0 0 0 0 1884887.7992564219 -2434383.7893154658 0 -2434383.7893154658 -9738966.5872528795 0 0 0 0 -16279830.29003334 -36340403.467021942 0 -36340403.467021942 -22763362.736045837 0 0 0 0 69461746.207767487 -38535811.826219797 0 -38535811.826219797 60385802.835739136 0 0 0 0 -8757082.3739550002 -5870705.4561293339 0 -5870705.4561293339 29896147.689590748 0 0 0 0 -26198322.190588951 -61738649.481310844 0 -61738649.481310844 97069736.748840332 0 0 0 0 -9731046.9718513489 -185592968.35433578 0 -185592968.35433578 43544046.030212402 0 0 0 0 -86600223.117242813 -63059400.80638504 0 -63059400.80638504 -59604440.058525085 0 0 0 0 324389.7895733472 -896481.12301036436 0 -896481.12301036436 -2845152.5522277821 0 0 0 0 -67435842.363594055 -59673670.41558075 0 -59673670.41558075 126159746.84925079 0 0 0 0 41635125.702838898 -139323103.81071472 0 -139323103.81071472 43235001.046550751 0 0 0 0 104901738.04969501 -28630997.350917816 0 -28630997.350917816 -204506592.85797119 0 0 0 0 -99804414.111759186 -6857390.6468734741 0 -6857390.6468734741 43087468.006256104 0 0 0 0 44188605.575639725 -105947285.51925468 0 -105947285.51925468 15782556.773109436 0 0 0 0 -9802178.9351239335 -4896171.836251149 0 -4896171.836251149 35135276.633197874 0 0 0 0 181016949.59834853 116525284.59219587 0 116525284.59219587 -22879330.808265686 0 0 0 0 -198677110.76699448 -85546129.973712921 0 -85546129.973712921 60937409.973571777 0 0 0 0 -216285531.96183205 15403616.655292511 0 15403616.655292511 53125142.632232666 0 0 0 0 149750699.09649467 40873394.164203644 0 40873394.164203644 52649870.907871246 0 0 0 0 63689339.314149857 -1616221.3606262207 0 -1616221.3606262207 34113800.004997253 0 0 0 0 154144309.54615211 -6808990.7594108582 0 -6808990.7594108582 53640330.366124153 0 0 0 0 146813736.00798035 -18133330.432361603 0 -18133330.432361603 45845011.555669785 0 0 0 0 133352010.84243774 -22288881.990585327 0 -22288881.990585327 59748263.260955811 0 0 0 0 133977138.74151993 -34304761.639213562 0 -34304761.639213562 43338333.945808411 0 0 0 0 96641405.831079483 -38955960.542562485 0 -38955960.542562485 44916639.30591011 0 0 0 0 4905716.9857368171 627576.69464588631 0 627576.69464588631 9119846.6513639148 0 0 0 0 -86892029.484258175 36718519.87547493 0 36718519.87547493 272934073.60466385 0 0 0 0 -22407918.217196941 -4938094.0773162842 0 -4938094.0773162842 286511616.47439051 0 0 0 0 -18144629.775343895 -37799955.907646179 0 -37799955.907646179 182637174.85313416 0 0 0 0 34063038.690562248 45450018.770032883 0 45450018.770032883 166290749.22259521 0 0 0 0 -11437149.258712769 42277630.14043045 0 42277630.14043045 273479402.13094711 0 0 0 0 -73957270.896716118 -132033849.09075928 0 -132033849.09075928 357901066.45090294 0 0 0 0 207977.94260945707 447705.40837372141 0 447705.40837372141 129735.91327586025 0 0 0 0 -49518067.295241833 159109373.0788517 0 159109373.0788517 553354935.68132401 0 0 0 0 53459012.024603605 207816653.71388149 0 207816653.71388149 128947507.94169235 0 0 0 0 83780850.350633621 313628454.13532448 0 313628454.13532448 436230071.05966187 0 0 0 0 -15509109.636702538 19296773.361749649 0 19296773.361749649 -38072924.276662827 0 0 0 0 -26586090.701884747 -6334725.4293956757 0 -6334725.4293956757 -46814470.197021484 0 0 0 0 -7524607.2112390967 -12059332.411038261 0 -12059332.411038261 29034676.211887863 0 0 0 0 -403802.83664693637 929308.99726144411 0 929308.99726144411 4750215.2216445049 0 0 0 0 -109633961.46295166 -2288507.2951965332 0 -2288507.2951965332 52234859.1714921 0 0 0 0 17547781.267919898 -87012488.020909548 0 -87012488.020909548 -45239896.963371277 0 0 0 0 -6021509.9941841494 -13838684.472767133 0 -13838684.472767133 18746254.352576323 0 0 0 0 27542842.781577587 120365918.46350956 0 120365918.46350956 -80109033.036994934 0 0 0 0 -58186623.675161839 24149291.130017281 0 24149291.130017281 335652870.33143234 0 0 0 0 2945937.9033182333 -3401124.5162874348 0 -3401124.5162874348 -4382835.3518609591 0 0 0 0 238920789.21227455 92882357.182624817 0 92882357.182624817 611327309.1947937 0 0 0 0 258571822.45837307 233975448.25415325 0 233975448.25415325 201499039.54094696 0 0 0 0 986014.37396144867 -35668143.0670681 0 -35668143.0670681 21541017.760845184 0 0 0 0 89659692.449675083 -12218417.242508888 0 -12218417.242508888 -30391425.063713074 0 0 0 0 189471305.3349371 158536848.18470573 0 158536848.18470573 100173463.46136475 0 0 0 0 -13821781.619000435 19235192.088111877 0 19235192.088111877 37026725.468133926 0 0 0 0 -767689.23766708374 188008581.63449478 0 188008581.63449478 293231373.49459934 0 0 0 0 56558652.188537598 92195969.602483749 0 92195969.602483749 92737389.248527527 0 0 0 0 -81884125.398331642 88423017.951677322 0 88423017.951677322 193538476.01276779 0 0 0 0 -87179163.693403423 33992384.942208886 0 33992384.942208886 535321002.9849472 0 0 0 0 765232.83275618264 -86438.373860294931 0 -86438.373860294931 222708.22613304947 0 0 0 0 4363207.5084120035 39197943.728978634 0 39197943.728978634 -28849442.874832153 0 0 0 0 39922530.156710625 13524024.229627609 0 13524024.229627609 -24006637.380325794 0 0 0 0 487974.9729645222 -191760.00741727557 0 -191760.00741727557 -618331.32397770602 0 0 0 0 28673327.032625914 -30383472.100922108 0 -30383472.100922108 -27323485.160942078 0 0 0 0 768057.8251541853 1218668.0872869492 0 1218668.0872869492 -1264200.5419464111 0 0 0 0 308983.72294608853 -361023.73314439785 0 -361023.73314439785 126221.87019239226 0 0 0 0 32161153.612357616 -7220621.7723436356 0 -7220621.7723436356 -32526614.380718231 0 0 0 0 -10353.945861816406 -512780.96499633789 0 -512780.96499633789 -1964229.7610931396 0 0 0 0 1173958.544166333 361322.28800109029 0 361322.28800109029 -186695.96696886513 0 0 0 0 138886.5026845932 365494.60095214844 0 365494.60095214844 -1173710.8997526169 0 0 0 0 -33848644.809793472 17267521.83719635 0 17267521.83719635 -49245511.060819626 0 0 0 0 870743.17531324842 1605356.6109578861 0 1605356.6109578861 -112958.57815636136 0 0 0 0 26290212.708463669 63576250.857448578 0 63576250.857448578 -92293632.768058777 0 0 0 0 -1958787.8927621841 -495859.07079696655 0 -495859.07079696655 5690387.9674186707 0 0 0 0 138333.51669961005 -498513.56783874705 0 -498513.56783874705 168992.33367924951 0 0 0 0 -31031759.08226943 42625187.60340023 0 42625187.60340023 -19044151.007034302 0 0 0 0 9336845.9386844635 72851179.7129879 0 72851179.7129879 7878781.888092041 0 0 0 0 -11267514.554020882 11820670.786773682 0 11820670.786773682 50447321.333339691 0 0 0 0 68311423.324332595 -151060.55057144165 0 -151060.55057144165 -10780522.200519562 0 0 0 0 39808634.608281016 40124107.785855293 0 40124107.785855293 165550582.26346588 0 0 0 0 43430755.835104108 49342802.962030888 0 49342802.962030888 72692461.700309753 0 0 0 0 489821.83074314485 1060920.0793666188 0 1060920.0793666188 241431.54876912013 0 0 0 0 -35661399.298392296 -14298574.885198593 0 -14298574.885198593 24525766.073326111 0 0 0 0 -18469362.228461649 -4032819.4386252016 0 -4032819.4386252016 39551858.195709229 0 0 0 0 -34161049.539366722 78079934.690265656 0 78079934.690265656 13416626.877315521 0 0 0 0 -100883234.5502584 59701543.590709686 0 59701543.590709686 16662690.620056152 0 0 0 0 101070493.7781565 -111317099.57034135 0 -111317099.57034135 -61238712.552139282 0 0 0 0 -28819914.396796942 -62020035.871253967 0 -62020035.871253967 88014901.459363937 0 0 0 0 92997590.04932332 -5135488.7395000458 0 -5135488.7395000458 57456057.047637939 0 0 0 0 389969.85924685001 -102445779.17810249 0 -102445779.17810249 -29253812.628387451 0 0 0 0 -127751711.14429283 -97170049.242370605 0 -97170049.242370605 -18278496.785276413 0 0 0 0 -85421523.354224443 -168956538.3356781 0 -168956538.3356781 -65327528.030840874 0 0 0 0 106952617.61770582 -307083627.6689558 0 -307083627.6689558 49753970.16721344 0 0 0 0 -6158452.183255733 -13399961.802001879 0 -13399961.802001879 20067275.185421728 0 0 0 0 -68112152.915546417 -115229756.30225945 0 -115229756.30225945 -54361965.4818573 0 0 0 0 -80481740.381193638 -115308430.61087418 0 -115308430.61087418 24722343.639640808 0 0 0 0 -104894820.85265541 -131510260.88938522 0 -131510260.88938522 -44866196.582704544 0 0 0 0 -237894343.16696453 118059508.33753395 0 118059508.33753395 233917252.42750549 0 0 0 0 175475756.84564209 150897674.97070694 0 150897674.97070694 236525593.81291771 0 0 0 0 -34535213.939404488 -155050975.04938412 0 -155050975.04938412 220234064.65546417 0 0 0 0 96342836.579748154 179944726.18119335 0 179944726.18119335 412603475.05796814 0 0 0 0 470279.59082550602 -100301.15616584662 0 -100301.15616584662 -188246.6666779425 0 0 0 0 25002933.809049606 -3777834.6534194946 0 -3777834.6534194946 -43337750.122627258 0 0 0 0 34006200.153484344 -7444452.4032735825 0 -7444452.4032735825 127451221.70243263 0 0 0 0 101682813.58963585 17567825.239355087 0 17567825.239355087 -16944659.838546753 0 0 0 0 72310654.201072693 -426809.78335571289 0 -426809.78335571289 -18489849.359363794 0 0 0 0 67348.981175641064 1176172.9845535753 0 1176172.9845535753 1408775.962925937 0 0 0 0 31466948.394536495 -27994114.938202858 0 -27994114.938202858 28728147.673599243 0 0 0 0 572938536.69357681 -233346979.90713501 0 -233346979.90713501 -23994551.528469086 0 0 0 0 92187354.531305313 418376443.51374149 0 418376443.51374149 80145652.381844282 0 0 0 0 -6696391.3950577853 -12397755.895535141 0 -12397755.895535141 20552667.841915324 0 0 0 0 -15251756.359074235 -141690255.72959137 0 -141690255.72959137 -184415603.47612 0 0 0 0 27168222.162602425 -10245007.707112312 0 -10245007.707112312 53730329.4142313 0 0 0 0 5468266.2497337461 -7158465.0135231018 0 -7158465.0135231018 -99776039.42848587 0 0 0 0 -59414456.275654852 -104792211.4121418 0 -104792211.4121418 -46449461.340633392 0 0 0 0 27721474.027198792 21055627.500724792 0 21055627.500724792 30647085.474720478 0 0 0 0 28387704.341011047 21845657.53024292 0 21845657.53024292 17387538.537391663 0 0 0 0 21180428.160705566 25241934.321479797 0 25241934.321479797 29031416.345757484 0 0 0 0 12740703.065169334 26283341.122488499 0 26283341.122488499 54922287.756622314 0 0 0 0 -3037154.607049942 9098355.2108449936 0 9098355.2108449936 58764389.185100555 0 0 0 0 583822.97598850727 28067574.999345303 0 28067574.999345303 92809878.950466156 0 0 0 0 29098119.986320496 49298354.803514957 0 49298354.803514957 70097240.130390167 0 0 0 0 883957.94690988678 3056661.6817645687 0 3056661.6817645687 3847394.5632964941 0 0 0 0 66201532.596108437 48000443.802996635 0 48000443.802996635 30505621.535309792 0 0 0 0 -19608745.812088966 -17021717.160989761 0 -17021717.160989761 17411562.30251503 0 0 0 0 24212419.832302094 15167850.782804489 0 15167850.782804489 11963256.298070908 0 0 0 0 -14362432.639930725 4028581.0521774292 0 4028581.0521774292 -15151589.154857635 0 0 0 0 -13825234.224815369 12400934.393119812 0 12400934.393119812 -12327794.041786194 0 0 0 0 -14817781.887962341 13724892.687343597 0 13724892.687343597 -2907177.7270488739 0 0 0 0 -12994270.610031128 -2801560.3113861084 0 -2801560.3113861084 3942094.5567779541 0 0 0 0 -11660632.111549377 -6209414.0621490479 0 -6209414.0621490479 -7692110.2086219788 0 0 0 0 -11458255.42622757 -7882488.8758163452 0 -7882488.8758163452 -2823373.9721755981 0 0 0 0 303830.94973042607 -132149.45605579019 0 -132149.45605579019 26903825.26789093 0 0 0 0 -11991135.99559021 -6002905.0915756226 0 -6002905.0915756226 15795047.05524826 0 0 0 0 418216.43405914307 3451942.5652503967 0 3451942.5652503967 2245147.7920341492 0 0 0 0 -11868851.956596375 6649318.2484931946 0 6649318.2484931946 12711806.445575714 0 0 0 0 18910523.99548912 -9687610.2993164062 0 -9687610.2993164062 24288682.63772583 0 0 0 0 21302215.369197845 -8683437.2897453308 0 -8683437.2897453308 15304826.92389679 0 0 0 0 29825955.260810852 -25079636.475610256 0 -25079636.475610256 24036831.495262146 0 0 0 0 -1780836.2186012268 -641200.37690734863 0 -641200.37690734863 15295313.803928375 0 0 0 0 24416101.690246582 -13062197.153909683 0 -13062197.153909683 15186606.224703461 0 0 0 0 51866162.908683777 28283125.358802795 0 28283125.358802795 -12368682.747016907 0 0 0 0 -26075802.619020462 13322373.1592834 0 13322373.1592834 13095174.857933044 0 0 0 0 67277256.231567383 -2096792.0438175201 0 -2096792.0438175201 -31916503.843931198 0 0 0 0 79099874.473625183 8265098.3430480957 0 8265098.3430480957 -25465812.321891785 0 0 0 0 78281288.151309967 2854236.9219846725 0 2854236.9219846725 -21437723.812732697 0 0 0 0 75220682.097590446 26608598.632711887 0 26608598.632711887 3065859.3916397095 0 0 0 0 521521.71792379138 445435.97062474163 0 445435.97062474163 -471506.92563875765 0 0 0 0 112288286.93829203 -5484914.4193290472 0 -5484914.4193290472 113991208.55407333 0 0 0 0 107713197.37196732 -44010282.725389481 0 -44010282.725389481 7789135.4902534485 0 0 0 0 49932412.812624931 -45643655.384628296 0 -45643655.384628296 65589556.609413147 0 0 0 0 182341860.56253672 -75507716.098145962 0 -75507716.098145962 -110546944.78632355 0 0 0 0 41197735.686168671 14330560.000849724 0 14330560.000849724 11130515.138702393 0 0 0 0 388442.65399195964 676709.14208877785 0 676709.14208877785 -207891.92287080735 0 0 0 0 18013750.113679886 15541348.945636749 0 15541348.945636749 56823327.615040302 0 0 0 0 27330625.156988144 167260.79814147949 0 167260.79814147949 -3001147.394487381 0 0 0 0 11939167.141830444 1531382.0900864601 0 1531382.0900864601 -6611514.4374160767 0 0 0 0 6283855.5043315887 4170796.9802703857 0 4170796.9802703857 -3112909.6988964081 0 0 0 0 14301378.15656662 8710421.8069243431 0 8710421.8069243431 -11480655.053859711 0 0 0 0 -9702090.2821559906 13129234.624595642 0 13129234.624595642 3236268.9544658661 0 0 0 0 -5980876.5992240906 21700062.925415993 0 21700062.925415993 11242595.974712372 0 0 0 0 12745988.080516338 22700255.794492722 0 22700255.794492722 15586339.13609314 0 0 0 0 7492197.2318286896 14376703.355157852 0 14376703.355157852 2519125.3312530518 0 0 0 0 3525578.7337837219 17842814.051509857 0 17842814.051509857 21434958.887132645 0 0 0 0 20814789.725892067 6303020.2110395432 0 6303020.2110395432 13612116.069835663 0 0 0 0 1535378.8644657135 12541009.215896606 0 12541009.215896606 7361997.0336914062 0 0 0 0 -15041346.192718506 9514001.2952613831 0 9514001.2952613831 10481084.18409586 0 0 0 0 -232691.77384471893 1687669.8236303329 0 1687669.8236303329 1708844.4681854248 0 0 0 0 -44059.896556870779 3198926.4863063558 0 3198926.4863063558 5060041.8550840635 0 0 0 0 -28851595.196849823 8474002.791662693 0 8474002.791662693 8921584.6357421875 0 0 0 0 -21416252.267822266 19723142.466464996 0 19723142.466464996 7389173.4147949219 0 0 0 0 2488252.7170531666 892047.51516612037 0 892047.51516612037 1430553.3808268998 0 0 0 0 14696435.279354095 9664390.6366844177 0 9664390.6366844177 18804031.758493423 0 0 0 0 4695293.5150992097 2918841.3935441929 0 2918841.3935441929 2827342.6058739931 0 0 0 0 -15256034.368906021 11143592.517879486 0 11143592.517879486 -274846.50706863403 0 0 0 0 -14564441.706684589 -55120791.313115478 0 -55120791.313115478 -156166263.25142002 0 0 0 0 800233.24554252625 -12626060.476202488 0 -12626060.476202488 -137178151.09579802 0 0 0 0 -7059782.0791497231 19934212.453651905 0 19934212.453651905 2050041.9494934082 0 0 0 0 5484199.4640071224 5276946.2355238991 0 5276946.2355238991 4839623.2979545267 0 0 0 0 9699232.2557325363 6016701.3527714014 0 6016701.3527714014 16240943.512487888 0 0 0 0 500108.72833247634 1885223.0752477101 0 1885223.0752477101 1081269.9734256414 0 0 0 0 3387182.1227813922 1561429.5138546773 0 1561429.5138546773 1170629.961362096 0 0 0 0 950221.26101016998 65375514.683889151 0 65375514.683889151 -11363858.996007428 0 0 0 0 4010662.8522967105 649135.62219684815 0 649135.62219684815 2367761.180096806 0 0 0 0 8730649.5673713684 9154283.6860322952 0 9154283.6860322952 10125213.180774689 0 0 0 0 18409915.984413147 17303820.175743103 0 17303820.175743103 12816702.08263588 0 0 0 0 17355900.143967628 10456771.99148035 0 10456771.99148035 20653935.843082428 0 0 0 0 28560583.9806633 3560470.4771537781 0 3560470.4771537781 -3993508.5994510651 0 0 0 0 12288326.21254921 11138369.228330135 0 11138369.228330135 6211518.9239358902 0 0 0 0 9392997.6255738735 -2290043.1126565337 0 -2290043.1126565337 4004182.0747375488 0 0 0 0 13941335.855534077 17170458.879615188 0 17170458.879615188 27606134.016731262 0 0 0 0 1102366.5914286952 -193608.16026921337 0 -193608.16026921337 -874634.67193167144 0 0 0 0 1647880.9188923836 2408221.8090953827 0 2408221.8090953827 -9248950.9911575317 0 0 0 0 1514901.6643394209 2850432.6888558287 0 2850432.6888558287 826067.99156579748 0 0 0 0 -2004086.3205170631 -9267300.2140855789 0 -9267300.2140855789 15489745.900363445 0 0 0 0 -17724653.066106558 8587110.6993980408 0 8587110.6993980408 9687124.9622993469 0 0 0 0 3123261.861989975 -2092963.2351856232 0 -2092963.2351856232 -19017271.449296951 0 0 0 0 -22199505.675002098 -22915174.121524811 0 -22915174.121524811 -3308918.2212295532 0 0 0 0 7617169.7083328962 7196154.1406583786 0 7196154.1406583786 1433886.7205886841 0 0 0 0 -10501408.913707733 136986.33807086945 0 136986.33807086945 4509492.0006103516 0 0 0 0 -354128.65690954495 -370805.03481056076 0 -370805.03481056076 56403.931124516763 0 0 0 0 -11167703.050469637 797422.52143096924 0 797422.52143096924 797476.27889251709 0 0 0 0 -9348622.3394246101 26177985.969833374 0 26177985.969833374 -17267213.823827744 0 0 0 0 10369406.358648777 -22391279.921953201 0 -22391279.921953201 23353508.825555563 0 0 0 0 -21111125.446231008 7317595.9182751179 0 7317595.9182751179 26342177.828212738 0 0 0 0 2661870.010017395 18715237.757339478 0 18715237.757339478 27605352.384696007 0 0 0 0 36150185.581723213 10325982.172058105 0 10325982.172058105 -3024266.9686775208 0 0 0 0 521928.33884446975 24457.620113045909 0 24457.620113045909 -527293.05482704192 0 0 0 0 58166745.335983276 -5522188.2965354919 0 -5522188.2965354919 -29048928.045532227 0 0 0 0 14287356.359069705 50817496.055111647 0 50817496.055111647 -48327747.708690643 0 0 0 0 -6247193.4900693893 7009409.8105106354 0 7009409.8105106354 8559198.4657554626 0 0 0 0 11531574.889655113 -3871773.4114665985 0 -3871773.4114665985 -47602205.819107831 0 0 0 0 872267.09660891583 45790.202557485551 0 45790.202557485551 -929546.73797887191 0 0 0 0 26255147.58460319 19611073.539968014 0 19611073.539968014 -52771629.668678284 0 0 0 0 -55863600.644693255 61683410.904223919 0 61683410.904223919 -29769451.819068909 0 0 0 0 -13999152.230428696 -15827201.201780319 0 -15827201.201780319 29857758.179550171 0 0 0 0 38534482.85919857 29866616.49258709 0 29866616.49258709 -6019341.307472229 0 0 0 0 101872644.78844643 -27095276.779069901 0 -27095276.779069901 -9872193.723690033 0 0 0 0 858025.80012189504 725333.76412146492 0 725333.76412146492 -786136.63582793158 0 0 0 0 79996508.043869495 -42871618.218357086 0 -42871618.218357086 -16431877.379253387 0 0 0 0 47698364.349850655 -4599950.0732917786 0 -4599950.0732917786 72605181.269996643 0 0 0 0 958564.46569670271 1627109.43113544 0 1627109.43113544 -358407.41538310051 0 0 0 0 46549583.078692913 11634812.905398369 0 11634812.905398369 -4527163.8360671997 0 0 0 0 -17312710.016273022 -2641508.9289445877 0 -2641508.9289445877 -27339934.556005478 0 0 0 0 48469857.421855688 10494766.756418705 0 10494766.756418705 -38143602.987472534 0 0 0 0 31145020.468717813 -20731739.297366142 0 -20731739.297366142 -14707753.365127563 0 0 0 0 390080.29180897604 15117.773410313297 0 15117.773410313297 -581897.77132519055 0 0 0 0 -56339012.379524343 75165884.615036726 0 75165884.615036726 -48494846.050222397 0 0 0 0 5445306.9825389013 22312547.641174316 0 22312547.641174316 -52976573.540821075 0 0 0 0 -9624352.5443712175 646919.23460531235 0 646919.23460531235 6700400.6335029602 0 0 0 0 -57051688.312079787 3101630.8636727333 0 3101630.8636727333 21217909.944263458 0 0 0 0 1626369.833103748 2908244.8829514389 0 2908244.8829514389 563857.43785839155 0 0 0 0 34090116.264479399 29159383.548244476 0 29159383.548244476 -8107615.1072816849 0 0 0 0 66314233.791309536 89535157.038764477 0 89535157.038764477 35713592.683731079 0 0 0 0 155567331.51561248 92598939.709575653 0 92598939.709575653 -44735673.04695034 0 0 0 0 18871169.078041315 66855855.119259834 0 66855855.119259834 32976349.644792557 0 0 0 0 -53850906.089686871 -1578073.0967693329 0 -1578073.0967693329 27766231.853424072 0 0 0 0 19929020.125233173 54796384.325111389 0 54796384.325111389 68471454.47946167 0 0 0 0 62881.391319268849 -256812.30765722785 0 -256812.30765722785 -175773.92492656969 0 0 0 0 -117067229.28697205 -43640558.466362 0 -43640558.466362 89150074.389390469 0 0 0 0 -5973117.5412884355 -23623387.137801647 0 -23623387.137801647 -42814167.660785675 0 0 0 0 -32432313.608869255 -46253157.761565208 0 -46253157.761565208 -31423349.514160156 0 0 0 0 24401346.778977782 18379790.722211838 0 18379790.722211838 -49793929.136787415 0 0 0 0 53870703.569983363 -173417923.12662506 0 -173417923.12662506 17258900.191984653 0 0 0 0 157297238.71332681 -82698648.585463524 0 -82698648.585463524 -29597705.774349213 0 0 0 0 -30261162.307374477 -18305722.166389465 0 -18305722.166389465 4111637.838634491 0 0 0 0 -38256801.73467207 2025473.7479515076 0 2025473.7479515076 -4991684.0496711731 0 0 0 0 -61839754.605861068 -17731713.864321709 0 -17731713.864321709 8843870.3304214478 0 0 0 0 170219.73934382375 -335958.91139936633 0 -335958.91139936633 -50662.482968071476 0 0 0 0 9945304.5076654553 -104714.91163396835 0 -104714.91163396835 -7346873.5108566284 0 0 0 0 109375059.90298939 -59319465.204078674 0 -59319465.204078674 -20233086.277431488 0 0 0 0 316008296.82397175 4333395.9660739899 0 4333395.9660739899 -1748034.9506607056 0 0 0 0 271646518.85145366 -175763655.07847214 0 -175763655.07847214 7223748.6442737579 0 0 0 0 80406770.640936732 -118803329.14389992 0 -118803329.14389992 285998886.00298309 0 0 0 0 152425599.00556207 87347634.270233154 0 87347634.270233154 202128791.32531357 0 0 0 0 767104.46565552847 289559.53580005933 0 289559.53580005933 16686.764601163566 0 0 0 0 152071495.66365933 -210216679.65593433 0 -210216679.65593433 430492013.7950573 0 0 0 0 203759638.67191935 162703743.58346701 0 162703743.58346701 -55838807.147232056 0 0 0 0 82703792.131961465 183400986.72381401 0 183400986.72381401 231267914.32751584 0 0 0 0 141885356.37263727 62631881.08577013 0 62631881.08577013 -78638063.922187805 0 0 0 0 1612844.2508896491 739615.2819529858 0 739615.2819529858 621237.58458473627 0 0 0 0 122599795.85395765 -167983302.10825539 0 -167983302.10825539 172306291.17194748 0 0 0 0 -37852470.215946674 -104810483.59638405 0 -104810483.59638405 87692786.974876404 0 0 0 0 120259357.92527628 -73251118.020082474 0 -73251118.020082474 109169633.97591209 0 0 0 0 -2304909.4511361122 -50668308.395847321 0 -50668308.395847321 170119748.18211994 0 0 0 0 -44828987.64556694 42118957.14088726 0 42118957.14088726 58126188.442077637 0 0 0 0 11045899.925457478 -38896855.431013107 0 -38896855.431013107 113729753.23519516 0 0 0 0 -75345658.808783531 20925750.056388855 0 20925750.056388855 120194867.55255699 0 0 0 0 -41814961.126020432 -16930170.618894577 0 -16930170.618894577 137719030.1523056 0 0 0 0 -173788815.81893635 41764665.626935959 0 41764665.626935959 113650949.87971115 0 0 0 0 -50760159.513566732 97963144.969894409 0 97963144.969894409 36793842.241298676 0 0 0 0 -26532802.927604675 50218903.041355133 0 50218903.041355133 59559006.114048004 0 0 0 0 590259.31718826294 72851034.353199005 0 72851034.353199005 24147218.729446411 0 0 0 0 -35123605.52689743 64742058.143740654 0 64742058.143740654 41396549.703605652 0 0 0 0 865417.6700668335 50861862.435287476 0 50861862.435287476 24638122.106406212 0 0 0 0 -25232465.027889252 39672959.257038116 0 39672959.257038116 29122592.404140472 0 0 0 0 40100933.202926636 96121291.483978271 0 96121291.483978271 54591859.530167341 0 0 0 0 478347.52188321855 175119.49067587266 0 175119.49067587266 -561845.52685126476 0 0 0 0 -7482275.066827774 -165198073.50416946 0 -165198073.50416946 275693385.07058716 0 0 0 0 11379764.737838745 45963721.284210205 0 45963721.284210205 61431086.168319702 0 0 0 0 -202089503.87976408 45194603.942433357 0 45194603.942433357 30739656.476455688 0 0 0 0 -296089.80011376226 207828.01672212221 0 207828.01672212221 960174.91571748815 0 0 0 0 -11366582.738506794 77031232.758215904 0 77031232.758215904 29214641.287296295 0 0 0 0 -170218388.52845287 -21080114.747953415 0 -21080114.747953415 -86208.027767181396 0 0 0 0 319469.20247368049 1992085.9714710214 0 1992085.9714710214 3248749.5232247002 0 0 0 0 -119012132.77335358 338070.60963058472 0 338070.60963058472 8585170.4901161194 0 0 0 0 -104323867.31576061 78552012.056884766 0 78552012.056884766 42074073.245014191 0 0 0 0 69017.380408763885 -692056.08204269409 0 -692056.08204269409 8190076.8171539307 0 0 0 0 28614.151125013828 -888138.84555768967 0 -888138.84555768967 7692512.19947052 0 0 0 0 -1383878.7086375654 -781422.77373301983 0 -781422.77373301983 8602586.5632324219 0 0 0 0 -15889004.009175301 82521502.108478546 0 82521502.108478546 124926618.5474453 0 0 0 0 -23486889.911586761 -62691714.983194351 0 -62691714.983194351 208499677.78192139 0 0 0 0 -40136970.406360626 31583054.535791397 0 31583054.535791397 9753487.3744010925 0 0 0 0 -179363233.35070229 84145867.436813354 0 84145867.436813354 94489559.104791641 0 0 0 0 -219948796.60488892 64835645.719575882 0 64835645.719575882 59202029.640788078 0 0 0 0 -32316073.625930309 44559200.748695374 0 44559200.748695374 37344804.516403198 0 0 0 0 -134859170.81811714 141595209.49080181 0 141595209.49080181 -55797060.196544647 0 0 0 0 52155989.665287018 38856623.787956238 0 38856623.787956238 13144510.922314167 0 0 0 0 106374099.3286047 -5714775.5871534348 0 -5714775.5871534348 22525782.248023987 0 0 0 0 -18060483.490959644 -21524880.012931824 0 -21524880.012931824 -19078137.878162384 0 0 0 0 30259971.915854454 23321951.013633728 0 23321951.013633728 -23710320.638273239 0 0 0 0 387363.60231446521 -103937.79015992582 0 -103937.79015992582 -562035.50846877135 0 0 0 0 -237701598.41295287 110885964.9844088 0 110885964.9844088 -64496548.292865753 0 0 0 0 753909.18852229929 1800515.0061224601 0 1800515.0061224601 2344091.0406378806 0 0 0 0 5050474.739402771 -7660720.9202957153 0 -7660720.9202957153 10920936.174438477 0 0 0 0 13192728.408862591 -9781354.0324840546 0 -9781354.0324840546 12474960.048007965 0 0 0 0 4245126.758412838 -5401620.9081325531 0 -5401620.9081325531 11877660.494560242 0 0 0 0 -237462876.15569359 114583720.45037526 0 114583720.45037526 -105171616.40751648 0 0 0 0 -244809943.62638807 310749467.79515648 0 310749467.79515648 -76271065.52221489 0 0 0 0 -2732165.6752047539 -499672.56698036194 0 -499672.56698036194 8548484.720489502 0 0 0 0 -4424646.2871055603 -759435.84057617188 0 -759435.84057617188 10140072.116120338 0 0 0 0 -704982.1543302536 -2559896.6423473358 0 -2559896.6423473358 9613816.481628418 0 0 0 0 5871665.4801454544 -4996200.5401058197 0 -4996200.5401058197 8506071.7377624512 0 0 0 0 1398537.4960846901 -1290613.9342880249 0 -1290613.9342880249 7716500.7829208374 0 0 0 0 -4569438.3827457428 -4230545.2366600037 0 -4230545.2366600037 16728391.178249359 0 0 0 0 3218041.3961219788 -6767330.1481323242 0 -6767330.1481323242 12117715.131851196 0 0 0 0 -655265.94311904907 -2663734.7746067047 0 -2663734.7746067047 10291562.201751709 0 0 0 0 -1577842.6404981613 -3825467.502822876 0 -3825467.502822876 11302675.104099274 0 0 0 0 -7785134.0619955063 -135134.15420913696 0 -135134.15420913696 12370267.323724747 0 0 0 0 -6017271.4792222977 3134201.9812736511 0 3134201.9812736511 7686622.3831520081 0 0 0 0 -2992111.081993103 458044.55256271362 0 458044.55256271362 8268933.2926330566 0 0 0 0 -6210877.0915275812 1603832.306522131 0 1603832.306522131 9635445.0144119263 0 0 0 0 -10164866.44353956 3419161.8800113201 0 3419161.8800113201 9268152.8990783691 0 0 0 0 -8475250.115187645 6486614.6864185333 0 6486614.6864185333 3018845.5076675415 0 0 0 0 -13503959.07903862 4645133.5295715332 0 4645133.5295715332 14054000.845527649 0 0 0 0 -3723905.9206886292 -1735902.697807312 0 -1735902.697807312 11645288.394332886 0 0 0 0 -1786395.5064649582 -2817111.4207687378 0 -2817111.4207687378 14039937.161369324 0 0 0 0 -8371442.3643112183 -2779978.4190177917 0 -2779978.4190177917 20374049.805770874 0 0 0 0 -19665605.14872551 6473556.9837017059 0 6473556.9837017059 13990413.655139923 0 0 0 0 -14175415.787698746 9897255.3811225891 0 9897255.3811225891 14849427.351303101 0 0 0 0 998814.30392233422 5056146.1591599807 0 5056146.1591599807 8173702.616755642 0 0 0 0 -21552850.392170906 18873857.133197784 0 18873857.133197784 7440554.0493545532 0 0 0 0 -111608689.07500285 108620168.36015511 0 108620168.36015511 -30952435.54510498 0 0 0 0 1019585.903570137 1574361.8917212123 0 1574361.8917212123 1515876.7999948692 0 0 0 0 13285918.845030308 -14296933.748958588 0 -14296933.748958588 21761980.762924194 0 0 0 0 10574227.294259071 -6595164.6537437439 0 -6595164.6537437439 25085361.085643768 0 0 0 0 -873371.70573043823 -8077371.837726593 0 -8077371.837726593 22195002.085418701 0 0 0 0 9219521.769777298 -10002713.358867645 0 -10002713.358867645 21390676.672893524 0 0 0 0 -7361346.7240791321 20420080.566066742 0 20420080.566066742 20591888.741821289 0 0 0 0 -9751073.6359698772 -2522478.7374606133 0 -2522478.7374606133 35258954.849067688 0 0 0 0 42103367.566926003 -37700884.416454315 0 -37700884.416454315 53631273.342903137 0 0 0 0 -2596275.8202610016 9063370.5086708069 0 9063370.5086708069 41698276.761638641 0 0 0 0 -1455918.2871832848 23801776.471063614 0 23801776.471063614 81773192.679801941 0 0 0 0 22829573.077894211 24242106.940406799 0 24242106.940406799 60462618.37646246 0 0 0 0 1245067.2325461665 1106005.4985385691 0 1106005.4985385691 254525.39211749285 0 0 0 0 -98315837.881156921 56279561.084770203 0 56279561.084770203 370208568.015378 0 0 0 0 32346872.328786373 -103517925.74950027 0 -103517925.74950027 219242220.29695892 0 0 0 0 -590749040.19184208 373956395.05837631 0 373956395.05837631 -34469360.757247925 0 0 0 0 15224697.505105972 444240070.63743973 0 444240070.63743973 -114025745.56008053 0 0 0 0 886982.408265076 -189133.88520109002 0 -189133.88520109002 -1122631.4930619076 0 0 0 0 -202335079.43372983 -115893236.35377741 0 -115893236.35377741 -44424741.916507721 0 0 0 0 647454785.74753547 -140066109.677845 0 -140066109.677845 -238939034.13376999 0 0 0 0 153530733.90969765 -350227990.1362648 0 -350227990.1362648 -133955802.20130253 0 0 0 0 1217643698.1421833 999479514.56335449 0 999479514.56335449 1200170412.9146271 0 0 0 0 731108.83464708657 -102158.13168724347 0 -102158.13168724347 -783055.88936814293 0 0 0 0 49616647.587343007 -269693114.21221066 0 -269693114.21221066 -191771538.25991058 0 0 0 0 -86254179.411802769 -330641140.61405182 0 -330641140.61405182 300418667.64079285 0 0 0 0 -339443008.68454611 -263575157.35407066 0 -263575157.35407066 96021489.828109741 0 0 0 0 -317365239.67456174 -299081775.53864098 0 -299081775.53864098 -283196043.16007996 0 0 0 0 -27371352.576165915 232824133.45128632 0 232824133.45128632 -345046042.51574707 0 0 0 0 -58558738.343199015 244199567.82656097 0 244199567.82656097 102570316.37961769 0 0 0 0 -862360877.5294733 -1258696713.4347057 0 -1258696713.4347057 -300476313.83776093 0 0 0 0 86495599.079030991 473626358.53087997 0 473626358.53087997 392965189.03833771 0 0 0 0 495835033.43683314 -120494111.99477148 0 -120494111.99477148 161911351.52803802 0 0 0 0 1725256.3730326954 -529722.26942917239 0 -529722.26942917239 2706564.317300437 0 0 0 0 92138681.318814278 245181184.0050087 0 245181184.0050087 715412291.56460142 0 0 0 0 -184482512.47016525 -265756509.07357788 0 -265756509.07357788 578882124.19103527 0 0 0 0 143078774.88231277 16221487.7787323 0 16221487.7787323 134597264.41594696 0 0 0 0 299258407.86497283 107188189.98767281 0 107188189.98767281 89189630.307815552 0 0 0 0 -26178003.174966902 22388284.940733314 0 22388284.940733314 385783965.27794266 0 0 0 0 102995282.6053586 152044649.52453613 0 152044649.52453613 331038679.92996597 0 0 0 0 686845132.81697726 369409907.35636139 0 369409907.35636139 198459011.18470764 0 0 0 0 260267702.76506615 9152974.4648952484 0 9152974.4648952484 2910691.0911502838 0 0 0 0 218440679.29440111 -48798135.585605621 0 -48798135.585605621 -56027885.317871094 0 0 0 0 398333638.49839044 -35519483.712278366 0 -35519483.712278366 -69188621.025753021 0 0 0 0 156940731.62247086 -118130147.61897373 0 -118130147.61897373 -67106173.737945557 0 0 0 0 168362285.53888607 53762853.88948822 0 53762853.88948822 20394230.462287903 0 0 0 0 153959935.43577576 -7021835.2924385071 0 -7021835.2924385071 7411122.1802177429 0 0 0 0 105535805.95705318 -19380188.001289368 0 -19380188.001289368 12777951.606212616 0 0 0 0 113281066.55234718 39080052.851718903 0 39080052.851718903 22944270.884165287 0 0 0 0 105708659.07245159 -55913370.827098846 0 -55913370.827098846 -71469525.206524849 0 0 0 0 97998302.573304772 -53868244.632663727 0 -53868244.632663727 -53495774.562091827 0 0 0 0 119290018.80193055 -125646568.20097351 0 -125646568.20097351 -31135510.638117135 0 0 0 0 149829940.31539792 -78306987.114262104 0 -78306987.114262104 -24572126.015270233 0 0 0 0 143418707.487939 -123019742.67289734 0 -123019742.67289734 -49912838.712444305 0 0 0 0 11770058.48473978 -92141408.313587189 0 -92141408.313587189 -17590196.635643005 0 0 0 0 22992465.982036293 -7716949.5272941589 0 -7716949.5272941589 -12983558.759159088 0 0 0 0 140692094.04930806 -11391423.029089928 0 -11391423.029089928 -26013713.397315979 0 0 0 0 -95404786.701683044 -19457828.438631058 0 -19457828.438631058 -1773661.8748893738 0 0 0 0 56448031.705274582 -34173988.755624771 0 -34173988.755624771 -381599.54897689819 0 0 0 0 -132994189.99491739 -191251895.69974136 0 -191251895.69974136 9452627.266998291 0 0 0 0 126067513.01193905 -165613877.15919113 0 -165613877.15919113 -3330909.3824539185 0 0 0 0 161708680.32702482 -127593058.84957123 0 -127593058.84957123 -49261887.933954716 0 0 0 0 
</DataArray>
<DataArray type="Float64" Name="cross_section_updated" format="ascii">
1 1 1 1 1 0.069803943055551515 1 1 1 1 1 1 1 0.072190773955640955 1 1 1 1 0.075522699259531728 1 1 0.072153875054564762 1 1 1 1 0.081864804726372337 1 1 1 1 0.068939853743708299 1 1 1 1 1 1 1 1 1 1 1 1 1 0.070192302639648319 1 1 0.069970678776849204 1 1 1 1 1 0.072706289057515722 1 1 1 1 1 1 1 0.081481734153766389 1 1 1 1 0.068599380538550594 1 1 1 1 1 1 1 1 1 0.067930033849158161 1 1 0.069462369847434632 1 1 0.07052351374508195 1 1 1 1 0.073874327187819055 1 1 1 1 1 1 1 0.069955113483956971 0.069993453468222944 0.070060835984359054 1 1 0.069890393964172792 1 1 1 1 1 0.070000127881829688 1 1 1 1 1 1 1 1 1 1 1 1 1 0.070010643132641978 1 1 1 0.072250300697377021 1 1 1 1 1 1 0.070960320399722568 1 1 1 1 1 1 1 1 1 1 1 1 1 1 1 1 1 1 1 1 1 1 1 1 1 0.069920085077154637 1 1 1 0.070610147213134578 1 1 0.07050123891763059 1 1 1 1 1 1 1 1 1 1 1 0.070814184252737333 1 1 1 1 1 1 1 1 0.071999370112733357 1 1 1 1 1 1 1 1 0.072430663194697542 1 1 1 1 1 1 1 1 1 0.070206986415688483 1 1 1 1 1 1 1 1 1 1 1 1 1 1 1 1 1 1 1 1 1 1 1 0.069998419280496077 1 1 1 0.080918581731279277 1 0.069963769437003762 1 0.077657383078984149 1 1 0.071223968968440327 1 1 1 0.072549741485880823 1 0.06863380905370442 1 0.069530300711964074 1 0.077767035938839352 0.069302575751746226 1 0.069714263987314271 1 1 0.069446021241594685 1 0.070304715265885012 1 1 1 0.072779276000617538 1 0.072153052853719521 0.070033912675420765 1 1 0.070185349103343744 1 1 1 0.071487136722046971 1 0.069834667788409799 0.070477358621331906 0.070628666586583816 1 0.070152257537384521 1 1 1 0.070009947761068864 1 0.070867614604445933 0.071522966787002346 0.069716432130672037 1 1 0.071048877042871758 0.071498970302026843 1 1 1 1 0.072554783394299535 1 0.069760445525106851 1 1 0.071565655237523285 1 1 1 0.070186547650780723 1 0.070778714937965392 0.070585290677866994 0.070298479332846581 1 1 1 0.069590435904126668 1 0.071059769858624972 0.072688793654198836 0.069289194688220132 0.070758706571965563 1 1 1 0.072555733371081677 0.069999923404375303 1 1 0.070738296368390158 0.072477782588184325 0.069423955227031514 1 0.069281935772641648 1 1 1 1 0.07000136993360806 1 1 1 1 1 1 1 0.070238165259078764 1 1 1 1 1 1 0.071305018428518524 0.07000031869321266 1 1 1 0.070079997653048176 1 1 1 0.070016767661404244 1 0.069564843813618452 1 0.068307627460060458 0.076310578577279867 1 1 1 1 0.069598629810961293 1 1 0.07563507490098284 1 1 1 1 0.070012395885070078 1 0.069994239955577894 1 1 1 1 1 0.072874276957913348 0.072754044727558934 1 1 1 1 1 1 1 1 0.070308642201962646 1 1 1 0.069560057447228651 1 1 0.075583618954513751 1 0.069996585105384465 1 1 1 1 1 1 1 1 1 1 1 0.07588500295426856 1 0.070780907337393506 1 0.07518154898257573 1 1 1 0.070821732299710477 1 0.070003669167821705 1 0.07081833796310473 1 1 1 1 1 1 0.072942532637076229 1 0.073465260771790719 1 1 1 0.072879945385211559 1 1 1 0.076008909451697401 1 0.070994199712255207 0.07204243738488024 1 1 1 1 0.076971982257159219 1 1 1 1 0.072674392531549309 0.071386895227306582 1 1 0.069206435682963752 1 0.07226677751931565 1 0.069638329125588469 0.069516431661171774 1 1 1 0.070030309600433632 1 1 1 1 0.073440433246607401 1 1 1 1 1 1 1 1 1 1 1 0.070001530303815035 1 1 1 1 0.071524161618702259 1 1 1 0.071987873362323873 1 0.071687707344997992 0.072887446279618184 0.06999927121704011 1 1 1 0.072998884054756227 0.079694486015596699 1 0.080318946823035101 1 1 0.069769680059167893 1 1 1 1 0.080833110943069816 1 1 1 1 1 1 1 1 1 1 1 0.081276168031618759 0.080985965218925898 1 1 0.07197810409887466 1 1 1 0.070003514265002842 1 1 1 1 1 1 0.084267435843143834 1 1 1 0.065929891787540051 1 1 1 0.076141639555374577 1 1 1 1 1 1 1 1 1 1 1 0.08448151101742396 1 1 1 0.084614865272826773 1 1 1 1 1 1 1 0.070156562800124153 1 1 1 1 1 0.070422163316186462 1 1 1 1 1 1 1 1 1 1 1 1 1 1 1 1 1 1 1 0.069723368448770431 1 1 1 1 0.069937203682827714 1 1 0.070015311076521924 1 1 1 1 1 1 1 0.070133605094383128 1 1 1 1 1 1 1 1 0.069997013985926212 1 0.070392055531964398 1 1 0.070142760215387068 1 1 1 0.070097958457245188 1 1 0.069495639735660614 1 1 1 0.072298942450425577 1 0.074845233159231112 1 1 0.070000994066585692 1 0.067399071589194767 1 1 1 1 1 1 1 1 1 1 1 1 1 1 1 1 1 1 1 1 1 1 0.070083385035091525 1 0.069858081911378808 1 0.069952013155426943 1 1 1 1 1 1 1 1 1 1 1 1 1 1 1 0.070041790929627673 1 1 1 1 1 1 1 1 1 0.070041594105463845 1 1 1 1 1 1 1 1 1 1 1 1 1 1 1 1 1 1 1 1 1 1 1 1 1 1 1 1 1 0.069997660664251435 1 1 0.070000135708239403 1 1 1 0.069805564383685736 0.071242642630946471 1 0.070976823504674449 1 1 1 1 1 0.070034726211364806 1 1 1 1 1 0.070259188091196217 1 1 1 1 1 1 1 1 1 1 1 1 1 1 1 1 1 1 1 1 1 1 1 1 1 1 1 1 1 1 1 1 1 1 1 1 1 1 1 1 1 1 1 1 1 1 1 1 1 0.07006515585881222 1 1 1 1 1 1 1 1 1 1 1 1 1 1 1 0.070674634315251186 1 1 1 1 0.070254661130461929 1 1 1 1 1 1 1 1 1 1 1 1 1 1 1 1 1 1 1 1 1 1 1 1 1 1 1 0.076653434822243988 1 1 0.071442320961341857 1 0.071646990349718151 0.070172409478370584 0.064771448014129568 0.081505422929483012 1 1 0.070012272318767027 1 1 1 1 1 1 1 1 1 1 1 1 1 1 1 1 1 0.071538937282623061 1 1 0.067534779822962465 1 0.071104613346265541 1 1 1 1 0.074842823099746547 1 0.06899032652928469 1 1 1 1 0.070090297740524554 1 1 1 0.074832707571934498 1 1 1 1 1 0.06980042635287996 1 0.070143868068231099 1 1 0.071636965079894199 0.07428879661282467 1 0.069315465012301417 1 1 1 1 1 1 1 1 1 1 1 0.08316612986084751 1 1 1 0.083099461398388627 1 1 1 0.070917688909696228 1 1 0.082264368271386251 0.069844052498624937 0.069949096241103265 1 1 1 1 1 1 1 1 1 1 1 0.070019832508618277 1 1 1 1 1 1 1 1 0.081830715040832169 0.078554884912297646 0.081366145168449117 1 1 1 1 1 1 1 1 0.076841690496106854 0.070031888697001235 1 1 1 0.068354351561672827 1 1 0.070664780757813003 1 1 1 1 1 1 1 1 1 1 1 0.070216828886767307 1 1 1 1 1 1 1 1 0.070183395701443274 1 1 1 1 1 1 1 1 1 1 0.06996643386436284 1 0.088923480478718772 0.066584768728192315 0.070427591500232617 1 1 1 1 1 1 1 0.084857969994183574 0.076949677751273954 1 0.071095550049706802 1 1 1 1 1 0.070196107367560878 1 0.069972812480785393 0.070679285138004283 1 1 1 0.070559691204323316 1 0.070418167516435093 1 1 1 1 0.070023678717923643 1 1 1 1 1 1 1 1 1 1 1 1 1 1 1 1 1 0.069668597768459753 1 1 1 0.070632624546255379 1 1 1 1 1 0.069900641564900709 1 1 1 1 1 1 0.070453426025887583 1 0.070172401135743606 1 1 1 1 1 1 1 1 0.070598118850096286 1 1 1 0.085067034324222371 1 1 1 1 1 1 1 1 1 1 1 1 1 1 1 1 1 1 1 1 1 1 1 1 1 0.071079594360729831 0.07600721206880684 0.073716070625587091 1 1 1 1 0.074459082345282257 1 1 1 1 0.073617007720304897 1 1 1 1 1 1 1 0.070119697308101678 1 1 1 1 1 1 1 1 0.07027638664392831 1 1 1 1 1 1 1 1 1 1 1 1 0.070756648171026892 1 1 1 1 1 1 0.069824418597016352 1 1 1 1 1 1 1 1 0.080475259777502861 1 1 1 0.072271214179562782 1 1 1 1 1 1 1 1 1 1 1 1 0.070156689335826625 1 1 1 1 1 1 1 1 1 1 1 1 1 1 1 1 1 1 1 1 1 1 1 1 1 1 1 1 1 1 1 1 1 1 1 1 1 1 1 1 1 1 1 1 1 1 1 0.070151691127491644 1 1 1 1 1 1 1 1 1 1 1 1 1 1 1 1 1 1 1 1 1 1 1 1 0.070135200607720327 1 1 1 1 1 1 1 1 1 1 0.069975152689318046 1 1 0.070376927280211429 1 1 1 1 1 1 1 1 1 0.069901615655858174 1 0.069810336394057995 1 1 1 1 0.07056666719543106 1 1 0.07000920523275124 1 0.070024857396364437 1 1 1 1 1 0.070462799233459703 1 1 1 1 1 1 1 1 0.069379340075509444 1 1 1 1 1 1 1 1 1 1 1 1 1 1 0.0707581005295468 1 0.070248400919452475 0.070036412778668039 1 1 1 1 1 0.070017178002500721 1 1 1 1 1 1 1 1 1 1 1 1 1 1 1 0.070850757655321367 1 1 1 1 1 1 1 1 1 1 1 1 1 1 1 1 0.070314244987390959 1 1 1 1 1 0.072830803894427795 0.069933197579254758 1 1 0.072185414985935642 1 1 1 1 1 1 1 1 1 1 0.070986630515053897 1 1 1 1 1 1 1 1 1 0.070636320146307927 1 0.0857033476533718 1 1 1 1 1 0.069369069608222464 1 1 1 1 0.087453859423027108 1 1 1 0.067774586424301522 1 1 1 0.084941574253186797 1 1 0.070939817443078673 1 1 1 1 1 1 1 1 1 1 1 1 1 1 1 1 0.070302347119484646 1 1 1 1 1 1 1 0.069494341921424549 1 1 1 1 1 1 1 1 1 1 1 1 1 1 1 1 1 1 1 1 1 1 1 1 1 1 1 0.076562935591073161 1 1 1 1 0.070307627911776222 1 1 1 0.076672385721328035 1 1 1 1 1 1 1 1 1 0.076923752374861598 1 0.069999159843143491 1 1 1 1 1 1 1 1 1 1 1 1 1 1 1 1 1 1 0.069995666591290556 0.074491222865874132 1 1 1 0.069936326513720018 1 1 0.072650211441070145 1 1 0.070749650072523582 1 1 1 0.070246207304576758 1 1 0.070290186003336474 1 1 1 1 1 1 1 1 1 1 1 1 1 1 1 1 1 1 1 1 0.07056045229196771 1 0.070899838619508965 1 1 1 1 1 1 1 1 1 1 1 0.072229651087479238 1 0.072945739414953442 1 1 1 0.10278217294730026 1 1 1 1 1 0.069919715862510168 1 1 1 1 1 1 0.063367702701045775 1 1 1 1 1 1 1 1 1 1 1 0.062824941759866137 1 1 1 1 1 1 1 1 0.10095154181682352 1 1 1 0.089579571676552977 1 1 0.062254560681166492 1 1 1 1 1 0.076811701811963076 1 1 1 1 1 1 1 1 1 0.070093921969896389 1 1 0.083952359050596032 1 0.07741087206584929 1 0.074706968125917469 0.076851071523804215 0.070385011478133253 1 0.069996904399278442 1 1 1 1 1 1 0.086601764092898215 1 1 1 1 1 1 0.07026963014009488 1 1 1 1 1 1 1 0.083442005067924804 1 1 1 1 0.08012018530842982 1 1 1 1 1 0.08367630826266495 1 0.070002568237249568 1 1 1 1 1 1 1 1 1 1 0.070731539462109 1 1 1 1 1 1 1 0.073118475986293729 1 1 1 1 1 1 1 0.070001407361316076 1 0.0710939452602041 1 1 1 1 1 1 1 1 0.075677969332857531 1 1 1 0.079260020087552466 0.070030321196779322 1 1 1 1 1 0.074611329665717832 0.070059002199272497 1 0.073807478105985938 1 1 0.068339047126267607 1 1 0.073246887136162078 1 1 1 1 1 1 1 1 0.076958392031749812 1 1 1 1 1 0.086502775498994405 1 1 1 1 0.083728333831196128 1 1 0.081775310762999598 1 1 1 1 1 1 1 1 1 1 1 1 1 1 1 1 1 1 1 1 1 1 1 1 1 1 1 1 1 1 1 1 1 1 1 1 1 1 1 1 1 0.070021798434023036 1 1 0.070108540241684669 1 1 1 1 1 0.070422098701945171 1 1 1 1 0.070178875999061932 1 1 1 1 1 1 1 1 1 1 1 1 1 1 1 1 1 1 1 1 1 1 1 1 0.070412008082826105 1 1 1 0.070190782413867031 1 1 1 1 1 1 0.070019316712173818 1 1 1 1 1 1 1 1 1 1 1 0.083188029304675948 1 0.074535745816516411 0.0698061235155788 1 1 0.073541130666363086 1 1 1 1 1 1 1 1 1 1 1 0.080345201397957297 1 1 0.071349506492673825 1 1 1 1 1 1 1 1 1 1 1 1 1 1 1 0.077703486836019395 1 1 1 1 1 1 1 0.069934188472556447 1 0.070322660297745851 1 1 1 1 0.076483874787956277 1 0.070333973026823288 1 1 1 1 1 1 1 1 1 0.0694043705937719 1 1 1 1 1 1 1 1 1 1 1 1 1 1 1 1 1 0.073517542051533533 1 1 1 1 1 1 1 1 1 1 1 1 1 1 1 1 1 1 1 1 1 1 1 1 1 0.069949019189466111 0.069888237589302044 1 1 1 1 1 1 1 1 1 1 1 0.070031306821983164 1 1 1 1 0.069904444702453244 1 1 1 1 0.069900097721136575 1 1 1 1 1 1 1 1 0.068525170092763488 1 1 1 1 1 1 1 1 1 0.069505566688872505 1 1 1 1 1 1 1 1 1 1 1 1 1 1 1 1 1 1 1 1 0.073667484841015693 1 1 1 1 1 1 1 1 1 1 1 1 1 1 0.084069947997795935 1 0.07003453774149393 1 1 1 1 1 1 1 1 0.083634177303273216 1 1 0.070053854453667741 1 1 1 1 1 1 1 1 1 1 1 1 1 1 1 1 1 1 1 1 1 1 1 1 1 1 1 1 1 1 1 1 1 1 1 1 0.070135149291537718 1 1 0.070026529103519586 1 1 1 1 0.074395413661034152 1 0.067081254076036378 1 1 0.067436795316392184 1 0.07053877770828347 1 1 1 1 1 0.070232688552288369 1 1 1 1 1 1 1 1 1 1 1 1 0.069694236020132888 1 1 1 0.074983461389568989 1 1 1 1 1 1 1 1 1 0.071950446465519735 1 1 1 1 0.071927236365204331 0.072231440710311234 1 1 1 1 1 1 1 1 0.070014461046254195 1 1 1 1 1 0.078332829178228203 1 1 1 0.077807082017643858 1 1 1 0.072618624209932786 1 1 1 1 0.08440179360736387 1 1 1 1 1 1 1 1 1 1 1 1 1 1 0.074581593523084536 1 1 1 1 1 1 0.073527246508329244 1 0.076584272518811961 0.070000666714388385 1 0.085242477175572054 1 0.070248383738835768 1 1 1 1 0.070101009158302433 1 1 1 1 0.070223205926491214 1 1 1 1 1 1 1 1 1 0.070257178589287581 1 1 1 1 1 1 1 1 1 1 1 1 1 1 0.070563267745282682 1 1 1 0.070128707596530837 1 1 1 0.07034343217783863 1 0.069987198673206019 1 1 1 1 1 1 1 1 1 1 1 1 1 1 1 1 0.070440887884979056 1 1 1 1 1 1 0.07140283861449509 1 1 1 1 1 1 1 1 1 1 1 1 1 1 1 1 1 1 0.073235916481422386 1 1 1 1 1 1 1 1 1 1 1 1 1 1 1 1 1 1 1 1 1 1 1 1 1 1 1 1 1 1 1 1 1 1 0.069490159122071501 1 1 1 1 0.069905683500600002 1 1 1 1 1 1 1 0.072909554872079382 1 1 1 1 1 1 1 1 1 0.069023481846985035 1 1 0.075044070397938367 1 1 1 1 1 0.069965864166120884 1 1 1 0.070175546452289184 1 1 0.072250267256151635 1 1 1 1 1 1 1 1 1 1 1 1 1 1 1 1 1 1 1 1 0.068040250156309184 1 1 1 1 1 1 1 1 1 1 0.075013556456967515 0.066299137456272639 1 0.072952564212682841 1 1 1 1 1 0.073179464288584878 1 1 1 1 0.073054528063193985 1 1 1 1 1 0.069947052722722267 1 0.069975277449975129 1 1 0.068587384853350031 1 1 1 1 1 1 1 1 0.069540394557348395 1 1 1 1 1 1 0.06994719302758734 1 1 1 1 1 1 0.069899442116793969 1 1 1 1 0.068934301097173301 1 1 0.071769220441478376 1 0.069066521291801103 1 1 0.070003577301769898 1 1 1 1 1 1 0.071054426857176306 1 1 1 1 0.070053826483542789 1 1 1 1 1 1 1 1 0.076218663934998238 0.068083913253782435 1 1 1 1 1 1 1 1 0.073266184840049542 1 1 1 1 1 1 0.071509638760393235 1 1 1 1 1 1 1 0.069446212834134144 1 1 1 0.071130040065528269 1 1 1 1 1 1 1 1 1 1 1 1 0.073531915915387158 1 1 1 1 0.073391070039775672 1 1 0.068947204948064958 1 1 1 1 0.071723996097394646 1 1 1 0.070027516454989044 0.072758405190159595 1 1 1 0.070064558194733645 1 1 1 0.074479847740589813 1 1 1 1 1 1 1 1 1 0.073977625201961064 1 1 1 0.070000410082199982 1 1 1 1 1 1 1 1 1 1 1 1 0.073715767015136269 1 0.070000980815971503 1 1 0.071538426634553731 1 1 0.071281703977124591 1 1 1 1 1 1 1 0.069997038543271689 1 1 1 1 1 0.070013182490136772 1 0.070877843986235312 1 1 1 0.071728034233005861 0.069575936818210352 1 0.07121533896638485 0.073905867563148334 1 0.072110355954591046 1 1 1 1 1 1 0.070217057905567884 1 0.078204405105697594 1 1 1 1 1 1 1 1 1 1 1 1 1 0.070027572065696139 1 1 0.07299603779130634 1 0.070686128824955244 1 1 0.076739178508330841 1 1 1 0.071017904862550801 0.0681711749383965 1 1 0.077509414402974111 1 1 1 1 1 1 1 1 1 1 1 1 1 1 1 1 1 1 1 1 1 1 1 0.071178205008649256 0.070064296303669754 1 0.069463301191521609 1 0.069951282565640621 1 1 0.070000833852064154 0.075412168231166615 1 1 0.069998865236602412 1 1 0.070270525459835392 1 1 0.075087271418995252 1 0.070358427420839309 1 1 1 1 0.070043520400264792 1 1 1 1 0.070368530168792021 1 0.070951119857044373 0.071902807610482497 1 0.072366380088192794 1 1 0.070376689601643158 0.070716728749855823 1 1 1 0.069835445512963557 1 1 1 1 0.07254344683970633 0.070139948783550024 1 1 1 1 1 0.070534002773560811 1 1 1 1 1 1 1 1 1 1 1 0.07009949111222738 1 0.072722232371659257 1 0.07285861045305092 1 1 0.070001361892389785 1 0.072048808149170585 1 1 1 1 1 1 1 1 0.070296444624530274 1 1 0.071778475467897798 1 1 1 1 0.070161695225397586 1 1 1 1 1 1 1 1 1 1 1 1 0.070979458296121373 1 1 1 1 1 1 1 1 1 1 1 0.069877311113830359 1 1 1 1 1 1 0.070965522847037527 1 0.070961859016924159 1 1 0.069846871997104626 1 1 1 1 1 1 1 1 1 1 1 1 1 1 1 1 1 0.069967030635346289 0.070554347544511661 1 1 1 0.069758243311322771 1 1 0.070077316957540173 1 1 1 1 1 1 1 1 1 1 1 1 1 1 1 1 1 1 1 1 1 1 1 1 1 0.069955887632617994 0.068190873097666971 1 1 1 1 1 1 1 1 1 1 1 0.06666404253469449 1 1 1 1 1 1 1 1 1 1 1 1 1 1 1 1 1 1 1 1 1 1 1 1 1 1 1 1 1 1 1 1 1 0.069988990068438187 1 1 1 1 1 0.069943230103777815 1 1 0.0701093516822483 1 1 0.06816919587736528 0.082967669130536575 1 1 1 1 1 1 1 1 1 1 1 1 1 0.082432262399975684 1 1 0.070038509903195212 1 1 1 1 1 1 0.070006486793565248 1 1 0.081234691986085197 1 1 1 1 1 1 1 1 1 1 1 1 1 0.075239916842980092 1 1 1 1 1 1 1 0.07005456634692496 1 1 1 1 1 1 1 1 1 1 1 1 0.071908444000829075 1 1 0.070942921153791583 1 1 1 1 1 1 1 1 1 1 1 1 1 1 1 1 1 1 1 1 0.074098940241594524 1 1 0.072386328780087328 1 0.073340611146543874 1 1 1 0.069647337725338029 1 1 0.069494344689452342 1 0.07102606436292358 1 1 1 0.070408502692931446 1 1 1 1 0.069995582226399358 1 1 1 1 1 1 1 0.069994229778566119 1 1 1 0.069631112606082346 1 1 1 1 1 1 1 1 1 1 1 1 0.071320211488364663 1 1 1 1 1 1 1 1 0.069566466413898215 1 1 1 1 1 1 1 1 1 1 1 0.069871127023862847 1 1 1 1 1 1 1 1 1 1 1 1 1 1 1 1 1 1 1 0.068702177433940234 0.070241633341428217 1 1 1 0.070091425766223459 1 1 1 1 1 1 1 1 1 1 1 1 0.070152095864363481 1 1 1 1 1 1 1 1 1 0.070427935035563993 1 1 1 1 1 1 1 1 1 1 1 1 1 1 1 1 0.069697442738592574 1 0.070076571889963135 1 1 1 1 1 0.069859885592098686 1 1 1 1 0.069991371405501823 1 1 1 0.069995123570193635 1 1 1 0.070142409965111174 1 1 1 1 1 1 1 1 1 0.069994337020951883 1 1 1 0.069957190278085876 1 1 0.070007917155716221 1 1 1 1 1 1 0.070004727444020518 1 1 1 1 1 1 1 1 0.069985051066571533 1 1 1 0.069999693759788192 1 1 1 1 1 1 1 1 1 1 1 1 1 1 1 1 1 1 1 1 1 1 1 1 1 1 1 0.070136782420463825 1 1 1 1 1 1 1 0.070047019203762897 1 1 1 1 1 1 1 1 1 1 1 1 1 1 1 1 1 1 1 1 1 1 1 1 1 0.070396851840235294 1 0.070134327393125556 1 1 1 1 1 1 0.070635723885429685 1 1 1 0.070221203939412086 1 1 0.070636907801872401 1 1 1 1 1 1 1 1 1 1 1 1 0.075234981249708413 1 1 1 1 1 0.074662908037114617 1 1 1 1 1 1 1 1 1 1 1 1 1 0.070373199438319961 1 1 1 0.070245313471487339 1 1 1 1 1 1 1 1 1 1 1 1 0.070713935058379418 0.075205042059305061 1 1 1 1 0.076613569975775828 1 1 1 1 1 1 1 1 1 0.07007911846158732 0.066165440546232288 1 1 1 1 1 0.065227069600680948 1 1 1 1 1 0.069991438647134002 1 1 1 1 1 0.069992797327769432 1 0.075284865262141482 1 1 1 1 0.06964377353339378 1 0.071734747426016682 1 0.07448119593383086 0.069991666888094592 1 1 1 1 1 1 1 0.070023737442639539 0.069977629301643723 1 1 1 1 1 1 0.06999991019894404 0.070237060633291465 0.069853172047322554 1 0.072302460224539705 0.072258091861717472 1 1 1 0.070701670490968233 1 1 1 1 1 0.072448098159343194 0.069883743780404267 0.069999983218356376 1 0.07435311809060588 1 1 1 0.069980531260205189 1 0.068633530510631008 0.070146371751534001 1 1 1 1 1 1 1 0.069732569832228683 0.070943536259109458 1 1 0.070304867085123707 0.069450277156353477 0.073405363775768548 1 1 1 1 1 1 1 1 1 1 1 1 1 1 1 1 1 1 1 1 1 1 1 1 1 1 1 1 1 1 1 1 1 1 1 1 1 1 1 1 0.070019171533387881 1 1 1 1 1 1 1 1 1 1 0.070306543616555139 1 1 1 1 1 1 0.070888754664152606 1 1 0.071363969083048304 1 1 1 1 1 1 1 1 1 1 1 1 1 0.071992416235119164 1 0.074786328861126752 1 1 1 1 0.069837125705436806 1 1 1 0.069999921805269136 1 1 0.068950229298476329 1 1 1 0.070000418556965344 1 1 0.074211813979059751 1 1 1 1 1 0.073507464893641072 1 1 1 1 1 1 1 0.071497264793486878 1 1 1 1 1 1 1 0.069939711001840266 1 1 0.07065620685212913 1 1 1 1 0.070252684356149536 1 0.070361975169117033 1 1 1 1 1 0.070757297558148732 1 1 1 1 0.07027554078099868 1 1 1 1 1 1 0.070807765590193972 0.069543995539371711 1 1 1 1 1 0.072099803388715772 1 1 0.074998116543828791 1 1 1 1 1 1 1 1 1 1 0.069824127862499058 1 1 1 1 1 1 1 1 1 1 1 1 1 1 1 1 1 1 0.069921128541122479 1 1 1 1 1 1 0.069985116686891002 1 1 1 1 1 1 1 0.075890490145155073 0.069998800273860767 1 1 1 1 0.070012046203049627 1 1 1 1 1 1 1 0.072848603718005861 1 1 0.070119805836701452 1 0.069831954434382823 0.071901276810891465 0.068643052868218965 1 1 1 1 1 1 0.070204219090439182 1 1 1 1 1 0.070001465382527786 1 1 1 1 0.069305919026879964 1 1 1 0.072160996938361199 1 1 1 0.071870083718710287 1 1 1 1 1 1 1 1 1 1 1 1 1 1 1 1 1 1 1 1 1 1 1 1 1 0.076683190131883655 1 1 1 1 1 1 1 0.071124017784949131 1 0.077843956892362287 1 1 1 1 1 1 0.07130581158888076 1 1 0.070546506503437939 1 1 1 0.069963333950274029 1 1 0.074222248964493448 1 1 1 1 1 0.068335100126797291 1 1 1 0.06950930796466015 0.071831621247415017 1 1 1 1 1 1 1 1 1 1 1 1 0.070690463744431817 1 1 1 1 1 1 1 1 1 0.071648485569856965 1 1 1 1 1 0.069995303961481861 0.070197736662009638 1 1 1 1 1 1 1 1 1 0.070075146249160086 1 1 1 1 1 1 1 1 0.070691751305759332 1 1 1 1 1 1 1 1 1 1 1 1 1 1 1 1 1 1 0.069729572220529681 1 1 1 1 0.069360684826612021 1 0.070398366417213115 1 0.07074884100965903 1 1 1 1 1 1 1 1 1 1 1 1 1 1 1 1 1 0.071495763002757631 1 1 1 1 1 0.069663611139135731 1 1 1 0.071475203905980972 0.069525089040609334 1 1 1 1 1 0.070254030255380198 1 1 1 1 0.070364813977933122 1 1 1 1 1 1 1 1 0.07043852284991968 1 1 1 1 1 1 1 0.070283586682464066 1 1 1 1 1 1 1 1 1 0.070021515464301173 1 1 1 1 1 1 1 1 1 1 1 1 1 1 1 1 1 1 0.070041693957347967 1 1 1 1 1 1 1 1 1 1 1 1 1 0.069906778089657534 1 1 1 1 1 1 0.070039812143484106 1 1 0.069985357306783333 1 1 0.07008869355708422 1 1 1 1 1 1 1 1 1 1 1 1 1 1 1 1 1 1 1 1 1 1 1 1 1 1 0.070016071223431245 1 0.066783210485318906 1 0.07000067508558637 0.074182119952653697 1 1 1 0.067225924980751584 1 1 1 1 1 1 1 1 1 0.070132040038755519 0.069723585440368066 1 0.080592302805148924 1 1 1 1 1 1 1 1 1 1 1 1 1 1 0.069997908335878295 1 0.075862271927024605 0.07185786735851285 1 0.073848079670479655 1 1 1 1 1 1 1 1 1 0.079915661474649957 0.069765172597893083 1 1 1 1 1 1 1 1 1 1 1 1 1 1 1 1 1 1 1 1 1 1 0.070787852377083044 1 1 1 1 1 0.069820835113401369 1 1 1 1 1 0.069408829035994837 1 1 1 0.072431159420468627 1 1 1 1 1 1 1 1 1 0.069993585478375947 1 1 1 1 0.080139090867497209 1 1 1 1 1 1 0.079426224312574636 1 1 1 1 1 1 1 0.070096171161007081 1 1 1 1 0.077749666386794175 1 1 1 1 1 1 1 1 1 1 0.070012289537991934 1 1 1 1 0.073006218215245361 1 1 1 0.072416767773965718 1 1 1 1 1 0.070151660389718373 1 1 1 1 1 1 1 1 1 1 1 1 1 1 0.070406849684438277 0.075371889258243327 1 1 0.073972088715870354 1 1 1 1 1 1 1 0.070188768612913982 1 1 1 1 1 1 0.070284568642527717 1 1 1 1 1 1 1 1 1 1 1 1 1 1 1 1 1 1 1 1 1 1 1 0.07066693973497673 1 1 1 1 1 1 1 1 0.070219656394104768 1 1 1 1 0.07063591482609291 1 1 1 1 1 0.070805359582196609 1 0.070003822868294235 1 0.071637654599088427 1 1 1 1 1 1 1 0.070005022684140092 1 1 1 0.069162849143474051 1 1 1 1 1 0.070133609618275028 1 1 1 1 1 0.070010868757953121 1 0.070000146564459798 1 1 0.069988690769885037 1 0.070945819045400954 1 1 1 1 1 0.070190647909717713 1 1 1 0.070393596203281075 1 1 1 1 1 1 1 1 1 1 0.070019067797612508 1 1 1 1 1 1 1 1 1 1 1 1 1 1 1 1 1 1 1 1 1 1 0.070050179894883907 1 1 1 1 1 1 1 1 1 1 1 1 1 1 1 1 1 1 0.070099976748837139 1 1 1 0.070085636838899151 1 1 1 1 1 1 0.068955688797932527 1 1 1 0.069406388362993912 0.07093800948094206 1 0.069126039580846274 1 0.070622965281138886 0.069032112396540168 1 0.068788807198470456 1 1 0.069999213619981848 1 1 0.070061440497406507 0.069991994325585727 1 1 1 1 1 1 1 1 0.069997231181863157 1 0.069999579764994407 1 1 1 1 1 1 1 1 1 1 1 1 1 1 1 1 1 1 1 1 1 1 0.071930019240912052 1 1 1 1 1 1 1 1 0.0722101413533347 1 1 0.070017786500131726 1 1 0.072461760838608905 0.070027563421382388 1 1 0.070010879539421783 1 1 1 1 1 1 1 1 1 1 1 1 1 1 1 1 1 1 1 1 1 1 1 1 1 1 1 1 1 1 1 1 1 1 1 1 1 1 1 0.069615021646634481 1 0.069288652218177468 1 1 1 1 1 1 1 1 1 1 1 1 1 1 1 1 1 1 1 1 1 1 1 1 1 1 1 1 1 1 1 1 1 1 1 1 1 1 1 1 0.069992766415297739 1 1 0.069934270527405223 1 1 1 1 1 0.070165584925293248 1 0.070132354011662235 1 1 0.070922102686444388 1 1 1 1 1 1 0.071498305214805297 1 1 1 1 1 1 1 1 1 1 1 0.069948035004994982 1 1 0.075889371791411128 0.069793639078609818 1 0.070285613169045705 1 1 0.073655293649275491 1 1 1 1 0.069941949976552162 1 1 1 1 1 1 1 1 1 0.070003859050558226 1 0.078817386325676544 1 1 1 1 1 1 1 0.069906150260906505 1 0.078981512162371273 1 1 1 1 1 1 1 1 1 0.070319647064831986 1 0.079706501820473147 1 1 1 1 1 1 1 1 1 1 0.071002740593097829 1 1 1 0.077897471243247945 1 1 0.069998872285203337 1 1 0.069854450618799677 1 1 1 1 0.069913751998745624 1 1 1 0.07004888141360012 1 1 1 1 1 1 1 1 1 1 1 1 1 1 0.069970615583323112 1 1 1 1 1 1 0.069841114680529684 1 0.070204873118010908 1 0.070709416469086739 1 1 1 0.070003393458995797 1 1 1 1 1 1 1 1 0.070919948787045384 1 1 1 1 1 0.06999309127924272 1 1 0.071237493428556439 1 1 1 1 1 1 1 1 1 0.070676364604582778 1 1 1 0.070273932692238264 1 1 1 1 1 1 0.070934080679150913 1 1 1 1 1 1 1 1 1 1 1 1 1 1 1 1 1 1 1 1 1 1 1 1 1 1 1 1 1 1 1 0.069856670702447485 1 1 1 1 1 0.069849109075140831 1 1 0.071324787041150958 0.06994019908262579 1 1 1 1 0.069277830024927087 1 1 1 1 1 0.07131925964252761 1 1 1 1 1 1 1 1 1 1 1 1 1 1 1 1 0.069898878437588879 1 1 1 1 1 1 1 1 0.070008092898384583 0.07004210492401064 1 1 1 1 1 1 0.070072501524922517 1 1 1 1 0.069964117434248879 1 1 1 1 1 1 1 1 1 1 1 1 1 1 1 1 1 1 1 1 1 1 1 1 0.070027545434580563 1 1 0.070069753169721943 1 1 1 1 1 1 1 1 1 1 1 1 1 1 1 1 1 1 1 1 1 1 1 1 1 1 1 0.070003499581642079 1 0.070056692481020852 1 1 1 1 1 0.070117658460463708 1 1 1 1 1 1 1 1 1 1 1 1 1 1 1 1 1 1 1 1 0.069959645904385304 0.0702277573185634 1 0.069991293776686128 1 1 1 1 1 1 1 1 1 1 1 1 1 1 1 1 0.070001218031293874 1 1 1 0.070001691707380562 1 1 1 1 1 1 1 1 1 1 1 1 1 0.070060965979442863 1 1 1 1 1 1 1 1 1 1 1 1 1 1 1 1 1 1 1 1 1 1 0.070151820815814836 1 1 1 1 1 1 1 1 1 1 1 1 1 0.071967157016759972 1 0.071169344187273581 1 1 0.068934761999269775 0.075812209621695006 1 1 1 1 1 1 1 1 1 1 1 1 1 1 1 1 1 1 1 1 0.071368307748678764 1 1 0.083805129650808871 1 1 1 0.070117514417151111 1 1 1 1 1 1 0.081758930059784157 1 1 1 0.0697401051311662 1 1 1 1 1 1 1 1 0.06999626285087715 1 1 0.065950742297263415 1 1 0.075262661745960191 1 0.075813767155044703 1 1 1 1 0.068685513591228764 0.069948150755769697 1 1 0.071227395674197252 0.069466339665842494 1 1 0.067697228843813323 1 1 1 1 0.070937963126713882 1 1 0.06835203729206904 0.072895760526632603 1 0.069991826266608201 1 1 1 1 1 1 1 1 1 1 1 1 1 1 1 1 1 1 1 1 0.071086394376310064 1 1 1 1 0.070375339969446712 1 1 1 1 0.070139940090308245 0.071577931948021145 1 1 1 1 1 1 1 1 1 1 1 1 0.070528554757463904 1 1 1 0.075130782748073277 1 1 1 1 1 1 1 0.073866157486900841 1 1 1 0.071039989525351621 1 1 0.070324445514743664 0.07096077112391605 1 1 1 0.072256464127116088 1 1 1 0.070317871833464413 1 1 1 1 1 1 1 1 1 1 1 1 1 1 1 1 1 1 0.069977594450750732 1 1 1 1 1 1 1 1 1 1 1 1 1 1 1 1 1 1 0.070046864402640518 0.069923836706568016 1 1 1 1 1 0.069872934509623078 0.070131529598892031 1 0.069847350641715683 1 1 1 1 1 1 1 1 1 0.070323468523096733 1 1 1 0.069944196221021437 1 1 1 1 1 1 1 1 1 1 1 1 1 1 0.071188807340211144 1 1 1 1 1 1 1 0.069246331010247839 1 1 0.069582802885028674 1 1 1 1 1 1 0.074958594226550948 1 1 1 1 0.075463245188811673 1 1 1 1 1 1 0.070828346718915525 1 1 1 1 1 1 1 1 0.070029839215524886 0.07435336144863261 1 1 1 0.069702209317586861 0.072359220101059801 1 1 1 1 1 0.06990576198519402 1 1 1 1 1 1 0.070875126261562116 1 1 1 1 0.069880465723599003 1 1 1 1 1 0.070280155086109727 1 1 1 1 0.071386729689216194 1 1 1 1 1 1 1 1 1 1 1 1 1 1 1 1 1 1 1 1 1 1 1 1 1 0.070088652802913098 1 1 1 1 0.068074932225182988 1 0.074734222021003854 1 0.067014165262197889 1 1 0.075735744189955989 1 1 0.071786586739173472 1 1 0.069749240506162796 1 1 1 1 1 1 0.075839473807593302 1 1 0.072309493466115052 1 0.070366341301332916 0.071042541283594163 0.071651732503893617 1 1 0.067678374892449766 1 0.069847326715881189 0.068980619999575277 1 1 1 0.070085513061394683 1 0.070013192608679969 1 1 1 1 1 1 0.07129458748171455 1 1 1 0.069980366997950294 1 1 1 1 1 1 1 0.071901557683691678 1 1 1 0.069121521860500593 1 0.081454166751130125 0.080421277355770648 1 1 1 1 1 1 1 0.070128021740903101 1 1 1 1 1 1 1 1 0.070034701710857003 0.069783177848115108 1 1 1 1 0.069034090374469267 1 1 0.069207304634639102 1 1 1 0.069999905222504488 1 1 1 0.069373639069107415 0.070383649981089466 1 1 1 1 0.070047161559308582 1 1 1 1 1 0.069672749477650273 0.069593711273568684 1 1 1 1 1 1 1 1 1 1 1 1 1 1 1 1 1 1 1 1 1 1 1 1 1 1 1 1 1 1 1 0.07007809208261781 1 1 1 0.069975098341297753 1 1 1 1 1 1 1 1 1 1 1 1 1 1 1 0.070001255867736728 1 0.070097848771403293 0.069656293018684673 1 1 0.069972407677780138 1 1 1 1 1 1 1 1 1 1 1 1 1 1 1 1 1 1 1 1 1 1 1 0.070233171206188494 1 1 0.069588401069693939 0.069974542963793435 1 1 1 1 1 1 1 0.069749914128412568 1 1 1 0.070246734846705378 1 1 1 1 0.070045820500770406 0.070015729729773407 1 1 1 1 1 1 1 0.069323177523305801 1 1 1 1 0.06966808789160088 1 1 1 1 0.069946680270169759 1 1 1 1 1 1 1 1 1 1 1 1 1 1 1 1 1 1 1 0.070269151925811069 1 1 1 1 1 1 1 1 1 1 1 1 1 1 1 1 0.070861876132908994 1 1 1 0.070297481970973158 1 1 1 1 1 1 1 1 1 0.06992270989965145 1 1 1 1 1 1 1 1 1 1 1 1 1 1 1 1 1 1 1 1 1 0.06982882568713808 1 1 1 1 1 1 1 1 1 1 1 1 1 1 1 1 1 0.069494871414127343 1 1 1 1 1 0.070005155597497218 1 1 1 1 1 1 1 1 1 1 1 1 1 1 1 1 1 1 1 1 1 1 1 1 1 1 1 0.070072476999016642 1 1 0.074437237009927909 1 1 1 0.074604530376031639 1 1 1 1 1 1 1 1 1 1 1 1 1 1 1 0.079192220314701967 1 0.067876054682632719 1 1 1 1 1 1 1 1 1 0.077311128676556609 1 1 1 1 1 1 1 1 1 0.071155341800528557 0.074605488545572834 1 1 1 1 1 1 1 1 1 1 1 1 1 1 1 1 1 1 1 1 1 1 1 1 1 1 1 1 1 1 1 1 1 1 1 1 1 1 1 1 1 1 1 1 1 1 1 1 1 1 1 1 1 1 1 1 1 1 1 1 1 1 1 1 1 1 1 1 1 1 1 0.071306304965404882 1 1 1 1 1 1 0.073363308850731113 1 1 1 1 1 1 1 1 1 0.07150190049436729 1 0.073212345685854788 1 1 1 1 1 1 1 1 1 1 1 1 1 1 1 1 1 1 1 1 1 1 1 1 1 1 1 1 1 1 1 1 1 1 0.070263591357238309 1 1 1 0.069859744367782028 0.069793631273798173 1 1 1 1 1 1 1 1 1 1 1 1 1 1 1 1 1 1 1 1 1 1 0.07001172668213132 0.069363518825937165 1 1 1 1 1 1 1 1 0.069250281136952224 1 1 1 1 1 1 0.069116905056542777 1 1 1 1 1 0.070084100832891405 1 1 1 1 0.070023582335279694 1 1 1 0.079108566839827546 1 1 1 0.077079212241238149 1 1 0.074157317599764613 1 1 1 1 1 1 1 1 1 1 1 1 1 0.06994920102512428 1 1 1 1 1 1 1 1 0.070374600131564546 1 1 1 1 1 1 1 1 1 1 1 0.072092377988185685 1 1 1 0.070733913981868707 1 1 1 1 0.069762516546009373 1 1 1 1 1 1 1 1 0.068968854747480213 1 0.074532439131570677 1 1 0.068424017369917475 1 1 1 1 1 0.074130536259411337 1 1 1 1 1 1 1 1 1 1 1 1 0.070466326931888534 1 1 1 1 1 1 1 1 1 0.06942429374756659 1 1 1 1 1 1 0.071249337926553163 1 1 1 1 1 1 1 0.070659224102319562 1 1 1 1 1 0.071125551034208076 1 1 1 1 1 1 1 1 1 1 1 1 1 1 1 1 1 1 1 1 1 1 1 1 1 1 1 1 1 1 1 1 1 1 1 1 1 1 1 1 1 1 1 1 1 1 1 0.071241316604932145 1 0.073174476855903947 1 1 1 1 1 1 1 1 1 1 1 1 1 1 0.069798931860361277 1 1 1 1 1 1 1 1 1 1 1 1 1 1 1 0.070351989017864658 1 1 0.071074172455677292 1 0.071570499421489464 1 1 1 1 1 0.072584727224803858 1 1 1 1 1 1 1 1 1 1 1 1 1 1 1 1 1 1 1 1 0.075786399249130443 1 1 1 1 1 1 1 1 1 1 1 0.076439933088929823 1 0.070004662170182641 1 1 0.076901831981892918 1 0.065398483889237344 1 1 1 1 1 1 1 0.070059923758614751 1 0.082175040141495903 1 1 1 1 0.084735497717735198 1 1 1 1 0.070005505486319689 0.07294028925344645 1 1 0.077651994503857236 1 1 1 1 1 1 1 1 1 1 1 1 1 1 1 1 0.070959522066052771 1 1 1 1 1 1 1 1 1 1 1 1 1 1 0.072809786138847518 1 0.070042794202439404 1 1 1 1 1 1 1 0.082360428287662643 1 0.086839359307572889 1 1 1 1 1 1 1 1 1 0.070063073404804471 0.080537761744344946 1 1 1 0.080831613792361992 1 1 1 1 0.064898347723595678 1 0.074591660483255745 1 1 0.070072890901433871 1 0.056359143933502311 0.064465323382965123 0.069049844385307008 1 1 0.069990253638563898 1 1 1 0.06042910942884866 0.076969001169813617 0.074511239353754255 1 1 1 1 1 1 1 1 1 1 1 0.073000519734229288 1 1 1 1 1 1 0.082946433449601314 1 1 1 0.069716508773034813 1 1 1 1 1 1 1 1 0.071678540563988868 1 1 1 0.070548036269098557 1 1 1 1 1 1 1 1 1 1 1 1 1 1 1 1 1 1 1 1 1 1 1 1 1 1 1 1 1 1 1 1 1 1 1 1 1 1 1 1 1 1 1 1 1 1 1 1 1 1 1 1 1 1 1 1 1 1 1 1 0.069928991874270138 1 1 1 1 1 0.069550672953821419 1 1 1 1 0.069843012889065567 1 1 1 0.066591713579175954 1 1 1 1 1 1 1 1 1 1 1 1 1 1 1 1 1 1 1 1 1 1 1 1 1 1 1 1 1 1 1 1 1 1 1 1 1 1 1 1 0.070132843720283652 1 1 0.070357307872252056 1 1 1 1 1 1 1 0.069994085593374 1 1 1 1 1 1 1 1 1 1 1 0.069980802099472134 1 1 0.070001040212585727 1 0.06970923392982642 1 1 1 0.070498528217557282 1 1 1 1 1 1 1 1 0.070034306234716737 1 1 1 1 0.070018676928074369 1 1 1 1 0.07077224138530569 1 0.06971656004671184 1 1 1 1 1 1 1 1 1 1 1 1 0.070695335144665139 1 0.070775886088115594 1 1 1 1 1 1 1 1 1 1 1 1 1 0.069935240161340811 1 1 1 1 1 1 1 1 1 0.069879264178031572 1 1 1 0.069944024016690781 1 1 1 1 1 1 1 1 1 1 1 1 1 1 1 1 1 1 1 1 1 1 1 1 1 1 1 1 1 1 1 1 1 1 1 0.069951002503645887 1 1 0.070007371903986385 1 1 1 1 0.070074238646982756 1 1 1 1 1 1 1 1 1 1 1 1 1 1 1 0.070116009835771639 1 1 1 1 1 1 1 1 1 0.070246578390661452 1 0.0700857110937054 1 1 1 1 1 1 1 0.070048955294348431 1 1 1 1 1 1 1 1 1 1 1 1 1 1 0.071736045090009706 1 1 1 1 1 1 1 1 1 1 1 0.074699446613794226 1 1 1 1 1 1 1 1 1 1 1 1 1 1 1 1 1 1 1 1 1 1 1 0.069878625546938203 1 0.070069194569371912 1 1 1 1 1 1 0.07007983644300099 1 0.071724785693837514 1 1 1 0.068919525759632352 1 1 1 0.075606315630387069 1 1 1 0.067737884282904656 1 1 0.073543805115978675 1 1 1 1 1 1 1 0.071206187703112517 1 1 1 1 1 1 1 0.07693024816793953 1 1 1 1 1 1 1 1 1 1 1 1 1 0.070757536342950303 1 1 1 1 1 1 1 1 0.075323327399446791 1 1 1 1 1 1 1 1 1 1 1 1 1 1 1 1 1 1 1 1 0.076715610086041802 1 1 1 1 1 1 1 1 1 1 1 1 1 1 1 1 1 1 1 1 1 1 1 1 1 1 1 1 1 1 1 1 1 1 1 1 1 1 1 1 1 1 1 1 1 1 1 1 1 1 0.070341154631871156 1 0.071899618650418801 1 1 1 0.069751876018762871 1 1 0.0700095854173136 0.072621887059056478 1 0.070909899126556875 1 1 1 1 1 1 1 1 1 1 1 1 1 1 1 1 1 1 1 1 1 1 1 1 1 1 1 1 1 1 1 1 1 1 1 0.070104438987673406 1 1 1 1 0.070285339854980478 1 1 0.035123667217548948 1 1 1 0.069958850538232004 1 1 1 1 0.070523002701258608 1 0.069992828042089686 0.069934397314431102 1 1 1 1 0.070020710228479388 1 1 1 0.070427725389841322 1 1 1 0.069941851047561801 1 1 1 1 1 1 0.070001182115530913 1 1 1 1 1 1 1 1 1 1 1 1 1 1 1 1 1 1 1 1 0.070224763933928458 1 1 1 1 1 1 1 1 1 1 1 1 1 1 1 1 1 1 0.070100412958462699 1 1 0.070270853809980438 1 1 0.071551083866255027 1 1 1 1 1 1 1 1 1 1 1 0.070403895765754815 1 1 1 1 0.070754579989696004 1 1 1 1 0.069693267112670418 1 1 1 0.070213106926893837 1 1 1 1 1 1 1 1 1 1 1 1 1 1 1 1 1 1 1 1 1 1 1 1 1 0.070043515191362524 1 1 1 1 1 1 1 1 0.070213134728529872 1 1 1 0.070417637184919821 1 1 1 1 1 1 1 1 1 1 1 1 1 1 1 1 1 1 1 1 1 1 1 1 0.068141092918513432 1 1 1 0.069803960333003262 1 1 1 1 1 1 1 1 0.068209435296837581 1 1 0.074391739133231077 1 1 1 1 0.071611294562894556 1 1 1 1 1 1 1 0.069170973000812888 1 0.07363443832933779 1 1 0.074948898863921601 1 1 0.068750237143788334 0.069989531714238828 1 1 1 1 1 1 1 1 1 1 1 1 1 1 1 1 1 1 1 1 1 0.069917158234583165 1 1 1 1 0.06959846196508214 1 1 1 1 1 1 1 1 1 1 1 1 1 0.069109394389121059 1 1 0.070031132265614984 1 1 1 1 1 1 1 1 1 1 1 1 1 1 1 1 1 1 1 1 1 1 1 1 1 1 1 1 1 1 1 1 1 1 1 1 1 1 1 1 1 1 1 1 1 1 1 1 1 1 1 1 1 1 1 1 1 1 1 1 1 1 1 1 1 1 1 1 1 1 1 1 1 1 1 1 1 1 1 1 1 1 1 1 1 1 1 1 1 1 1 1 1 1 1 1 1 1 1 1 1 1 1 1 1 1 1 1 1 1 1 1 1 1 1 1 1 1 1 1 1 1 1 1 1 1 1 1 0.071240939069148745 1 1 1 1 1 1 1 0.069815860016453582 1 1 1 1 1 1 1 1 1 0.069065068973591964 1 0.071854147521880019 1 1 1 0.071019638581273026 1 1 0.072145287793764529 1 1 1 1 1 1 1 1 1 1 1 1 1 1 1 1 1 1 1 1 1 1 1 1 1 1 1 1 1 1 1 1 1 1 1 1 1 0.071059423012409029 1 1 0.069943612432827068 0.073997441647171341 1 1 0.069798535902139608 1 1 0.071637038469594239 1 1 1 0.072196710025030364 1 1 1 1 1 1 1 1 1 0.072858609629742249 1 1 1 1 1 1 0.070702980118910352 1 1 1 1 1 1 1 1 1 1 1 1 1 1 1 1 1 1 1 1 1 1 1 1 1 1 1 1 1 1 1 0.068998235355161947 1 1 1 1 1 1 1 1 1 1 1 1 1 1 1 1 1 1 1 1 1 1 1 1 1 1 1 1 1 1 1 1 1 1 1 1 1 1 1 1 1 1 1 1 1 1 0.073357553500023875 1 0.074688746549873286 1 1 1 1 0.069957804709237445 1 1 1 1 0.077470643499951364 1 1 1 1 0.069876110997170282 1 1 1 1 1 1 1 1 0.076660632775456539 1 1 0.070124719069286578 1 0.069716991677360438 1 1 1 1 0.068342267943243384 1 1 0.078657355090235831 0.066937103071651613 1 1 1 1 1 1 0.070033913856057339 1 1 1 1 1 1 1 1 1 1 0.078760307830652992 0.069901565193623658 1 1 1 1 1 0.069956203101665698 1 1 0.078362175268023221 1 1 1 1 0.074211245834643308 1 1 0.070875137739670566 1 1 1 1 1 1 1 1 1 1 1 1 1 1 1 1 1 1 1 1 1 1 1 1 1 1 1 1 1 0.075379033379514057 1 0.072236657837797397 1 1 1 1 1 1 1 1 1 1 1 1 1 0.069989932975892594 1 1 1 1 0.071307035312465655 0.070119513300830938 1 1 1 1 1 1 1 1 1 1 1 1 1 1 1 1 1 1 1 1 1 1 1 1 1 1 1 1 1 1 1 1 1 1 1 1 1 1 1 1 1 1 0.069979456209174368 1 1 1 0.069989523233281753 1 1 1 1 1 1 1 1 1 1 1 1 1 1 1 1 1 1 1 1 0.071856178441359497 1 1 0.071569896924636375 1 1 1 1 1 1 1 1 1 0.071678701417438026 1 1 1 1 1 0.074156605498820402 1 1 1 1 1 0.070002775760155456 1 0.070000589870417462 1 1 1 1 1 1 1 1 1 1 1 1 1 0.069062040541686728 1 1 1 0.06984678045640294 0.073137578239037923 1 1 1 1 1 1 1 1 0.074037310473948639 1 1 0.072012331692394654 1 1 0.069954242416183657 0.070842430737845491 1 1 1 1 1 0.070991246735734398 1 1 1 1 1 1 1 0.070433908998625006 1 1 0.070823284050955032 0.071718217630470538 1 1 1 1 1 1 0.069927072783142252 0.070031063675965927 1 1 1 0.069983745635385994 1 1 1 1 1 1 1 0.069956817714405456 1 1 1 1 1 1 1 1 1 1 1 1 1 1 1 1 1 1 1 1 1 1 1 1 1 1 0.091390159847600572 1 1 1 1 1 1 1 0.069736647546379676 1 1 1 1 1 1 1 1 1 1 1 0.085928603205713355 1 1 1 1 1 1 1 1 0.068804738343450952 1 1 1 1 1 1 1 1 1 1 1 1 1 1 1 1 0.070809200406999923 1 1 1 0.069358340250123343 1 1 1 1 1 0.072912155278289731 1 1 1 1 1 1 1 1 1 1 1 1 1 1 0.070879803278600689 1 1 1 1 0.072477495812283008 1 1 0.073668061329373355 1 1 1 1 1 0.069915429061476769 1 1 1 1 1 1 1 1 1 1 1 1 1 1 0.069708306930882605 1 0.064600077551503099 1 1 1 0.075609043990830627 1 0.082324968016070713 1 0.061302565716796383 1 1 1 1 1 1 0.06996709547144464 0.094463267691293623 1 1 1 1 1 1 0.092620170332266688 1 0.069498421655437417 1 1 1 1 1 1 1 1 1 1 1 1 1 1 1 1 1 0.064593700940757628 1 1 1 0.069966041584966665 0.066519747071337551 1 1 1 1 1 0.067873767652245509 1 1 0.069952743900099298 0.069270936944431732 1 1 1 1 1 1 1 1 1 1 1 1 1 1 1 1 1 1 1 1 1 1 1 1 1 1 1 1 1 1 1 1 1 1 1 1 1 1 1 1 1 1 1 1 0.077094232658499309 1 1 0.068396303313437268 0.069593002661730866 0.069584822336821908 1 1 1 1 1 1 0.069919886279515703 1 1 1 1 1 1 1 1 1 0.069875476918442814 1 1 1 0.07645105010257916 1 1 1 1 1 1 1 1 1 1 1 1 1 1 1 1 1 1 1 1 0.074634697411234976 1 1 1 1 0.071673598984606859 1 1 1 1 1 1 1 1 1 1 1 1 1 1 1 1 1 1 1 1 1 1 1 1 1 1 1 1 1 1 1 1 1 1 0.071534675285978677 1 0.070615261315434108 1 1 1 1 1 1 1 1 0.071544414730857903 1 1 1 0.074582242391316347 1 0.070929153415423801 1 1 1 1 1 1 1 1 0.079372268785270456 1 1 1 1 0.072933059726092417 1 1 1 1 0.077402619925093799 1 1 1 1 1 1 1 0.077845922711584484 1 1 1 1 0.073490869891828348 1 1 1 1 1 1 1 1 1 1 1 1 1 1 1 1 1 1 1 1 1 1 1 1 1 1 1 1 1 1 1 1 1 1 1 1 1 1 1 1 1 1 1 1 1 1 0.07057944484106618 1 1 1 1 0.071975607263984553 0.073796940130991626 1 1 0.07447534505643616 0.071005529470875545 1 1 1 1 1 1 1 1 1 1 1 1 1 1 1 1 1 1 1 0.070592998989858519 1 1 1 0.071643789966373883 0.071103996650781709 1 1 1 1 1 1 1 1 1 1 1 1 1 1 1 1 1 1 1 1 1 1 1 1 1 1 1 0.070606776319741521 1 1 1 1 1 1 1 0.071027522801962478 1 1 1 1 1 1 1 1 1 1 1 1 1 1 1 0.071558035938740522 1 1 1 1 1 1 1 1 0.070544754321368419 1 0.070338338136154893 0.071393284791118172 1 1 1 1 1 1 1 1 1 1 1 1 0.069446398093327616 1 1 1 1 1 1 1 1 1 1 1 1 1 1 1 1 1 1 0.066032348433516228 1 1 1 0.065282625006354497 1 1 1 1 1 1 1 1 0.06836732095898479 1 1 1 1 1 1 1 1 1 1 1 1 1 1 1 0.069936249684213664 1 1 1 0.070147530869408364 1 1 1 1 1 1 1 1 1 1 1 1 1 1 1 1 1 1 1 1 1 1 1 1 1 1 1 1 1 1 1 1 1 0.071031874816854121 1 0.070425769969372692 1 1 1 1 1 1 1 1 0.069861592592815908 1 1 1 1 1 1 1 1 1 0.071600548864108382 1 1 0.068497147422041271 1 1 1 1 1 0.069207376723785546 1 1 1 1 0.070023116016562414 1 1 1 1 0.066782998626266202 1 1 1 0.066921946309564564 1 0.077938621159992574 1 1 0.078257812462419835 1 1 1 1 1 1 1 1 1 1 1 1 1 1 0.069827144484087195 1 1 0.071354560975153677 1 0.069740907225877502 1 1 1 0.073728494201378225 1 1 0.072370911344393468 1 1 1 1 0.07886809326937988 1 0.069082252297023597 1 1 1 1 1 1 0.069707244974276494 1 0.070224872020189996 1 1 1 1 1 0.06965281795864206 1 1 1 1 0.079515639974293936 1 1 1 1 1 1 0.068968369916576955 1 1 1 1 1 1 1 1 1 1 1 1 1 1 1 1 1 1 1 1 1 1 1 1 1 1 1 1 1 1 1 1 1 0.070105260258520818 0.069993728472043992 1 1 1 1 1 1 1 1 1 1 0.067798292587267189 1 1 0.080087514697868248 0.068015613618899906 1 0.069980308005622466 1 1 1 1 1 1 1 0.066943350084869249 1 1 1 1 1 1 1 1 1 1 1 1 0.072883072402594382 1 1 1 1 0.070957895656116404 1 1 1 1 1 1 1 1 1 1 1 1 0.073088678220637374 1 1 1 1 1 1 1 1 1 1 1 1 1 1 1 1 1 0.072296926505445183 1 1 1 1 1 0.070592380489019918 1 1 1 0.073185144384782977 1 1 1 1 1 1 0.072473219321311705 1 0.073679588117974495 1 1 1 0.07180556453074842 1 1 1 1 1 1 1 1 1 0.075112572394672852 1 1 0.069978031375622335 1 1 1 1 1 1 1 0.070983008900516717 1 1 1 1 1 1 1 1 1 1 1 1 1 0.069443911898097122 1 1 0.070861538015751263 1 1 1 1 1 1 0.070003228381640387 1 1 1 1 1 1 0.076442569696965029 1 1 1 1 1 1 1 0.079195737112647741 1 1 1 1 1 1 1 1 1 1 1 1 1 1 1 1 1 1 1 1 1 1 0.07111363611908815 1 1 1 1 1 1 1 1 1 1 0.066171895905197189 1 1 1 1 0.064441203876870787 0.075423662889791743 1 1 1 1 0.07425832352420679 1 1 1 1 1 1 1 1 1 0.073129421203976877 1 1 1 1 1 1 1 1 1 1 1 0.072575946327572652 1 1 1 0.069537240904183409 1 1 1 0.070848600641228957 1 1 1 1 1 1 1 1 1 1 1 1 0.068071234752464446 1 1 1 1 1 0.069986328725341967 1 1 0.069986877532868544 1 1 1 1 1 1 1 1 1 1 1 1 1 1 0.070840818894197133 1 1 1 1 1 1 1 0.071618498646494597 1 1 1 0.070716011571921297 1 1 1 1 1 0.070007396723238788 1 1 1 1 1 1 1 1 1 0.070006847915712198 1 1 1 1 1 1 1 1 0.068910835397271747 1 1 1 1 1 0.070344338299138415 1 1 1 1 1 1 1 0.0701095391893575 1 1 1 1 1 1 1 1 1 1 1 1 1 1 1 1 1 1 1 1 1 1 1 1 1 1 1 1 1 1 1 1 1 1 1 1 1 1 1 1 1 1 1 1 1 1 1 1 0.071694933963987989 1 1 1 1 1 1 1 0.071898262073655517 1 1 1 1 1 1 1 1 1 1 1 1 1 1 1 1 1 1 1 1 1 1 0.072765121344063405 0.069736545489210905 1 1 0.075160032914591557 0.067687230316667665 1 1 1 1 1 1 1 0.069296884571476605 1 1 1 1 1 1 1 1 1 1 1 1 1 1 0.073202711281973976 1 1 1 1 1 1 1 1 0.071565088617438904 1 1 0.070360136531933834 1 1 1 0.070582949658895097 1 1 1 1 1 1 1 1 1 1 1 1 1 1 1 1 1 1 1 1 1 1 1 1 1 1 1 1 0.073159909969413406 1 1 1 1 1 1 1 1 0.069797356295684149 1 1 1 1 1 1 0.078729712576732142 0.068907476925968242 1 1 1 1 0.06952460759646964 1 1 0.075253715460719156 1 1 0.074992834183398582 1 1 1 1 1 1 0.070199535694690313 1 1 1 1 1 1 1 1 0.070334095436851041 1 1 1 1 1 1 1 1 1 1 1 0.070772519670804918 1 1 0.070438950323728211 1 1 1 1 1 1 1 0.071128376422901221 1 1 1 0.070361859742945815 1 0.070096504658834463 1 0.070692400456221369 1 1 1 1 1 1 1 1 1 1 1 1 1 1 1 1 1 0.071922779135320636 1 0.06999875504280216 1 1 1 1 1 1 1 1 1 1 0.071404043953242721 1 1 1 1 1 1 1 0.070147285449468272 1 1 1 0.069993164464149535 1 0.071130712827520745 0.070010334074370836 1 1 0.065802396714023215 1 1 1 1 0.072767814773858935 1 1 1 0.069846267857364031 1 1 1 0.070547513023667116 1 0.070862010806410858 0.079514312366271683 1 1 1 1 1 1 0.070183547076660191 1 1 1 1 1 1 1 1 0.07981874685228306 0.069998732616573342 0.072143145463374192 1 0.084310389303536654 1 1 0.066452293864000436 0.070000071891248669 1 1 0.066894623162156677 1 1 1 1 1 1 1 1 1 1 1 0.070094088629796839 1 1 1 1 1 1 1 1 1 1 1 1 1 0.074064164504558758 0.07738882952055752 1 1 1 1 0.075541431005620857 1 1 1 0.070598383533286499 1 1 1 1 1 0.075048367519582243 0.070002886420025681 1 1 1 0.06876326682133202 1 1 1 1 1 1 1 1 1 1 1 1 1 1 1 0.070154166066826631 1 1 1 0.072010119690784774 1 1 1 0.070092571388676694 1 1 1 1 1 1 0.074752270918797825 1 1 1 1 1 0.074318429149886914 1 1 1 1 1 1 1 1 0.072282587034338389 1 1 1 1 1 1 1 1 1 0.07014571431257996 1 1 1 1 0.075538024030989415 1 0.069840309131260006 1 1 0.076261942246095088 1 0.069755683671544721 1 1 1 1 1 1 0.070262617759858592 1 0.069971182671693943 0.081385834222762785 1 1 1 1 1 1 1 1 0.066314722323849495 1 0.069927439005323624 1 0.069997307484909177 1 0.081454988910943632 1 1 1 1 1 1 1 1 1 1 1 0.07014394123508709 1 1 1 0.070340628854818912 1 1 1 1 1 1 1 1 0.070196687619731801 1 1 1 1 1 1 1 1 1 0.070061710134701499 1 1 1 1 0.069841607094786082 1 1 0.06954258975625105 1 1 1 1 1 1 1 1 1 0.069520172245039397 1 1 1 0.069384564787208045 1 1 1 1 1 1 1 1 1 1 1 1 1 1 1 1 1 1 1 0.069845999300599038 1 1 1 1 1 1 1 1 1 1 0.070270459337026581 1 1 1 1 1 1 1 1 1 1 1 1 1 1 1 1 1 1 1 1 1 1 1 1 1 1 1 1 1 1 1 1 1 1 1 1 1 1 1 1 1 1 1 1 1 0.083075700290259583 0.069835051902223805 1 1 1 1 1 1 1 1 1 1 1 1 1 0.090964997514123874 0.065418672227922053 1 1 1 0.066928693837691761 1 1 0.076092329877828796 1 1 1 0.077839455681878736 1 1 1 0.083757946702146729 1 1 1 1 1 1 1 1 0.06893738270844682 1 1 0.071563550532846437 1 0.078315961865574005 0.071094628582940217 1 1 1 1 1 1 0.079964372548599255 1 0.068340440407223757 0.071104250900668853 0.070204298891799632 1 1 0.073426840257500639 1 1 0.077172968396965441 0.077516738948473773 1 1 1 1 1 1 1 1 1 1 1 1 1 1 1 1 1 1 1 1 1 0.070081037147075337 1 1 1 1 1 1 1 1 1 0.07104263212737684 1 1 1 1 1 1 1 0.069074234742938362 0.070030905167514368 1 1 1 1 1 1 1 1 1 1 1 1 1 1 1 1 1 1 1 1 1 1 1 0.070880596437791279 1 0.069975775726402012 1 1 1 1 1 1 1 0.070767722164175956 1 1 1 0.072649552287105623 0.069425709411688741 1 1 0.069856126240328609 1 1 1 1 0.072819780225050784 1 1 1 0.072249082992260238 1 1 1 0.088908583888068715 1 1 1 1 1 1 1 1 1 0.091680089340095208 0.067211102004555989 1 1 1 1 1 0.075962546072463638 1 1 0.066093577502436426 0.080145909986921227 0.091774570900521504 1 1 1 1 1 0.068937457982244099 1 1 1 1 1 1 1 1 1 0.069604075194491744 1 0.069831790141292913 1 1 1 1 1 1 1 1 1 1 1 1 1 1 1 1 1 1 1 1 1 1 1 1 0.069853636035792158 1 1 1 1 0.06852484909714987 0.069576569988861345 1 1 1 0.068941546271027096 1 1 1 1 1 1 1 1 1 1 1 1 1 1 1 1 0.081077037886980938 1 1 1 0.070018071559697789 1 1 0.063519606300817349 1 1 1 1 1 1 1 1 1 1 1 1 1 0.069337167809240416 1 1 0.08001494233142066 1 1 1 0.065597533588851148 1 0.086091243744760834 1 0.0700441312892775 1 0.071370068392137123 0.079765167033115439 0.070011165027522179 1 1 1 1 1 1 1 1 0.06995715259185005 1 1 1 1 1 1 1 1 0.075105206613486131 1 1 0.07048320676370029 1 1 1 1 1 1 1 1 1 1 1 1 1 1 1 1 1 1 1 1 1 0.069395984515574632 1 1 1 1 1 1 1 1 1 1 0.069614909498122615 1 0.069360187414027857 1 1 0.069909845883604979 1 0.069601735823523303 1 0.070001585017185119 1 1 0.070023090620435519 1 0.076688954362474637 1 1 0.06844175511272016 1 1 1 0.06994011488620841 1 1 1 1 1 1 1 1 1 1 1 1 1 1 1 1 1 1 1 1 1 1 1 1 1 1 1 1 1 1 1 1 1 1 1 1 1 1 1 1 1 1 1 1 1 1 1 1 1 1 1 1 1 1 1 1 1 1 1 1 1 0.072305037455135501 1 1 0.079802155989492252 1 1 1 1 1 1 0.069737140105998865 0.073986474644624378 1 1 1 1 1 1 1 1 1 1 1 1 1 1 1 1 1 1 0.077773747811987079 1 1 1 0.070107947457750147 1 1 1 1 1 1 1 1 1 1 1 1 1 1 1 1 0.069948840328420359 1 1 1 1 1 1 1 0.077336455728717141 1 1 1 1 1 1 1 1 0.07536686272421092 1 0.070102733420678881 1 1 1 1 1 1 1 1 1 1 1 1 1 1 1 1 0.069997529701265909 1 1 1 1 1 1 1 0.06998903208071558 1 1 1 1 0.070006158411984293 1 1 1 1 1 1 1 0.070017368044610784 1 1 0.071308909824040187 0.070061799011622627 1 1 0.069237310155929738 1 1 1 1 1 1 0.069973353143178457 1 1 1 1 1 1 1 1 1 0.070056223838865367 1 1 0.070005024293352772 1 1 0.070001682698939291 1 1 0.071867842902063273 1 1 1 1 1 0.072376641018420562 1 1 1 1 1 1 1 1 0.070025790276956851 1 1 1 1 1 1 1 0.070050218568536105 1 1 1 1 1 1 1 1 1 1 1 1 0.069864300224167689 1 1 1 1 1 1 1 0.070041816195167639 0.069996577155524722 1 0.072489701734788067 1 0.071823982068568687 1 1 1 1 1 1 1 1 1 1 1 1 1 1 1 0.070002829810854608 1 0.071655974599647065 1 1 1 1 1 1 1 1 0.069423981991431502 1 0.07071425199461831 1 0.07096931318437788 1 0.069887034479519342 1 0.069991114843081653 1 1 0.070037021727969759 1 1 1 1 1 0.070133261018844109 1 1 1 1 1 1 1 1 0.069974631054554898 1 1 1 1 1 0.06992303627990723 1 1 0.072554020839692965 1 0.069614656538554101 0.070878346505595838 1 1 1 1 1 1 1 1 0.069999966464852348 1 1 1 1 1 1 1 1 1 1 1 1 1 0.069971480911662109 1 1 1 1 1 1 1 0.069999834836961233 1 1 1 0.069999834227365471 1 1 1 1 1 1 1 1 1 1 1 1 1 1 1 1 1 0.070064290358260853 1 1 1 1 1 1 1 0.070029837246288362 1 1 0.070002309714135999 1 1 1 1 1 1 1 1 1 1 1 1 1 1 1 0.070038915206926372 1 1 1 1 0.069996858742063461 1 1 1 1 1 1 1 1 1 1 1 1 1 1 1 1 1 1 1 1 1 1 1 1 1 0.070520773486785204 1 1 1 1 1 1 0.070005075303778544 1 1 1 1 1 1 1 1 1 0.07121720631996116 0.070300074188962447 1 1 1 0.070675824323803121 1 0.069989682087011021 1 1 1 1 1 1 1 1 1 1 1 1 1 1 1 0.070016323002904959 1 1 1 1 1 1 1 1 1 1 1 1 0.07000591061150048 0.070018889571015902 1 1 1 1 1 1 1 1 0.070022237847779778 1 1 0.070001003215709651 1 1 0.070313357688630812 0.069853687309174003 1 1 1 1 1 1 1 0.070099252492911421 1 1 1 1 1 1 1 1 1 0.070012978959515415 1 1 1 0.070446831387571546 1 1 1 1 1 0.070366323641060546 1 1 1 1 1 1 1 1 1 1 1 1 0.07034394925517086 1 1 1 0.070011996267375087 1 1 1 0.07000633192439272 1 1 1 1 1 1 1 1 1 1 1 1 1 1 1 1 1 1 1 1 1 1 1 1 1 1 1 1 1 1 1 1 0.069912574483425097 1 1 1 1 1 1 1 1 1 1 1 1 1 1 1 1 1 1 1 1 1 1 1 1 0.070057627907704714 1 0.070003808794543557 1 1 0.071555088940800593 1 1 1 1 1 1 1 1 1 0.070235681309341935 1 1 1 1 1 1 1 1 1 1 1 1 1 1 0.07133153767058438 1 1 1 1 0.071030164327915077 1 1 1 0.070423181572049992 1 1 1 1 1 1 1 1 1 1 1 1 1 1 1 1 1 1 1 1 1 1 1 1 1 1 1 1 1 1 1 1 1 1 1 1 1 1 1 1 1 1 1 1 1 1 1 1 1 1 1 1 1 1 1 1 1 1 1 1 1 1 1 1 1 1 1 1 1 1 1 1 1 1 1 1 1 1 1 1 1 1 1 1 1 1 1 1 1 1 1 1 1 1 1 1 1 1 1 1 1 1 1 1 1 1 1 1 1 1 1 1 1 1 1 1 1 1 1 1 1 1 1 1 1 1 1 1 1 1 1 1 1 1 1 1 1 1 1 1 1 1 1 1 1 1 1 1 1 1 1 1 1 1 1 1 1 1 1 1 1 1 1 1 1 1 1 1 1 1 1 1 1 1 1 1 1 1 1 1 1 1 1 1 1 1 1 1 1 0.072158071779697699 1 1 1 1 1 1 1 1 1 1 1 1 1 1 1 1 0.070742501177368564 1 1 1 1 1 1 1 1 0.082836738417655903 1 1 1 1 0.069581549513558022 1 1 1 1 1 1 1 1 1 1 1 1 1 1 1 1 1 1 1 1 1 1 0.070558799160953367 1 1 1 1 1 1 1 1 1 1 1 1 1 0.068631762989446288 0.071539347291204758 1 1 1 1 1 0.070151132549652204 1 0.079473097669784221 1 1 1 1 1 1 1 1 1 1 1 0.070242042625152573 1 1 1 1 1 1 1 0.10419380821948507 1 1 1 1 1 1 1 1 1 1 1 1 1 1 1 0.070273185643994013 0.10678223453639052 1 1 1 1 1 1 1 1 1 1 1 1 0.075770606554316569 1 1 1 1 1 1 1 1 1 1 1 1 1 1 1 1 0.071943826912536646 1 1 1 1 1 1 1 0.10790303468936999 1 1 1 1 1 1 1 1 1 1 0.06981514437956006 0.10453177162234159 1 1 1 1 1 1 1 1 1 1 1 1 1 1 1 1 1 1 1 1 1 1 1 1 1 1 1 1 1 1 0.071000570722291267 1 1 1 1 1 0.07099781407264287 1 1 1 1 1 1 1 1 1 1 0.070428905132514139 1 1 1 1 0.070011358596924436 1 1 1 1 1 1 1 1 1 1 0.070904250996455045 1 0.070335342056326314 1 1 1 1 1 1 1 1 1 1 1 1 1 1 1 1 1 1 1 1 1 1 1 1 1 1 1 1 1 1 1 0.0701646468233003 1 1 1 1 1 0.070437832467294292 1 1 1 1 1 1 1 1 1 1 1 1 1 1 1 1 1 1 0.070482917774122592 1 1 0.098303673952127857 1 1 1 0.070162282932965281 1 1 1 1 1 0.10148212660728663 1 1 1 1 1 1 1 1 1 1 0.075581029833466859 1 1 1 1 1 1 0.070372490904241858 1 1 1 1 1 0.059867590004171523 0.069737424508087759 1 1 0.086468361033341892 1 1 0.070376908020613138 1 1 1 1 1 1 1 1 1 1 0.070767384186308888 1 1 0.070104826420109206 1 1 0.07013868872344986 1 1 0.071311315630817412 1 1 0.070734984020354844 1 1 0.069890374766359328 1 1 1 1 1 1 0.070813087903739844 1 1 1 1 1 1 1 1 1 1 1 0.086380032751054409 1 1 1 1 1 1 1 0.070276795429855168 1 1 1 1 0.070574497550605866 1 1 1 0.085107324657250183 1 1 1 1 1 1 1 1 1 1 1 0.071764944774325989 1 1 1 1 1 1 1 1 1 1 1 1 1 1 1 1 1 1 1 1 1 1 1 1 0.070029568218678451 1 1 1 1 1 0.070120448512316622 1 1 1 1 1 1 1 1 1 1 1 1 1 1 0.072746472478736779 1 1 0.071042546193983674 1 0.077500653557336777 1 1 1 1 0.081607598620225139 1 0.0698083940666748 0.070474772289319448 1 0.07254718958595413 1 1 1 1 1 1 1 0.070008163783042018 1 0.072382953957360496 1 1 1 1 1 1 0.069366334983503558 1 1 1 1 1 1 0.070019321127707826 1 1 1 1 0.070010686451085255 1 1 1 1 1 0.070032796600318831 1 1 0.070440614231824739 1 1 1 1 0.06990571773772164 1 1 1 1 0.072142669332764003 1 1 1 1 1 1 0.069779864357245702 1 1 1 1 1 1 1 1 1 0.069995261641216 1 1 1 1 1 1 0.070694853546695025 1 1 1 1 0.0719766006911427 1 1 1 1 1 1 1 1 1 1 1 1 1 1 1 1 0.070055502500338748 1 1 1 0.069741174302325321 1 1 0.074422869310369968 1 1 1 1 1 1 1 1 1 1 1 1 1 1 1 1 0.069816511872392309 1 0.073835150473472944 1 1 1 1 1 1 1 1 1 1 1 1 1 1 1 1 1 1 1 1 1 1 1 1 1 1 0.081590003746165388 1 1 0.073179476586685582 1 1 1 1 1 1 1 1 1 1 0.071960920553605798 1 1 1 1 0.069720349579969004 1 1 1 1 0.069903837707576716 1 1 1 1 1 1 1 1 1 0.071835242175424405 1 1 1 1 1 1 1 1 1 1 1 1 1 1 1 1 1 1 1 1 1 1 1 1 1 1 1 1 
</DataArray>
</CellData>
</Piece>
</UnstructuredGrid>
</VTKFile>
